%MatrixMarket matrix coordinate real general
135 135 665
1 1 1.3334799999999999e-01
4 1 -1.4000000000000000e-05
5 1 -6.6667000000000004e-02
2 2 1.3334199999999999e-01
5 2 -6.6667000000000004e-02
13 2 -9.0000000000000002e-06
3 3 2.9325000000000000e-02
4 3 -6.2000000000000003e-05
5 3 -9.9999999999999995e-07
6 3 -2.9204000000000001e-02
13 3 -5.8000000000000000e-05
1 4 -1.4000000000000000e-05
3 4 -7.7000000000000001e-05
4 4 1.4197000000000000e-02
5 4 4.8999999999999998e-05
6 4 -1.7000000000000000e-05
13 4 -2.1679999999999998e-03
1 5 -6.6667000000000004e-02
2 5 -6.6667000000000004e-02
3 5 6.0000000000000002e-06
4 5 -3.3000000000000003e-05
5 5 3.3335100000000001e-01
6 5 9.9999999999999995e-07
13 5 6.9999999999999999e-06
3 6 -2.9204000000000001e-02
4 6 -1.8000000000000000e-05
6 6 8.6257300000000003e-01
13 6 -1.8000000000000000e-05
131 6 -8.3333299999999999e-01
7 7 2.3939999999999999e-02
12 7 -1.1970000000000000e-02
13 7 -1.1970000000000000e-02
8 8 1.3334799999999999e-01
11 8 -6.6667000000000004e-02
12 8 -1.4000000000000000e-05
9 9 1.3334199999999999e-01
11 9 -6.6667000000000004e-02
110 9 -9.0000000000000002e-06
10 10 2.8957000000000000e-02
11 10 -9.9999999999999995e-07
12 10 -6.3000000000000000e-05
93 10 -2.8832000000000000e-02
110 10 -6.0999999999999999e-05
8 11 -6.6667000000000004e-02
9 11 -6.6667000000000004e-02
10 11 6.0000000000000002e-06
11 11 3.3335100000000001e-01
12 11 -3.1000000000000001e-05
93 11 9.9999999999999995e-07
110 11 5.0000000000000004e-06
7 12 -1.1970000000000000e-02
8 12 -1.4000000000000000e-05
10 12 -8.1000000000000004e-05
11 12 4.8999999999999998e-05
12 12 1.4178000000000000e-02
93 12 -1.7000000000000000e-05
110 12 -2.1459999999999999e-03
2 13 -9.0000000000000002e-06
3 13 -5.0000000000000002e-05
4 13 -2.0999999999999999e-03
5 13 -6.6000000000000005e-05
6 13 -2.0000000000000002e-05
7 13 -1.1970000000000000e-02
13 13 1.4215999999999999e-02
14 14 2.3939999999999999e-02
16 14 -1.1970000000000000e-02
92 14 -1.1970000000000000e-02
15 15 1.3334799999999999e-01
16 15 -1.4000000000000000e-05
20 15 -6.6667000000000004e-02
14 16 -1.1970000000000000e-02
15 16 -1.4000000000000000e-05
16 16 1.2001000000000000e-02
91 16 -1.5999999999999999e-05
17 17 1.3333999999999999e-01
19 17 -6.9999999999999999e-06
20 17 -6.6667000000000004e-02
18 18 6.5440000000000003e-03
19 18 -1.9999999999999999e-06
20 18 -1.5999999999999999e-05
91 18 -6.5250000000000004e-03
17 19 -6.9999999999999999e-06
19 19 1.1991999999999999e-02
20 19 -1.9999999999999999e-06
21 19 -1.1970000000000000e-02
91 19 -1.4000000000000000e-05
15 20 -6.6667000000000004e-02
17 20 -6.6667000000000004e-02
18 20 -1.9000000000000001e-05
20 20 3.3335199999999998e-01
19 21 -1.1970000000000000e-02
21 21 8.5727299999999995e-01
90 21 -1.1970000000000000e-02
93 21 -8.3333299999999999e-01
22 22 1.5000531000000001e+01
23 22 -4.9399999999999997e-04
26 22 -9.9999999999999995e-07
27 22 -1.8000000000000000e-05
90 22 -1.8000000000000000e-05
22 23 -4.9500000000000000e-04
23 23 2.5769999999999999e-03
26 23 -8.2999999999999998e-05
27 23 -1.0009999999999999e-03
90 23 -9.9700000000000006e-04
24 24 1.3334799999999999e-01
26 24 -6.6667000000000004e-02
27 24 -1.4000000000000000e-05
130 24 -6.6667000000000004e-02
25 25 1.3334199999999999e-01
26 25 -6.6667000000000004e-02
90 25 -9.0000000000000002e-06
130 25 -6.6667000000000004e-02
22 26 1.9999999999999999e-06
23 26 1.3500000000000000e-04
24 26 -6.6667000000000004e-02
25 26 -6.6667000000000004e-02
26 26 3.3365299999999998e-01
27 26 -2.3400000000000000e-04
90 26 -2.2300000000000000e-04
130 26 -2.0000000000000001e-01
22 27 -1.5999999999999999e-05
23 27 -1.3140000000000001e-03
24 27 -1.4000000000000000e-05
26 27 3.4099999999999999e-04
27 27 1.2789999999999999e-02
90 27 1.8300000000000000e-04
130 27 -1.1970000000000000e-02
28 28 1.7520000000000001e-02
31 28 -6.0000000000000002e-06
32 28 -1.1100000000000000e-04
43 28 -1.7291999999999998e-02
44 28 -1.1100000000000000e-04
29 29 1.3336200000000001e-01
31 29 -6.6667000000000004e-02
32 29 -2.9000000000000000e-05
130 29 -6.6667000000000004e-02
30 30 1.3335100000000000e-01
31 30 -6.6667000000000004e-02
44 30 -1.8000000000000000e-05
130 30 -6.6667000000000004e-02
28 31 1.5000000000000000e-05
29 31 -6.6667000000000004e-02
30 31 -6.6667000000000004e-02
31 31 3.3337000000000000e-01
32 31 -2.5999999999999998e-05
44 31 -2.5999999999999998e-05
130 31 -2.0000000000000001e-01
28 32 -1.3799999999999999e-04
29 32 -2.9000000000000000e-05
31 32 1.0800000000000000e-04
32 32 2.5371999999999999e-02
43 32 -3.4999999999999997e-05
44 32 -1.3380000000000000e-03
130 32 -2.3939999999999999e-02
33 33 1.3334799999999999e-01
34 33 -1.4000000000000000e-05
37 33 -6.6667000000000004e-02
33 34 -1.4000000000000000e-05
34 34 1.2001000000000000e-02
40 34 -1.5999999999999999e-05
35 35 1.3333999999999999e-01
37 35 -6.6667000000000004e-02
38 35 -6.0000000000000002e-06
36 36 6.5539999999999999e-03
37 36 -9.0000000000000002e-06
38 36 -1.0000000000000001e-05
40 36 -6.5350000000000000e-03
33 37 -6.6667000000000004e-02
35 37 -6.6667000000000004e-02
36 37 -1.9000000000000001e-05
37 37 3.3335199999999998e-01
35 38 -6.0000000000000002e-06
37 38 -1.0000000000000001e-05
38 38 1.2000000000000000e-02
39 38 -1.1970000000000000e-02
40 38 -1.4000000000000000e-05
38 39 -1.1970000000000000e-02
39 39 8.6924299999999999e-01
44 39 -2.3939999999999999e-02
89 39 -8.3333299999999999e-01
34 40 -1.5999999999999999e-05
36 40 -6.5350000000000000e-03
38 40 -1.4000000000000000e-05
40 40 8.3989800000000003e-01
41 40 -8.3333299999999999e-01
41 41 1.0000000000000000e+00
40 42 -8.3333299999999999e-01
41 42 2.0833330000000001e+00
42 42 1.0000000000000000e+00
43 42 -4.1666700000000001e-01
91 42 -8.3333299999999999e-01
28 43 -1.7291999999999998e-02
32 43 -3.6000000000000001e-05
41 43 -4.1666700000000001e-01
43 43 4.3403000000000003e-01
44 43 -3.6000000000000001e-05
28 44 -1.0500000000000000e-04
30 44 -1.8000000000000000e-05
31 44 -1.3799999999999999e-04
32 44 -1.2310000000000001e-03
39 44 -2.3939999999999999e-02
43 44 -3.6000000000000001e-05
44 44 2.5468000000000001e-02
45 45 1.3334799999999999e-01
46 45 -1.4000000000000000e-05
49 45 -6.6667000000000004e-02
45 46 -1.4000000000000000e-05
46 46 1.2001000000000000e-02
58 46 -1.5999999999999999e-05
47 47 6.5510000000000004e-03
49 47 -1.9000000000000001e-05
58 47 -6.5319999999999996e-03
48 48 1.3333999999999999e-01
49 48 -6.6667000000000004e-02
50 48 -6.9999999999999999e-06
45 49 -6.6667000000000004e-02
47 49 -1.9000000000000001e-05
48 49 -6.6667000000000004e-02
49 49 3.3335199999999998e-01
48 50 -6.9999999999999999e-06
50 50 1.1990000000000001e-02
51 50 -1.1970000000000000e-02
58 50 -1.4000000000000000e-05
50 51 -1.1970000000000000e-02
51 51 2.3939999999999999e-02
57 51 -1.1970000000000000e-02
52 52 1.3334399999999999e-01
54 52 -6.6667000000000004e-02
57 52 -1.1000000000000000e-05
53 53 1.3333999999999999e-01
54 53 -6.6667000000000004e-02
56 53 -6.9999999999999999e-06
52 54 -6.6667000000000004e-02
53 54 -6.6667000000000004e-02
54 54 3.3334399999999997e-01
55 54 -1.0000000000000001e-05
54 55 -1.0000000000000001e-05
55 55 3.7220000000000000e-03
56 55 9.9999999999999995e-07
57 55 -9.9999999999999995e-07
89 55 -3.7120000000000000e-03
53 56 -6.9999999999999999e-06
56 56 1.1993999999999999e-02
89 56 -1.7000000000000000e-05
131 56 -1.1970000000000000e-02
51 57 -1.1970000000000000e-02
52 57 -1.1000000000000000e-05
56 57 -9.9999999999999995e-07
57 57 1.1998999999999999e-02
89 57 -1.7000000000000000e-05
46 58 -1.5999999999999999e-05
47 58 -6.5319999999999996e-03
50 58 -1.4000000000000000e-05
58 58 8.3989499999999995e-01
60 58 -8.3333299999999999e-01
58 59 -8.3333299999999999e-01
59 59 1.0000000000000000e+00
60 59 2.0833330000000001e+00
87 59 -4.1666700000000001e-01
88 59 -8.3333299999999999e-01
60 60 1.0000000000000000e+00
61 61 1.5000514000000001e+01
62 61 -4.7800000000000002e-04
65 61 -9.9999999999999995e-07
66 61 -1.8000000000000000e-05
67 61 -1.8000000000000000e-05
61 62 -4.7899999999999999e-04
62 62 2.5509999999999999e-03
65 62 -8.7999999999999998e-05
66 62 -9.9599999999999992e-04
67 62 -9.8900000000000008e-04
63 63 1.3334799999999999e-01
65 63 -6.6667000000000004e-02
66 63 -1.4000000000000000e-05
130 63 -6.6667000000000004e-02
64 64 1.3334199999999999e-01
65 64 -6.6667000000000004e-02
67 64 -7.9999999999999996e-06
130 64 -6.6667000000000004e-02
61 65 1.9999999999999999e-06
62 65 1.3300000000000001e-04
63 65 -6.6667000000000004e-02
64 65 -6.6667000000000004e-02
65 65 3.3364100000000002e-01
66 65 -2.3000000000000001e-04
67 65 -2.1300000000000000e-04
130 65 -2.0000000000000001e-01
61 66 -1.5999999999999999e-05
62 66 -1.3439999999999999e-03
63 66 -1.4000000000000000e-05
65 66 3.3100000000000002e-04
66 66 1.2808999999999999e-02
67 66 2.0400000000000000e-04
130 66 -1.1970000000000000e-02
61 67 -2.1999999999999999e-05
62 67 -8.6200000000000003e-04
64 67 -7.9999999999999996e-06
65 67 -5.5000000000000003e-04
66 67 4.1899999999999999e-04
67 67 1.2994000000000000e-02
131 67 -1.1970000000000000e-02
68 68 1.3334799999999999e-01
69 68 -1.4000000000000000e-05
72 68 -6.6667000000000004e-02
68 69 -1.4000000000000000e-05
69 69 1.2001000000000000e-02
88 69 -1.5999999999999999e-05
70 70 1.3333999999999999e-01
72 70 -6.6667000000000004e-02
73 70 -6.0000000000000002e-06
71 71 6.5529999999999998e-03
72 71 -1.0000000000000001e-05
73 71 -9.0000000000000002e-06
88 71 -6.5350000000000000e-03
68 72 -6.6667000000000004e-02
70 72 -6.6667000000000004e-02
71 72 -1.9000000000000001e-05
72 72 3.3335199999999998e-01
70 73 -6.0000000000000002e-06
72 73 -9.0000000000000002e-06
73 73 1.1998999999999999e-02
74 73 -1.1970000000000000e-02
88 73 -1.4000000000000000e-05
73 74 -1.1970000000000000e-02
74 74 8.6924299999999999e-01
80 74 -8.3333299999999999e-01
86 74 -2.3939999999999999e-02
75 75 1.3334799999999999e-01
78 75 -1.4000000000000000e-05
79 75 -6.6667000000000004e-02
76 76 1.3334199999999999e-01
79 76 -6.6667000000000004e-02
92 76 -9.0000000000000002e-06
77 77 2.9318000000000000e-02
78 77 -7.2000000000000002e-05
79 77 -1.9999999999999999e-06
80 77 -2.9170999999999999e-02
92 77 -7.2999999999999999e-05
75 78 -1.4000000000000000e-05
77 78 -1.0500000000000000e-04
78 78 1.4252000000000001e-02
79 78 5.1999999999999997e-05
80 78 -1.5000000000000000e-05
92 78 -2.1990000000000000e-03
75 79 -6.6667000000000004e-02
76 79 -6.6667000000000004e-02
77 79 6.0000000000000002e-06
78 79 -1.5000000000000000e-05
79 79 3.3335199999999998e-01
80 79 3.0000000000000001e-06
92 79 -1.2000000000000000e-05
74 80 -8.3333299999999999e-01
77 80 -2.9170999999999999e-02
78 80 -1.8000000000000000e-05
80 80 8.6253899999999994e-01
92 80 -1.8000000000000000e-05
81 81 1.7468999999999998e-02
84 81 -6.0000000000000002e-06
85 81 -1.1000000000000000e-04
86 81 -1.1100000000000000e-04
87 81 -1.7240999999999999e-02
82 82 1.3336200000000001e-01
84 82 -6.6667000000000004e-02
85 82 -2.9000000000000000e-05
130 82 -6.6667000000000004e-02
83 83 1.3335100000000000e-01
84 83 -6.6667000000000004e-02
86 83 -1.8000000000000000e-05
130 83 -6.6667000000000004e-02
81 84 1.5000000000000000e-05
82 84 -6.6667000000000004e-02
83 84 -6.6667000000000004e-02
84 84 3.3337000000000000e-01
85 84 -2.9000000000000000e-05
86 84 -2.3000000000000000e-05
130 84 -2.0000000000000001e-01
81 85 -1.3799999999999999e-04
82 85 -2.9000000000000000e-05
84 85 1.0700000000000000e-04
85 85 2.5367000000000001e-02
86 85 -1.3320000000000001e-03
87 85 -3.4999999999999997e-05
130 85 -2.3939999999999999e-02
74 86 -2.3939999999999999e-02
81 86 -1.0399999999999999e-04
83 86 -1.8000000000000000e-05
84 86 -1.3799999999999999e-04
85 86 -1.2229999999999999e-03
86 86 2.5458999999999999e-02
87 86 -3.6000000000000001e-05
60 87 -4.1666700000000001e-01
81 87 -1.7240999999999999e-02
85 87 -3.6000000000000001e-05
86 87 -3.6000000000000001e-05
87 87 4.3397900000000000e-01
60 88 -8.3333299999999999e-01
69 88 -1.5999999999999999e-05
71 88 -6.5350000000000000e-03
73 88 -1.4000000000000000e-05
88 88 8.3989800000000003e-01
39 89 -8.3333299999999999e-01
55 89 -3.7120000000000000e-03
56 89 -1.7000000000000000e-05
57 89 -1.7000000000000000e-05
89 89 8.3708000000000005e-01
21 90 -1.1970000000000000e-02
22 90 -2.1999999999999999e-05
23 90 -9.0300000000000005e-04
25 90 -9.0000000000000002e-06
26 90 -5.7700000000000004e-04
27 90 4.4700000000000002e-04
90 90 1.3034000000000000e-02
16 91 -1.5999999999999999e-05
18 91 -6.5250000000000004e-03
19 91 -1.4000000000000000e-05
41 91 -8.3333299999999999e-01
91 91 8.3988900000000000e-01
14 92 -1.1970000000000000e-02
76 92 -9.0000000000000002e-06
77 92 -4.8000000000000001e-05
78 92 -2.1630000000000000e-03
79 92 -6.8999999999999997e-05
80 92 -2.1999999999999999e-05
92 92 1.4281000000000000e-02
10 93 -2.8832000000000000e-02
12 93 -1.8000000000000000e-05
21 93 -8.3333299999999999e-01
93 93 8.6220100000000000e-01
110 93 -1.8000000000000000e-05
94 94 3.5909999999999997e-02
101 94 -1.1970000000000000e-02
117 94 -2.3939999999999999e-02
95 95 1.3334799999999999e-01
97 95 -6.6667000000000004e-02
98 95 -1.4000000000000000e-05
96 96 1.3333999999999999e-01
97 96 -6.6667000000000004e-02
101 96 -6.0000000000000002e-06
95 97 -6.6667000000000004e-02
96 97 -6.6667000000000004e-02
97 97 3.3335100000000001e-01
99 97 -1.8000000000000000e-05
95 98 -1.4000000000000000e-05
98 98 1.2003000000000000e-02
100 98 -1.7000000000000000e-05
101 98 -1.9999999999999999e-06
97 99 -1.2999999999999999e-05
98 99 -9.9999999999999995e-07
99 99 6.5810000000000000e-03
100 99 -6.5630000000000003e-03
101 99 -3.9999999999999998e-06
98 100 -1.7000000000000000e-05
99 100 -6.5630000000000003e-03
100 100 8.3992599999999995e-01
101 100 -1.4000000000000000e-05
102 100 -8.3333299999999999e-01
94 101 -1.1970000000000000e-02
96 101 -6.0000000000000002e-06
97 101 -5.0000000000000004e-06
100 101 -1.4000000000000000e-05
101 101 1.1995000000000000e-02
100 102 -8.3333299999999999e-01
102 102 1.2862100000000001e+00
109 102 -2.3939999999999999e-02
110 102 -1.1970000000000000e-02
116 102 -4.1666700000000001e-01
103 103 7.5006560000000002e+00
104 103 -5.8699999999999996e-04
107 103 -9.9999999999999995e-07
108 103 -3.6000000000000001e-05
109 103 -3.3000000000000003e-05
103 104 -5.9000000000000003e-04
104 104 3.9449999999999997e-03
107 104 -6.6100000000000002e-04
108 104 -1.6370000000000000e-03
109 104 -1.0570000000000000e-03
105 105 1.3336200000000001e-01
107 105 -6.6667000000000004e-02
108 105 -2.9000000000000000e-05
130 105 -6.6667000000000004e-02
106 106 1.3334599999999999e-01
107 106 -6.6667000000000004e-02
109 106 -1.2999999999999999e-05
130 106 -6.6667000000000004e-02
103 107 3.9999999999999998e-06
104 107 1.9100000000000001e-04
105 107 -6.6667000000000004e-02
106 107 -6.6667000000000004e-02
107 107 3.3377699999999999e-01
108 107 -4.0099999999999999e-04
109 107 -2.3800000000000001e-04
130 107 -2.0000000000000001e-01
103 108 -3.8000000000000002e-05
104 108 -3.5469999999999998e-03
105 108 -2.9000000000000000e-05
107 108 2.2000000000000001e-04
108 108 2.6043000000000000e-02
109 108 1.2899999999999999e-03
130 108 -2.3939999999999999e-02
102 109 -2.3939999999999999e-02
103 109 -3.3000000000000003e-05
104 109 -3.0000000000000001e-06
106 109 -1.2999999999999999e-05
107 109 -9.9999999999999995e-07
108 109 -9.9999999999999995e-07
109 109 2.3990000000000001e-02
9 110 -9.0000000000000002e-06
10 110 -5.1000000000000000e-05
11 110 -6.6000000000000005e-05
12 110 -2.0820000000000001e-03
93 110 -2.0000000000000002e-05
102 110 -1.1970000000000000e-02
110 110 1.4198000000000001e-02
111 111 1.7634000000000000e-02
114 111 -3.9999999999999998e-06
115 111 -1.1100000000000000e-04
116 111 -1.7409000000000001e-02
117 111 -1.1100000000000000e-04
112 112 1.3336200000000001e-01
114 112 -6.6667000000000004e-02
115 112 -2.9000000000000000e-05
130 112 -6.6667000000000004e-02
113 113 1.3335100000000000e-01
114 113 -6.6667000000000004e-02
117 113 -1.8000000000000000e-05
130 113 -6.6667000000000004e-02
111 114 1.5000000000000000e-05
112 114 -6.6667000000000004e-02
113 114 -6.6667000000000004e-02
114 114 3.3337000000000000e-01
115 114 -2.5999999999999998e-05
117 114 -2.5999999999999998e-05
130 114 -2.0000000000000001e-01
111 115 -1.3500000000000000e-04
112 115 -2.9000000000000000e-05
114 115 1.0500000000000000e-04
115 115 2.5375999999999999e-02
116 115 -3.6000000000000001e-05
117 115 -1.3420000000000001e-03
130 115 -2.3939999999999999e-02
102 116 -4.1666700000000001e-01
111 116 -1.7409000000000001e-02
115 116 -3.6000000000000001e-05
116 116 4.3414700000000001e-01
117 116 -3.6000000000000001e-05
94 117 -2.3939999999999999e-02
111 117 -1.0500000000000000e-04
113 117 -1.8000000000000000e-05
114 117 -1.3799999999999999e-04
115 117 -1.2350000000000000e-03
116 117 -3.6000000000000001e-05
117 117 2.5471000000000001e-02
118 118 3.5909999999999997e-02
125 118 -1.1970000000000000e-02
133 118 -2.3939999999999999e-02
119 119 1.3334799999999999e-01
122 119 -1.4000000000000000e-05
123 119 -6.6667000000000004e-02
120 120 1.3334199999999999e-01
123 120 -6.6667000000000004e-02
125 120 -9.0000000000000002e-06
121 121 2.9756000000000001e-02
122 121 -6.0999999999999999e-05
123 121 -9.9999999999999995e-07
124 121 -2.9634000000000001e-02
125 121 -6.0999999999999999e-05
119 122 -1.4000000000000000e-05
121 122 -7.8999999999999996e-05
122 122 1.4246000000000000e-02
123 122 5.0000000000000002e-05
124 122 -1.7000000000000000e-05
125 122 -2.2160000000000001e-03
119 123 -6.6667000000000004e-02
120 123 -6.6667000000000004e-02
121 123 6.0000000000000002e-06
122 123 -1.4000000000000000e-05
123 123 3.3335199999999998e-01
124 123 9.9999999999999995e-07
125 123 -1.2000000000000000e-05
121 124 -2.9634000000000001e-02
122 124 -1.8000000000000000e-05
124 124 8.6300299999999996e-01
125 124 -1.8000000000000000e-05
131 124 -8.3333299999999999e-01
118 125 -1.1970000000000000e-02
120 125 -9.0000000000000002e-06
121 125 -5.0000000000000002e-05
122 125 -2.1689999999999999e-03
123 125 -6.7999999999999999e-05
124 125 -2.0000000000000002e-05
125 125 1.4285000000000001e-02
126 126 4.2770000000000004e-03
127 126 -4.2430000000000002e-03
132 126 -1.9000000000000001e-05
133 126 1.7000000000000000e-05
134 126 -3.1999999999999999e-05
126 127 -4.2430000000000002e-03
127 127 4.2097099999999998e-01
131 127 -4.1666700000000001e-01
132 127 -3.4000000000000000e-05
133 127 -2.6999999999999999e-05
128 128 1.3336200000000001e-01
130 128 -6.6667000000000004e-02
132 128 -2.9000000000000000e-05
134 128 -6.6667000000000004e-02
129 129 1.3334599999999999e-01
130 129 -6.6667000000000004e-02
133 129 -1.2999999999999999e-05
134 129 -6.6667000000000004e-02
130 130 1.0000000000000000e+00
6 131 -8.3333299999999999e-01
56 131 -1.1970000000000000e-02
67 131 -1.1970000000000000e-02
124 131 -8.3333299999999999e-01
127 131 -4.1666700000000001e-01
131 131 2.1073729999999999e+00
126 132 -9.9999999999999995e-07
127 132 -3.4000000000000000e-05
128 132 -2.9000000000000000e-05
130 132 -2.3939999999999999e-02
132 132 2.4027000000000000e-02
133 132 -2.4000000000000001e-05
134 132 9.9999999999999995e-07
118 133 -2.3939999999999999e-02
127 133 -2.6999999999999999e-05
129 133 -1.2999999999999999e-05
133 133 2.3982000000000000e-02
134 133 -1.9999999999999999e-06
126 134 -3.3000000000000003e-05
128 134 -6.6667000000000004e-02
129 134 -6.6667000000000004e-02
130 134 -2.0000000000000001e-01
132 134 -5.0000000000000004e-06
133 134 5.0000000000000004e-06
134 134 3.3336700000000002e-01
24 135 -6.6667000000000004e-02
25 135 -6.6667000000000004e-02
26 135 -2.0000000000000001e-01
27 135 -1.1970000000000000e-02
29 135 -6.6667000000000004e-02
30 135 -6.6667000000000004e-02
31 135 -2.0000000000000001e-01
32 135 -2.3939999999999999e-02
63 135 -6.6667000000000004e-02
64 135 -6.6667000000000004e-02
65 135 -2.0000000000000001e-01
66 135 -1.1970000000000000e-02
82 135 -6.6667000000000004e-02
83 135 -6.6667000000000004e-02
84 135 -2.0000000000000001e-01
85 135 -2.3939999999999999e-02
105 135 -6.6667000000000004e-02
106 135 -6.6667000000000004e-02
107 135 -2.0000000000000001e-01
108 135 -2.3939999999999999e-02
112 135 -6.6667000000000004e-02
113 135 -6.6667000000000004e-02
114 135 -2.0000000000000001e-01
115 135 -2.3939999999999999e-02
128 135 -6.6667000000000004e-02
129 135 -6.6667000000000004e-02
130 135 2.4769720000000000e+00
132 135 -2.3939999999999999e-02
134 135 -2.0000000000000001e-01
135 135 1.0000000000000000e+00
