%%MatrixMarket matrix coordinate real general
2541 2541 7361
1 1 32.4197
3 1 28
2 2 17.4197
3 2 13
1 3 28
2 3 13
3 3 390.024
4 4 5.4197
17 4 1
5 5 6.4197
17 5 2
6 6 9.4197
17 6 5
7 7 34.4197
17 7 30
8 8 31.4197
17 8 27
9 9 5.4197
17 9 1
10 10 27.4197
17 10 23
11 11 15.4197
17 11 11
12 12 8.4197
17 12 4
13 13 18.4197
17 13 14
14 14 20.4197
17 14 16
15 15 11.4197
17 15 7
16 16 7.4197
17 16 3
4 17 1
5 17 2
6 17 5
7 17 30
8 17 27
9 17 1
10 17 23
11 17 11
12 17 4
13 17 14
14 17 16
15 17 7
16 17 3
17 17 493.024
18 18 7.4197
26 18 3
19 19 11.4197
26 19 7
20 20 17.4197
26 20 13
21 21 6.4197
26 21 2
22 22 10.4197
26 22 6
23 23 8.4197
26 23 4
24 24 18.4197
26 24 14
25 25 5.4197
26 25 1
18 26 3
19 26 7
20 26 13
21 26 2
22 26 6
23 26 4
24 26 14
25 26 1
26 26 399.024
27 27 13.4197
31 27 9
28 28 8.4197
31 28 4
29 29 10.4197
31 29 6
30 30 7.4197
31 30 3
27 31 9
28 31 4
29 31 6
30 31 3
31 31 371.024
32 32 12.4197
39 32 8
33 33 37.4197
39 33 33
34 34 29.4197
39 34 25
35 35 27.4197
39 35 23
36 36 28.4197
39 36 24
37 37 8.4197
39 37 4
38 38 15.4197
39 38 11
32 39 8
33 39 33
34 39 25
35 39 23
36 39 24
37 39 4
38 39 11
39 39 477.024
40 40 32.4197
44 40 28
41 41 7.4197
44 41 3
42 42 5.4197
44 42 1
43 43 7.4197
44 43 3
40 44 28
41 44 3
42 44 1
43 44 3
44 44 384.024
45 45 16.4197
61 45 12
46 46 6.4197
61 46 2
47 47 6.4197
61 47 2
48 48 5.4197
61 48 1
49 49 15.4197
61 49 11
50 50 8.4197
61 50 4
51 51 5.4197
61 51 1
52 52 9.4197
61 52 5
53 53 13.4197
61 53 9
54 54 6.4197
61 54 2
55 55 6.4197
61 55 2
56 56 5.4197
61 56 1
57 57 7.4197
61 57 3
58 58 18.4197
61 58 14
59 59 7.4197
61 59 3
60 60 7.4197
61 60 3
45 61 12
46 61 2
47 61 2
48 61 1
49 61 11
50 61 4
51 61 1
52 61 5
53 61 9
54 61 2
55 61 2
56 61 1
57 61 3
58 61 14
59 61 3
60 61 3
61 61 424.024
62 62 14.4197
63 62 10
62 63 10
63 63 359.024
64 64 29.4197
74 64 25
65 65 6.4197
74 65 2
66 66 21.4197
74 66 17
67 67 14.4197
74 67 10
68 68 23.4197
74 68 19
69 69 8.4197
74 69 4
70 70 11.4197
74 70 7
71 71 12.4197
74 71 8
72 72 6.4197
74 72 2
73 73 6.4197
74 73 2
64 74 25
65 74 2
66 74 17
67 74 10
68 74 19
69 74 4
70 74 7
71 74 8
72 74 2
73 74 2
74 74 445.024
75 75 6.4197
81 75 2
76 76 7.4197
81 76 3
77 77 29.4197
81 77 25
78 78 24.4197
81 78 20
79 79 44.4197
81 79 40
80 80 5.4197
81 80 1
75 81 2
76 81 3
77 81 25
78 81 20
79 81 40
80 81 1
81 81 440.024
82 82 30.4197
86 82 26
83 83 5.4197
86 83 1
84 84 11.4197
86 84 7
85 85 5.4197
86 85 1
82 86 26
83 86 1
84 86 7
85 86 1
86 86 384.024
87 87 17.4197
98 87 13
88 88 7.4197
98 88 3
89 89 5.4197
98 89 1
90 90 8.4197
98 90 4
91 91 17.4197
98 91 13
92 92 23.4197
98 92 19
93 93 7.4197
98 93 3
94 94 6.4197
98 94 2
95 95 8.4197
98 95 4
96 96 17.4197
98 96 13
97 97 7.4197
98 97 3
87 98 13
88 98 3
89 98 1
90 98 4
91 98 13
92 98 19
93 98 3
94 98 2
95 98 4
96 98 13
97 98 3
98 98 427.024
99 99 22.4197
112 99 18
100 100 5.4197
112 100 1
101 101 41.4197
112 101 37
102 102 5.4197
112 102 1
103 103 10.4197
112 103 6
104 104 10.4197
112 104 6
105 105 5.4197
112 105 1
106 106 9.4197
112 106 5
107 107 6.4197
112 107 2
108 108 11.4197
112 108 7
109 109 5.4197
112 109 1
110 110 21.4197
112 110 17
111 111 14.4197
112 111 10
99 112 18
100 112 1
101 112 37
102 112 1
103 112 6
104 112 6
105 112 1
106 112 5
107 112 2
108 112 7
109 112 1
110 112 17
111 112 10
112 112 461.024
113 113 10.4197
119 113 6
114 114 12.4197
119 114 8
115 115 5.4197
119 115 1
116 116 9.4197
119 116 5
117 117 5.4197
119 117 1
118 118 16.4197
119 118 12
113 119 6
114 119 8
115 119 1
116 119 5
117 119 1
118 119 12
119 119 382.024
120 120 59.4197
148 120 55
121 121 8.4197
148 121 4
122 122 15.4197
148 122 11
123 123 17.4197
148 123 13
124 124 5.4197
148 124 1
125 125 20.4197
148 125 16
126 126 9.4197
148 126 5
127 127 6.4197
148 127 2
128 128 27.4197
148 128 23
129 129 9.4197
148 129 5
130 130 19.4197
148 130 15
131 131 13.4197
148 131 9
132 132 15.4197
148 132 11
133 133 25.4197
148 133 21
134 134 9.4197
148 134 5
135 135 20.4197
148 135 16
136 136 9.4197
148 136 5
137 137 20.4197
148 137 16
138 138 18.4197
148 138 14
139 139 11.4197
148 139 7
140 140 40.4197
148 140 36
141 141 15.4197
148 141 11
142 142 20.4197
148 142 16
143 143 27.4197
148 143 23
144 144 9.4197
148 144 5
145 145 11.4197
148 145 7
146 146 8.4197
148 146 4
147 147 5.4197
148 147 1
120 148 55
121 148 4
122 148 11
123 148 13
124 148 1
125 148 16
126 148 5
127 148 2
128 148 23
129 148 5
130 148 15
131 148 9
132 148 11
133 148 21
134 148 5
135 148 16
136 148 5
137 148 16
138 148 14
139 148 7
140 148 36
141 148 11
142 148 16
143 148 23
144 148 5
145 148 7
146 148 4
147 148 1
148 148 706.024
149 149 7.4197
157 149 3
150 150 16.4197
157 150 12
151 151 6.4197
157 151 2
152 152 5.4197
157 152 1
153 153 11.4197
157 153 7
154 154 30.4197
157 154 26
155 155 16.4197
157 155 12
156 156 18.4197
157 156 14
149 157 3
150 157 12
151 157 2
152 157 1
153 157 7
154 157 26
155 157 12
156 157 14
157 157 426.024
158 158 30.4197
170 158 26
159 159 5.4197
170 159 1
160 160 5.4197
170 160 1
161 161 5.4197
170 161 1
162 162 9.4197
170 162 5
163 163 17.4197
170 163 13
164 164 6.4197
170 164 2
165 165 27.4197
170 165 23
166 166 9.4197
170 166 5
167 167 11.4197
170 167 7
168 168 5.4197
170 168 1
169 169 10.4197
170 169 6
158 170 26
159 170 1
160 170 1
161 170 1
162 170 5
163 170 13
164 170 2
165 170 23
166 170 5
167 170 7
168 170 1
169 170 6
170 170 440.024
171 171 21.4197
196 171 17
172 172 10.4197
196 172 6
173 173 28.4197
196 173 24
174 174 13.4197
196 174 9
175 175 12.4197
196 175 8
176 176 6.4197
196 176 2
177 177 5.4197
196 177 1
178 178 6.4197
196 178 2
179 179 12.4197
196 179 8
180 180 15.4197
196 180 11
181 181 8.4197
196 181 4
182 182 12.4197
196 182 8
183 183 14.4197
196 183 10
184 184 35.4197
196 184 31
185 185 13.4197
196 185 9
186 186 5.4197
196 186 1
187 187 11.4197
196 187 7
188 188 11.4197
196 188 7
189 189 28.4197
196 189 24
190 190 6.4197
196 190 2
191 191 11.4197
196 191 7
192 192 14.4197
196 192 10
193 193 9.4197
196 193 5
194 194 10.4197
196 194 6
195 195 9.4197
196 195 5
171 196 17
172 196 6
173 196 24
174 196 9
175 196 8
176 196 2
177 196 1
178 196 2
179 196 8
180 196 11
181 196 4
182 196 8
183 196 10
184 196 31
185 196 9
186 196 1
187 196 7
188 196 7
189 196 24
190 196 2
191 196 7
192 196 10
193 196 5
194 196 6
195 196 5
196 196 573.024
197 197 38.4197
212 197 34
198 198 27.4197
212 198 23
199 199 13.4197
212 199 9
200 200 7.4197
212 200 3
201 201 8.4197
212 201 4
202 202 26.4197
212 202 22
203 203 24.4197
212 203 20
204 204 26.4197
212 204 22
205 205 51.4197
212 205 47
206 206 8.4197
212 206 4
207 207 10.4197
212 207 6
208 208 10.4197
212 208 6
209 209 16.4197
212 209 12
210 210 7.4197
212 210 3
211 211 9.4197
212 211 5
197 212 34
198 212 23
199 212 9
200 212 3
201 212 4
202 212 22
203 212 20
204 212 22
205 212 47
206 212 4
207 212 6
208 212 6
209 212 12
210 212 3
211 212 5
212 212 569.024
213 213 22.4197
228 213 18
214 214 9.4197
228 214 5
215 215 14.4197
228 215 10
216 216 7.4197
228 216 3
217 217 24.4197
228 217 20
218 218 6.4197
228 218 2
219 219 8.4197
228 219 4
220 220 38.4197
228 220 34
221 221 28.4197
228 221 24
222 222 17.4197
228 222 13
223 223 9.4197
228 223 5
224 224 20.4197
228 224 16
225 225 19.4197
228 225 15
226 226 6.4197
228 226 2
227 227 14.4197
228 227 10
213 228 18
214 228 5
215 228 10
216 228 3
217 228 20
218 228 2
219 228 4
220 228 34
221 228 24
222 228 13
223 228 5
224 228 16
225 228 15
226 228 2
227 228 10
228 228 530.024
229 229 7.4197
244 229 3
230 230 32.4197
244 230 28
231 231 17.4197
244 231 13
232 232 7.4197
244 232 3
233 233 6.4197
244 233 2
234 234 52.4197
244 234 48
235 235 11.4197
244 235 7
236 236 15.4197
244 236 11
237 237 9.4197
244 237 5
238 238 18.4197
244 238 14
239 239 31.4197
244 239 27
240 240 9.4197
244 240 5
241 241 8.4197
244 241 4
242 242 9.4197
244 242 5
243 243 11.4197
244 243 7
229 244 3
230 244 28
231 244 13
232 244 3
233 244 2
234 244 48
235 244 7
236 244 11
237 244 5
238 244 14
239 244 27
240 244 5
241 244 4
242 244 5
243 244 7
244 244 531.024
245 245 25.4197
253 245 21
246 246 12.4197
253 246 8
247 247 9.4197
253 247 5
248 248 5.4197
253 248 1
249 249 8.4197
253 249 4
250 250 18.4197
253 250 14
251 251 11.4197
253 251 7
252 252 11.4197
253 252 7
245 253 21
246 253 8
247 253 5
248 253 1
249 253 4
250 253 14
251 253 7
252 253 7
253 253 416.024
254 254 41.4197
263 254 37
255 255 60.4197
263 255 56
256 256 55.4197
263 256 51
257 257 7.4197
263 257 3
258 258 34.4197
263 258 30
259 259 5.4197
263 259 1
260 260 24.4197
263 260 20
261 261 12.4197
263 261 8
262 262 44.4197
263 262 40
254 263 37
255 263 56
256 263 51
257 263 3
258 263 30
259 263 1
260 263 20
261 263 8
262 263 40
263 263 595.024
264 264 46.4197
271 264 42
265 265 24.4197
271 265 20
266 266 13.4197
271 266 9
267 267 23.4197
271 267 19
268 268 9.4197
271 268 5
269 269 15.4197
271 269 11
270 270 11.4197
271 270 7
264 271 42
265 271 20
266 271 9
267 271 19
268 271 5
269 271 11
270 271 7
271 271 462.024
272 272 7.4197
287 272 3
273 273 20.4197
287 273 16
274 274 11.4197
287 274 7
275 275 11.4197
287 275 7
276 276 5.4197
287 276 1
277 277 13.4197
287 277 9
278 278 12.4197
287 278 8
279 279 29.4197
287 279 25
280 280 10.4197
287 280 6
281 281 8.4197
287 281 4
282 282 25.4197
287 282 21
283 283 25.4197
287 283 21
284 284 19.4197
287 284 15
285 285 11.4197
287 285 7
286 286 9.4197
287 286 5
272 287 3
273 287 16
274 287 7
275 287 7
276 287 1
277 287 9
278 287 8
279 287 25
280 287 6
281 287 4
282 287 21
283 287 21
284 287 15
285 287 7
286 287 5
287 287 504.024
288 288 10.4197
301 288 6
289 289 6.4197
301 289 2
290 290 10.4197
301 290 6
291 291 9.4197
301 291 5
292 292 5.4197
301 292 1
293 293 9.4197
301 293 5
294 294 40.4197
301 294 36
295 295 9.4197
301 295 5
296 296 17.4197
301 296 13
297 297 8.4197
301 297 4
298 298 5.4197
301 298 1
299 299 6.4197
301 299 2
300 300 13.4197
301 300 9
288 301 6
289 301 2
290 301 6
291 301 5
292 301 1
293 301 5
294 301 36
295 301 5
296 301 13
297 301 4
298 301 1
299 301 2
300 301 9
301 301 444.024
302 302 29.4197
314 302 25
303 303 31.4197
314 303 27
304 304 7.4197
314 304 3
305 305 6.4197
314 305 2
306 306 7.4197
314 306 3
307 307 9.4197
314 307 5
308 308 5.4197
314 308 1
309 309 54.4197
314 309 50
310 310 6.4197
314 310 2
311 311 47.4197
314 311 43
312 312 11.4197
314 312 7
313 313 9.4197
314 313 5
302 314 25
303 314 27
304 314 3
305 314 2
306 314 3
307 314 5
308 314 1
309 314 50
310 314 2
311 314 43
312 314 7
313 314 5
314 314 522.024
315 315 9.4197
322 315 5
316 316 11.4197
322 316 7
317 317 32.4197
322 317 28
318 318 43.4197
322 318 39
319 319 14.4197
322 319 10
320 320 16.4197
322 320 12
321 321 14.4197
322 321 10
315 322 5
316 322 7
317 322 28
318 322 39
319 322 10
320 322 12
321 322 10
322 322 460.024
323 323 37.4197
326 323 33
324 324 10.4197
326 324 6
325 325 16.4197
326 325 12
323 326 33
324 326 6
325 326 12
326 326 400.024
327 327 41.4197
345 327 37
328 328 9.4197
345 328 5
329 329 6.4197
345 329 2
330 330 13.4197
345 330 9
331 331 17.4197
345 331 13
332 332 9.4197
345 332 5
333 333 15.4197
345 333 11
334 334 9.4197
345 334 5
335 335 9.4197
345 335 5
336 336 17.4197
345 336 13
337 337 28.4197
345 337 24
338 338 12.4197
345 338 8
339 339 8.4197
345 339 4
340 340 8.4197
345 340 4
341 341 35.4197
345 341 31
342 342 12.4197
345 342 8
343 343 49.4197
345 343 45
344 344 8.4197
345 344 4
327 345 37
328 345 5
329 345 2
330 345 9
331 345 13
332 345 5
333 345 11
334 345 5
335 345 5
336 345 13
337 345 24
338 345 8
339 345 4
340 345 4
341 345 31
342 345 8
343 345 45
344 345 4
345 345 582.024
346 346 66.4197
351 346 62
347 347 10.4197
351 347 6
348 348 38.4197
351 348 34
349 349 40.4197
351 349 36
350 350 17.4197
351 350 13
346 351 62
347 351 6
348 351 34
349 351 36
350 351 13
351 351 500.024
352 352 18.4197
364 352 14
353 353 37.4197
364 353 33
354 354 9.4197
364 354 5
355 355 21.4197
364 355 17
356 356 24.4197
364 356 20
357 357 8.4197
364 357 4
358 358 12.4197
364 358 8
359 359 22.4197
364 359 18
360 360 27.4197
364 360 23
361 361 5.4197
364 361 1
362 362 13.4197
364 362 9
363 363 7.4197
364 363 3
352 364 14
353 364 33
354 364 5
355 364 17
356 364 20
357 364 4
358 364 8
359 364 18
360 364 23
361 364 1
362 364 9
363 364 3
364 364 504.024
365 365 37.4197
370 365 33
366 366 43.4197
370 366 39
367 367 7.4197
370 367 3
368 368 38.4197
370 368 34
369 369 16.4197
370 369 12
365 370 33
366 370 39
367 370 3
368 370 34
369 370 12
370 370 470.024
371 371 18.4197
422 371 14
372 372 89.4197
422 372 85
373 373 17.4197
422 373 13
374 374 44.4197
422 374 40
375 375 15.4197
422 375 11
376 376 14.4197
422 376 10
377 377 9.4197
422 377 5
378 378 20.4197
422 378 16
379 379 6.4197
422 379 2
380 380 30.4197
422 380 26
381 381 65.4197
422 381 61
382 382 25.4197
422 382 21
383 383 8.4197
422 383 4
384 384 8.4197
422 384 4
385 385 17.4197
422 385 13
386 386 8.4197
422 386 4
387 387 6.4197
422 387 2
388 388 8.4197
422 388 4
389 389 5.4197
422 389 1
390 390 28.4197
422 390 24
391 391 24.4197
422 391 20
392 392 27.4197
422 392 23
393 393 38.4197
422 393 34
394 394 39.4197
422 394 35
395 395 12.4197
422 395 8
396 396 35.4197
422 396 31
397 397 9.4197
422 397 5
398 398 13.4197
422 398 9
399 399 7.4197
422 399 3
400 400 9.4197
422 400 5
401 401 35.4197
422 401 31
402 402 7.4197
422 402 3
403 403 13.4197
422 403 9
404 404 7.4197
422 404 3
405 405 11.4197
422 405 7
406 406 12.4197
422 406 8
407 407 8.4197
422 407 4
408 408 33.4197
422 408 29
409 409 12.4197
422 409 8
410 410 9.4197
422 410 5
411 411 7.4197
422 411 3
412 412 10.4197
422 412 6
413 413 11.4197
422 413 7
414 414 9.4197
422 414 5
415 415 5.4197
422 415 1
416 416 7.4197
422 416 3
417 417 9.4197
422 417 5
418 418 9.4197
422 418 5
419 419 16.4197
422 419 12
420 420 11.4197
422 420 7
421 421 13.4197
422 421 9
371 422 14
372 422 85
373 422 13
374 422 40
375 422 11
376 422 10
377 422 5
378 422 16
379 422 2
380 422 26
381 422 61
382 422 21
383 422 4
384 422 4
385 422 13
386 422 4
387 422 2
388 422 4
389 422 1
390 422 24
391 422 20
392 422 23
393 422 34
394 422 35
395 422 8
396 422 31
397 422 5
398 422 9
399 422 3
400 422 5
401 422 31
402 422 3
403 422 9
404 422 3
405 422 7
406 422 8
407 422 4
408 422 29
409 422 8
410 422 5
411 422 3
412 422 6
413 422 7
414 422 5
415 422 1
416 422 3
417 422 5
418 422 5
419 422 12
420 422 7
421 422 9
422 422 1052.02
423 423 9.4197
445 423 5
424 424 6.4197
445 424 2
425 425 29.4197
445 425 25
426 426 41.4197
445 426 37
427 427 17.4197
445 427 13
428 428 7.4197
445 428 3
429 429 12.4197
445 429 8
430 430 10.4197
445 430 6
431 431 8.4197
445 431 4
432 432 6.4197
445 432 2
433 433 14.4197
445 433 10
434 434 14.4197
445 434 10
435 435 17.4197
445 435 13
436 436 14.4197
445 436 10
437 437 6.4197
445 437 2
438 438 6.4197
445 438 2
439 439 6.4197
445 439 2
440 440 11.4197
445 440 7
441 441 7.4197
445 441 3
442 442 14.4197
445 442 10
443 443 21.4197
445 443 17
444 444 10.4197
445 444 6
423 445 5
424 445 2
425 445 25
426 445 37
427 445 13
428 445 3
429 445 8
430 445 6
431 445 4
432 445 2
433 445 10
434 445 10
435 445 13
436 445 10
437 445 2
438 445 2
439 445 2
440 445 7
441 445 3
442 445 10
443 445 17
444 445 6
445 445 546.024
446 446 115.42
452 446 111
447 447 11.4197
452 447 7
448 448 51.4197
452 448 47
449 449 11.4197
452 449 7
450 450 29.4197
452 450 25
451 451 8.4197
452 451 4
446 452 111
447 452 7
448 452 47
449 452 7
450 452 25
451 452 4
452 452 550.024
453 453 17.4197
461 453 13
454 454 5.4197
461 454 1
455 455 7.4197
461 455 3
456 456 7.4197
461 456 3
457 457 13.4197
461 457 9
458 458 10.4197
461 458 6
459 459 6.4197
461 459 2
460 460 24.4197
461 460 20
453 461 13
454 461 1
455 461 3
456 461 3
457 461 9
458 461 6
459 461 2
460 461 20
461 461 406.024
462 462 122.42
469 462 118
463 463 15.4197
469 463 11
464 464 39.4197
469 464 35
465 465 6.4197
469 465 2
466 466 18.4197
469 466 14
467 467 14.4197
469 467 10
468 468 15.4197
469 468 11
462 469 118
463 469 11
464 469 35
465 469 2
466 469 14
467 469 10
468 469 11
469 469 550.024
470 470 11.4197
486 470 7
471 471 9.4197
486 471 5
472 472 37.4197
486 472 33
473 473 23.4197
486 473 19
474 474 12.4197
486 474 8
475 475 25.4197
486 475 21
476 476 6.4197
486 476 2
477 477 5.4197
486 477 1
478 478 6.4197
486 478 2
479 479 17.4197
486 479 13
480 480 8.4197
486 480 4
481 481 7.4197
486 481 3
482 482 9.4197
486 482 5
483 483 7.4197
486 483 3
484 484 11.4197
486 484 7
485 485 9.4197
486 485 5
470 486 7
471 486 5
472 486 33
473 486 19
474 486 8
475 486 21
476 486 2
477 486 1
478 486 2
479 486 13
480 486 4
481 486 3
482 486 5
483 486 3
484 486 7
485 486 5
486 486 487.024
487 487 5.4197
505 487 1
488 488 13.4197
505 488 9
489 489 44.4197
505 489 40
490 490 9.4197
505 490 5
491 491 11.4197
505 491 7
492 492 5.4197
505 492 1
493 493 7.4197
505 493 3
494 494 29.4197
505 494 25
495 495 5.4197
505 495 1
496 496 11.4197
505 496 7
497 497 14.4197
505 497 10
498 498 11.4197
505 498 7
499 499 13.4197
505 499 9
500 500 10.4197
505 500 6
501 501 6.4197
505 501 2
502 502 10.4197
505 502 6
503 503 13.4197
505 503 9
504 504 5.4197
505 504 1
487 505 1
488 505 9
489 505 40
490 505 5
491 505 7
492 505 1
493 505 3
494 505 25
495 505 1
496 505 7
497 505 10
498 505 7
499 505 9
500 505 6
501 505 2
502 505 6
503 505 9
504 505 1
505 505 498.024
506 506 7.4197
511 506 3
507 507 9.4197
511 507 5
508 508 6.4197
511 508 2
509 509 7.4197
511 509 3
510 510 9.4197
511 510 5
506 511 3
507 511 5
508 511 2
509 511 3
510 511 5
511 511 367.024
512 512 7.4197
538 512 3
513 513 10.4197
538 513 6
514 514 23.4197
538 514 19
515 515 24.4197
538 515 20
516 516 48.4197
538 516 44
517 517 15.4197
538 517 11
518 518 7.4197
538 518 3
519 519 20.4197
538 519 16
520 520 8.4197
538 520 4
521 521 11.4197
538 521 7
522 522 6.4197
538 522 2
523 523 16.4197
538 523 12
524 524 13.4197
538 524 9
525 525 5.4197
538 525 1
526 526 6.4197
538 526 2
527 527 6.4197
538 527 2
528 528 15.4197
538 528 11
529 529 6.4197
538 529 2
530 530 28.4197
538 530 24
531 531 6.4197
538 531 2
532 532 22.4197
538 532 18
533 533 8.4197
538 533 4
534 534 8.4197
538 534 4
535 535 7.4197
538 535 3
536 536 5.4197
538 536 1
537 537 6.4197
538 537 2
512 538 3
513 538 6
514 538 19
515 538 20
516 538 44
517 538 11
518 538 3
519 538 16
520 538 4
521 538 7
522 538 2
523 538 12
524 538 9
525 538 1
526 538 2
527 538 2
528 538 11
529 538 2
530 538 24
531 538 2
532 538 18
533 538 4
534 538 4
535 538 3
536 538 1
537 538 2
538 538 581.024
539 539 75.4197
547 539 71
540 540 7.4197
547 540 3
541 541 13.4197
547 541 9
542 542 21.4197
547 542 17
543 543 12.4197
547 543 8
544 544 8.4197
547 544 4
545 545 34.4197
547 545 30
546 546 9.4197
547 546 5
539 547 71
540 547 3
541 547 9
542 547 17
543 547 8
544 547 4
545 547 30
546 547 5
547 547 496.024
548 548 79.4197
565 548 75
549 549 7.4197
565 549 3
550 550 13.4197
565 550 9
551 551 27.4197
565 551 23
552 552 30.4197
565 552 26
553 553 33.4197
565 553 29
554 554 15.4197
565 554 11
555 555 18.4197
565 555 14
556 556 12.4197
565 556 8
557 557 15.4197
565 557 11
558 558 21.4197
565 558 17
559 559 18.4197
565 559 14
560 560 19.4197
565 560 15
561 561 24.4197
565 561 20
562 562 9.4197
565 562 5
563 563 17.4197
565 563 13
564 564 24.4197
565 564 20
548 565 75
549 565 3
550 565 9
551 565 23
552 565 26
553 565 29
554 565 11
555 565 14
556 565 8
557 565 11
558 565 17
559 565 14
560 565 15
561 565 20
562 565 5
563 565 13
564 565 20
565 565 662.024
566 566 42.4197
584 566 38
567 567 5.4197
584 567 1
568 568 48.4197
584 568 44
569 569 27.4197
584 569 23
570 570 22.4197
584 570 18
571 571 22.4197
584 571 18
572 572 32.4197
584 572 28
573 573 43.4197
584 573 39
574 574 10.4197
584 574 6
575 575 14.4197
584 575 10
576 576 8.4197
584 576 4
577 577 9.4197
584 577 5
578 578 15.4197
584 578 11
579 579 13.4197
584 579 9
580 580 15.4197
584 580 11
581 581 9.4197
584 581 5
582 582 42.4197
584 582 38
583 583 19.4197
584 583 15
566 584 38
567 584 1
568 584 44
569 584 23
570 584 18
571 584 18
572 584 28
573 584 39
574 584 6
575 584 10
576 584 4
577 584 5
578 584 11
579 584 9
580 584 11
581 584 5
582 584 38
583 584 15
584 584 672.024
585 585 28.4197
595 585 24
586 586 41.4197
595 586 37
587 587 6.4197
595 587 2
588 588 25.4197
595 588 21
589 589 65.4197
595 589 61
590 590 34.4197
595 590 30
591 591 20.4197
595 591 16
592 592 24.4197
595 592 20
593 593 47.4197
595 593 43
594 594 6.4197
595 594 2
585 595 24
586 595 37
587 595 2
588 595 21
589 595 61
590 595 30
591 595 16
592 595 20
593 595 43
594 595 2
595 595 605.024
596 596 64.4197
600 596 60
597 597 24.4197
600 597 20
598 598 27.4197
600 598 23
599 599 22.4197
600 599 18
596 600 60
597 600 20
598 600 23
599 600 18
600 600 470.024
601 601 53.4197
615 601 49
602 602 32.4197
615 602 28
603 603 13.4197
615 603 9
604 604 5.4197
615 604 1
605 605 13.4197
615 605 9
606 606 30.4197
615 606 26
607 607 34.4197
615 607 30
608 608 24.4197
615 608 20
609 609 35.4197
615 609 31
610 610 83.4197
615 610 79
611 611 6.4197
615 611 2
612 612 8.4197
615 612 4
613 613 7.4197
615 613 3
614 614 30.4197
615 614 26
601 615 49
602 615 28
603 615 9
604 615 1
605 615 9
606 615 26
607 615 30
608 615 20
609 615 31
610 615 79
611 615 2
612 615 4
613 615 3
614 615 26
615 615 666.024
616 616 51.4197
625 616 47
617 617 6.4197
625 617 2
618 618 30.4197
625 618 26
619 619 45.4197
625 619 41
620 620 8.4197
625 620 4
621 621 10.4197
625 621 6
622 622 20.4197
625 622 16
623 623 17.4197
625 623 13
624 624 9.4197
625 624 5
616 625 47
617 625 2
618 625 26
619 625 41
620 625 4
621 625 6
622 625 16
623 625 13
624 625 5
625 625 509.024
626 626 21.4197
630 626 17
627 627 6.4197
630 627 2
628 628 5.4197
630 628 1
629 629 37.4197
630 629 33
626 630 17
627 630 2
628 630 1
629 630 33
630 630 402.024
631 631 41.4197
635 631 37
632 632 12.4197
635 632 8
633 633 6.4197
635 633 2
634 634 6.4197
635 634 2
631 635 37
632 635 8
633 635 2
634 635 2
635 635 398.024
636 636 82.4197
642 636 78
637 637 51.4197
642 637 47
638 638 11.4197
642 638 7
639 639 10.4197
642 639 6
640 640 27.4197
642 640 23
641 641 50.4197
642 641 46
636 642 78
637 642 47
638 642 7
639 642 6
640 642 23
641 642 46
642 642 556.024
643 643 81.4197
647 643 77
644 644 14.4197
647 644 10
645 645 6.4197
647 645 2
646 646 7.4197
647 646 3
643 647 77
644 647 10
645 647 2
646 647 3
647 647 441.024
648 648 12.4197
657 648 8
649 649 16.4197
657 649 12
650 650 30.4197
657 650 26
651 651 34.4197
657 651 30
652 652 44.4197
657 652 40
653 653 26.4197
657 653 22
654 654 36.4197
657 654 32
655 655 41.4197
657 655 37
656 656 22.4197
657 656 18
648 657 8
649 657 12
650 657 26
651 657 30
652 657 40
653 657 22
654 657 32
655 657 37
656 657 18
657 657 574.024
658 658 32.4197
663 658 28
659 659 69.4197
663 659 65
660 660 47.4197
663 660 43
661 661 23.4197
663 661 19
662 662 20.4197
663 662 16
658 663 28
659 663 65
660 663 43
661 663 19
662 663 16
663 663 520.024
664 664 61.4197
666 664 57
665 665 12.4197
666 665 8
664 666 57
665 666 8
666 666 414.024
667 667 7.4197
682 667 3
668 668 6.4197
682 668 2
669 669 19.4197
682 669 15
670 670 30.4197
682 670 26
671 671 57.4197
682 671 53
672 672 5.4197
682 672 1
673 673 11.4197
682 673 7
674 674 13.4197
682 674 9
675 675 8.4197
682 675 4
676 676 9.4197
682 676 5
677 677 8.4197
682 677 4
678 678 6.4197
682 678 2
679 679 7.4197
682 679 3
680 680 10.4197
682 680 6
681 681 13.4197
682 681 9
667 682 3
668 682 2
669 682 15
670 682 26
671 682 53
672 682 1
673 682 7
674 682 9
675 682 4
676 682 5
677 682 4
678 682 2
679 682 3
680 682 6
681 682 9
682 682 498.024
683 683 42.4197
692 683 38
684 684 24.4197
692 684 20
685 685 9.4197
692 685 5
686 686 9.4197
692 686 5
687 687 16.4197
692 687 12
688 688 27.4197
692 688 23
689 689 23.4197
692 689 19
690 690 22.4197
692 690 18
691 691 17.4197
692 691 13
683 692 38
684 692 20
685 692 5
686 692 5
687 692 12
688 692 23
689 692 19
690 692 18
691 692 13
692 692 502.024
693 693 89.4197
703 693 85
694 694 21.4197
703 694 17
695 695 21.4197
703 695 17
696 696 15.4197
703 696 11
697 697 13.4197
703 697 9
698 698 31.4197
703 698 27
699 699 32.4197
703 699 28
700 700 38.4197
703 700 34
701 701 24.4197
703 701 20
702 702 45.4197
703 702 41
693 703 85
694 703 17
695 703 17
696 703 11
697 703 9
698 703 27
699 703 28
700 703 34
701 703 20
702 703 41
703 703 638.024
704 704 6.4197
730 704 2
705 705 7.4197
730 705 3
706 706 29.4197
730 706 25
707 707 49.4197
730 707 45
708 708 26.4197
730 708 22
709 709 14.4197
730 709 10
710 710 9.4197
730 710 5
711 711 12.4197
730 711 8
712 712 25.4197
730 712 21
713 713 6.4197
730 713 2
714 714 18.4197
730 714 14
715 715 13.4197
730 715 9
716 716 11.4197
730 716 7
717 717 39.4197
730 717 35
718 718 12.4197
730 718 8
719 719 17.4197
730 719 13
720 720 21.4197
730 720 17
721 721 13.4197
730 721 9
722 722 9.4197
730 722 5
723 723 10.4197
730 723 6
724 724 11.4197
730 724 7
725 725 17.4197
730 725 13
726 726 12.4197
730 726 8
727 727 32.4197
730 727 28
728 728 7.4197
730 728 3
729 729 7.4197
730 729 3
704 730 2
705 730 3
706 730 25
707 730 45
708 730 22
709 730 10
710 730 5
711 730 8
712 730 21
713 730 2
714 730 14
715 730 9
716 730 7
717 730 35
718 730 8
719 730 13
720 730 17
721 730 9
722 730 5
723 730 6
724 730 7
725 730 13
726 730 8
727 730 28
728 730 3
729 730 3
730 730 677.024
731 731 9.4197
746 731 5
732 732 9.4197
746 732 5
733 733 5.4197
746 733 1
734 734 9.4197
746 734 5
735 735 9.4197
746 735 5
736 736 11.4197
746 736 7
737 737 10.4197
746 737 6
738 738 5.4197
746 738 1
739 739 10.4197
746 739 6
740 740 9.4197
746 740 5
741 741 23.4197
746 741 19
742 742 18.4197
746 742 14
743 743 9.4197
746 743 5
744 744 7.4197
746 744 3
745 745 21.4197
746 745 17
731 746 5
732 746 5
733 746 1
734 746 5
735 746 5
736 746 7
737 746 6
738 746 1
739 746 6
740 746 5
741 746 19
742 746 14
743 746 5
744 746 3
745 746 17
746 746 453.024
747 747 22.4197
761 747 18
748 748 192.42
761 748 188
749 749 7.4197
761 749 3
750 750 13.4197
761 750 9
751 751 24.4197
761 751 20
752 752 13.4197
761 752 9
753 753 8.4197
761 753 4
754 754 15.4197
761 754 11
755 755 31.4197
761 755 27
756 756 9.4197
761 756 5
757 757 14.4197
761 757 10
758 758 11.4197
761 758 7
759 759 19.4197
761 759 15
760 760 11.4197
761 760 7
747 761 18
748 761 188
749 761 3
750 761 9
751 761 20
752 761 9
753 761 4
754 761 11
755 761 27
756 761 5
757 761 10
758 761 7
759 761 15
760 761 7
761 761 682.024
762 762 37.4197
803 762 33
763 763 15.4197
803 763 11
764 764 15.4197
803 764 11
765 765 10.4197
803 765 6
766 766 46.4197
803 766 42
767 767 24.4197
803 767 20
768 768 6.4197
803 768 2
769 769 11.4197
803 769 7
770 770 9.4197
803 770 5
771 771 22.4197
803 771 18
772 772 19.4197
803 772 15
773 773 11.4197
803 773 7
774 774 39.4197
803 774 35
775 775 7.4197
803 775 3
776 776 34.4197
803 776 30
777 777 10.4197
803 777 6
778 778 13.4197
803 778 9
779 779 5.4197
803 779 1
780 780 20.4197
803 780 16
781 781 9.4197
803 781 5
782 782 29.4197
803 782 25
783 783 19.4197
803 783 15
784 784 13.4197
803 784 9
785 785 14.4197
803 785 10
786 786 10.4197
803 786 6
787 787 12.4197
803 787 8
788 788 16.4197
803 788 12
789 789 9.4197
803 789 5
790 790 8.4197
803 790 4
791 791 7.4197
803 791 3
792 792 8.4197
803 792 4
793 793 7.4197
803 793 3
794 794 12.4197
803 794 8
795 795 9.4197
803 795 5
796 796 20.4197
803 796 16
797 797 6.4197
803 797 2
798 798 9.4197
803 798 5
799 799 23.4197
803 799 19
800 800 11.4197
803 800 7
801 801 7.4197
803 801 3
802 802 23.4197
803 802 19
762 803 33
763 803 11
764 803 11
765 803 6
766 803 42
767 803 20
768 803 2
769 803 7
770 803 5
771 803 18
772 803 15
773 803 7
774 803 35
775 803 3
776 803 30
777 803 6
778 803 9
779 803 1
780 803 16
781 803 5
782 803 25
783 803 15
784 803 9
785 803 10
786 803 6
787 803 8
788 803 12
789 803 5
790 803 4
791 803 3
792 803 4
793 803 3
794 803 8
795 803 5
796 803 16
797 803 2
798 803 5
799 803 19
800 803 7
801 803 3
802 803 19
803 803 819.024
804 804 57.4197
816 804 53
805 805 22.4197
816 805 18
806 806 34.4197
816 806 30
807 807 36.4197
816 807 32
808 808 18.4197
816 808 14
809 809 14.4197
816 809 10
810 810 32.4197
816 810 28
811 811 8.4197
816 811 4
812 812 9.4197
816 812 5
813 813 32.4197
816 813 28
814 814 11.4197
816 814 7
815 815 7.4197
816 815 3
804 816 53
805 816 18
806 816 30
807 816 32
808 816 14
809 816 10
810 816 28
811 816 4
812 816 5
813 816 28
814 816 7
815 816 3
816 816 581.024
817 817 5.4197
826 817 1
818 818 25.4197
826 818 21
819 819 22.4197
826 819 18
820 820 7.4197
826 820 3
821 821 8.4197
826 821 4
822 822 6.4197
826 822 2
823 823 7.4197
826 823 3
824 824 11.4197
826 824 7
825 825 14.4197
826 825 10
817 826 1
818 826 21
819 826 18
820 826 3
821 826 4
822 826 2
823 826 3
824 826 7
825 826 10
826 826 418.024
827 827 20.4197
844 827 16
828 828 72.4197
844 828 68
829 829 37.4197
844 829 33
830 830 9.4197
844 830 5
831 831 12.4197
844 831 8
832 832 11.4197
844 832 7
833 833 25.4197
844 833 21
834 834 14.4197
844 834 10
835 835 10.4197
844 835 6
836 836 14.4197
844 836 10
837 837 28.4197
844 837 24
838 838 15.4197
844 838 11
839 839 5.4197
844 839 1
840 840 10.4197
844 840 6
841 841 22.4197
844 841 18
842 842 29.4197
844 842 25
843 843 9.4197
844 843 5
827 844 16
828 844 68
829 844 33
830 844 5
831 844 8
832 844 7
833 844 21
834 844 10
835 844 6
836 844 10
837 844 24
838 844 11
839 844 1
840 844 6
841 844 18
842 844 25
843 844 5
844 844 623.024
845 845 37.4197
856 845 33
846 846 5.4197
856 846 1
847 847 22.4197
856 847 18
848 848 12.4197
856 848 8
849 849 11.4197
856 849 7
850 850 12.4197
856 850 8
851 851 10.4197
856 851 6
852 852 10.4197
856 852 6
853 853 9.4197
856 853 5
854 854 19.4197
856 854 15
855 855 28.4197
856 855 24
845 856 33
846 856 1
847 856 18
848 856 8
849 856 7
850 856 8
851 856 6
852 856 6
853 856 5
854 856 15
855 856 24
856 856 480.024
857 857 49.4197
859 857 45
858 858 14.4197
859 858 10
857 859 45
858 859 10
859 859 404.024
860 860 75.4197
865 860 71
861 861 8.4197
865 861 4
862 862 21.4197
865 862 17
863 863 11.4197
865 863 7
864 864 24.4197
865 864 20
860 865 71
861 865 4
862 865 17
863 865 7
864 865 20
865 865 468.024
866 866 8.4197
883 866 4
867 867 25.4197
883 867 21
868 868 17.4197
883 868 13
869 869 16.4197
883 869 12
870 870 10.4197
883 870 6
871 871 11.4197
883 871 7
872 872 31.4197
883 872 27
873 873 17.4197
883 873 13
874 874 17.4197
883 874 13
875 875 10.4197
883 875 6
876 876 8.4197
883 876 4
877 877 22.4197
883 877 18
878 878 9.4197
883 878 5
879 879 25.4197
883 879 21
880 880 15.4197
883 880 11
881 881 12.4197
883 881 8
882 882 15.4197
883 882 11
866 883 4
867 883 21
868 883 13
869 883 12
870 883 6
871 883 7
872 883 27
873 883 13
874 883 13
875 883 6
876 883 4
877 883 18
878 883 5
879 883 21
880 883 11
881 883 8
882 883 11
883 883 549.024
884 884 33.4197
904 884 29
885 885 11.4197
904 885 7
886 886 11.4197
904 886 7
887 887 19.4197
904 887 15
888 888 32.4197
904 888 28
889 889 33.4197
904 889 29
890 890 21.4197
904 890 17
891 891 13.4197
904 891 9
892 892 13.4197
904 892 9
893 893 12.4197
904 893 8
894 894 12.4197
904 894 8
895 895 25.4197
904 895 21
896 896 11.4197
904 896 7
897 897 6.4197
904 897 2
898 898 18.4197
904 898 14
899 899 7.4197
904 899 3
900 900 7.4197
904 900 3
901 901 8.4197
904 901 4
902 902 17.4197
904 902 13
903 903 6.4197
904 903 2
884 904 29
885 904 7
886 904 7
887 904 15
888 904 28
889 904 29
890 904 17
891 904 9
892 904 9
893 904 8
894 904 8
895 904 21
896 904 7
897 904 2
898 904 14
899 904 3
900 904 3
901 904 4
902 904 13
903 904 2
904 904 584.024
905 905 5.4197
914 905 1
906 906 8.4197
914 906 4
907 907 12.4197
914 907 8
908 908 11.4197
914 908 7
909 909 20.4197
914 909 16
910 910 20.4197
914 910 16
911 911 15.4197
914 911 11
912 912 20.4197
914 912 16
913 913 28.4197
914 913 24
905 914 1
906 914 4
907 914 8
908 914 7
909 914 16
910 914 16
911 914 11
912 914 16
913 914 24
914 914 452.024
915 915 7.4197
930 915 3
916 916 15.4197
930 916 11
917 917 6.4197
930 917 2
918 918 17.4197
930 918 13
919 919 9.4197
930 919 5
920 920 8.4197
930 920 4
921 921 14.4197
930 921 10
922 922 10.4197
930 922 6
923 923 9.4197
930 923 5
924 924 7.4197
930 924 3
925 925 5.4197
930 925 1
926 926 12.4197
930 926 8
927 927 19.4197
930 927 15
928 928 9.4197
930 928 5
929 929 7.4197
930 929 3
915 930 3
916 930 11
917 930 2
918 930 13
919 930 5
920 930 4
921 930 10
922 930 6
923 930 5
924 930 3
925 930 1
926 930 8
927 930 15
928 930 5
929 930 3
930 930 443.024
931 931 18.4197
934 931 14
932 932 7.4197
934 932 3
933 933 15.4197
934 933 11
931 934 14
932 934 3
933 934 11
934 934 377.024
935 935 45.4197
939 935 41
936 936 20.4197
939 936 16
937 937 9.4197
939 937 5
938 938 9.4197
939 938 5
935 939 41
936 939 16
937 939 5
938 939 5
939 939 416.024
940 940 69.4197
943 940 65
941 941 51.4197
943 941 47
942 942 11.4197
943 942 7
940 943 65
941 943 47
942 943 7
943 943 468.024
944 944 32.4197
950 944 28
945 945 31.4197
950 945 27
946 946 21.4197
950 946 17
947 947 12.4197
950 947 8
948 948 25.4197
950 948 21
949 949 18.4197
950 949 14
944 950 28
945 950 27
946 950 17
947 950 8
948 950 21
949 950 14
950 950 464.024
951 951 25.4197
958 951 21
952 952 28.4197
958 952 24
953 953 11.4197
958 953 7
954 954 10.4197
958 954 6
955 955 31.4197
958 955 27
956 956 12.4197
958 956 8
957 957 6.4197
958 957 2
951 958 21
952 958 24
953 958 7
954 958 6
955 958 27
956 958 8
957 958 2
958 958 444.024
959 959 33.4197
978 959 29
960 960 8.4197
978 960 4
961 961 26.4197
978 961 22
962 962 8.4197
978 962 4
963 963 14.4197
978 963 10
964 964 6.4197
978 964 2
965 965 34.4197
978 965 30
966 966 10.4197
978 966 6
967 967 14.4197
978 967 10
968 968 11.4197
978 968 7
969 969 13.4197
978 969 9
970 970 22.4197
978 970 18
971 971 19.4197
978 971 15
972 972 9.4197
978 972 5
973 973 16.4197
978 973 12
974 974 11.4197
978 974 7
975 975 16.4197
978 975 12
976 976 18.4197
978 976 14
977 977 8.4197
978 977 4
959 978 29
960 978 4
961 978 22
962 978 4
963 978 10
964 978 2
965 978 30
966 978 6
967 978 10
968 978 7
969 978 9
970 978 18
971 978 15
972 978 5
973 978 12
974 978 7
975 978 12
976 978 14
977 978 4
978 978 569.024
979 979 38.4197
985 979 34
980 980 8.4197
985 980 4
981 981 7.4197
985 981 3
982 982 21.4197
985 982 17
983 983 9.4197
985 983 5
984 984 12.4197
985 984 8
979 985 34
980 985 4
981 985 3
982 985 17
983 985 5
984 985 8
985 985 420.024
986 986 98.4197
989 986 94
987 987 12.4197
989 987 8
988 988 10.4197
989 988 6
986 989 94
987 989 8
988 989 6
989 989 457.024
990 990 40.4197
1025 990 36
991 991 29.4197
1025 991 25
992 992 5.4197
1025 992 1
993 993 5.4197
1025 993 1
994 994 17.4197
1025 994 13
995 995 5.4197
1025 995 1
996 996 10.4197
1025 996 6
997 997 10.4197
1025 997 6
998 998 16.4197
1025 998 12
999 999 7.4197
1025 999 3
1000 1000 25.4197
1025 1000 21
1001 1001 6.4197
1025 1001 2
1002 1002 5.4197
1025 1002 1
1003 1003 11.4197
1025 1003 7
1004 1004 71.4197
1025 1004 67
1005 1005 22.4197
1025 1005 18
1006 1006 27.4197
1025 1006 23
1007 1007 27.4197
1025 1007 23
1008 1008 5.4197
1025 1008 1
1009 1009 8.4197
1025 1009 4
1010 1010 13.4197
1025 1010 9
1011 1011 35.4197
1025 1011 31
1012 1012 14.4197
1025 1012 10
1013 1013 18.4197
1025 1013 14
1014 1014 14.4197
1025 1014 10
1015 1015 27.4197
1025 1015 23
1016 1016 30.4197
1025 1016 26
1017 1017 8.4197
1025 1017 4
1018 1018 14.4197
1025 1018 10
1019 1019 5.4197
1025 1019 1
1020 1020 23.4197
1025 1020 19
1021 1021 29.4197
1025 1021 25
1022 1022 23.4197
1025 1022 19
1023 1023 15.4197
1025 1023 11
1024 1024 11.4197
1025 1024 7
990 1025 36
991 1025 25
992 1025 1
993 1025 1
994 1025 13
995 1025 1
996 1025 6
997 1025 6
998 1025 12
999 1025 3
1000 1025 21
1001 1025 2
1002 1025 1
1003 1025 7
1004 1025 67
1005 1025 18
1006 1025 23
1007 1025 23
1008 1025 1
1009 1025 4
1010 1025 9
1011 1025 31
1012 1025 10
1013 1025 14
1014 1025 10
1015 1025 23
1016 1025 26
1017 1025 4
1018 1025 10
1019 1025 1
1020 1025 19
1021 1025 25
1022 1025 19
1023 1025 11
1024 1025 7
1025 1025 839.024
1026 1026 56.4197
1036 1026 52
1027 1027 9.4197
1036 1027 5
1028 1028 12.4197
1036 1028 8
1029 1029 29.4197
1036 1029 25
1030 1030 8.4197
1036 1030 4
1031 1031 13.4197
1036 1031 9
1032 1032 12.4197
1036 1032 8
1033 1033 19.4197
1036 1033 15
1034 1034 15.4197
1036 1034 11
1035 1035 19.4197
1036 1035 15
1026 1036 52
1027 1036 5
1028 1036 8
1029 1036 25
1030 1036 4
1031 1036 9
1032 1036 8
1033 1036 15
1034 1036 11
1035 1036 15
1036 1036 501.024
1037 1037 7.4197
1058 1037 3
1038 1038 23.4197
1058 1038 19
1039 1039 25.4197
1058 1039 21
1040 1040 38.4197
1058 1040 34
1041 1041 32.4197
1058 1041 28
1042 1042 13.4197
1058 1042 9
1043 1043 32.4197
1058 1043 28
1044 1044 15.4197
1058 1044 11
1045 1045 19.4197
1058 1045 15
1046 1046 6.4197
1058 1046 2
1047 1047 10.4197
1058 1047 6
1048 1048 22.4197
1058 1048 18
1049 1049 15.4197
1058 1049 11
1050 1050 14.4197
1058 1050 10
1051 1051 25.4197
1058 1051 21
1052 1052 19.4197
1058 1052 15
1053 1053 21.4197
1058 1053 17
1054 1054 31.4197
1058 1054 27
1055 1055 5.4197
1058 1055 1
1056 1056 8.4197
1058 1056 4
1057 1057 18.4197
1058 1057 14
1037 1058 3
1038 1058 19
1039 1058 21
1040 1058 34
1041 1058 28
1042 1058 9
1043 1058 28
1044 1058 11
1045 1058 15
1046 1058 2
1047 1058 6
1048 1058 18
1049 1058 11
1050 1058 10
1051 1058 21
1052 1058 15
1053 1058 17
1054 1058 27
1055 1058 1
1056 1058 4
1057 1058 14
1058 1058 663.024
1059 1059 66.4197
1061 1059 62
1060 1060 6.4197
1061 1060 2
1059 1061 62
1060 1061 2
1061 1061 413.024
1062 1062 10.4197
1084 1062 6
1063 1063 23.4197
1084 1063 19
1064 1064 6.4197
1084 1064 2
1065 1065 7.4197
1084 1065 3
1066 1066 6.4197
1084 1066 2
1067 1067 29.4197
1084 1067 25
1068 1068 8.4197
1084 1068 4
1069 1069 64.4197
1084 1069 60
1070 1070 27.4197
1084 1070 23
1071 1071 35.4197
1084 1071 31
1072 1072 46.4197
1084 1072 42
1073 1073 37.4197
1084 1073 33
1074 1074 25.4197
1084 1074 21
1075 1075 37.4197
1084 1075 33
1076 1076 38.4197
1084 1076 34
1077 1077 31.4197
1084 1077 27
1078 1078 48.4197
1084 1078 44
1079 1079 60.4197
1084 1079 56
1080 1080 27.4197
1084 1080 23
1081 1081 7.4197
1084 1081 3
1082 1082 10.4197
1084 1082 6
1083 1083 26.4197
1084 1083 22
1062 1084 6
1063 1084 19
1064 1084 2
1065 1084 3
1066 1084 2
1067 1084 25
1068 1084 4
1069 1084 60
1070 1084 23
1071 1084 31
1072 1084 42
1073 1084 33
1074 1084 21
1075 1084 33
1076 1084 34
1077 1084 27
1078 1084 44
1079 1084 56
1080 1084 23
1081 1084 3
1082 1084 6
1083 1084 22
1084 1084 868.024
1085 1085 10.4197
1095 1085 6
1086 1086 7.4197
1095 1086 3
1087 1087 16.4197
1095 1087 12
1088 1088 13.4197
1095 1088 9
1089 1089 9.4197
1095 1089 5
1090 1090 13.4197
1095 1090 9
1091 1091 8.4197
1095 1091 4
1092 1092 8.4197
1095 1092 4
1093 1093 5.4197
1095 1093 1
1094 1094 16.4197
1095 1094 12
1085 1095 6
1086 1095 3
1087 1095 12
1088 1095 9
1089 1095 5
1090 1095 9
1091 1095 4
1092 1095 4
1093 1095 1
1094 1095 12
1095 1095 414.024
1096 1096 21.4197
1131 1096 17
1097 1097 6.4197
1131 1097 2
1098 1098 12.4197
1131 1098 8
1099 1099 7.4197
1131 1099 3
1100 1100 10.4197
1131 1100 6
1101 1101 5.4197
1131 1101 1
1102 1102 30.4197
1131 1102 26
1103 1103 25.4197
1131 1103 21
1104 1104 14.4197
1131 1104 10
1105 1105 27.4197
1131 1105 23
1106 1106 31.4197
1131 1106 27
1107 1107 18.4197
1131 1107 14
1108 1108 16.4197
1131 1108 12
1109 1109 28.4197
1131 1109 24
1110 1110 11.4197
1131 1110 7
1111 1111 39.4197
1131 1111 35
1112 1112 11.4197
1131 1112 7
1113 1113 6.4197
1131 1113 2
1114 1114 23.4197
1131 1114 19
1115 1115 10.4197
1131 1115 6
1116 1116 25.4197
1131 1116 21
1117 1117 9.4197
1131 1117 5
1118 1118 9.4197
1131 1118 5
1119 1119 16.4197
1131 1119 12
1120 1120 13.4197
1131 1120 9
1121 1121 19.4197
1131 1121 15
1122 1122 19.4197
1131 1122 15
1123 1123 6.4197
1131 1123 2
1124 1124 17.4197
1131 1124 13
1125 1125 12.4197
1131 1125 8
1126 1126 6.4197
1131 1126 2
1127 1127 8.4197
1131 1127 4
1128 1128 32.4197
1131 1128 28
1129 1129 11.4197
1131 1129 7
1130 1130 11.4197
1131 1130 7
1096 1131 17
1097 1131 2
1098 1131 8
1099 1131 3
1100 1131 6
1101 1131 1
1102 1131 26
1103 1131 21
1104 1131 10
1105 1131 23
1106 1131 27
1107 1131 14
1108 1131 12
1109 1131 24
1110 1131 7
1111 1131 35
1112 1131 7
1113 1131 2
1114 1131 19
1115 1131 6
1116 1131 21
1117 1131 5
1118 1131 5
1119 1131 12
1120 1131 9
1121 1131 15
1122 1131 15
1123 1131 2
1124 1131 13
1125 1131 8
1126 1131 2
1127 1131 4
1128 1131 28
1129 1131 7
1130 1131 7
1131 1131 772.024
1132 1132 31.4197
1139 1132 27
1133 1133 17.4197
1139 1133 13
1134 1134 28.4197
1139 1134 24
1135 1135 16.4197
1139 1135 12
1136 1136 13.4197
1139 1136 9
1137 1137 18.4197
1139 1137 14
1138 1138 7.4197
1139 1138 3
1132 1139 27
1133 1139 13
1134 1139 24
1135 1139 12
1136 1139 9
1137 1139 14
1138 1139 3
1139 1139 451.024
1140 1140 39.4197
1159 1140 35
1141 1141 7.4197
1159 1141 3
1142 1142 10.4197
1159 1142 6
1143 1143 5.4197
1159 1143 1
1144 1144 7.4197
1159 1144 3
1145 1145 29.4197
1159 1145 25
1146 1146 20.4197
1159 1146 16
1147 1147 10.4197
1159 1147 6
1148 1148 20.4197
1159 1148 16
1149 1149 13.4197
1159 1149 9
1150 1150 10.4197
1159 1150 6
1151 1151 17.4197
1159 1151 13
1152 1152 5.4197
1159 1152 1
1153 1153 14.4197
1159 1153 10
1154 1154 12.4197
1159 1154 8
1155 1155 17.4197
1159 1155 13
1156 1156 10.4197
1159 1156 6
1157 1157 14.4197
1159 1157 10
1158 1158 7.4197
1159 1158 3
1140 1159 35
1141 1159 3
1142 1159 6
1143 1159 1
1144 1159 3
1145 1159 25
1146 1159 16
1147 1159 6
1148 1159 16
1149 1159 9
1150 1159 6
1151 1159 13
1152 1159 1
1153 1159 10
1154 1159 8
1155 1159 13
1156 1159 6
1157 1159 10
1158 1159 3
1159 1159 539.024
1160 1160 15.4197
1166 1160 11
1161 1161 36.4197
1166 1161 32
1162 1162 34.4197
1166 1162 30
1163 1163 32.4197
1166 1163 28
1164 1164 6.4197
1166 1164 2
1165 1165 28.4197
1166 1165 24
1160 1166 11
1161 1166 32
1162 1166 30
1163 1166 28
1164 1166 2
1165 1166 24
1166 1166 476.024
1167 1167 9.4197
1172 1167 5
1168 1168 12.4197
1172 1168 8
1169 1169 39.4197
1172 1169 35
1170 1170 30.4197
1172 1170 26
1171 1171 39.4197
1172 1171 35
1167 1172 5
1168 1172 8
1169 1172 35
1170 1172 26
1171 1172 35
1172 1172 458.024
1173 1173 12.4197
1195 1173 8
1174 1174 11.4197
1195 1174 7
1175 1175 16.4197
1195 1175 12
1176 1176 8.4197
1195 1176 4
1177 1177 23.4197
1195 1177 19
1178 1178 13.4197
1195 1178 9
1179 1179 5.4197
1195 1179 1
1180 1180 13.4197
1195 1180 9
1181 1181 10.4197
1195 1181 6
1182 1182 5.4197
1195 1182 1
1183 1183 31.4197
1195 1183 27
1184 1184 36.4197
1195 1184 32
1185 1185 24.4197
1195 1185 20
1186 1186 9.4197
1195 1186 5
1187 1187 5.4197
1195 1187 1
1188 1188 16.4197
1195 1188 12
1189 1189 14.4197
1195 1189 10
1190 1190 5.4197
1195 1190 1
1191 1191 7.4197
1195 1191 3
1192 1192 11.4197
1195 1192 7
1193 1193 13.4197
1195 1193 9
1194 1194 18.4197
1195 1194 14
1173 1195 8
1174 1195 7
1175 1195 12
1176 1195 4
1177 1195 19
1178 1195 9
1179 1195 1
1180 1195 9
1181 1195 6
1182 1195 1
1183 1195 27
1184 1195 32
1185 1195 20
1186 1195 5
1187 1195 1
1188 1195 12
1189 1195 10
1190 1195 1
1191 1195 3
1192 1195 7
1193 1195 9
1194 1195 14
1195 1195 566.024
1196 1196 79.4197
1199 1196 75
1197 1197 8.4197
1199 1197 4
1198 1198 10.4197
1199 1198 6
1196 1199 75
1197 1199 4
1198 1199 6
1199 1199 434.024
1200 1200 25.4197
1224 1200 21
1201 1201 24.4197
1224 1201 20
1202 1202 5.4197
1224 1202 1
1203 1203 17.4197
1224 1203 13
1204 1204 5.4197
1224 1204 1
1205 1205 13.4197
1224 1205 9
1206 1206 11.4197
1224 1206 7
1207 1207 7.4197
1224 1207 3
1208 1208 5.4197
1224 1208 1
1209 1209 6.4197
1224 1209 2
1210 1210 8.4197
1224 1210 4
1211 1211 24.4197
1224 1211 20
1212 1212 7.4197
1224 1212 3
1213 1213 6.4197
1224 1213 2
1214 1214 7.4197
1224 1214 3
1215 1215 6.4197
1224 1215 2
1216 1216 5.4197
1224 1216 1
1217 1217 7.4197
1224 1217 3
1218 1218 15.4197
1224 1218 11
1219 1219 22.4197
1224 1219 18
1220 1220 15.4197
1224 1220 11
1221 1221 13.4197
1224 1221 9
1222 1222 11.4197
1224 1222 7
1223 1223 17.4197
1224 1223 13
1200 1224 21
1201 1224 20
1202 1224 1
1203 1224 13
1204 1224 1
1205 1224 9
1206 1224 7
1207 1224 3
1208 1224 1
1209 1224 2
1210 1224 4
1211 1224 20
1212 1224 3
1213 1224 2
1214 1224 3
1215 1224 2
1216 1224 1
1217 1224 3
1218 1224 11
1219 1224 18
1220 1224 11
1221 1224 9
1222 1224 7
1223 1224 13
1224 1224 534.024
1225 1225 63.4197
1235 1225 59
1226 1226 31.4197
1235 1226 27
1227 1227 13.4197
1235 1227 9
1228 1228 18.4197
1235 1228 14
1229 1229 14.4197
1235 1229 10
1230 1230 7.4197
1235 1230 3
1231 1231 23.4197
1235 1231 19
1232 1232 7.4197
1235 1232 3
1233 1233 7.4197
1235 1233 3
1234 1234 7.4197
1235 1234 3
1225 1235 59
1226 1235 27
1227 1235 9
1228 1235 14
1229 1235 10
1230 1235 3
1231 1235 19
1232 1235 3
1233 1235 3
1234 1235 3
1235 1235 499.024
1236 1236 89.4197
1267 1236 85
1237 1237 39.4197
1267 1237 35
1238 1238 58.4197
1267 1238 54
1239 1239 40.4197
1267 1239 36
1240 1240 46.4197
1267 1240 42
1241 1241 60.4197
1267 1241 56
1242 1242 20.4197
1267 1242 16
1243 1243 9.4197
1267 1243 5
1244 1244 16.4197
1267 1244 12
1245 1245 16.4197
1267 1245 12
1246 1246 65.4197
1267 1246 61
1247 1247 48.4197
1267 1247 44
1248 1248 7.4197
1267 1248 3
1249 1249 8.4197
1267 1249 4
1250 1250 5.4197
1267 1250 1
1251 1251 19.4197
1267 1251 15
1252 1252 5.4197
1267 1252 1
1253 1253 18.4197
1267 1253 14
1254 1254 20.4197
1267 1254 16
1255 1255 44.4197
1267 1255 40
1256 1256 8.4197
1267 1256 4
1257 1257 15.4197
1267 1257 11
1258 1258 18.4197
1267 1258 14
1259 1259 18.4197
1267 1259 14
1260 1260 11.4197
1267 1260 7
1261 1261 8.4197
1267 1261 4
1262 1262 15.4197
1267 1262 11
1263 1263 26.4197
1267 1263 22
1264 1264 15.4197
1267 1264 11
1265 1265 9.4197
1267 1265 5
1266 1266 19.4197
1267 1266 15
1236 1267 85
1237 1267 35
1238 1267 54
1239 1267 36
1240 1267 42
1241 1267 56
1242 1267 16
1243 1267 5
1244 1267 12
1245 1267 12
1246 1267 61
1247 1267 44
1248 1267 3
1249 1267 4
1250 1267 1
1251 1267 15
1252 1267 1
1253 1267 14
1254 1267 16
1255 1267 40
1256 1267 4
1257 1267 11
1258 1267 14
1259 1267 14
1260 1267 7
1261 1267 4
1262 1267 11
1263 1267 22
1264 1267 11
1265 1267 5
1266 1267 15
1267 1267 1019.02
1268 1268 14.4197
1273 1268 10
1269 1269 27.4197
1273 1269 23
1270 1270 17.4197
1273 1270 13
1271 1271 5.4197
1273 1271 1
1272 1272 10.4197
1273 1272 6
1268 1273 10
1269 1273 23
1270 1273 13
1271 1273 1
1272 1273 6
1273 1273 402.024
1274 1274 22.4197
1279 1274 18
1275 1275 41.4197
1279 1275 37
1276 1276 28.4197
1279 1276 24
1277 1277 5.4197
1279 1277 1
1278 1278 20.4197
1279 1278 16
1274 1279 18
1275 1279 37
1276 1279 24
1277 1279 1
1278 1279 16
1279 1279 445.024
1280 1280 7.4197
1306 1280 3
1281 1281 10.4197
1306 1281 6
1282 1282 35.4197
1306 1282 31
1283 1283 18.4197
1306 1283 14
1284 1284 6.4197
1306 1284 2
1285 1285 9.4197
1306 1285 5
1286 1286 14.4197
1306 1286 10
1287 1287 12.4197
1306 1287 8
1288 1288 11.4197
1306 1288 7
1289 1289 42.4197
1306 1289 38
1290 1290 13.4197
1306 1290 9
1291 1291 36.4197
1306 1291 32
1292 1292 42.4197
1306 1292 38
1293 1293 15.4197
1306 1293 11
1294 1294 8.4197
1306 1294 4
1295 1295 24.4197
1306 1295 20
1296 1296 8.4197
1306 1296 4
1297 1297 11.4197
1306 1297 7
1298 1298 20.4197
1306 1298 16
1299 1299 36.4197
1306 1299 32
1300 1300 17.4197
1306 1300 13
1301 1301 21.4197
1306 1301 17
1302 1302 46.4197
1306 1302 42
1303 1303 27.4197
1306 1303 23
1304 1304 41.4197
1306 1304 37
1305 1305 7.4197
1306 1305 3
1280 1306 3
1281 1306 6
1282 1306 31
1283 1306 14
1284 1306 2
1285 1306 5
1286 1306 10
1287 1306 8
1288 1306 7
1289 1306 38
1290 1306 9
1291 1306 32
1292 1306 38
1293 1306 11
1294 1306 4
1295 1306 20
1296 1306 4
1297 1306 7
1298 1306 16
1299 1306 32
1300 1306 13
1301 1306 17
1302 1306 42
1303 1306 23
1304 1306 37
1305 1306 3
1306 1306 781.024
1307 1307 16.4197
1317 1307 12
1308 1308 103.42
1317 1308 99
1309 1309 27.4197
1317 1309 23
1310 1310 7.4197
1317 1310 3
1311 1311 34.4197
1317 1311 30
1312 1312 11.4197
1317 1312 7
1313 1313 8.4197
1317 1313 4
1314 1314 21.4197
1317 1314 17
1315 1315 6.4197
1317 1315 2
1316 1316 10.4197
1317 1316 6
1307 1317 12
1308 1317 99
1309 1317 23
1310 1317 3
1311 1317 30
1312 1317 7
1313 1317 4
1314 1317 17
1315 1317 2
1316 1317 6
1317 1317 552.024
1318 1318 29.4197
1321 1318 25
1319 1319 23.4197
1321 1319 19
1320 1320 35.4197
1321 1320 31
1318 1321 25
1319 1321 19
1320 1321 31
1321 1321 424.024
1322 1322 12.4197
1377 1322 8
1323 1323 16.4197
1377 1323 12
1324 1324 6.4197
1377 1324 2
1325 1325 60.4197
1377 1325 56
1326 1326 6.4197
1377 1326 2
1327 1327 8.4197
1377 1327 4
1328 1328 15.4197
1377 1328 11
1329 1329 7.4197
1377 1329 3
1330 1330 8.4197
1377 1330 4
1331 1331 6.4197
1377 1331 2
1332 1332 14.4197
1377 1332 10
1333 1333 12.4197
1377 1333 8
1334 1334 10.4197
1377 1334 6
1335 1335 8.4197
1377 1335 4
1336 1336 9.4197
1377 1336 5
1337 1337 18.4197
1377 1337 14
1338 1338 5.4197
1377 1338 1
1339 1339 14.4197
1377 1339 10
1340 1340 9.4197
1377 1340 5
1341 1341 9.4197
1377 1341 5
1342 1342 10.4197
1377 1342 6
1343 1343 15.4197
1377 1343 11
1344 1344 12.4197
1377 1344 8
1345 1345 22.4197
1377 1345 18
1346 1346 11.4197
1377 1346 7
1347 1347 5.4197
1377 1347 1
1348 1348 10.4197
1377 1348 6
1349 1349 11.4197
1377 1349 7
1350 1350 24.4197
1377 1350 20
1351 1351 12.4197
1377 1351 8
1352 1352 17.4197
1377 1352 13
1353 1353 28.4197
1377 1353 24
1354 1354 6.4197
1377 1354 2
1355 1355 7.4197
1377 1355 3
1356 1356 10.4197
1377 1356 6
1357 1357 6.4197
1377 1357 2
1358 1358 23.4197
1377 1358 19
1359 1359 15.4197
1377 1359 11
1360 1360 22.4197
1377 1360 18
1361 1361 17.4197
1377 1361 13
1362 1362 20.4197
1377 1362 16
1363 1363 8.4197
1377 1363 4
1364 1364 9.4197
1377 1364 5
1365 1365 7.4197
1377 1365 3
1366 1366 5.4197
1377 1366 1
1367 1367 5.4197
1377 1367 1
1368 1368 12.4197
1377 1368 8
1369 1369 25.4197
1377 1369 21
1370 1370 7.4197
1377 1370 3
1371 1371 5.4197
1377 1371 1
1372 1372 6.4197
1377 1372 2
1373 1373 9.4197
1377 1373 5
1374 1374 19.4197
1377 1374 15
1375 1375 8.4197
1377 1375 4
1376 1376 6.4197
1377 1376 2
1322 1377 8
1323 1377 12
1324 1377 2
1325 1377 56
1326 1377 2
1327 1377 4
1328 1377 11
1329 1377 3
1330 1377 4
1331 1377 2
1332 1377 10
1333 1377 8
1334 1377 6
1335 1377 4
1336 1377 5
1337 1377 14
1338 1377 1
1339 1377 10
1340 1377 5
1341 1377 5
1342 1377 6
1343 1377 11
1344 1377 8
1345 1377 18
1346 1377 7
1347 1377 1
1348 1377 6
1349 1377 7
1350 1377 20
1351 1377 8
1352 1377 13
1353 1377 24
1354 1377 2
1355 1377 3
1356 1377 6
1357 1377 2
1358 1377 19
1359 1377 11
1360 1377 18
1361 1377 13
1362 1377 16
1363 1377 4
1364 1377 5
1365 1377 3
1366 1377 1
1367 1377 1
1368 1377 8
1369 1377 21
1370 1377 3
1371 1377 1
1372 1377 2
1373 1377 5
1374 1377 15
1375 1377 4
1376 1377 2
1377 1377 815.024
1378 1378 61.4197
1382 1378 57
1379 1379 10.4197
1382 1379 6
1380 1380 6.4197
1382 1380 2
1381 1381 7.4197
1382 1381 3
1378 1382 57
1379 1382 6
1380 1382 2
1381 1382 3
1382 1382 417.024
1383 1383 10.4197
1408 1383 6
1384 1384 10.4197
1408 1384 6
1385 1385 26.4197
1408 1385 22
1386 1386 6.4197
1408 1386 2
1387 1387 25.4197
1408 1387 21
1388 1388 16.4197
1408 1388 12
1389 1389 6.4197
1408 1389 2
1390 1390 5.4197
1408 1390 1
1391 1391 10.4197
1408 1391 6
1392 1392 12.4197
1408 1392 8
1393 1393 40.4197
1408 1393 36
1394 1394 19.4197
1408 1394 15
1395 1395 9.4197
1408 1395 5
1396 1396 10.4197
1408 1396 6
1397 1397 20.4197
1408 1397 16
1398 1398 17.4197
1408 1398 13
1399 1399 26.4197
1408 1399 22
1400 1400 11.4197
1408 1400 7
1401 1401 17.4197
1408 1401 13
1402 1402 11.4197
1408 1402 7
1403 1403 17.4197
1408 1403 13
1404 1404 11.4197
1408 1404 7
1405 1405 6.4197
1408 1405 2
1406 1406 25.4197
1408 1406 21
1407 1407 13.4197
1408 1407 9
1383 1408 6
1384 1408 6
1385 1408 22
1386 1408 2
1387 1408 21
1388 1408 12
1389 1408 2
1390 1408 1
1391 1408 6
1392 1408 8
1393 1408 36
1394 1408 15
1395 1408 5
1396 1408 6
1397 1408 16
1398 1408 13
1399 1408 22
1400 1408 7
1401 1408 13
1402 1408 7
1403 1408 13
1404 1408 7
1405 1408 2
1406 1408 21
1407 1408 9
1408 1408 627.024
1409 1409 47.4197
1413 1409 43
1410 1410 8.4197
1413 1410 4
1411 1411 12.4197
1413 1411 8
1412 1412 13.4197
1413 1412 9
1409 1413 43
1410 1413 4
1411 1413 8
1412 1413 9
1413 1413 413.024
1414 1414 16.4197
1477 1414 12
1415 1415 9.4197
1477 1415 5
1416 1416 5.4197
1477 1416 1
1417 1417 9.4197
1477 1417 5
1418 1418 22.4197
1477 1418 18
1419 1419 5.4197
1477 1419 1
1420 1420 46.4197
1477 1420 42
1421 1421 9.4197
1477 1421 5
1422 1422 9.4197
1477 1422 5
1423 1423 20.4197
1477 1423 16
1424 1424 10.4197
1477 1424 6
1425 1425 6.4197
1477 1425 2
1426 1426 9.4197
1477 1426 5
1427 1427 14.4197
1477 1427 10
1428 1428 43.4197
1477 1428 39
1429 1429 21.4197
1477 1429 17
1430 1430 22.4197
1477 1430 18
1431 1431 8.4197
1477 1431 4
1432 1432 12.4197
1477 1432 8
1433 1433 8.4197
1477 1433 4
1434 1434 6.4197
1477 1434 2
1435 1435 6.4197
1477 1435 2
1436 1436 6.4197
1477 1436 2
1437 1437 15.4197
1477 1437 11
1438 1438 28.4197
1477 1438 24
1439 1439 5.4197
1477 1439 1
1440 1440 27.4197
1477 1440 23
1441 1441 15.4197
1477 1441 11
1442 1442 19.4197
1477 1442 15
1443 1443 9.4197
1477 1443 5
1444 1444 21.4197
1477 1444 17
1445 1445 34.4197
1477 1445 30
1446 1446 37.4197
1477 1446 33
1447 1447 30.4197
1477 1447 26
1448 1448 17.4197
1477 1448 13
1449 1449 8.4197
1477 1449 4
1450 1450 8.4197
1477 1450 4
1451 1451 16.4197
1477 1451 12
1452 1452 25.4197
1477 1452 21
1453 1453 9.4197
1477 1453 5
1454 1454 10.4197
1477 1454 6
1455 1455 6.4197
1477 1455 2
1456 1456 8.4197
1477 1456 4
1457 1457 20.4197
1477 1457 16
1458 1458 31.4197
1477 1458 27
1459 1459 13.4197
1477 1459 9
1460 1460 10.4197
1477 1460 6
1461 1461 18.4197
1477 1461 14
1462 1462 14.4197
1477 1462 10
1463 1463 10.4197
1477 1463 6
1464 1464 17.4197
1477 1464 13
1465 1465 11.4197
1477 1465 7
1466 1466 25.4197
1477 1466 21
1467 1467 13.4197
1477 1467 9
1468 1468 15.4197
1477 1468 11
1469 1469 20.4197
1477 1469 16
1470 1470 19.4197
1477 1470 15
1471 1471 7.4197
1477 1471 3
1472 1472 13.4197
1477 1472 9
1473 1473 13.4197
1477 1473 9
1474 1474 6.4197
1477 1474 2
1475 1475 8.4197
1477 1475 4
1476 1476 5.4197
1477 1476 1
1414 1477 12
1415 1477 5
1416 1477 1
1417 1477 5
1418 1477 18
1419 1477 1
1420 1477 42
1421 1477 5
1422 1477 5
1423 1477 16
1424 1477 6
1425 1477 2
1426 1477 5
1427 1477 10
1428 1477 39
1429 1477 17
1430 1477 18
1431 1477 4
1432 1477 8
1433 1477 4
1434 1477 2
1435 1477 2
1436 1477 2
1437 1477 11
1438 1477 24
1439 1477 1
1440 1477 23
1441 1477 11
1442 1477 15
1443 1477 5
1444 1477 17
1445 1477 30
1446 1477 33
1447 1477 26
1448 1477 13
1449 1477 4
1450 1477 4
1451 1477 12
1452 1477 21
1453 1477 5
1454 1477 6
1455 1477 2
1456 1477 4
1457 1477 16
1458 1477 27
1459 1477 9
1460 1477 6
1461 1477 14
1462 1477 10
1463 1477 6
1464 1477 13
1465 1477 7
1466 1477 21
1467 1477 9
1468 1477 11
1469 1477 16
1470 1477 15
1471 1477 3
1472 1477 9
1473 1477 9
1474 1477 2
1475 1477 4
1476 1477 1
1477 1477 1053.02
1478 1478 36.4197
1517 1478 32
1479 1479 130.42
1517 1479 126
1480 1480 7.4197
1517 1480 3
1481 1481 6.4197
1517 1481 2
1482 1482 7.4197
1517 1482 3
1483 1483 5.4197
1517 1483 1
1484 1484 6.4197
1517 1484 2
1485 1485 5.4197
1517 1485 1
1486 1486 6.4197
1517 1486 2
1487 1487 22.4197
1517 1487 18
1488 1488 22.4197
1517 1488 18
1489 1489 23.4197
1517 1489 19
1490 1490 25.4197
1517 1490 21
1491 1491 8.4197
1517 1491 4
1492 1492 10.4197
1517 1492 6
1493 1493 14.4197
1517 1493 10
1494 1494 6.4197
1517 1494 2
1495 1495 15.4197
1517 1495 11
1496 1496 8.4197
1517 1496 4
1497 1497 12.4197
1517 1497 8
1498 1498 9.4197
1517 1498 5
1499 1499 9.4197
1517 1499 5
1500 1500 11.4197
1517 1500 7
1501 1501 17.4197
1517 1501 13
1502 1502 23.4197
1517 1502 19
1503 1503 9.4197
1517 1503 5
1504 1504 16.4197
1517 1504 12
1505 1505 33.4197
1517 1505 29
1506 1506 25.4197
1517 1506 21
1507 1507 7.4197
1517 1507 3
1508 1508 6.4197
1517 1508 2
1509 1509 11.4197
1517 1509 7
1510 1510 7.4197
1517 1510 3
1511 1511 6.4197
1517 1511 2
1512 1512 11.4197
1517 1512 7
1513 1513 17.4197
1517 1513 13
1514 1514 22.4197
1517 1514 18
1515 1515 8.4197
1517 1515 4
1516 1516 5.4197
1517 1516 1
1478 1517 32
1479 1517 126
1480 1517 3
1481 1517 2
1482 1517 3
1483 1517 1
1484 1517 2
1485 1517 1
1486 1517 2
1487 1517 18
1488 1517 18
1489 1517 19
1490 1517 21
1491 1517 4
1492 1517 6
1493 1517 10
1494 1517 2
1495 1517 11
1496 1517 4
1497 1517 8
1498 1517 5
1499 1517 5
1500 1517 7
1501 1517 13
1502 1517 19
1503 1517 5
1504 1517 12
1505 1517 29
1506 1517 21
1507 1517 3
1508 1517 2
1509 1517 7
1510 1517 3
1511 1517 2
1512 1517 7
1513 1517 13
1514 1517 18
1515 1517 4
1516 1517 1
1517 1517 818.024
1518 1518 68.4197
1577 1518 64
1519 1519 50.4197
1577 1519 46
1520 1520 39.4197
1577 1520 35
1521 1521 6.4197
1577 1521 2
1522 1522 6.4197
1577 1522 2
1523 1523 16.4197
1577 1523 12
1524 1524 5.4197
1577 1524 1
1525 1525 6.4197
1577 1525 2
1526 1526 22.4197
1577 1526 18
1527 1527 31.4197
1577 1527 27
1528 1528 6.4197
1577 1528 2
1529 1529 14.4197
1577 1529 10
1530 1530 14.4197
1577 1530 10
1531 1531 7.4197
1577 1531 3
1532 1532 35.4197
1577 1532 31
1533 1533 18.4197
1577 1533 14
1534 1534 8.4197
1577 1534 4
1535 1535 18.4197
1577 1535 14
1536 1536 23.4197
1577 1536 19
1537 1537 21.4197
1577 1537 17
1538 1538 12.4197
1577 1538 8
1539 1539 9.4197
1577 1539 5
1540 1540 9.4197
1577 1540 5
1541 1541 11.4197
1577 1541 7
1542 1542 12.4197
1577 1542 8
1543 1543 12.4197
1577 1543 8
1544 1544 29.4197
1577 1544 25
1545 1545 22.4197
1577 1545 18
1546 1546 29.4197
1577 1546 25
1547 1547 38.4197
1577 1547 34
1548 1548 7.4197
1577 1548 3
1549 1549 9.4197
1577 1549 5
1550 1550 27.4197
1577 1550 23
1551 1551 30.4197
1577 1551 26
1552 1552 12.4197
1577 1552 8
1553 1553 22.4197
1577 1553 18
1554 1554 14.4197
1577 1554 10
1555 1555 12.4197
1577 1555 8
1556 1556 20.4197
1577 1556 16
1557 1557 11.4197
1577 1557 7
1558 1558 9.4197
1577 1558 5
1559 1559 11.4197
1577 1559 7
1560 1560 8.4197
1577 1560 4
1561 1561 23.4197
1577 1561 19
1562 1562 20.4197
1577 1562 16
1563 1563 34.4197
1577 1563 30
1564 1564 6.4197
1577 1564 2
1565 1565 5.4197
1577 1565 1
1566 1566 10.4197
1577 1566 6
1567 1567 16.4197
1577 1567 12
1568 1568 6.4197
1577 1568 2
1569 1569 15.4197
1577 1569 11
1570 1570 10.4197
1577 1570 6
1571 1571 29.4197
1577 1571 25
1572 1572 22.4197
1577 1572 18
1573 1573 13.4197
1577 1573 9
1574 1574 11.4197
1577 1574 7
1575 1575 24.4197
1577 1575 20
1576 1576 6.4197
1577 1576 2
1518 1577 64
1519 1577 46
1520 1577 35
1521 1577 2
1522 1577 2
1523 1577 12
1524 1577 1
1525 1577 2
1526 1577 18
1527 1577 27
1528 1577 2
1529 1577 10
1530 1577 10
1531 1577 3
1532 1577 31
1533 1577 14
1534 1577 4
1535 1577 14
1536 1577 19
1537 1577 17
1538 1577 8
1539 1577 5
1540 1577 5
1541 1577 7
1542 1577 8
1543 1577 8
1544 1577 25
1545 1577 18
1546 1577 25
1547 1577 34
1548 1577 3
1549 1577 5
1550 1577 23
1551 1577 26
1552 1577 8
1553 1577 18
1554 1577 10
1555 1577 8
1556 1577 16
1557 1577 7
1558 1577 5
1559 1577 7
1560 1577 4
1561 1577 19
1562 1577 16
1563 1577 30
1564 1577 2
1565 1577 1
1566 1577 6
1567 1577 12
1568 1577 2
1569 1577 11
1570 1577 6
1571 1577 25
1572 1577 18
1573 1577 9
1574 1577 7
1575 1577 20
1576 1577 2
1577 1577 1151.02
1578 1578 19.4197
1599 1578 15
1579 1579 44.4197
1599 1579 40
1580 1580 25.4197
1599 1580 21
1581 1581 16.4197
1599 1581 12
1582 1582 6.4197
1599 1582 2
1583 1583 10.4197
1599 1583 6
1584 1584 40.4197
1599 1584 36
1585 1585 7.4197
1599 1585 3
1586 1586 21.4197
1599 1586 17
1587 1587 27.4197
1599 1587 23
1588 1588 7.4197
1599 1588 3
1589 1589 18.4197
1599 1589 14
1590 1590 6.4197
1599 1590 2
1591 1591 7.4197
1599 1591 3
1592 1592 10.4197
1599 1592 6
1593 1593 14.4197
1599 1593 10
1594 1594 16.4197
1599 1594 12
1595 1595 12.4197
1599 1595 8
1596 1596 6.4197
1599 1596 2
1597 1597 9.4197
1599 1597 5
1598 1598 5.4197
1599 1598 1
1578 1599 15
1579 1599 40
1580 1599 21
1581 1599 12
1582 1599 2
1583 1599 6
1584 1599 36
1585 1599 3
1586 1599 17
1587 1599 23
1588 1599 3
1589 1599 14
1590 1599 2
1591 1599 3
1592 1599 6
1593 1599 10
1594 1599 12
1595 1599 8
1596 1599 2
1597 1599 5
1598 1599 1
1599 1599 590.024
1600 1600 41.4197
1635 1600 37
1601 1601 5.4197
1635 1601 1
1602 1602 6.4197
1635 1602 2
1603 1603 14.4197
1635 1603 10
1604 1604 19.4197
1635 1604 15
1605 1605 7.4197
1635 1605 3
1606 1606 11.4197
1635 1606 7
1607 1607 11.4197
1635 1607 7
1608 1608 11.4197
1635 1608 7
1609 1609 26.4197
1635 1609 22
1610 1610 15.4197
1635 1610 11
1611 1611 18.4197
1635 1611 14
1612 1612 26.4197
1635 1612 22
1613 1613 7.4197
1635 1613 3
1614 1614 10.4197
1635 1614 6
1615 1615 7.4197
1635 1615 3
1616 1616 11.4197
1635 1616 7
1617 1617 16.4197
1635 1617 12
1618 1618 23.4197
1635 1618 19
1619 1619 18.4197
1635 1619 14
1620 1620 9.4197
1635 1620 5
1621 1621 22.4197
1635 1621 18
1622 1622 9.4197
1635 1622 5
1623 1623 10.4197
1635 1623 6
1624 1624 7.4197
1635 1624 3
1625 1625 17.4197
1635 1625 13
1626 1626 19.4197
1635 1626 15
1627 1627 6.4197
1635 1627 2
1628 1628 18.4197
1635 1628 14
1629 1629 15.4197
1635 1629 11
1630 1630 12.4197
1635 1630 8
1631 1631 25.4197
1635 1631 21
1632 1632 6.4197
1635 1632 2
1633 1633 15.4197
1635 1633 11
1634 1634 12.4197
1635 1634 8
1600 1635 37
1601 1635 1
1602 1635 2
1603 1635 10
1604 1635 15
1605 1635 3
1606 1635 7
1607 1635 7
1608 1635 7
1609 1635 22
1610 1635 11
1611 1635 14
1612 1635 22
1613 1635 3
1614 1635 6
1615 1635 3
1616 1635 7
1617 1635 12
1618 1635 19
1619 1635 14
1620 1635 5
1621 1635 18
1622 1635 5
1623 1635 6
1624 1635 3
1625 1635 13
1626 1635 15
1627 1635 2
1628 1635 14
1629 1635 11
1630 1635 8
1631 1635 21
1632 1635 2
1633 1635 11
1634 1635 8
1635 1635 713.024
1636 1636 7.4197
1693 1636 3
1637 1637 5.4197
1693 1637 1
1638 1638 8.4197
1693 1638 4
1639 1639 36.4197
1693 1639 32
1640 1640 44.4197
1693 1640 40
1641 1641 6.4197
1693 1641 2
1642 1642 27.4197
1693 1642 23
1643 1643 14.4197
1693 1643 10
1644 1644 41.4197
1693 1644 37
1645 1645 16.4197
1693 1645 12
1646 1646 9.4197
1693 1646 5
1647 1647 13.4197
1693 1647 9
1648 1648 5.4197
1693 1648 1
1649 1649 15.4197
1693 1649 11
1650 1650 6.4197
1693 1650 2
1651 1651 19.4197
1693 1651 15
1652 1652 13.4197
1693 1652 9
1653 1653 5.4197
1693 1653 1
1654 1654 5.4197
1693 1654 1
1655 1655 9.4197
1693 1655 5
1656 1656 24.4197
1693 1656 20
1657 1657 10.4197
1693 1657 6
1658 1658 15.4197
1693 1658 11
1659 1659 9.4197
1693 1659 5
1660 1660 26.4197
1693 1660 22
1661 1661 32.4197
1693 1661 28
1662 1662 6.4197
1693 1662 2
1663 1663 10.4197
1693 1663 6
1664 1664 7.4197
1693 1664 3
1665 1665 11.4197
1693 1665 7
1666 1666 11.4197
1693 1666 7
1667 1667 13.4197
1693 1667 9
1668 1668 22.4197
1693 1668 18
1669 1669 5.4197
1693 1669 1
1670 1670 16.4197
1693 1670 12
1671 1671 9.4197
1693 1671 5
1672 1672 17.4197
1693 1672 13
1673 1673 15.4197
1693 1673 11
1674 1674 7.4197
1693 1674 3
1675 1675 5.4197
1693 1675 1
1676 1676 10.4197
1693 1676 6
1677 1677 33.4197
1693 1677 29
1678 1678 5.4197
1693 1678 1
1679 1679 29.4197
1693 1679 25
1680 1680 22.4197
1693 1680 18
1681 1681 7.4197
1693 1681 3
1682 1682 21.4197
1693 1682 17
1683 1683 18.4197
1693 1683 14
1684 1684 8.4197
1693 1684 4
1685 1685 14.4197
1693 1685 10
1686 1686 8.4197
1693 1686 4
1687 1687 20.4197
1693 1687 16
1688 1688 7.4197
1693 1688 3
1689 1689 9.4197
1693 1689 5
1690 1690 11.4197
1693 1690 7
1691 1691 8.4197
1693 1691 4
1692 1692 17.4197
1693 1692 13
1636 1693 3
1637 1693 1
1638 1693 4
1639 1693 32
1640 1693 40
1641 1693 2
1642 1693 23
1643 1693 10
1644 1693 37
1645 1693 12
1646 1693 5
1647 1693 9
1648 1693 1
1649 1693 11
1650 1693 2
1651 1693 15
1652 1693 9
1653 1693 1
1654 1693 1
1655 1693 5
1656 1693 20
1657 1693 6
1658 1693 11
1659 1693 5
1660 1693 22
1661 1693 28
1662 1693 2
1663 1693 6
1664 1693 3
1665 1693 7
1666 1693 7
1667 1693 9
1668 1693 18
1669 1693 1
1670 1693 12
1671 1693 5
1672 1693 13
1673 1693 11
1674 1693 3
1675 1693 1
1676 1693 6
1677 1693 29
1678 1693 1
1679 1693 25
1680 1693 18
1681 1693 3
1682 1693 17
1683 1693 14
1684 1693 4
1685 1693 10
1686 1693 4
1687 1693 16
1688 1693 3
1689 1693 5
1690 1693 7
1691 1693 4
1692 1693 13
1693 1693 941.024
1694 1694 42.4197
1758 1694 38
1695 1695 42.4197
1758 1695 38
1696 1696 71.4197
1758 1696 67
1697 1697 7.4197
1758 1697 3
1698 1698 10.4197
1758 1698 6
1699 1699 33.4197
1758 1699 29
1700 1700 11.4197
1758 1700 7
1701 1701 5.4197
1758 1701 1
1702 1702 26.4197
1758 1702 22
1703 1703 7.4197
1758 1703 3
1704 1704 32.4197
1758 1704 28
1705 1705 6.4197
1758 1705 2
1706 1706 11.4197
1758 1706 7
1707 1707 26.4197
1758 1707 22
1708 1708 11.4197
1758 1708 7
1709 1709 11.4197
1758 1709 7
1710 1710 17.4197
1758 1710 13
1711 1711 6.4197
1758 1711 2
1712 1712 8.4197
1758 1712 4
1713 1713 8.4197
1758 1713 4
1714 1714 7.4197
1758 1714 3
1715 1715 24.4197
1758 1715 20
1716 1716 7.4197
1758 1716 3
1717 1717 9.4197
1758 1717 5
1718 1718 10.4197
1758 1718 6
1719 1719 35.4197
1758 1719 31
1720 1720 6.4197
1758 1720 2
1721 1721 14.4197
1758 1721 10
1722 1722 36.4197
1758 1722 32
1723 1723 8.4197
1758 1723 4
1724 1724 5.4197
1758 1724 1
1725 1725 24.4197
1758 1725 20
1726 1726 10.4197
1758 1726 6
1727 1727 11.4197
1758 1727 7
1728 1728 20.4197
1758 1728 16
1729 1729 6.4197
1758 1729 2
1730 1730 11.4197
1758 1730 7
1731 1731 11.4197
1758 1731 7
1732 1732 8.4197
1758 1732 4
1733 1733 12.4197
1758 1733 8
1734 1734 18.4197
1758 1734 14
1735 1735 25.4197
1758 1735 21
1736 1736 18.4197
1758 1736 14
1737 1737 8.4197
1758 1737 4
1738 1738 27.4197
1758 1738 23
1739 1739 12.4197
1758 1739 8
1740 1740 7.4197
1758 1740 3
1741 1741 45.4197
1758 1741 41
1742 1742 29.4197
1758 1742 25
1743 1743 12.4197
1758 1743 8
1744 1744 9.4197
1758 1744 5
1745 1745 6.4197
1758 1745 2
1746 1746 21.4197
1758 1746 17
1747 1747 6.4197
1758 1747 2
1748 1748 13.4197
1758 1748 9
1749 1749 37.4197
1758 1749 33
1750 1750 7.4197
1758 1750 3
1751 1751 19.4197
1758 1751 15
1752 1752 13.4197
1758 1752 9
1753 1753 10.4197
1758 1753 6
1754 1754 10.4197
1758 1754 6
1755 1755 17.4197
1758 1755 13
1756 1756 5.4197
1758 1756 1
1757 1757 9.4197
1758 1757 5
1694 1758 38
1695 1758 38
1696 1758 67
1697 1758 3
1698 1758 6
1699 1758 29
1700 1758 7
1701 1758 1
1702 1758 22
1703 1758 3
1704 1758 28
1705 1758 2
1706 1758 7
1707 1758 22
1708 1758 7
1709 1758 7
1710 1758 13
1711 1758 2
1712 1758 4
1713 1758 4
1714 1758 3
1715 1758 20
1716 1758 3
1717 1758 5
1718 1758 6
1719 1758 31
1720 1758 2
1721 1758 10
1722 1758 32
1723 1758 4
1724 1758 1
1725 1758 20
1726 1758 6
1727 1758 7
1728 1758 16
1729 1758 2
1730 1758 7
1731 1758 7
1732 1758 4
1733 1758 8
1734 1758 14
1735 1758 21
1736 1758 14
1737 1758 4
1738 1758 23
1739 1758 8
1740 1758 3
1741 1758 41
1742 1758 25
1743 1758 8
1744 1758 5
1745 1758 2
1746 1758 17
1747 1758 2
1748 1758 9
1749 1758 33
1750 1758 3
1751 1758 15
1752 1758 9
1753 1758 6
1754 1758 6
1755 1758 13
1756 1758 1
1757 1758 5
1758 1758 1140.02
1759 1759 22.4197
1796 1759 18
1760 1760 5.4197
1796 1760 1
1761 1761 7.4197
1796 1761 3
1762 1762 14.4197
1796 1762 10
1763 1763 27.4197
1796 1763 23
1764 1764 22.4197
1796 1764 18
1765 1765 25.4197
1796 1765 21
1766 1766 11.4197
1796 1766 7
1767 1767 6.4197
1796 1767 2
1768 1768 10.4197
1796 1768 6
1769 1769 9.4197
1796 1769 5
1770 1770 5.4197
1796 1770 1
1771 1771 19.4197
1796 1771 15
1772 1772 7.4197
1796 1772 3
1773 1773 9.4197
1796 1773 5
1774 1774 5.4197
1796 1774 1
1775 1775 10.4197
1796 1775 6
1776 1776 33.4197
1796 1776 29
1777 1777 7.4197
1796 1777 3
1778 1778 9.4197
1796 1778 5
1779 1779 19.4197
1796 1779 15
1780 1780 11.4197
1796 1780 7
1781 1781 14.4197
1796 1781 10
1782 1782 10.4197
1796 1782 6
1783 1783 56.4197
1796 1783 52
1784 1784 18.4197
1796 1784 14
1785 1785 13.4197
1796 1785 9
1786 1786 6.4197
1796 1786 2
1787 1787 34.4197
1796 1787 30
1788 1788 14.4197
1796 1788 10
1789 1789 5.4197
1796 1789 1
1790 1790 5.4197
1796 1790 1
1791 1791 8.4197
1796 1791 4
1792 1792 21.4197
1796 1792 17
1793 1793 5.4197
1796 1793 1
1794 1794 17.4197
1796 1794 13
1795 1795 25.4197
1796 1795 21
1759 1796 18
1760 1796 1
1761 1796 3
1762 1796 10
1763 1796 23
1764 1796 18
1765 1796 21
1766 1796 7
1767 1796 2
1768 1796 6
1769 1796 5
1770 1796 1
1771 1796 15
1772 1796 3
1773 1796 5
1774 1796 1
1775 1796 6
1776 1796 29
1777 1796 3
1778 1796 5
1779 1796 15
1780 1796 7
1781 1796 10
1782 1796 6
1783 1796 52
1784 1796 14
1785 1796 9
1786 1796 2
1787 1796 30
1788 1796 10
1789 1796 1
1790 1796 1
1791 1796 4
1792 1796 17
1793 1796 1
1794 1796 13
1795 1796 21
1796 1796 744.024
1797 1797 48.4197
1839 1797 44
1798 1798 56.4197
1839 1798 52
1799 1799 7.4197
1839 1799 3
1800 1800 9.4197
1839 1800 5
1801 1801 7.4197
1839 1801 3
1802 1802 6.4197
1839 1802 2
1803 1803 5.4197
1839 1803 1
1804 1804 20.4197
1839 1804 16
1805 1805 30.4197
1839 1805 26
1806 1806 22.4197
1839 1806 18
1807 1807 5.4197
1839 1807 1
1808 1808 15.4197
1839 1808 11
1809 1809 29.4197
1839 1809 25
1810 1810 5.4197
1839 1810 1
1811 1811 35.4197
1839 1811 31
1812 1812 33.4197
1839 1812 29
1813 1813 11.4197
1839 1813 7
1814 1814 11.4197
1839 1814 7
1815 1815 8.4197
1839 1815 4
1816 1816 5.4197
1839 1816 1
1817 1817 15.4197
1839 1817 11
1818 1818 9.4197
1839 1818 5
1819 1819 6.4197
1839 1819 2
1820 1820 15.4197
1839 1820 11
1821 1821 6.4197
1839 1821 2
1822 1822 10.4197
1839 1822 6
1823 1823 10.4197
1839 1823 6
1824 1824 10.4197
1839 1824 6
1825 1825 10.4197
1839 1825 6
1826 1826 9.4197
1839 1826 5
1827 1827 10.4197
1839 1827 6
1828 1828 16.4197
1839 1828 12
1829 1829 13.4197
1839 1829 9
1830 1830 32.4197
1839 1830 28
1831 1831 7.4197
1839 1831 3
1832 1832 13.4197
1839 1832 9
1833 1833 34.4197
1839 1833 30
1834 1834 9.4197
1839 1834 5
1835 1835 28.4197
1839 1835 24
1836 1836 13.4197
1839 1836 9
1837 1837 14.4197
1839 1837 10
1838 1838 22.4197
1839 1838 18
1797 1839 44
1798 1839 52
1799 1839 3
1800 1839 5
1801 1839 3
1802 1839 2
1803 1839 1
1804 1839 16
1805 1839 26
1806 1839 18
1807 1839 1
1808 1839 11
1809 1839 25
1810 1839 1
1811 1839 31
1812 1839 29
1813 1839 7
1814 1839 7
1815 1839 4
1816 1839 1
1817 1839 11
1818 1839 5
1819 1839 2
1820 1839 11
1821 1839 2
1822 1839 6
1823 1839 6
1824 1839 6
1825 1839 6
1826 1839 5
1827 1839 6
1828 1839 12
1829 1839 9
1830 1839 28
1831 1839 3
1832 1839 9
1833 1839 30
1834 1839 5
1835 1839 24
1836 1839 9
1837 1839 10
1838 1839 18
1839 1839 859.024
1840 1840 7.4197
1940 1840 3
1841 1841 5.4197
1940 1841 1
1842 1842 10.4197
1940 1842 6
1843 1843 7.4197
1940 1843 3
1844 1844 6.4197
1940 1844 2
1845 1845 37.4197
1940 1845 33
1846 1846 52.4197
1940 1846 48
1847 1847 20.4197
1940 1847 16
1848 1848 8.4197
1940 1848 4
1849 1849 15.4197
1940 1849 11
1850 1850 14.4197
1940 1850 10
1851 1851 5.4197
1940 1851 1
1852 1852 19.4197
1940 1852 15
1853 1853 37.4197
1940 1853 33
1854 1854 6.4197
1940 1854 2
1855 1855 7.4197
1940 1855 3
1856 1856 7.4197
1940 1856 3
1857 1857 6.4197
1940 1857 2
1858 1858 23.4197
1940 1858 19
1859 1859 12.4197
1940 1859 8
1860 1860 18.4197
1940 1860 14
1861 1861 20.4197
1940 1861 16
1862 1862 7.4197
1940 1862 3
1863 1863 19.4197
1940 1863 15
1864 1864 9.4197
1940 1864 5
1865 1865 7.4197
1940 1865 3
1866 1866 8.4197
1940 1866 4
1867 1867 6.4197
1940 1867 2
1868 1868 16.4197
1940 1868 12
1869 1869 31.4197
1940 1869 27
1870 1870 8.4197
1940 1870 4
1871 1871 5.4197
1940 1871 1
1872 1872 9.4197
1940 1872 5
1873 1873 11.4197
1940 1873 7
1874 1874 19.4197
1940 1874 15
1875 1875 9.4197
1940 1875 5
1876 1876 15.4197
1940 1876 11
1877 1877 9.4197
1940 1877 5
1878 1878 8.4197
1940 1878 4
1879 1879 11.4197
1940 1879 7
1880 1880 9.4197
1940 1880 5
1881 1881 7.4197
1940 1881 3
1882 1882 28.4197
1940 1882 24
1883 1883 9.4197
1940 1883 5
1884 1884 15.4197
1940 1884 11
1885 1885 13.4197
1940 1885 9
1886 1886 37.4197
1940 1886 33
1887 1887 52.4197
1940 1887 48
1888 1888 21.4197
1940 1888 17
1889 1889 13.4197
1940 1889 9
1890 1890 15.4197
1940 1890 11
1891 1891 20.4197
1940 1891 16
1892 1892 9.4197
1940 1892 5
1893 1893 22.4197
1940 1893 18
1894 1894 5.4197
1940 1894 1
1895 1895 5.4197
1940 1895 1
1896 1896 12.4197
1940 1896 8
1897 1897 8.4197
1940 1897 4
1898 1898 10.4197
1940 1898 6
1899 1899 6.4197
1940 1899 2
1900 1900 6.4197
1940 1900 2
1901 1901 9.4197
1940 1901 5
1902 1902 16.4197
1940 1902 12
1903 1903 12.4197
1940 1903 8
1904 1904 6.4197
1940 1904 2
1905 1905 15.4197
1940 1905 11
1906 1906 6.4197
1940 1906 2
1907 1907 9.4197
1940 1907 5
1908 1908 6.4197
1940 1908 2
1909 1909 5.4197
1940 1909 1
1910 1910 6.4197
1940 1910 2
1911 1911 22.4197
1940 1911 18
1912 1912 10.4197
1940 1912 6
1913 1913 18.4197
1940 1913 14
1914 1914 6.4197
1940 1914 2
1915 1915 7.4197
1940 1915 3
1916 1916 20.4197
1940 1916 16
1917 1917 15.4197
1940 1917 11
1918 1918 5.4197
1940 1918 1
1919 1919 12.4197
1940 1919 8
1920 1920 23.4197
1940 1920 19
1921 1921 11.4197
1940 1921 7
1922 1922 7.4197
1940 1922 3
1923 1923 12.4197
1940 1923 8
1924 1924 20.4197
1940 1924 16
1925 1925 6.4197
1940 1925 2
1926 1926 13.4197
1940 1926 9
1927 1927 12.4197
1940 1927 8
1928 1928 9.4197
1940 1928 5
1929 1929 18.4197
1940 1929 14
1930 1930 13.4197
1940 1930 9
1931 1931 12.4197
1940 1931 8
1932 1932 12.4197
1940 1932 8
1933 1933 13.4197
1940 1933 9
1934 1934 29.4197
1940 1934 25
1935 1935 15.4197
1940 1935 11
1936 1936 9.4197
1940 1936 5
1937 1937 10.4197
1940 1937 6
1938 1938 7.4197
1940 1938 3
1939 1939 5.4197
1940 1939 1
1840 1940 3
1841 1940 1
1842 1940 6
1843 1940 3
1844 1940 2
1845 1940 33
1846 1940 48
1847 1940 16
1848 1940 4
1849 1940 11
1850 1940 10
1851 1940 1
1852 1940 15
1853 1940 33
1854 1940 2
1855 1940 3
1856 1940 3
1857 1940 2
1858 1940 19
1859 1940 8
1860 1940 14
1861 1940 16
1862 1940 3
1863 1940 15
1864 1940 5
1865 1940 3
1866 1940 4
1867 1940 2
1868 1940 12
1869 1940 27
1870 1940 4
1871 1940 1
1872 1940 5
1873 1940 7
1874 1940 15
1875 1940 5
1876 1940 11
1877 1940 5
1878 1940 4
1879 1940 7
1880 1940 5
1881 1940 3
1882 1940 24
1883 1940 5
1884 1940 11
1885 1940 9
1886 1940 33
1887 1940 48
1888 1940 17
1889 1940 9
1890 1940 11
1891 1940 16
1892 1940 5
1893 1940 18
1894 1940 1
1895 1940 1
1896 1940 8
1897 1940 4
1898 1940 6
1899 1940 2
1900 1940 2
1901 1940 5
1902 1940 12
1903 1940 8
1904 1940 2
1905 1940 11
1906 1940 2
1907 1940 5
1908 1940 2
1909 1940 1
1910 1940 2
1911 1940 18
1912 1940 6
1913 1940 14
1914 1940 2
1915 1940 3
1916 1940 16
1917 1940 11
1918 1940 1
1919 1940 8
1920 1940 19
1921 1940 7
1922 1940 3
1923 1940 8
1924 1940 16
1925 1940 2
1926 1940 9
1927 1940 8
1928 1940 5
1929 1940 14
1930 1940 9
1931 1940 8
1932 1940 8
1933 1940 9
1934 1940 25
1935 1940 11
1936 1940 5
1937 1940 6
1938 1940 3
1939 1940 1
1940 1940 1280.02
1941 1941 5.4197
1948 1941 1
1942 1942 14.4197
1948 1942 10
1943 1943 7.4197
1948 1943 3
1944 1944 19.4197
1948 1944 15
1945 1945 15.4197
1948 1945 11
1946 1946 20.4197
1948 1946 16
1947 1947 22.4197
1948 1947 18
1941 1948 1
1942 1948 10
1943 1948 3
1944 1948 15
1945 1948 11
1946 1948 16
1947 1948 18
1948 1948 423.024
1949 1949 8.4197
2039 1949 4
1950 1950 5.4197
2039 1950 1
1951 1951 12.4197
2039 1951 8
1952 1952 17.4197
2039 1952 13
1953 1953 9.4197
2039 1953 5
1954 1954 8.4197
2039 1954 4
1955 1955 10.4197
2039 1955 6
1956 1956 13.4197
2039 1956 9
1957 1957 14.4197
2039 1957 10
1958 1958 9.4197
2039 1958 5
1959 1959 16.4197
2039 1959 12
1960 1960 38.4197
2039 1960 34
1961 1961 8.4197
2039 1961 4
1962 1962 6.4197
2039 1962 2
1963 1963 38.4197
2039 1963 34
1964 1964 16.4197
2039 1964 12
1965 1965 5.4197
2039 1965 1
1966 1966 38.4197
2039 1966 34
1967 1967 5.4197
2039 1967 1
1968 1968 13.4197
2039 1968 9
1969 1969 11.4197
2039 1969 7
1970 1970 8.4197
2039 1970 4
1971 1971 5.4197
2039 1971 1
1972 1972 9.4197
2039 1972 5
1973 1973 12.4197
2039 1973 8
1974 1974 17.4197
2039 1974 13
1975 1975 11.4197
2039 1975 7
1976 1976 6.4197
2039 1976 2
1977 1977 10.4197
2039 1977 6
1978 1978 6.4197
2039 1978 2
1979 1979 10.4197
2039 1979 6
1980 1980 9.4197
2039 1980 5
1981 1981 16.4197
2039 1981 12
1982 1982 10.4197
2039 1982 6
1983 1983 6.4197
2039 1983 2
1984 1984 13.4197
2039 1984 9
1985 1985 14.4197
2039 1985 10
1986 1986 10.4197
2039 1986 6
1987 1987 23.4197
2039 1987 19
1988 1988 16.4197
2039 1988 12
1989 1989 26.4197
2039 1989 22
1990 1990 7.4197
2039 1990 3
1991 1991 19.4197
2039 1991 15
1992 1992 19.4197
2039 1992 15
1993 1993 9.4197
2039 1993 5
1994 1994 12.4197
2039 1994 8
1995 1995 13.4197
2039 1995 9
1996 1996 8.4197
2039 1996 4
1997 1997 12.4197
2039 1997 8
1998 1998 29.4197
2039 1998 25
1999 1999 10.4197
2039 1999 6
2000 2000 14.4197
2039 2000 10
2001 2001 12.4197
2039 2001 8
2002 2002 22.4197
2039 2002 18
2003 2003 6.4197
2039 2003 2
2004 2004 34.4197
2039 2004 30
2005 2005 5.4197
2039 2005 1
2006 2006 19.4197
2039 2006 15
2007 2007 28.4197
2039 2007 24
2008 2008 10.4197
2039 2008 6
2009 2009 8.4197
2039 2009 4
2010 2010 38.4197
2039 2010 34
2011 2011 7.4197
2039 2011 3
2012 2012 11.4197
2039 2012 7
2013 2013 12.4197
2039 2013 8
2014 2014 7.4197
2039 2014 3
2015 2015 16.4197
2039 2015 12
2016 2016 29.4197
2039 2016 25
2017 2017 30.4197
2039 2017 26
2018 2018 22.4197
2039 2018 18
2019 2019 20.4197
2039 2019 16
2020 2020 12.4197
2039 2020 8
2021 2021 44.4197
2039 2021 40
2022 2022 30.4197
2039 2022 26
2023 2023 7.4197
2039 2023 3
2024 2024 15.4197
2039 2024 11
2025 2025 8.4197
2039 2025 4
2026 2026 10.4197
2039 2026 6
2027 2027 15.4197
2039 2027 11
2028 2028 29.4197
2039 2028 25
2029 2029 15.4197
2039 2029 11
2030 2030 22.4197
2039 2030 18
2031 2031 6.4197
2039 2031 2
2032 2032 9.4197
2039 2032 5
2033 2033 11.4197
2039 2033 7
2034 2034 11.4197
2039 2034 7
2035 2035 9.4197
2039 2035 5
2036 2036 13.4197
2039 2036 9
2037 2037 19.4197
2039 2037 15
2038 2038 20.4197
2039 2038 16
1949 2039 4
1950 2039 1
1951 2039 8
1952 2039 13
1953 2039 5
1954 2039 4
1955 2039 6
1956 2039 9
1957 2039 10
1958 2039 5
1959 2039 12
1960 2039 34
1961 2039 4
1962 2039 2
1963 2039 34
1964 2039 12
1965 2039 1
1966 2039 34
1967 2039 1
1968 2039 9
1969 2039 7
1970 2039 4
1971 2039 1
1972 2039 5
1973 2039 8
1974 2039 13
1975 2039 7
1976 2039 2
1977 2039 6
1978 2039 2
1979 2039 6
1980 2039 5
1981 2039 12
1982 2039 6
1983 2039 2
1984 2039 9
1985 2039 10
1986 2039 6
1987 2039 19
1988 2039 12
1989 2039 22
1990 2039 3
1991 2039 15
1992 2039 15
1993 2039 5
1994 2039 8
1995 2039 9
1996 2039 4
1997 2039 8
1998 2039 25
1999 2039 6
2000 2039 10
2001 2039 8
2002 2039 18
2003 2039 2
2004 2039 30
2005 2039 1
2006 2039 15
2007 2039 24
2008 2039 6
2009 2039 4
2010 2039 34
2011 2039 3
2012 2039 7
2013 2039 8
2014 2039 3
2015 2039 12
2016 2039 25
2017 2039 26
2018 2039 18
2019 2039 16
2020 2039 8
2021 2039 40
2022 2039 26
2023 2039 3
2024 2039 11
2025 2039 4
2026 2039 6
2027 2039 11
2028 2039 25
2029 2039 11
2030 2039 18
2031 2039 2
2032 2039 5
2033 2039 7
2034 2039 7
2035 2039 5
2036 2039 9
2037 2039 15
2038 2039 16
2039 2039 1318.02
2040 2040 56.4197
2081 2040 52
2041 2041 87.4197
2081 2041 83
2042 2042 60.4197
2081 2042 56
2043 2043 6.4197
2081 2043 2
2044 2044 85.4197
2081 2044 81
2045 2045 16.4197
2081 2045 12
2046 2046 35.4197
2081 2046 31
2047 2047 7.4197
2081 2047 3
2048 2048 29.4197
2081 2048 25
2049 2049 11.4197
2081 2049 7
2050 2050 13.4197
2081 2050 9
2051 2051 40.4197
2081 2051 36
2052 2052 67.4197
2081 2052 63
2053 2053 11.4197
2081 2053 7
2054 2054 13.4197
2081 2054 9
2055 2055 20.4197
2081 2055 16
2056 2056 7.4197
2081 2056 3
2057 2057 18.4197
2081 2057 14
2058 2058 6.4197
2081 2058 2
2059 2059 11.4197
2081 2059 7
2060 2060 16.4197
2081 2060 12
2061 2061 23.4197
2081 2061 19
2062 2062 28.4197
2081 2062 24
2063 2063 50.4197
2081 2063 46
2064 2064 37.4197
2081 2064 33
2065 2065 45.4197
2081 2065 41
2066 2066 26.4197
2081 2066 22
2067 2067 17.4197
2081 2067 13
2068 2068 20.4197
2081 2068 16
2069 2069 51.4197
2081 2069 47
2070 2070 7.4197
2081 2070 3
2071 2071 12.4197
2081 2071 8
2072 2072 25.4197
2081 2072 21
2073 2073 23.4197
2081 2073 19
2074 2074 6.4197
2081 2074 2
2075 2075 18.4197
2081 2075 14
2076 2076 12.4197
2081 2076 8
2077 2077 21.4197
2081 2077 17
2078 2078 34.4197
2081 2078 30
2079 2079 5.4197
2081 2079 1
2080 2080 6.4197
2081 2080 2
2040 2081 52
2041 2081 83
2042 2081 56
2043 2081 2
2044 2081 81
2045 2081 12
2046 2081 31
2047 2081 3
2048 2081 25
2049 2081 7
2050 2081 9
2051 2081 36
2052 2081 63
2053 2081 7
2054 2081 9
2055 2081 16
2056 2081 3
2057 2081 14
2058 2081 2
2059 2081 7
2060 2081 12
2061 2081 19
2062 2081 24
2063 2081 46
2064 2081 33
2065 2081 41
2066 2081 22
2067 2081 13
2068 2081 16
2069 2081 47
2070 2081 3
2071 2081 8
2072 2081 21
2073 2081 19
2074 2081 2
2075 2081 14
2076 2081 8
2077 2081 17
2078 2081 30
2079 2081 1
2080 2081 2
2081 2081 1265.02
2082 2082 8.4197
2116 2082 4
2083 2083 7.4197
2116 2083 3
2084 2084 16.4197
2116 2084 12
2085 2085 7.4197
2116 2085 3
2086 2086 17.4197
2116 2086 13
2087 2087 18.4197
2116 2087 14
2088 2088 6.4197
2116 2088 2
2089 2089 13.4197
2116 2089 9
2090 2090 6.4197
2116 2090 2
2091 2091 11.4197
2116 2091 7
2092 2092 9.4197
2116 2092 5
2093 2093 9.4197
2116 2093 5
2094 2094 19.4197
2116 2094 15
2095 2095 17.4197
2116 2095 13
2096 2096 9.4197
2116 2096 5
2097 2097 22.4197
2116 2097 18
2098 2098 28.4197
2116 2098 24
2099 2099 9.4197
2116 2099 5
2100 2100 25.4197
2116 2100 21
2101 2101 26.4197
2116 2101 22
2102 2102 10.4197
2116 2102 6
2103 2103 12.4197
2116 2103 8
2104 2104 21.4197
2116 2104 17
2105 2105 16.4197
2116 2105 12
2106 2106 19.4197
2116 2106 15
2107 2107 16.4197
2116 2107 12
2108 2108 40.4197
2116 2108 36
2109 2109 7.4197
2116 2109 3
2110 2110 23.4197
2116 2110 19
2111 2111 18.4197
2116 2111 14
2112 2112 8.4197
2116 2112 4
2113 2113 13.4197
2116 2113 9
2114 2114 19.4197
2116 2114 15
2115 2115 8.4197
2116 2115 4
2082 2116 4
2083 2116 3
2084 2116 12
2085 2116 3
2086 2116 13
2087 2116 14
2088 2116 2
2089 2116 9
2090 2116 2
2091 2116 7
2092 2116 5
2093 2116 5
2094 2116 15
2095 2116 13
2096 2116 5
2097 2116 18
2098 2116 24
2099 2116 5
2100 2116 21
2101 2116 22
2102 2116 6
2103 2116 8
2104 2116 17
2105 2116 12
2106 2116 15
2107 2116 12
2108 2116 36
2109 2116 3
2110 2116 19
2111 2116 14
2112 2116 4
2113 2116 9
2114 2116 15
2115 2116 4
2116 2116 725.024
2117 2117 25.4197
2151 2117 21
2118 2118 36.4197
2151 2118 32
2119 2119 12.4197
2151 2119 8
2120 2120 20.4197
2151 2120 16
2121 2121 7.4197
2151 2121 3
2122 2122 9.4197
2151 2122 5
2123 2123 35.4197
2151 2123 31
2124 2124 23.4197
2151 2124 19
2125 2125 8.4197
2151 2125 4
2126 2126 6.4197
2151 2126 2
2127 2127 17.4197
2151 2127 13
2128 2128 9.4197
2151 2128 5
2129 2129 13.4197
2151 2129 9
2130 2130 19.4197
2151 2130 15
2131 2131 19.4197
2151 2131 15
2132 2132 11.4197
2151 2132 7
2133 2133 14.4197
2151 2133 10
2134 2134 16.4197
2151 2134 12
2135 2135 18.4197
2151 2135 14
2136 2136 15.4197
2151 2136 11
2137 2137 12.4197
2151 2137 8
2138 2138 24.4197
2151 2138 20
2139 2139 10.4197
2151 2139 6
2140 2140 7.4197
2151 2140 3
2141 2141 5.4197
2151 2141 1
2142 2142 40.4197
2151 2142 36
2143 2143 36.4197
2151 2143 32
2144 2144 17.4197
2151 2144 13
2145 2145 5.4197
2151 2145 1
2146 2146 8.4197
2151 2146 4
2147 2147 9.4197
2151 2147 5
2148 2148 11.4197
2151 2148 7
2149 2149 11.4197
2151 2149 7
2150 2150 17.4197
2151 2150 13
2117 2151 21
2118 2151 32
2119 2151 8
2120 2151 16
2121 2151 3
2122 2151 5
2123 2151 31
2124 2151 19
2125 2151 4
2126 2151 2
2127 2151 13
2128 2151 5
2129 2151 9
2130 2151 15
2131 2151 15
2132 2151 7
2133 2151 10
2134 2151 12
2135 2151 14
2136 2151 11
2137 2151 8
2138 2151 20
2139 2151 6
2140 2151 3
2141 2151 1
2142 2151 36
2143 2151 32
2144 2151 13
2145 2151 1
2146 2151 4
2147 2151 5
2148 2151 7
2149 2151 7
2150 2151 13
2151 2151 757.024
2152 2152 5.4197
2195 2152 1
2153 2153 8.4197
2195 2153 4
2154 2154 9.4197
2195 2154 5
2155 2155 18.4197
2195 2155 14
2156 2156 9.4197
2195 2156 5
2157 2157 18.4197
2195 2157 14
2158 2158 8.4197
2195 2158 4
2159 2159 13.4197
2195 2159 9
2160 2160 55.4197
2195 2160 51
2161 2161 5.4197
2195 2161 1
2162 2162 16.4197
2195 2162 12
2163 2163 14.4197
2195 2163 10
2164 2164 17.4197
2195 2164 13
2165 2165 12.4197
2195 2165 8
2166 2166 6.4197
2195 2166 2
2167 2167 7.4197
2195 2167 3
2168 2168 12.4197
2195 2168 8
2169 2169 5.4197
2195 2169 1
2170 2170 27.4197
2195 2170 23
2171 2171 15.4197
2195 2171 11
2172 2172 5.4197
2195 2172 1
2173 2173 6.4197
2195 2173 2
2174 2174 8.4197
2195 2174 4
2175 2175 9.4197
2195 2175 5
2176 2176 25.4197
2195 2176 21
2177 2177 8.4197
2195 2177 4
2178 2178 5.4197
2195 2178 1
2179 2179 10.4197
2195 2179 6
2180 2180 6.4197
2195 2180 2
2181 2181 5.4197
2195 2181 1
2182 2182 6.4197
2195 2182 2
2183 2183 19.4197
2195 2183 15
2184 2184 10.4197
2195 2184 6
2185 2185 7.4197
2195 2185 3
2186 2186 11.4197
2195 2186 7
2187 2187 9.4197
2195 2187 5
2188 2188 18.4197
2195 2188 14
2189 2189 10.4197
2195 2189 6
2190 2190 9.4197
2195 2190 5
2191 2191 9.4197
2195 2191 5
2192 2192 6.4197
2195 2192 2
2193 2193 8.4197
2195 2193 4
2194 2194 13.4197
2195 2194 9
2152 2195 1
2153 2195 4
2154 2195 5
2155 2195 14
2156 2195 5
2157 2195 14
2158 2195 4
2159 2195 9
2160 2195 51
2161 2195 1
2162 2195 12
2163 2195 10
2164 2195 13
2165 2195 8
2166 2195 2
2167 2195 3
2168 2195 8
2169 2195 1
2170 2195 23
2171 2195 11
2172 2195 1
2173 2195 2
2174 2195 4
2175 2195 5
2176 2195 21
2177 2195 4
2178 2195 1
2179 2195 6
2180 2195 2
2181 2195 1
2182 2195 2
2183 2195 15
2184 2195 6
2185 2195 3
2186 2195 7
2187 2195 5
2188 2195 14
2189 2195 6
2190 2195 5
2191 2195 5
2192 2195 2
2193 2195 4
2194 2195 9
2195 2195 678.024
2196 2196 5.4197
2214 2196 1
2197 2197 6.4197
2214 2197 2
2198 2198 16.4197
2214 2198 12
2199 2199 9.4197
2214 2199 5
2200 2200 41.4197
2214 2200 37
2201 2201 17.4197
2214 2201 13
2202 2202 21.4197
2214 2202 17
2203 2203 11.4197
2214 2203 7
2204 2204 14.4197
2214 2204 10
2205 2205 13.4197
2214 2205 9
2206 2206 41.4197
2214 2206 37
2207 2207 21.4197
2214 2207 17
2208 2208 31.4197
2214 2208 27
2209 2209 13.4197
2214 2209 9
2210 2210 27.4197
2214 2210 23
2211 2211 16.4197
2214 2211 12
2212 2212 7.4197
2214 2212 3
2213 2213 14.4197
2214 2213 10
2196 2214 1
2197 2214 2
2198 2214 12
2199 2214 5
2200 2214 37
2201 2214 13
2202 2214 17
2203 2214 7
2204 2214 10
2205 2214 9
2206 2214 37
2207 2214 17
2208 2214 27
2209 2214 9
2210 2214 23
2211 2214 12
2212 2214 3
2213 2214 10
2214 2214 600.024
2215 2215 35.4197
2276 2215 31
2216 2216 45.4197
2276 2216 41
2217 2217 21.4197
2276 2217 17
2218 2218 7.4197
2276 2218 3
2219 2219 5.4197
2276 2219 1
2220 2220 7.4197
2276 2220 3
2221 2221 5.4197
2276 2221 1
2222 2222 17.4197
2276 2222 13
2223 2223 7.4197
2276 2223 3
2224 2224 45.4197
2276 2224 41
2225 2225 5.4197
2276 2225 1
2226 2226 49.4197
2276 2226 45
2227 2227 12.4197
2276 2227 8
2228 2228 12.4197
2276 2228 8
2229 2229 8.4197
2276 2229 4
2230 2230 26.4197
2276 2230 22
2231 2231 17.4197
2276 2231 13
2232 2232 10.4197
2276 2232 6
2233 2233 13.4197
2276 2233 9
2234 2234 7.4197
2276 2234 3
2235 2235 32.4197
2276 2235 28
2236 2236 13.4197
2276 2236 9
2237 2237 23.4197
2276 2237 19
2238 2238 13.4197
2276 2238 9
2239 2239 6.4197
2276 2239 2
2240 2240 5.4197
2276 2240 1
2241 2241 31.4197
2276 2241 27
2242 2242 10.4197
2276 2242 6
2243 2243 12.4197
2276 2243 8
2244 2244 19.4197
2276 2244 15
2245 2245 32.4197
2276 2245 28
2246 2246 18.4197
2276 2246 14
2247 2247 6.4197
2276 2247 2
2248 2248 10.4197
2276 2248 6
2249 2249 21.4197
2276 2249 17
2250 2250 6.4197
2276 2250 2
2251 2251 19.4197
2276 2251 15
2252 2252 20.4197
2276 2252 16
2253 2253 11.4197
2276 2253 7
2254 2254 22.4197
2276 2254 18
2255 2255 8.4197
2276 2255 4
2256 2256 5.4197
2276 2256 1
2257 2257 8.4197
2276 2257 4
2258 2258 9.4197
2276 2258 5
2259 2259 12.4197
2276 2259 8
2260 2260 21.4197
2276 2260 17
2261 2261 6.4197
2276 2261 2
2262 2262 6.4197
2276 2262 2
2263 2263 11.4197
2276 2263 7
2264 2264 17.4197
2276 2264 13
2265 2265 10.4197
2276 2265 6
2266 2266 7.4197
2276 2266 3
2267 2267 23.4197
2276 2267 19
2268 2268 14.4197
2276 2268 10
2269 2269 12.4197
2276 2269 8
2270 2270 9.4197
2276 2270 5
2271 2271 8.4197
2276 2271 4
2272 2272 8.4197
2276 2272 4
2273 2273 7.4197
2276 2273 3
2274 2274 15.4197
2276 2274 11
2275 2275 7.4197
2276 2275 3
2215 2276 31
2216 2276 41
2217 2276 17
2218 2276 3
2219 2276 1
2220 2276 3
2221 2276 1
2222 2276 13
2223 2276 3
2224 2276 41
2225 2276 1
2226 2276 45
2227 2276 8
2228 2276 8
2229 2276 4
2230 2276 22
2231 2276 13
2232 2276 6
2233 2276 9
2234 2276 3
2235 2276 28
2236 2276 9
2237 2276 19
2238 2276 9
2239 2276 2
2240 2276 1
2241 2276 27
2242 2276 6
2243 2276 8
2244 2276 15
2245 2276 28
2246 2276 14
2247 2276 2
2248 2276 6
2249 2276 17
2250 2276 2
2251 2276 15
2252 2276 16
2253 2276 7
2254 2276 18
2255 2276 4
2256 2276 1
2257 2276 4
2258 2276 5
2259 2276 8
2260 2276 17
2261 2276 2
2262 2276 2
2263 2276 7
2264 2276 13
2265 2276 6
2266 2276 3
2267 2276 19
2268 2276 10
2269 2276 8
2270 2276 5
2271 2276 4
2272 2276 4
2273 2276 3
2274 2276 11
2275 2276 3
2276 2276 1010.02
2277 2277 5.4197
2324 2277 1
2278 2278 8.4197
2324 2278 4
2279 2279 5.4197
2324 2279 1
2280 2280 45.4197
2324 2280 41
2281 2281 9.4197
2324 2281 5
2282 2282 18.4197
2324 2282 14
2283 2283 44.4197
2324 2283 40
2284 2284 24.4197
2324 2284 20
2285 2285 21.4197
2324 2285 17
2286 2286 5.4197
2324 2286 1
2287 2287 28.4197
2324 2287 24
2288 2288 9.4197
2324 2288 5
2289 2289 15.4197
2324 2289 11
2290 2290 5.4197
2324 2290 1
2291 2291 25.4197
2324 2291 21
2292 2292 24.4197
2324 2292 20
2293 2293 9.4197
2324 2293 5
2294 2294 9.4197
2324 2294 5
2295 2295 10.4197
2324 2295 6
2296 2296 5.4197
2324 2296 1
2297 2297 17.4197
2324 2297 13
2298 2298 5.4197
2324 2298 1
2299 2299 27.4197
2324 2299 23
2300 2300 6.4197
2324 2300 2
2301 2301 27.4197
2324 2301 23
2302 2302 10.4197
2324 2302 6
2303 2303 22.4197
2324 2303 18
2304 2304 13.4197
2324 2304 9
2305 2305 14.4197
2324 2305 10
2306 2306 10.4197
2324 2306 6
2307 2307 10.4197
2324 2307 6
2308 2308 11.4197
2324 2308 7
2309 2309 10.4197
2324 2309 6
2310 2310 7.4197
2324 2310 3
2311 2311 8.4197
2324 2311 4
2312 2312 38.4197
2324 2312 34
2313 2313 28.4197
2324 2313 24
2314 2314 6.4197
2324 2314 2
2315 2315 10.4197
2324 2315 6
2316 2316 7.4197
2324 2316 3
2317 2317 20.4197
2324 2317 16
2318 2318 20.4197
2324 2318 16
2319 2319 17.4197
2324 2319 13
2320 2320 8.4197
2324 2320 4
2321 2321 11.4197
2324 2321 7
2322 2322 14.4197
2324 2322 10
2323 2323 9.4197
2324 2323 5
2277 2324 1
2278 2324 4
2279 2324 1
2280 2324 41
2281 2324 5
2282 2324 14
2283 2324 40
2284 2324 20
2285 2324 17
2286 2324 1
2287 2324 24
2288 2324 5
2289 2324 11
2290 2324 1
2291 2324 21
2292 2324 20
2293 2324 5
2294 2324 5
2295 2324 6
2296 2324 1
2297 2324 13
2298 2324 1
2299 2324 23
2300 2324 2
2301 2324 23
2302 2324 6
2303 2324 18
2304 2324 9
2305 2324 10
2306 2324 6
2307 2324 6
2308 2324 7
2309 2324 6
2310 2324 3
2311 2324 4
2312 2324 34
2313 2324 24
2314 2324 2
2315 2324 6
2316 2324 3
2317 2324 16
2318 2324 16
2319 2324 13
2320 2324 4
2321 2324 7
2322 2324 10
2323 2324 5
2324 2324 869.024
2325 2325 13.4197
2350 2325 9
2326 2326 43.4197
2350 2326 39
2327 2327 53.4197
2350 2327 49
2328 2328 5.4197
2350 2328 1
2329 2329 13.4197
2350 2329 9
2330 2330 10.4197
2350 2330 6
2331 2331 5.4197
2350 2331 1
2332 2332 15.4197
2350 2332 11
2333 2333 7.4197
2350 2333 3
2334 2334 13.4197
2350 2334 9
2335 2335 33.4197
2350 2335 29
2336 2336 9.4197
2350 2336 5
2337 2337 8.4197
2350 2337 4
2338 2338 6.4197
2350 2338 2
2339 2339 7.4197
2350 2339 3
2340 2340 17.4197
2350 2340 13
2341 2341 13.4197
2350 2341 9
2342 2342 9.4197
2350 2342 5
2343 2343 9.4197
2350 2343 5
2344 2344 20.4197
2350 2344 16
2345 2345 11.4197
2350 2345 7
2346 2346 15.4197
2350 2346 11
2347 2347 14.4197
2350 2347 10
2348 2348 7.4197
2350 2348 3
2349 2349 10.4197
2350 2349 6
2325 2350 9
2326 2350 39
2327 2350 49
2328 2350 1
2329 2350 9
2330 2350 6
2331 2350 1
2332 2350 11
2333 2350 3
2334 2350 9
2335 2350 29
2336 2350 5
2337 2350 4
2338 2350 2
2339 2350 3
2340 2350 13
2341 2350 9
2342 2350 5
2343 2350 5
2344 2350 16
2345 2350 7
2346 2350 11
2347 2350 10
2348 2350 3
2349 2350 6
2350 2350 614.024
2351 2351 55.4197
2373 2351 51
2352 2352 28.4197
2373 2352 24
2353 2353 20.4197
2373 2353 16
2354 2354 8.4197
2373 2354 4
2355 2355 12.4197
2373 2355 8
2356 2356 24.4197
2373 2356 20
2357 2357 19.4197
2373 2357 15
2358 2358 13.4197
2373 2358 9
2359 2359 26.4197
2373 2359 22
2360 2360 17.4197
2373 2360 13
2361 2361 41.4197
2373 2361 37
2362 2362 10.4197
2373 2362 6
2363 2363 10.4197
2373 2363 6
2364 2364 14.4197
2373 2364 10
2365 2365 13.4197
2373 2365 9
2366 2366 23.4197
2373 2366 19
2367 2367 12.4197
2373 2367 8
2368 2368 15.4197
2373 2368 11
2369 2369 9.4197
2373 2369 5
2370 2370 13.4197
2373 2370 9
2371 2371 7.4197
2373 2371 3
2372 2372 20.4197
2373 2372 16
2351 2373 51
2352 2373 24
2353 2373 16
2354 2373 4
2355 2373 8
2356 2373 20
2357 2373 15
2358 2373 9
2359 2373 22
2360 2373 13
2361 2373 37
2362 2373 6
2363 2373 6
2364 2373 10
2365 2373 9
2366 2373 19
2367 2373 8
2368 2373 11
2369 2373 5
2370 2373 9
2371 2373 3
2372 2373 16
2373 2373 670.024
2374 2374 12.4197
2410 2374 8
2375 2375 8.4197
2410 2375 4
2376 2376 5.4197
2410 2376 1
2377 2377 14.4197
2410 2377 10
2378 2378 15.4197
2410 2378 11
2379 2379 27.4197
2410 2379 23
2380 2380 13.4197
2410 2380 9
2381 2381 16.4197
2410 2381 12
2382 2382 13.4197
2410 2382 9
2383 2383 35.4197
2410 2383 31
2384 2384 7.4197
2410 2384 3
2385 2385 7.4197
2410 2385 3
2386 2386 21.4197
2410 2386 17
2387 2387 13.4197
2410 2387 9
2388 2388 7.4197
2410 2388 3
2389 2389 11.4197
2410 2389 7
2390 2390 12.4197
2410 2390 8
2391 2391 15.4197
2410 2391 11
2392 2392 52.4197
2410 2392 48
2393 2393 13.4197
2410 2393 9
2394 2394 17.4197
2410 2394 13
2395 2395 15.4197
2410 2395 11
2396 2396 7.4197
2410 2396 3
2397 2397 6.4197
2410 2397 2
2398 2398 26.4197
2410 2398 22
2399 2399 25.4197
2410 2399 21
2400 2400 25.4197
2410 2400 21
2401 2401 11.4197
2410 2401 7
2402 2402 15.4197
2410 2402 11
2403 2403 11.4197
2410 2403 7
2404 2404 19.4197
2410 2404 15
2405 2405 19.4197
2410 2405 15
2406 2406 26.4197
2410 2406 22
2407 2407 16.4197
2410 2407 12
2408 2408 8.4197
2410 2408 4
2409 2409 14.4197
2410 2409 10
2374 2410 8
2375 2410 4
2376 2410 1
2377 2410 10
2378 2410 11
2379 2410 23
2380 2410 9
2381 2410 12
2382 2410 9
2383 2410 31
2384 2410 3
2385 2410 3
2386 2410 17
2387 2410 9
2388 2410 3
2389 2410 7
2390 2410 8
2391 2410 11
2392 2410 48
2393 2410 9
2394 2410 13
2395 2410 11
2396 2410 3
2397 2410 2
2398 2410 22
2399 2410 21
2400 2410 21
2401 2410 7
2402 2410 11
2403 2410 7
2404 2410 15
2405 2410 15
2406 2410 22
2407 2410 12
2408 2410 4
2409 2410 10
2410 2410 781.024
2411 2411 23.4197
2475 2411 19
2412 2412 20.4197
2475 2412 16
2413 2413 5.4197
2475 2413 1
2414 2414 26.4197
2475 2414 22
2415 2415 41.4197
2475 2415 37
2416 2416 52.4197
2475 2416 48
2417 2417 51.4197
2475 2417 47
2418 2418 14.4197
2475 2418 10
2419 2419 5.4197
2475 2419 1
2420 2420 8.4197
2475 2420 4
2421 2421 6.4197
2475 2421 2
2422 2422 5.4197
2475 2422 1
2423 2423 19.4197
2475 2423 15
2424 2424 20.4197
2475 2424 16
2425 2425 39.4197
2475 2425 35
2426 2426 32.4197
2475 2426 28
2427 2427 6.4197
2475 2427 2
2428 2428 10.4197
2475 2428 6
2429 2429 8.4197
2475 2429 4
2430 2430 9.4197
2475 2430 5
2431 2431 5.4197
2475 2431 1
2432 2432 10.4197
2475 2432 6
2433 2433 13.4197
2475 2433 9
2434 2434 7.4197
2475 2434 3
2435 2435 13.4197
2475 2435 9
2436 2436 8.4197
2475 2436 4
2437 2437 6.4197
2475 2437 2
2438 2438 6.4197
2475 2438 2
2439 2439 14.4197
2475 2439 10
2440 2440 6.4197
2475 2440 2
2441 2441 14.4197
2475 2441 10
2442 2442 23.4197
2475 2442 19
2443 2443 31.4197
2475 2443 27
2444 2444 5.4197
2475 2444 1
2445 2445 57.4197
2475 2445 53
2446 2446 23.4197
2475 2446 19
2447 2447 6.4197
2475 2447 2
2448 2448 14.4197
2475 2448 10
2449 2449 13.4197
2475 2449 9
2450 2450 9.4197
2475 2450 5
2451 2451 18.4197
2475 2451 14
2452 2452 22.4197
2475 2452 18
2453 2453 8.4197
2475 2453 4
2454 2454 7.4197
2475 2454 3
2455 2455 12.4197
2475 2455 8
2456 2456 7.4197
2475 2456 3
2457 2457 13.4197
2475 2457 9
2458 2458 24.4197
2475 2458 20
2459 2459 12.4197
2475 2459 8
2460 2460 33.4197
2475 2460 29
2461 2461 16.4197
2475 2461 12
2462 2462 8.4197
2475 2462 4
2463 2463 18.4197
2475 2463 14
2464 2464 8.4197
2475 2464 4
2465 2465 8.4197
2475 2465 4
2466 2466 21.4197
2475 2466 17
2467 2467 16.4197
2475 2467 12
2468 2468 8.4197
2475 2468 4
2469 2469 23.4197
2475 2469 19
2470 2470 6.4197
2475 2470 2
2471 2471 5.4197
2475 2471 1
2472 2472 15.4197
2475 2472 11
2473 2473 14.4197
2475 2473 10
2474 2474 14.4197
2475 2474 10
2411 2475 19
2412 2475 16
2413 2475 1
2414 2475 22
2415 2475 37
2416 2475 48
2417 2475 47
2418 2475 10
2419 2475 1
2420 2475 4
2421 2475 2
2422 2475 1
2423 2475 15
2424 2475 16
2425 2475 35
2426 2475 28
2427 2475 2
2428 2475 6
2429 2475 4
2430 2475 5
2431 2475 1
2432 2475 6
2433 2475 9
2434 2475 3
2435 2475 9
2436 2475 4
2437 2475 2
2438 2475 2
2439 2475 10
2440 2475 2
2441 2475 10
2442 2475 19
2443 2475 27
2444 2475 1
2445 2475 53
2446 2475 19
2447 2475 2
2448 2475 10
2449 2475 9
2450 2475 5
2451 2475 14
2452 2475 18
2453 2475 4
2454 2475 3
2455 2475 8
2456 2475 3
2457 2475 9
2458 2475 20
2459 2475 8
2460 2475 29
2461 2475 12
2462 2475 4
2463 2475 14
2464 2475 4
2465 2475 4
2466 2475 17
2467 2475 12
2468 2475 4
2469 2475 19
2470 2475 2
2471 2475 1
2472 2475 11
2473 2475 10
2474 2475 10
2475 2475 1111.02
2476 2476 49.4197
2506 2476 45
2477 2477 6.4197
2506 2477 2
2478 2478 8.4197
2506 2478 4
2479 2479 5.4197
2506 2479 1
2480 2480 13.4197
2506 2480 9
2481 2481 28.4197
2506 2481 24
2482 2482 10.4197
2506 2482 6
2483 2483 31.4197
2506 2483 27
2484 2484 36.4197
2506 2484 32
2485 2485 5.4197
2506 2485 1
2486 2486 11.4197
2506 2486 7
2487 2487 6.4197
2506 2487 2
2488 2488 31.4197
2506 2488 27
2489 2489 20.4197
2506 2489 16
2490 2490 9.4197
2506 2490 5
2491 2491 29.4197
2506 2491 25
2492 2492 20.4197
2506 2492 16
2493 2493 31.4197
2506 2493 27
2494 2494 13.4197
2506 2494 9
2495 2495 12.4197
2506 2495 8
2496 2496 11.4197
2506 2496 7
2497 2497 25.4197
2506 2497 21
2498 2498 6.4197
2506 2498 2
2499 2499 10.4197
2506 2499 6
2500 2500 13.4197
2506 2500 9
2501 2501 12.4197
2506 2501 8
2502 2502 7.4197
2506 2502 3
2503 2503 9.4197
2506 2503 5
2504 2504 12.4197
2506 2504 8
2505 2505 33.4197
2506 2505 29
2476 2506 45
2477 2506 2
2478 2506 4
2479 2506 1
2480 2506 9
2481 2506 24
2482 2506 6
2483 2506 27
2484 2506 32
2485 2506 1
2486 2506 7
2487 2506 2
2488 2506 27
2489 2506 16
2490 2506 5
2491 2506 25
2492 2506 16
2493 2506 27
2494 2506 9
2495 2506 8
2496 2506 7
2497 2506 21
2498 2506 2
2499 2506 6
2500 2506 9
2501 2506 8
2502 2506 3
2503 2506 5
2504 2506 8
2505 2506 29
2506 2506 740.024
2507 2507 39.4197
2541 2507 35
2508 2508 57.4197
2541 2508 53
2509 2509 69.4197
2541 2509 65
2510 2510 13.4197
2541 2510 9
2511 2511 7.4197
2541 2511 3
2512 2512 12.4197
2541 2512 8
2513 2513 8.4197
2541 2513 4
2514 2514 10.4197
2541 2514 6
2515 2515 6.4197
2541 2515 2
2516 2516 5.4197
2541 2516 1
2517 2517 14.4197
2541 2517 10
2518 2518 8.4197
2541 2518 4
2519 2519 21.4197
2541 2519 17
2520 2520 34.4197
2541 2520 30
2521 2521 11.4197
2541 2521 7
2522 2522 14.4197
2541 2522 10
2523 2523 16.4197
2541 2523 12
2524 2524 9.4197
2541 2524 5
2525 2525 22.4197
2541 2525 18
2526 2526 19.4197
2541 2526 15
2527 2527 22.4197
2541 2527 18
2528 2528 14.4197
2541 2528 10
2529 2529 13.4197
2541 2529 9
2530 2530 8.4197
2541 2530 4
2531 2531 7.4197
2541 2531 3
2532 2532 8.4197
2541 2532 4
2533 2533 17.4197
2541 2533 13
2534 2534 10.4197
2541 2534 6
2535 2535 10.4197
2541 2535 6
2536 2536 7.4197
2541 2536 3
2537 2537 22.4197
2541 2537 18
2538 2538 17.4197
2541 2538 13
2539 2539 16.4197
2541 2539 12
2540 2540 13.4197
2541 2540 9
2507 2541 35
2508 2541 53
2509 2541 65
2510 2541 9
2511 2541 3
2512 2541 8
2513 2541 4
2514 2541 6
2515 2541 2
2516 2541 1
2517 2541 10
2518 2541 4
2519 2541 17
2520 2541 30
2521 2541 7
2522 2541 10
2523 2541 12
2524 2541 5
2525 2541 18
2526 2541 15
2527 2541 18
2528 2541 10
2529 2541 9
2530 2541 4
2531 2541 3
2532 2541 4
2533 2541 13
2534 2541 6
2535 2541 6
2536 2541 3
2537 2541 18
2538 2541 13
2539 2541 12
2540 2541 9
2541 2541 791.024
