%%MatrixMarket matrix coordinate real general
2541 2541 7361
1 1 32.4197
3 1 0.863672
2 2 17.4197
3 2 0.746282
1 3 28
2 3 13
3 3 356.139
4 4 5.4197
17 4 0.184512
5 5 6.4197
17 5 0.311541
6 6 9.4197
17 6 0.530803
7 7 34.4197
17 7 0.871594
8 8 31.4197
17 8 0.859334
9 9 5.4197
17 9 0.184512
10 10 27.4197
17 10 0.838813
11 11 15.4197
17 11 0.713373
12 12 8.4197
17 12 0.475077
13 13 18.4197
17 13 0.760056
14 14 20.4197
17 14 0.783557
15 15 11.4197
17 15 0.612976
16 16 7.4197
17 16 0.404329
4 17 1
5 17 2
6 17 5
7 17 30
8 17 27
9 17 1
10 17 23
11 17 11
12 17 4
13 17 14
14 17 16
15 17 7
16 17 3
17 17 382.306
18 18 7.4197
26 18 0.404329
19 19 11.4197
26 19 0.612976
20 20 17.4197
26 20 0.746282
21 21 6.4197
26 21 0.311541
22 22 10.4197
26 22 0.575833
23 23 8.4197
26 23 0.475077
24 24 18.4197
26 24 0.760056
25 25 5.4197
26 25 0.184512
18 26 3
19 26 7
20 26 13
21 26 2
22 26 6
23 26 4
24 26 14
25 26 1
26 26 367.015
27 27 13.4197
31 27 0.670656
28 28 8.4197
31 28 0.475077
29 29 10.4197
31 29 0.575833
30 30 7.4197
31 30 0.404329
27 31 9
28 31 4
29 31 6
30 31 3
31 31 358.42
32 32 12.4197
39 32 0.644138
33 33 37.4197
39 33 0.881889
34 34 29.4197
39 34 0.849771
35 35 27.4197
39 35 0.838813
36 36 28.4197
39 36 0.844485
37 37 8.4197
39 37 0.475077
38 38 15.4197
39 38 0.713373
32 39 8
33 39 33
34 39 25
35 39 23
36 39 24
37 39 4
38 39 11
39 39 372.216
40 40 32.4197
44 40 0.863672
41 41 7.4197
44 41 0.404329
42 42 5.4197
44 42 0.184512
43 43 7.4197
44 43 0.404329
40 44 28
41 44 3
42 44 1
43 44 3
44 44 357.23
45 45 16.4197
61 45 0.73083
46 46 6.4197
61 46 0.311541
47 47 6.4197
61 47 0.311541
48 48 5.4197
61 48 0.184512
49 49 15.4197
61 49 0.713373
50 50 8.4197
61 50 0.475077
51 51 5.4197
61 51 0.184512
52 52 9.4197
61 52 0.530803
53 53 13.4197
61 53 0.670656
54 54 6.4197
61 54 0.311541
55 55 6.4197
61 55 0.311541
56 56 5.4197
61 56 0.184512
57 57 7.4197
61 57 0.404329
58 58 18.4197
61 58 0.760056
59 59 7.4197
61 59 0.404329
60 60 7.4197
61 60 0.404329
45 61 12
46 61 2
47 61 2
48 61 1
49 61 11
50 61 4
51 61 1
52 61 5
53 61 9
54 61 2
55 61 2
56 61 1
57 61 3
58 61 14
59 61 3
60 61 3
61 61 379.491
62 62 14.4197
63 62 0.693496
62 63 10
63 63 352.089
64 64 29.4197
74 64 0.849771
65 65 6.4197
74 65 0.311541
66 66 21.4197
74 66 0.793662
67 67 14.4197
74 67 0.693496
68 68 23.4197
74 68 0.811283
69 69 8.4197
74 69 0.475077
70 70 11.4197
74 70 0.612976
71 71 12.4197
74 71 0.644138
72 72 6.4197
74 72 0.311541
73 73 6.4197
74 73 0.311541
64 74 25
65 74 2
66 74 17
67 74 10
68 74 19
69 74 4
70 74 7
71 74 8
72 74 2
73 74 2
74 74 374.724
75 75 6.4197
81 75 0.311541
76 76 7.4197
81 76 0.404329
77 77 29.4197
81 77 0.849771
78 78 24.4197
81 78 0.819011
79 79 44.4197
81 79 0.900501
80 80 5.4197
81 80 0.184512
75 81 2
76 81 3
77 81 25
78 81 20
79 81 40
80 81 1
81 81 364.359
82 82 30.4197
86 82 0.854709
83 83 5.4197
86 83 0.184512
84 84 11.4197
86 84 0.612976
85 85 5.4197
86 85 0.184512
82 86 26
83 86 1
84 86 7
85 86 1
86 86 357.142
87 87 17.4197
98 87 0.746282
88 88 7.4197
98 88 0.404329
89 89 5.4197
98 89 0.184512
90 90 8.4197
98 90 0.475077
91 91 17.4197
98 91 0.746282
92 92 23.4197
98 92 0.811283
93 93 7.4197
98 93 0.404329
94 94 6.4197
98 94 0.311541
95 95 8.4197
98 95 0.475077
96 96 17.4197
98 96 0.746282
97 97 7.4197
98 97 0.404329
87 98 13
88 98 3
89 98 1
90 98 4
91 98 13
92 98 19
93 98 3
94 98 2
95 98 4
96 98 13
97 98 3
98 98 374.257
99 99 22.4197
112 99 0.802865
100 100 5.4197
112 100 0.184512
101 101 41.4197
112 101 0.893295
102 102 5.4197
112 102 0.184512
103 103 10.4197
112 103 0.575833
104 104 10.4197
112 104 0.575833
105 105 5.4197
112 105 0.184512
106 106 9.4197
112 106 0.530803
107 107 6.4197
112 107 0.311541
108 108 11.4197
112 108 0.612976
109 109 5.4197
112 109 0.184512
110 110 21.4197
112 110 0.793662
111 111 14.4197
112 111 0.693496
99 112 18
100 112 1
101 112 37
102 112 1
103 112 6
104 112 6
105 112 1
106 112 5
107 112 2
108 112 7
109 112 1
110 112 17
111 112 10
112 112 377.877
113 113 10.4197
119 113 0.575833
114 114 12.4197
119 114 0.644138
115 115 5.4197
119 115 0.184512
116 116 9.4197
119 116 0.530803
117 117 5.4197
119 117 0.184512
118 118 16.4197
119 118 0.73083
113 119 6
114 119 8
115 119 1
116 119 5
117 119 1
118 119 12
119 119 361.623
120 120 59.4197
148 120 0.925619
121 121 8.4197
148 121 0.475077
122 122 15.4197
148 122 0.713373
123 123 17.4197
148 123 0.746282
124 124 5.4197
148 124 0.184512
125 125 20.4197
148 125 0.783557
126 126 9.4197
148 126 0.530803
127 127 6.4197
148 127 0.311541
128 128 27.4197
148 128 0.838813
129 129 9.4197
148 129 0.530803
130 130 19.4197
148 130 0.772412
131 131 13.4197
148 131 0.670656
132 132 15.4197
148 132 0.713373
133 133 25.4197
148 133 0.826131
134 134 9.4197
148 134 0.530803
135 135 20.4197
148 135 0.783557
136 136 9.4197
148 136 0.530803
137 137 20.4197
148 137 0.783557
138 138 18.4197
148 138 0.760056
139 139 11.4197
148 139 0.612976
140 140 40.4197
148 140 0.890655
141 141 15.4197
148 141 0.713373
142 142 20.4197
148 142 0.783557
143 143 27.4197
148 143 0.838813
144 144 9.4197
148 144 0.530803
145 145 11.4197
148 145 0.612976
146 146 8.4197
148 146 0.475077
147 147 5.4197
148 147 0.184512
120 148 55
121 148 4
122 148 11
123 148 13
124 148 1
125 148 16
126 148 5
127 148 2
128 148 23
129 148 5
130 148 15
131 148 9
132 148 11
133 148 21
134 148 5
135 148 16
136 148 5
137 148 16
138 148 14
139 148 7
140 148 36
141 148 11
142 148 16
143 148 23
144 148 5
145 148 7
146 148 4
147 148 1
148 148 428.819
149 149 7.4197
157 149 0.404329
150 150 16.4197
157 150 0.73083
151 151 6.4197
157 151 0.311541
152 152 5.4197
157 152 0.184512
153 153 11.4197
157 153 0.612976
154 154 30.4197
157 154 0.854709
155 155 16.4197
157 155 0.73083
156 156 18.4197
157 156 0.760056
149 157 3
150 157 12
151 157 2
152 157 1
153 157 7
154 157 26
155 157 12
156 157 14
157 157 369.309
158 158 30.4197
170 158 0.854709
159 159 5.4197
170 159 0.184512
160 160 5.4197
170 160 0.184512
161 161 5.4197
170 161 0.184512
162 162 9.4197
170 162 0.530803
163 163 17.4197
170 163 0.746282
164 164 6.4197
170 164 0.311541
165 165 27.4197
170 165 0.838813
166 166 9.4197
170 166 0.530803
167 167 11.4197
170 167 0.612976
168 168 5.4197
170 168 0.184512
169 169 10.4197
170 169 0.575833
158 170 26
159 170 1
160 170 1
161 170 1
162 170 5
163 170 13
164 170 2
165 170 23
166 170 5
167 170 7
168 170 1
169 170 6
170 170 374.392
171 171 21.4197
196 171 0.793662
172 172 10.4197
196 172 0.575833
173 173 28.4197
196 173 0.844485
174 174 13.4197
196 174 0.670656
175 175 12.4197
196 175 0.644138
176 176 6.4197
196 176 0.311541
177 177 5.4197
196 177 0.184512
178 178 6.4197
196 178 0.311541
179 179 12.4197
196 179 0.644138
180 180 15.4197
196 180 0.713373
181 181 8.4197
196 181 0.475077
182 182 12.4197
196 182 0.644138
183 183 14.4197
196 183 0.693496
184 184 35.4197
196 184 0.875219
185 185 13.4197
196 185 0.670656
186 186 5.4197
196 186 0.184512
187 187 11.4197
196 187 0.612976
188 188 11.4197
196 188 0.612976
189 189 28.4197
196 189 0.844485
190 190 6.4197
196 190 0.311541
191 191 11.4197
196 191 0.612976
192 192 14.4197
196 192 0.693496
193 193 9.4197
196 193 0.530803
194 194 10.4197
196 194 0.575833
195 195 9.4197
196 195 0.530803
171 196 17
172 196 6
173 196 24
174 196 9
175 196 8
176 196 2
177 196 1
178 196 2
179 196 8
180 196 11
181 196 4
182 196 8
183 196 10
184 196 31
185 196 9
186 196 1
187 196 7
188 196 7
189 196 24
190 196 2
191 196 7
192 196 10
193 196 5
194 196 6
195 196 5
196 196 413.387
197 197 38.4197
212 197 0.884963
198 198 27.4197
212 198 0.838813
199 199 13.4197
212 199 0.670656
200 200 7.4197
212 200 0.404329
201 201 8.4197
212 201 0.475077
202 202 26.4197
212 202 0.832712
203 203 24.4197
212 203 0.819011
204 204 26.4197
212 204 0.832712
205 205 51.4197
212 205 0.914047
206 206 8.4197
212 206 0.475077
207 207 10.4197
212 207 0.575833
208 208 10.4197
212 208 0.575833
209 209 16.4197
212 209 0.73083
210 210 7.4197
212 210 0.404329
211 211 9.4197
212 211 0.530803
197 212 34
198 212 23
199 212 9
200 212 3
201 212 4
202 212 22
203 212 20
204 212 22
205 212 47
206 212 4
207 212 6
208 212 6
209 212 12
210 212 3
211 212 5
212 212 393.066
213 213 22.4197
228 213 0.802865
214 214 9.4197
228 214 0.530803
215 215 14.4197
228 215 0.693496
216 216 7.4197
228 216 0.404329
217 217 24.4197
228 217 0.819011
218 218 6.4197
228 218 0.311541
219 219 8.4197
228 219 0.475077
220 220 38.4197
228 220 0.884963
221 221 28.4197
228 221 0.844485
222 222 17.4197
228 222 0.746282
223 223 9.4197
228 223 0.530803
224 224 20.4197
228 224 0.783557
225 225 19.4197
228 225 0.772412
226 226 6.4197
228 226 0.311541
227 227 14.4197
228 227 0.693496
213 228 18
214 228 5
215 228 10
216 228 3
217 228 20
218 228 2
219 228 4
220 228 34
221 228 24
222 228 13
223 228 5
224 228 16
225 228 15
226 228 2
227 228 10
228 228 391.473
229 229 7.4197
244 229 0.404329
230 230 32.4197
244 230 0.863672
231 231 17.4197
244 231 0.746282
232 232 7.4197
244 232 0.404329
233 233 6.4197
244 233 0.311541
234 234 52.4197
244 234 0.915686
235 235 11.4197
244 235 0.612976
236 236 15.4197
244 236 0.713373
237 237 9.4197
244 237 0.530803
238 238 18.4197
244 238 0.760056
239 239 31.4197
244 239 0.859334
240 240 9.4197
244 240 0.530803
241 241 8.4197
244 241 0.475077
242 242 9.4197
244 242 0.530803
243 243 11.4197
244 243 0.612976
229 244 3
230 244 28
231 244 13
232 244 3
233 244 2
234 244 48
235 244 7
236 244 11
237 244 5
238 244 14
239 244 27
240 244 5
241 244 4
242 244 5
243 244 7
244 244 390.003
245 245 25.4197
253 245 0.826131
246 246 12.4197
253 246 0.644138
247 247 9.4197
253 247 0.530803
248 248 5.4197
253 248 0.184512
249 249 8.4197
253 249 0.475077
250 250 18.4197
253 250 0.760056
251 251 11.4197
253 251 0.612976
252 252 11.4197
253 252 0.612976
245 253 21
246 253 8
247 253 5
248 253 1
249 253 4
250 253 14
251 253 7
252 253 7
253 253 369.561
254 254 41.4197
263 254 0.893295
255 255 60.4197
263 255 0.92685
256 256 55.4197
263 256 0.92025
257 257 7.4197
263 257 0.404329
258 258 34.4197
263 258 0.871594
259 259 5.4197
263 259 0.184512
260 260 24.4197
263 260 0.819011
261 261 12.4197
263 261 0.644138
262 262 44.4197
263 262 0.900501
254 263 37
255 263 56
256 263 51
257 263 3
258 263 30
259 263 1
260 263 20
261 263 8
262 263 40
263 263 378.037
264 264 46.4197
271 264 0.904788
265 265 24.4197
271 265 0.819011
266 266 13.4197
271 266 0.670656
267 267 23.4197
271 267 0.811283
268 268 9.4197
271 268 0.530803
269 269 15.4197
271 269 0.713373
270 270 11.4197
271 270 0.612976
264 271 42
265 271 20
266 271 9
267 271 19
268 271 5
269 271 11
270 271 7
271 271 371.4
272 272 7.4197
287 272 0.404329
273 273 20.4197
287 273 0.783557
274 274 11.4197
287 274 0.612976
275 275 11.4197
287 275 0.612976
276 276 5.4197
287 276 0.184512
277 277 13.4197
287 277 0.670656
278 278 12.4197
287 278 0.644138
279 279 29.4197
287 279 0.849771
280 280 10.4197
287 280 0.575833
281 281 8.4197
287 281 0.475077
282 282 25.4197
287 282 0.826131
283 283 25.4197
287 283 0.826131
284 284 19.4197
287 284 0.772412
285 285 11.4197
287 285 0.612976
286 286 9.4197
287 286 0.530803
272 287 3
273 287 16
274 287 7
275 287 7
276 287 1
277 287 9
278 287 8
279 287 25
280 287 6
281 287 4
282 287 21
283 287 21
284 287 15
285 287 7
286 287 5
287 287 390.491
288 288 10.4197
301 288 0.575833
289 289 6.4197
301 289 0.311541
290 290 10.4197
301 290 0.575833
291 291 9.4197
301 291 0.530803
292 292 5.4197
301 292 0.184512
293 293 9.4197
301 293 0.530803
294 294 40.4197
301 294 0.890655
295 295 9.4197
301 295 0.530803
296 296 17.4197
301 296 0.746282
297 297 8.4197
301 297 0.475077
298 298 5.4197
301 298 0.184512
299 299 6.4197
301 299 0.311541
300 300 13.4197
301 300 0.670656
288 301 6
289 301 2
290 301 6
291 301 5
292 301 1
293 301 5
294 301 36
295 301 5
296 301 13
297 301 4
298 301 1
299 301 2
300 301 9
301 301 377.835
302 302 29.4197
314 302 0.849771
303 303 31.4197
314 303 0.859334
304 304 7.4197
314 304 0.404329
305 305 6.4197
314 305 0.311541
306 306 7.4197
314 306 0.404329
307 307 9.4197
314 307 0.530803
308 308 5.4197
314 308 0.184512
309 309 54.4197
314 309 0.918785
310 310 6.4197
314 310 0.311541
311 311 47.4197
314 311 0.906796
312 312 11.4197
314 312 0.612976
313 313 9.4197
314 313 0.530803
302 314 25
303 314 27
304 314 3
305 314 2
306 314 3
307 314 5
308 314 1
309 314 50
310 314 2
311 314 43
312 314 7
313 314 5
314 314 379.191
315 315 9.4197
322 315 0.530803
316 316 11.4197
322 316 0.612976
317 317 32.4197
322 317 0.863672
318 318 43.4197
322 318 0.89821
319 319 14.4197
322 319 0.693496
320 320 16.4197
322 320 0.73083
321 321 14.4197
322 321 0.693496
315 322 5
316 322 7
317 322 28
318 322 39
319 322 10
320 322 12
321 322 10
322 322 371.226
323 323 37.4197
326 323 0.881889
324 324 10.4197
326 324 0.575833
325 325 16.4197
326 325 0.73083
323 326 33
324 326 6
325 326 12
326 326 358.697
327 327 41.4197
345 327 0.893295
328 328 9.4197
345 328 0.530803
329 329 6.4197
345 329 0.311541
330 330 13.4197
345 330 0.670656
331 331 17.4197
345 331 0.746282
332 332 9.4197
345 332 0.530803
333 333 15.4197
345 333 0.713373
334 334 9.4197
345 334 0.530803
335 335 9.4197
345 335 0.530803
336 336 17.4197
345 336 0.746282
337 337 28.4197
345 337 0.844485
338 338 12.4197
345 338 0.644138
339 339 8.4197
345 339 0.475077
340 340 8.4197
345 340 0.475077
341 341 35.4197
345 341 0.875219
342 342 12.4197
345 342 0.644138
343 343 49.4197
345 343 0.910568
344 344 8.4197
345 344 0.475077
327 345 37
328 345 5
329 345 2
330 345 9
331 345 13
332 345 5
333 345 11
334 345 5
335 345 5
336 345 13
337 345 24
338 345 8
339 345 4
340 345 4
341 345 31
342 345 8
343 345 45
344 345 4
345 345 400.064
346 346 66.4197
351 346 0.933458
347 347 10.4197
351 347 0.575833
348 348 38.4197
351 348 0.884963
349 349 40.4197
351 349 0.890655
350 350 17.4197
351 350 0.746282
346 351 62
347 351 6
348 351 34
349 351 36
350 351 13
351 351 366.84
352 352 18.4197
364 352 0.760056
353 353 37.4197
364 353 0.881889
354 354 9.4197
364 354 0.530803
355 355 21.4197
364 355 0.793662
356 356 24.4197
364 356 0.819011
357 357 8.4197
364 357 0.475077
358 358 12.4197
364 358 0.644138
359 359 22.4197
364 359 0.802865
360 360 27.4197
364 360 0.838813
361 361 5.4197
364 361 0.184512
362 362 13.4197
364 362 0.670656
363 363 7.4197
364 363 0.404329
352 364 14
353 364 33
354 364 5
355 364 17
356 364 20
357 364 4
358 364 8
359 364 18
360 364 23
361 364 1
362 364 9
363 364 3
364 364 383.523
365 365 37.4197
370 365 0.881889
366 366 43.4197
370 366 0.89821
367 367 7.4197
370 367 0.404329
368 368 38.4197
370 368 0.884963
369 369 16.4197
370 369 0.73083
365 370 33
366 370 39
367 370 3
368 370 34
369 370 12
370 370 365.82
371 371 18.4197
422 371 0.760056
372 372 89.4197
422 372 0.950574
373 373 17.4197
422 373 0.746282
374 374 44.4197
422 374 0.900501
375 375 15.4197
422 375 0.713373
376 376 14.4197
422 376 0.693496
377 377 9.4197
422 377 0.530803
378 378 20.4197
422 378 0.783557
379 379 6.4197
422 379 0.311541
380 380 30.4197
422 380 0.854709
381 381 65.4197
422 381 0.932441
382 382 25.4197
422 382 0.826131
383 383 8.4197
422 383 0.475077
384 384 8.4197
422 384 0.475077
385 385 17.4197
422 385 0.746282
386 386 8.4197
422 386 0.475077
387 387 6.4197
422 387 0.311541
388 388 8.4197
422 388 0.475077
389 389 5.4197
422 389 0.184512
390 390 28.4197
422 390 0.844485
391 391 24.4197
422 391 0.819011
392 392 27.4197
422 392 0.838813
393 393 38.4197
422 393 0.884963
394 394 39.4197
422 394 0.887881
395 395 12.4197
422 395 0.644138
396 396 35.4197
422 396 0.875219
397 397 9.4197
422 397 0.530803
398 398 13.4197
422 398 0.670656
399 399 7.4197
422 399 0.404329
400 400 9.4197
422 400 0.530803
401 401 35.4197
422 401 0.875219
402 402 7.4197
422 402 0.404329
403 403 13.4197
422 403 0.670656
404 404 7.4197
422 404 0.404329
405 405 11.4197
422 405 0.612976
406 406 12.4197
422 406 0.644138
407 407 8.4197
422 407 0.475077
408 408 33.4197
422 408 0.867752
409 409 12.4197
422 409 0.644138
410 410 9.4197
422 410 0.530803
411 411 7.4197
422 411 0.404329
412 412 10.4197
422 412 0.575833
413 413 11.4197
422 413 0.612976
414 414 9.4197
422 414 0.530803
415 415 5.4197
422 415 0.184512
416 416 7.4197
422 416 0.404329
417 417 9.4197
422 417 0.530803
418 418 9.4197
422 418 0.530803
419 419 16.4197
422 419 0.73083
420 420 11.4197
422 420 0.612976
421 421 13.4197
422 421 0.670656
371 422 14
372 422 85
373 422 13
374 422 40
375 422 11
376 422 10
377 422 5
378 422 16
379 422 2
380 422 26
381 422 61
382 422 21
383 422 4
384 422 4
385 422 13
386 422 4
387 422 2
388 422 4
389 422 1
390 422 24
391 422 20
392 422 23
393 422 34
394 422 35
395 422 8
396 422 31
397 422 5
398 422 9
399 422 3
400 422 5
401 422 31
402 422 3
403 422 9
404 422 3
405 422 7
406 422 8
407 422 4
408 422 29
409 422 8
410 422 5
411 422 3
412 422 6
413 422 7
414 422 5
415 422 1
416 422 3
417 422 5
418 422 5
419 422 12
420 422 7
421 422 9
422 422 490.434
423 423 9.4197
445 423 0.530803
424 424 6.4197
445 424 0.311541
425 425 29.4197
445 425 0.849771
426 426 41.4197
445 426 0.893295
427 427 17.4197
445 427 0.746282
428 428 7.4197
445 428 0.404329
429 429 12.4197
445 429 0.644138
430 430 10.4197
445 430 0.575833
431 431 8.4197
445 431 0.475077
432 432 6.4197
445 432 0.311541
433 433 14.4197
445 433 0.693496
434 434 14.4197
445 434 0.693496
435 435 17.4197
445 435 0.746282
436 436 14.4197
445 436 0.693496
437 437 6.4197
445 437 0.311541
438 438 6.4197
445 438 0.311541
439 439 6.4197
445 439 0.311541
440 440 11.4197
445 440 0.612976
441 441 7.4197
445 441 0.404329
442 442 14.4197
445 442 0.693496
443 443 21.4197
445 443 0.793662
444 444 10.4197
445 444 0.575833
423 445 5
424 445 2
425 445 25
426 445 37
427 445 13
428 445 3
429 445 8
430 445 6
431 445 4
432 445 2
433 445 10
434 445 10
435 445 13
436 445 10
437 445 2
438 445 2
439 445 2
440 445 7
441 445 3
442 445 10
443 445 17
444 445 6
445 445 404.643
446 446 115.42
452 446 0.961708
447 447 11.4197
452 447 0.612976
448 448 51.4197
452 448 0.914047
449 449 11.4197
452 449 0.612976
450 450 29.4197
452 450 0.849771
451 451 8.4197
452 451 0.475077
446 452 111
447 452 7
448 452 47
449 452 7
450 452 25
451 452 4
452 452 368.588
453 453 17.4197
461 453 0.746282
454 454 5.4197
461 454 0.184512
455 455 7.4197
461 455 0.404329
456 456 7.4197
461 456 0.404329
457 457 13.4197
461 457 0.670656
458 458 10.4197
461 458 0.575833
459 459 6.4197
461 459 0.311541
460 460 24.4197
461 460 0.819011
453 461 13
454 461 1
455 461 3
456 461 3
457 461 9
458 461 6
459 461 2
460 461 20
461 461 367.217
462 462 122.42
469 462 0.963897
463 463 15.4197
469 463 0.713373
464 464 39.4197
469 464 0.887881
465 465 6.4197
469 465 0.311541
466 466 18.4197
469 466 0.760056
467 467 14.4197
469 467 0.693496
468 468 15.4197
469 468 0.713373
462 469 118
463 469 11
464 469 35
465 469 2
466 469 14
467 469 10
468 469 11
469 469 371.315
470 470 11.4197
486 470 0.612976
471 471 9.4197
486 471 0.530803
472 472 37.4197
486 472 0.881889
473 473 23.4197
486 473 0.811283
474 474 12.4197
486 474 0.644138
475 475 25.4197
486 475 0.826131
476 476 6.4197
486 476 0.311541
477 477 5.4197
486 477 0.184512
478 478 6.4197
486 478 0.311541
479 479 17.4197
486 479 0.746282
480 480 8.4197
486 480 0.475077
481 481 7.4197
486 481 0.404329
482 482 9.4197
486 482 0.530803
483 483 7.4197
486 483 0.404329
484 484 11.4197
486 484 0.612976
485 485 9.4197
486 485 0.530803
470 486 7
471 486 5
472 486 33
473 486 19
474 486 8
475 486 21
476 486 2
477 486 1
478 486 2
479 486 13
480 486 4
481 486 3
482 486 5
483 486 3
484 486 7
485 486 5
486 486 388.003
487 487 5.4197
505 487 0.184512
488 488 13.4197
505 488 0.670656
489 489 44.4197
505 489 0.900501
490 490 9.4197
505 490 0.530803
491 491 11.4197
505 491 0.612976
492 492 5.4197
505 492 0.184512
493 493 7.4197
505 493 0.404329
494 494 29.4197
505 494 0.849771
495 495 5.4197
505 495 0.184512
496 496 11.4197
505 496 0.612976
497 497 14.4197
505 497 0.693496
498 498 11.4197
505 498 0.612976
499 499 13.4197
505 499 0.670656
500 500 10.4197
505 500 0.575833
501 501 6.4197
505 501 0.311541
502 502 10.4197
505 502 0.575833
503 503 13.4197
505 503 0.670656
504 504 5.4197
505 504 0.184512
487 505 1
488 505 9
489 505 40
490 505 5
491 505 7
492 505 1
493 505 3
494 505 25
495 505 1
496 505 7
497 505 10
498 505 7
499 505 9
500 505 6
501 505 2
502 505 6
503 505 9
504 505 1
505 505 390.706
506 506 7.4197
511 506 0.404329
507 507 9.4197
511 507 0.530803
508 508 6.4197
511 508 0.311541
509 509 7.4197
511 509 0.404329
510 510 9.4197
511 510 0.530803
506 511 3
507 511 5
508 511 2
509 511 3
510 511 5
511 511 358.667
512 512 7.4197
538 512 0.404329
513 513 10.4197
538 513 0.575833
514 514 23.4197
538 514 0.811283
515 515 24.4197
538 515 0.819011
516 516 48.4197
538 516 0.908721
517 517 15.4197
538 517 0.713373
518 518 7.4197
538 518 0.404329
519 519 20.4197
538 519 0.783557
520 520 8.4197
538 520 0.475077
521 521 11.4197
538 521 0.612976
522 522 6.4197
538 522 0.311541
523 523 16.4197
538 523 0.73083
524 524 13.4197
538 524 0.670656
525 525 5.4197
538 525 0.184512
526 526 6.4197
538 526 0.311541
527 527 6.4197
538 527 0.311541
528 528 15.4197
538 528 0.713373
529 529 6.4197
538 529 0.311541
530 530 28.4197
538 530 0.844485
531 531 6.4197
538 531 0.311541
532 532 22.4197
538 532 0.802865
533 533 8.4197
538 533 0.475077
534 534 8.4197
538 534 0.475077
535 535 7.4197
538 535 0.404329
536 536 5.4197
538 536 0.184512
537 537 6.4197
538 537 0.311541
512 538 3
513 538 6
514 538 19
515 538 20
516 538 44
517 538 11
518 538 3
519 538 16
520 538 4
521 538 7
522 538 2
523 538 12
524 538 9
525 538 1
526 538 2
527 538 2
528 538 11
529 538 2
530 538 24
531 538 2
532 538 18
533 538 4
534 538 4
535 538 3
536 538 1
537 538 2
538 538 410.296
539 539 75.4197
547 539 0.941399
540 540 7.4197
547 540 0.404329
541 541 13.4197
547 541 0.670656
542 542 21.4197
547 542 0.793662
543 543 12.4197
547 543 0.644138
544 544 8.4197
547 544 0.475077
545 545 34.4197
547 545 0.871594
546 546 9.4197
547 546 0.530803
539 547 71
540 547 3
541 547 9
542 547 17
543 547 8
544 547 4
545 547 30
546 547 5
547 547 372.588
548 548 79.4197
565 548 0.94435
549 549 7.4197
565 549 0.404329
550 550 13.4197
565 550 0.670656
551 551 27.4197
565 551 0.838813
552 552 30.4197
565 552 0.854709
553 553 33.4197
565 553 0.867752
554 554 15.4197
565 554 0.713373
555 555 18.4197
565 555 0.760056
556 556 12.4197
565 556 0.644138
557 557 15.4197
565 557 0.713373
558 558 21.4197
565 558 0.793662
559 559 18.4197
565 559 0.760056
560 560 19.4197
565 560 0.772412
561 561 24.4197
565 561 0.819011
562 562 9.4197
565 562 0.530803
563 563 17.4197
565 563 0.746282
564 564 24.4197
565 564 0.819011
548 565 75
549 565 3
550 565 9
551 565 23
552 565 26
553 565 29
554 565 11
555 565 14
556 565 8
557 565 11
558 565 17
559 565 14
560 565 15
561 565 20
562 565 5
563 565 13
564 565 20
565 565 404.945
566 566 42.4197
584 566 0.89581
567 567 5.4197
584 567 0.184512
568 568 48.4197
584 568 0.908721
569 569 27.4197
584 569 0.838813
570 570 22.4197
584 570 0.802865
571 571 22.4197
584 571 0.802865
572 572 32.4197
584 572 0.863672
573 573 43.4197
584 573 0.89821
574 574 10.4197
584 574 0.575833
575 575 14.4197
584 575 0.693496
576 576 8.4197
584 576 0.475077
577 577 9.4197
584 577 0.530803
578 578 15.4197
584 578 0.713373
579 579 13.4197
584 579 0.670656
580 580 15.4197
584 580 0.713373
581 581 9.4197
584 581 0.530803
582 582 42.4197
584 582 0.89581
583 583 19.4197
584 583 0.772412
566 584 38
567 584 1
568 584 44
569 584 23
570 584 18
571 584 18
572 584 28
573 584 39
574 584 6
575 584 10
576 584 4
577 584 5
578 584 11
579 584 9
580 584 11
581 584 5
582 584 38
583 584 15
584 584 405.451
585 585 28.4197
595 585 0.844485
586 586 41.4197
595 586 0.893295
587 587 6.4197
595 587 0.311541
588 588 25.4197
595 588 0.826131
589 589 65.4197
595 589 0.932441
590 590 34.4197
595 590 0.871594
591 591 20.4197
595 591 0.783557
592 592 24.4197
595 592 0.819011
593 593 47.4197
595 593 0.906796
594 594 6.4197
595 594 0.311541
585 595 24
586 595 37
587 595 2
588 595 21
589 595 61
590 595 30
591 595 16
592 595 20
593 595 43
594 595 2
595 595 382.173
596 596 64.4197
600 596 0.931392
597 597 24.4197
600 597 0.819011
598 598 27.4197
600 598 0.838813
599 599 22.4197
600 599 0.802865
596 600 60
597 600 20
598 600 23
599 600 18
600 600 364.016
601 601 53.4197
615 601 0.917265
602 602 32.4197
615 602 0.863672
603 603 13.4197
615 603 0.670656
604 604 5.4197
615 604 0.184512
605 605 13.4197
615 605 0.670656
606 606 30.4197
615 606 0.854709
607 607 34.4197
615 607 0.871594
608 608 24.4197
615 608 0.819011
609 609 35.4197
615 609 0.875219
610 610 83.4197
615 610 0.947019
611 611 6.4197
615 611 0.311541
612 612 8.4197
615 612 0.475077
613 613 7.4197
615 613 0.404329
614 614 30.4197
615 614 0.854709
601 615 49
602 615 28
603 615 9
604 615 1
605 615 9
606 615 26
607 615 30
608 615 20
609 615 31
610 615 79
611 615 2
612 615 4
613 615 3
614 615 26
615 615 391.983
616 616 51.4197
625 616 0.914047
617 617 6.4197
625 617 0.311541
618 618 30.4197
625 618 0.854709
619 619 45.4197
625 619 0.902692
620 620 8.4197
625 620 0.475077
621 621 10.4197
625 621 0.575833
622 622 20.4197
625 622 0.783557
623 623 17.4197
625 623 0.746282
624 624 9.4197
625 624 0.530803
616 625 47
617 625 2
618 625 26
619 625 41
620 625 4
621 625 6
622 625 16
623 625 13
624 625 5
625 625 375.96
626 626 21.4197
630 626 0.793662
627 627 6.4197
630 627 0.311541
628 628 5.4197
630 628 0.184512
629 629 37.4197
630 629 0.881889
626 630 17
627 630 2
628 630 1
629 630 33
630 630 358.622
631 631 41.4197
635 631 0.893295
632 632 12.4197
635 632 0.644138
633 633 6.4197
635 633 0.311541
634 634 6.4197
635 634 0.311541
631 635 37
632 635 8
633 635 2
634 635 2
635 635 358.573
636 636 82.4197
642 636 0.946376
637 637 51.4197
642 637 0.914047
638 638 11.4197
642 638 0.612976
639 639 10.4197
642 639 0.575833
640 640 27.4197
642 640 0.838813
641 641 50.4197
642 641 0.912342
636 642 78
637 642 47
638 642 7
639 642 6
640 642 23
641 642 46
642 642 370.24
643 643 81.4197
647 643 0.945717
644 644 14.4197
647 644 0.693496
645 645 6.4197
647 645 0.311541
646 646 7.4197
647 646 0.404329
643 647 77
644 647 10
645 647 2
646 647 3
647 647 359.433
648 648 12.4197
657 648 0.644138
649 649 16.4197
657 649 0.73083
650 650 30.4197
657 650 0.854709
651 651 34.4197
657 651 0.871594
652 652 44.4197
657 652 0.900501
653 653 26.4197
657 653 0.832712
654 654 36.4197
657 654 0.878645
655 655 41.4197
657 655 0.893295
656 656 22.4197
657 656 0.802865
648 657 8
649 657 12
650 657 26
651 657 30
652 657 40
653 657 22
654 657 32
655 657 37
656 657 18
657 657 381.771
658 658 32.4197
663 658 0.863672
659 659 69.4197
663 659 0.936334
660 660 47.4197
663 660 0.906796
661 661 23.4197
663 661 0.811283
662 662 20.4197
663 662 0.783557
658 663 28
659 663 65
660 663 43
661 663 19
662 663 16
663 663 368.036
664 664 61.4197
666 664 0.928041
665 665 12.4197
666 665 0.644138
664 666 57
665 666 8
666 666 355.972
667 667 7.4197
682 667 0.404329
668 668 6.4197
682 668 0.311541
669 669 19.4197
682 669 0.772412
670 670 30.4197
682 670 0.854709
671 671 57.4197
682 671 0.923028
672 672 5.4197
682 672 0.184512
673 673 11.4197
682 673 0.612976
674 674 13.4197
682 674 0.670656
675 675 8.4197
682 675 0.475077
676 676 9.4197
682 676 0.530803
677 677 8.4197
682 677 0.475077
678 678 6.4197
682 678 0.311541
679 679 7.4197
682 679 0.404329
680 680 10.4197
682 680 0.575833
681 681 13.4197
682 681 0.670656
667 682 3
668 682 2
669 682 15
670 682 26
671 682 53
672 682 1
673 682 7
674 682 9
675 682 4
676 682 5
677 682 4
678 682 2
679 682 3
680 682 6
681 682 9
682 682 385.166
683 683 42.4197
692 683 0.89581
684 684 24.4197
692 684 0.819011
685 685 9.4197
692 685 0.530803
686 686 9.4197
692 686 0.530803
687 687 16.4197
692 687 0.73083
688 688 27.4197
692 688 0.838813
689 689 23.4197
692 689 0.811283
690 690 22.4197
692 690 0.802865
691 691 17.4197
692 691 0.746282
683 692 38
684 692 20
685 692 5
686 692 5
687 692 12
688 692 23
689 692 19
690 692 18
691 692 13
692 692 378.664
693 693 89.4197
703 693 0.950574
694 694 21.4197
703 694 0.793662
695 695 21.4197
703 695 0.793662
696 696 15.4197
703 696 0.713373
697 697 13.4197
703 697 0.670656
698 698 31.4197
703 698 0.859334
699 699 32.4197
703 699 0.863672
700 700 38.4197
703 700 0.884963
701 701 24.4197
703 701 0.819011
702 702 45.4197
703 702 0.902692
693 703 85
694 703 17
695 703 17
696 703 11
697 703 9
698 703 27
699 703 28
700 703 34
701 703 20
702 703 41
703 703 385.493
704 704 6.4197
730 704 0.311541
705 705 7.4197
730 705 0.404329
706 706 29.4197
730 706 0.849771
707 707 49.4197
730 707 0.910568
708 708 26.4197
730 708 0.832712
709 709 14.4197
730 709 0.693496
710 710 9.4197
730 710 0.530803
711 711 12.4197
730 711 0.644138
712 712 25.4197
730 712 0.826131
713 713 6.4197
730 713 0.311541
714 714 18.4197
730 714 0.760056
715 715 13.4197
730 715 0.670656
716 716 11.4197
730 716 0.612976
717 717 39.4197
730 717 0.887881
718 718 12.4197
730 718 0.644138
719 719 17.4197
730 719 0.746282
720 720 21.4197
730 720 0.793662
721 721 13.4197
730 721 0.670656
722 722 9.4197
730 722 0.530803
723 723 10.4197
730 723 0.575833
724 724 11.4197
730 724 0.612976
725 725 17.4197
730 725 0.746282
726 726 12.4197
730 726 0.644138
727 727 32.4197
730 727 0.863672
728 728 7.4197
730 728 0.404329
729 729 7.4197
730 729 0.404329
704 730 2
705 730 3
706 730 25
707 730 45
708 730 22
709 730 10
710 730 5
711 730 8
712 730 21
713 730 2
714 730 14
715 730 9
716 730 7
717 730 35
718 730 8
719 730 13
720 730 17
721 730 9
722 730 5
723 730 6
724 730 7
725 730 13
726 730 8
727 730 28
728 730 3
729 730 3
730 730 423.645
731 731 9.4197
746 731 0.530803
732 732 9.4197
746 732 0.530803
733 733 5.4197
746 733 0.184512
734 734 9.4197
746 734 0.530803
735 735 9.4197
746 735 0.530803
736 736 11.4197
746 736 0.612976
737 737 10.4197
746 737 0.575833
738 738 5.4197
746 738 0.184512
739 739 10.4197
746 739 0.575833
740 740 9.4197
746 740 0.530803
741 741 23.4197
746 741 0.811283
742 742 18.4197
746 742 0.760056
743 743 9.4197
746 743 0.530803
744 744 7.4197
746 744 0.404329
745 745 21.4197
746 745 0.793662
731 746 5
732 746 5
733 746 1
734 746 5
735 746 5
736 746 7
737 746 6
738 746 1
739 746 6
740 746 5
741 746 19
742 746 14
743 746 5
744 746 3
745 746 17
746 746 384.769
747 747 22.4197
761 747 0.802865
748 748 192.42
761 748 0.977031
749 749 7.4197
761 749 0.404329
750 750 13.4197
761 750 0.670656
751 751 24.4197
761 751 0.819011
752 752 13.4197
761 752 0.670656
753 753 8.4197
761 753 0.475077
754 754 15.4197
761 754 0.713373
755 755 31.4197
761 755 0.859334
756 756 9.4197
761 756 0.530803
757 757 14.4197
761 757 0.693496
758 758 11.4197
761 758 0.612976
759 759 19.4197
761 759 0.772412
760 760 11.4197
761 760 0.612976
747 761 18
748 761 188
749 761 3
750 761 9
751 761 20
752 761 9
753 761 4
754 761 11
755 761 27
756 761 5
757 761 10
758 761 7
759 761 15
760 761 7
761 761 391.519
762 762 37.4197
803 762 0.881889
763 763 15.4197
803 763 0.713373
764 764 15.4197
803 764 0.713373
765 765 10.4197
803 765 0.575833
766 766 46.4197
803 766 0.904788
767 767 24.4197
803 767 0.819011
768 768 6.4197
803 768 0.311541
769 769 11.4197
803 769 0.612976
770 770 9.4197
803 770 0.530803
771 771 22.4197
803 771 0.802865
772 772 19.4197
803 772 0.772412
773 773 11.4197
803 773 0.612976
774 774 39.4197
803 774 0.887881
775 775 7.4197
803 775 0.404329
776 776 34.4197
803 776 0.871594
777 777 10.4197
803 777 0.575833
778 778 13.4197
803 778 0.670656
779 779 5.4197
803 779 0.184512
780 780 20.4197
803 780 0.783557
781 781 9.4197
803 781 0.530803
782 782 29.4197
803 782 0.849771
783 783 19.4197
803 783 0.772412
784 784 13.4197
803 784 0.670656
785 785 14.4197
803 785 0.693496
786 786 10.4197
803 786 0.575833
787 787 12.4197
803 787 0.644138
788 788 16.4197
803 788 0.73083
789 789 9.4197
803 789 0.530803
790 790 8.4197
803 790 0.475077
791 791 7.4197
803 791 0.404329
792 792 8.4197
803 792 0.475077
793 793 7.4197
803 793 0.404329
794 794 12.4197
803 794 0.644138
795 795 9.4197
803 795 0.530803
796 796 20.4197
803 796 0.783557
797 797 6.4197
803 797 0.311541
798 798 9.4197
803 798 0.530803
799 799 23.4197
803 799 0.811283
800 800 11.4197
803 800 0.612976
801 801 7.4197
803 801 0.404329
802 802 23.4197
803 802 0.811283
762 803 33
763 803 11
764 803 11
765 803 6
766 803 42
767 803 20
768 803 2
769 803 7
770 803 5
771 803 18
772 803 15
773 803 7
774 803 35
775 803 3
776 803 30
777 803 6
778 803 9
779 803 1
780 803 16
781 803 5
782 803 25
783 803 15
784 803 9
785 803 10
786 803 6
787 803 8
788 803 12
789 803 5
790 803 4
791 803 3
792 803 4
793 803 3
794 803 8
795 803 5
796 803 16
797 803 2
798 803 5
799 803 19
800 803 7
801 803 3
802 803 19
803 803 463.178
804 804 57.4197
816 804 0.923028
805 805 22.4197
816 805 0.802865
806 806 34.4197
816 806 0.871594
807 807 36.4197
816 807 0.878645
808 808 18.4197
816 808 0.760056
809 809 14.4197
816 809 0.693496
810 810 32.4197
816 810 0.863672
811 811 8.4197
816 811 0.475077
812 812 9.4197
816 812 0.530803
813 813 32.4197
816 813 0.863672
814 814 11.4197
816 814 0.612976
815 815 7.4197
816 815 0.404329
804 816 53
805 816 18
806 816 30
807 816 32
808 816 14
809 816 10
810 816 28
811 816 4
812 816 5
813 816 28
814 816 7
815 816 3
816 816 387.388
817 817 5.4197
826 817 0.184512
818 818 25.4197
826 818 0.826131
819 819 22.4197
826 819 0.802865
820 820 7.4197
826 820 0.404329
821 821 8.4197
826 821 0.475077
822 822 6.4197
826 822 0.311541
823 823 7.4197
826 823 0.404329
824 824 11.4197
826 824 0.612976
825 825 14.4197
826 825 0.693496
817 826 1
818 826 21
819 826 18
820 826 3
821 826 4
822 826 2
823 826 3
824 826 7
825 826 10
826 826 369.864
827 827 20.4197
844 827 0.783557
828 828 72.4197
844 828 0.938971
829 829 37.4197
844 829 0.881889
830 830 9.4197
844 830 0.530803
831 831 12.4197
844 831 0.644138
832 832 11.4197
844 832 0.612976
833 833 25.4197
844 833 0.826131
834 834 14.4197
844 834 0.693496
835 835 10.4197
844 835 0.575833
836 836 14.4197
844 836 0.693496
837 837 28.4197
844 837 0.844485
838 838 15.4197
844 838 0.713373
839 839 5.4197
844 839 0.184512
840 840 10.4197
844 840 0.575833
841 841 22.4197
844 841 0.802865
842 842 29.4197
844 842 0.849771
843 843 9.4197
844 843 0.530803
827 844 16
828 844 68
829 844 33
830 844 5
831 844 8
832 844 7
833 844 21
834 844 10
835 844 6
836 844 10
837 844 24
838 844 11
839 844 1
840 844 6
841 844 18
842 844 25
843 844 5
844 844 400.659
845 845 37.4197
856 845 0.881889
846 846 5.4197
856 846 0.184512
847 847 22.4197
856 847 0.802865
848 848 12.4197
856 848 0.644138
849 849 11.4197
856 849 0.612976
850 850 12.4197
856 850 0.644138
851 851 10.4197
856 851 0.575833
852 852 10.4197
856 852 0.575833
853 853 9.4197
856 853 0.530803
854 854 19.4197
856 854 0.772412
855 855 28.4197
856 855 0.844485
845 856 33
846 856 1
847 856 18
848 856 8
849 856 7
850 856 8
851 856 6
852 856 6
853 856 5
854 856 15
855 856 24
856 856 380.271
857 857 49.4197
859 857 0.910568
858 858 14.4197
859 858 0.693496
857 859 45
858 859 10
859 859 356.113
860 860 75.4197
865 860 0.941399
861 861 8.4197
865 861 0.475077
862 862 21.4197
865 862 0.793662
863 863 11.4197
865 863 0.612976
864 864 24.4197
865 864 0.819011
860 865 71
861 865 4
862 865 17
863 865 7
864 865 20
865 865 365.121
866 866 8.4197
883 866 0.475077
867 867 25.4197
883 867 0.826131
868 868 17.4197
883 868 0.746282
869 869 16.4197
883 869 0.73083
870 870 10.4197
883 870 0.575833
871 871 11.4197
883 871 0.612976
872 872 31.4197
883 872 0.859334
873 873 17.4197
883 873 0.746282
874 874 17.4197
883 874 0.746282
875 875 10.4197
883 875 0.575833
876 876 8.4197
883 876 0.475077
877 877 22.4197
883 877 0.802865
878 878 9.4197
883 878 0.530803
879 879 25.4197
883 879 0.826131
880 880 15.4197
883 880 0.713373
881 881 12.4197
883 881 0.644138
882 882 15.4197
883 882 0.713373
866 883 4
867 883 21
868 883 13
869 883 12
870 883 6
871 883 7
872 883 27
873 883 13
874 883 13
875 883 6
876 883 4
877 883 18
878 883 5
879 883 21
880 883 11
881 883 8
882 883 11
883 883 400.295
884 884 33.4197
904 884 0.867752
885 885 11.4197
904 885 0.612976
886 886 11.4197
904 886 0.612976
887 887 19.4197
904 887 0.772412
888 888 32.4197
904 888 0.863672
889 889 33.4197
904 889 0.867752
890 890 21.4197
904 890 0.793662
891 891 13.4197
904 891 0.670656
892 892 13.4197
904 892 0.670656
893 893 12.4197
904 893 0.644138
894 894 12.4197
904 894 0.644138
895 895 25.4197
904 895 0.826131
896 896 11.4197
904 896 0.612976
897 897 6.4197
904 897 0.311541
898 898 18.4197
904 898 0.760056
899 899 7.4197
904 899 0.404329
900 900 7.4197
904 900 0.404329
901 901 8.4197
904 901 0.475077
902 902 17.4197
904 902 0.746282
903 903 6.4197
904 903 0.311541
884 904 29
885 904 7
886 904 7
887 904 15
888 904 28
889 904 29
890 904 17
891 904 9
892 904 9
893 904 8
894 904 8
895 904 21
896 904 7
897 904 2
898 904 14
899 904 3
900 904 3
901 904 4
902 904 13
903 904 2
904 904 405.919
905 905 5.4197
914 905 0.184512
906 906 8.4197
914 906 0.475077
907 907 12.4197
914 907 0.644138
908 908 11.4197
914 908 0.612976
909 909 20.4197
914 909 0.783557
910 910 20.4197
914 910 0.783557
911 911 15.4197
914 911 0.713373
912 912 20.4197
914 912 0.783557
913 913 28.4197
914 913 0.844485
905 914 1
906 914 4
907 914 8
908 914 7
909 914 16
910 914 16
911 914 11
912 914 16
913 914 24
914 914 374.77
915 915 7.4197
930 915 0.404329
916 916 15.4197
930 916 0.713373
917 917 6.4197
930 917 0.311541
918 918 17.4197
930 918 0.746282
919 919 9.4197
930 919 0.530803
920 920 8.4197
930 920 0.475077
921 921 14.4197
930 921 0.693496
922 922 10.4197
930 922 0.575833
923 923 9.4197
930 923 0.530803
924 924 7.4197
930 924 0.404329
925 925 5.4197
930 925 0.184512
926 926 12.4197
930 926 0.644138
927 927 19.4197
930 927 0.772412
928 928 9.4197
930 928 0.530803
929 929 7.4197
930 929 0.404329
915 930 3
916 930 11
917 930 2
918 930 13
919 930 5
920 930 4
921 930 10
922 930 6
923 930 5
924 930 3
925 930 1
926 930 8
927 930 15
928 930 5
929 930 3
930 930 384.037
931 931 18.4197
934 931 0.760056
932 932 7.4197
934 932 0.404329
933 933 15.4197
934 933 0.713373
931 934 14
932 934 3
933 934 11
934 934 357.323
935 935 45.4197
939 935 0.902692
936 936 20.4197
939 936 0.783557
937 937 9.4197
939 937 0.530803
938 938 9.4197
939 938 0.530803
935 939 41
936 939 16
937 939 5
938 939 5
939 939 361.168
940 940 69.4197
943 940 0.936334
941 941 51.4197
943 941 0.914047
942 942 11.4197
943 942 0.612976
940 943 65
941 943 47
942 943 7
943 943 359.911
944 944 32.4197
950 944 0.863672
945 945 31.4197
950 945 0.859334
946 946 21.4197
950 946 0.793662
947 947 12.4197
950 947 0.644138
948 948 25.4197
950 948 0.826131
949 949 18.4197
950 949 0.760056
944 950 28
945 950 27
946 950 17
947 950 8
948 950 21
949 950 14
950 950 370.004
951 951 25.4197
958 951 0.826131
952 952 28.4197
958 952 0.844485
953 953 11.4197
958 953 0.612976
954 954 10.4197
958 954 0.575833
955 955 31.4197
958 955 0.859334
956 956 12.4197
958 956 0.644138
957 957 6.4197
958 957 0.311541
951 958 21
952 958 24
953 958 7
954 958 6
955 958 27
956 958 8
957 958 2
958 958 369.683
959 959 33.4197
978 959 0.867752
960 960 8.4197
978 960 0.475077
961 961 26.4197
978 961 0.832712
962 962 8.4197
978 962 0.475077
963 963 14.4197
978 963 0.693496
964 964 6.4197
978 964 0.311541
965 965 34.4197
978 965 0.871594
966 966 10.4197
978 966 0.575833
967 967 14.4197
978 967 0.693496
968 968 11.4197
978 968 0.612976
969 969 13.4197
978 969 0.670656
970 970 22.4197
978 970 0.802865
971 971 19.4197
978 971 0.772412
972 972 9.4197
978 972 0.530803
973 973 16.4197
978 973 0.73083
974 974 11.4197
978 974 0.612976
975 975 16.4197
978 975 0.73083
976 976 18.4197
978 976 0.760056
977 977 8.4197
978 977 0.475077
959 978 29
960 978 4
961 978 22
962 978 4
963 978 10
964 978 2
965 978 30
966 978 6
967 978 10
968 978 7
969 978 9
970 978 18
971 978 15
972 978 5
973 978 12
974 978 7
975 978 12
976 978 14
977 978 4
978 978 404.253
979 979 38.4197
985 979 0.884963
980 980 8.4197
985 980 0.475077
981 981 7.4197
985 981 0.404329
982 982 21.4197
985 982 0.793662
983 983 9.4197
985 983 0.530803
984 984 12.4197
985 984 0.644138
979 985 34
980 985 4
981 985 3
982 985 17
983 985 5
984 985 8
985 985 365.522
986 986 98.4197
989 986 0.955093
987 987 12.4197
989 987 0.644138
988 988 10.4197
989 988 0.575833
986 989 94
987 989 8
988 989 6
989 989 358.637
990 990 40.4197
1025 990 0.890655
991 991 29.4197
1025 991 0.849771
992 992 5.4197
1025 992 0.184512
993 993 5.4197
1025 993 0.184512
994 994 17.4197
1025 994 0.746282
995 995 5.4197
1025 995 0.184512
996 996 10.4197
1025 996 0.575833
997 997 10.4197
1025 997 0.575833
998 998 16.4197
1025 998 0.73083
999 999 7.4197
1025 999 0.404329
1000 1000 25.4197
1025 1000 0.826131
1001 1001 6.4197
1025 1001 0.311541
1002 1002 5.4197
1025 1002 0.184512
1003 1003 11.4197
1025 1003 0.612976
1004 1004 71.4197
1025 1004 0.938117
1005 1005 22.4197
1025 1005 0.802865
1006 1006 27.4197
1025 1006 0.838813
1007 1007 27.4197
1025 1007 0.838813
1008 1008 5.4197
1025 1008 0.184512
1009 1009 8.4197
1025 1009 0.475077
1010 1010 13.4197
1025 1010 0.670656
1011 1011 35.4197
1025 1011 0.875219
1012 1012 14.4197
1025 1012 0.693496
1013 1013 18.4197
1025 1013 0.760056
1014 1014 14.4197
1025 1014 0.693496
1015 1015 27.4197
1025 1015 0.838813
1016 1016 30.4197
1025 1016 0.854709
1017 1017 8.4197
1025 1017 0.475077
1018 1018 14.4197
1025 1018 0.693496
1019 1019 5.4197
1025 1019 0.184512
1020 1020 23.4197
1025 1020 0.811283
1021 1021 29.4197
1025 1021 0.849771
1022 1022 23.4197
1025 1022 0.811283
1023 1023 15.4197
1025 1023 0.713373
1024 1024 11.4197
1025 1024 0.612976
990 1025 36
991 1025 25
992 1025 1
993 1025 1
994 1025 13
995 1025 1
996 1025 6
997 1025 6
998 1025 12
999 1025 3
1000 1025 21
1001 1025 2
1002 1025 1
1003 1025 7
1004 1025 67
1005 1025 18
1006 1025 23
1007 1025 23
1008 1025 1
1009 1025 4
1010 1025 9
1011 1025 31
1012 1025 10
1013 1025 14
1014 1025 10
1015 1025 23
1016 1025 26
1017 1025 4
1018 1025 10
1019 1025 1
1020 1025 19
1021 1025 25
1022 1025 19
1023 1025 11
1024 1025 7
1025 1025 445.721
1026 1026 56.4197
1036 1026 0.921664
1027 1027 9.4197
1036 1027 0.530803
1028 1028 12.4197
1036 1028 0.644138
1029 1029 29.4197
1036 1029 0.849771
1030 1030 8.4197
1036 1030 0.475077
1031 1031 13.4197
1036 1031 0.670656
1032 1032 12.4197
1036 1032 0.644138
1033 1033 19.4197
1036 1033 0.772412
1034 1034 15.4197
1036 1034 0.713373
1035 1035 19.4197
1036 1035 0.772412
1026 1036 52
1027 1036 5
1028 1036 8
1029 1036 25
1030 1036 4
1031 1036 9
1032 1036 8
1033 1036 15
1034 1036 11
1035 1036 15
1036 1036 379.937
1037 1037 7.4197
1058 1037 0.404329
1038 1038 23.4197
1058 1038 0.811283
1039 1039 25.4197
1058 1039 0.826131
1040 1040 38.4197
1058 1040 0.884963
1041 1041 32.4197
1058 1041 0.863672
1042 1042 13.4197
1058 1042 0.670656
1043 1043 32.4197
1058 1043 0.863672
1044 1044 15.4197
1058 1044 0.713373
1045 1045 19.4197
1058 1045 0.772412
1046 1046 6.4197
1058 1046 0.311541
1047 1047 10.4197
1058 1047 0.575833
1048 1048 22.4197
1058 1048 0.802865
1049 1049 15.4197
1058 1049 0.713373
1050 1050 14.4197
1058 1050 0.693496
1051 1051 25.4197
1058 1051 0.826131
1052 1052 19.4197
1058 1052 0.772412
1053 1053 21.4197
1058 1053 0.793662
1054 1054 31.4197
1058 1054 0.859334
1055 1055 5.4197
1058 1055 0.184512
1056 1056 8.4197
1058 1056 0.475077
1057 1057 18.4197
1058 1057 0.760056
1037 1058 3
1038 1058 19
1039 1058 21
1040 1058 34
1041 1058 28
1042 1058 9
1043 1058 28
1044 1058 11
1045 1058 15
1046 1058 2
1047 1058 6
1048 1058 18
1049 1058 11
1050 1058 10
1051 1058 21
1052 1058 15
1053 1058 17
1054 1058 27
1055 1058 1
1056 1058 4
1057 1058 14
1058 1058 413.457
1059 1059 66.4197
1061 1059 0.933458
1060 1060 6.4197
1061 1060 0.311541
1059 1061 62
1060 1061 2
1061 1061 354.526
1062 1062 10.4197
1084 1062 0.575833
1063 1063 23.4197
1084 1063 0.811283
1064 1064 6.4197
1084 1064 0.311541
1065 1065 7.4197
1084 1065 0.404329
1066 1066 6.4197
1084 1066 0.311541
1067 1067 29.4197
1084 1067 0.849771
1068 1068 8.4197
1084 1068 0.475077
1069 1069 64.4197
1084 1069 0.931392
1070 1070 27.4197
1084 1070 0.838813
1071 1071 35.4197
1084 1071 0.875219
1072 1072 46.4197
1084 1072 0.904788
1073 1073 37.4197
1084 1073 0.881889
1074 1074 25.4197
1084 1074 0.826131
1075 1075 37.4197
1084 1075 0.881889
1076 1076 38.4197
1084 1076 0.884963
1077 1077 31.4197
1084 1077 0.859334
1078 1078 48.4197
1084 1078 0.908721
1079 1079 60.4197
1084 1079 0.92685
1080 1080 27.4197
1084 1080 0.838813
1081 1081 7.4197
1084 1081 0.404329
1082 1082 10.4197
1084 1082 0.575833
1083 1083 26.4197
1084 1083 0.832712
1062 1084 6
1063 1084 19
1064 1084 2
1065 1084 3
1066 1084 2
1067 1084 25
1068 1084 4
1069 1084 60
1070 1084 23
1071 1084 31
1072 1084 42
1073 1084 33
1074 1084 21
1075 1084 33
1076 1084 34
1077 1084 27
1078 1084 44
1079 1084 56
1080 1084 23
1081 1084 3
1082 1084 6
1083 1084 22
1084 1084 420.23
1085 1085 10.4197
1095 1085 0.575833
1086 1086 7.4197
1095 1086 0.404329
1087 1087 16.4197
1095 1087 0.73083
1088 1088 13.4197
1095 1088 0.670656
1089 1089 9.4197
1095 1089 0.530803
1090 1090 13.4197
1095 1090 0.670656
1091 1091 8.4197
1095 1091 0.475077
1092 1092 8.4197
1095 1092 0.475077
1093 1093 5.4197
1095 1093 0.184512
1094 1094 16.4197
1095 1094 0.73083
1085 1095 6
1086 1095 3
1087 1095 12
1088 1095 9
1089 1095 5
1090 1095 9
1091 1095 4
1092 1095 4
1093 1095 1
1094 1095 12
1095 1095 373.105
1096 1096 21.4197
1131 1096 0.793662
1097 1097 6.4197
1131 1097 0.311541
1098 1098 12.4197
1131 1098 0.644138
1099 1099 7.4197
1131 1099 0.404329
1100 1100 10.4197
1131 1100 0.575833
1101 1101 5.4197
1131 1101 0.184512
1102 1102 30.4197
1131 1102 0.854709
1103 1103 25.4197
1131 1103 0.826131
1104 1104 14.4197
1131 1104 0.693496
1105 1105 27.4197
1131 1105 0.838813
1106 1106 31.4197
1131 1106 0.859334
1107 1107 18.4197
1131 1107 0.760056
1108 1108 16.4197
1131 1108 0.73083
1109 1109 28.4197
1131 1109 0.844485
1110 1110 11.4197
1131 1110 0.612976
1111 1111 39.4197
1131 1111 0.887881
1112 1112 11.4197
1131 1112 0.612976
1113 1113 6.4197
1131 1113 0.311541
1114 1114 23.4197
1131 1114 0.811283
1115 1115 10.4197
1131 1115 0.575833
1116 1116 25.4197
1131 1116 0.826131
1117 1117 9.4197
1131 1117 0.530803
1118 1118 9.4197
1131 1118 0.530803
1119 1119 16.4197
1131 1119 0.73083
1120 1120 13.4197
1131 1120 0.670656
1121 1121 19.4197
1131 1121 0.772412
1122 1122 19.4197
1131 1122 0.772412
1123 1123 6.4197
1131 1123 0.311541
1124 1124 17.4197
1131 1124 0.746282
1125 1125 12.4197
1131 1125 0.644138
1126 1126 6.4197
1131 1126 0.311541
1127 1127 8.4197
1131 1127 0.475077
1128 1128 32.4197
1131 1128 0.863672
1129 1129 11.4197
1131 1129 0.612976
1130 1130 11.4197
1131 1130 0.612976
1096 1131 17
1097 1131 2
1098 1131 8
1099 1131 3
1100 1131 6
1101 1131 1
1102 1131 26
1103 1131 21
1104 1131 10
1105 1131 23
1106 1131 27
1107 1131 14
1108 1131 12
1109 1131 24
1110 1131 7
1111 1131 35
1112 1131 7
1113 1131 2
1114 1131 19
1115 1131 6
1116 1131 21
1117 1131 5
1118 1131 5
1119 1131 12
1120 1131 9
1121 1131 15
1122 1131 15
1123 1131 2
1124 1131 13
1125 1131 8
1126 1131 2
1127 1131 4
1128 1131 28
1129 1131 7
1130 1131 7
1131 1131 448.673
1132 1132 31.4197
1139 1132 0.859334
1133 1133 17.4197
1139 1133 0.746282
1134 1134 28.4197
1139 1134 0.844485
1135 1135 16.4197
1139 1135 0.73083
1136 1136 13.4197
1139 1136 0.670656
1137 1137 18.4197
1139 1137 0.760056
1138 1138 7.4197
1139 1138 0.404329
1132 1139 27
1133 1139 13
1134 1139 24
1135 1139 12
1136 1139 9
1137 1139 14
1138 1139 3
1139 1139 371.193
1140 1140 39.4197
1159 1140 0.887881
1141 1141 7.4197
1159 1141 0.404329
1142 1142 10.4197
1159 1142 0.575833
1143 1143 5.4197
1159 1143 0.184512
1144 1144 7.4197
1159 1144 0.404329
1145 1145 29.4197
1159 1145 0.849771
1146 1146 20.4197
1159 1146 0.783557
1147 1147 10.4197
1159 1147 0.575833
1148 1148 20.4197
1159 1148 0.783557
1149 1149 13.4197
1159 1149 0.670656
1150 1150 10.4197
1159 1150 0.575833
1151 1151 17.4197
1159 1151 0.746282
1152 1152 5.4197
1159 1152 0.184512
1153 1153 14.4197
1159 1153 0.693496
1154 1154 12.4197
1159 1154 0.644138
1155 1155 17.4197
1159 1155 0.746282
1156 1156 10.4197
1159 1156 0.575833
1157 1157 14.4197
1159 1157 0.693496
1158 1158 7.4197
1159 1158 0.404329
1140 1159 35
1141 1159 3
1142 1159 6
1143 1159 1
1144 1159 3
1145 1159 25
1146 1159 16
1147 1159 6
1148 1159 16
1149 1159 9
1150 1159 6
1151 1159 13
1152 1159 1
1153 1159 10
1154 1159 8
1155 1159 13
1156 1159 6
1157 1159 10
1158 1159 3
1159 1159 399.34
1160 1160 15.4197
1166 1160 0.713373
1161 1161 36.4197
1166 1161 0.878645
1162 1162 34.4197
1166 1162 0.871594
1163 1163 32.4197
1166 1163 0.863672
1164 1164 6.4197
1166 1164 0.311541
1165 1165 28.4197
1166 1165 0.844485
1160 1166 11
1161 1166 32
1162 1166 30
1163 1166 28
1164 1166 2
1165 1166 24
1166 1166 368.839
1167 1167 9.4197
1172 1167 0.530803
1168 1168 12.4197
1172 1168 0.644138
1169 1169 39.4197
1172 1169 0.887881
1170 1170 30.4197
1172 1170 0.854709
1171 1171 39.4197
1172 1171 0.887881
1167 1172 5
1168 1172 8
1169 1172 35
1170 1172 26
1171 1172 35
1172 1172 365.843
1173 1173 12.4197
1195 1173 0.644138
1174 1174 11.4197
1195 1174 0.612976
1175 1175 16.4197
1195 1175 0.73083
1176 1176 8.4197
1195 1176 0.475077
1177 1177 23.4197
1195 1177 0.811283
1178 1178 13.4197
1195 1178 0.670656
1179 1179 5.4197
1195 1179 0.184512
1180 1180 13.4197
1195 1180 0.670656
1181 1181 10.4197
1195 1181 0.575833
1182 1182 5.4197
1195 1182 0.184512
1183 1183 31.4197
1195 1183 0.859334
1184 1184 36.4197
1195 1184 0.878645
1185 1185 24.4197
1195 1185 0.819011
1186 1186 9.4197
1195 1186 0.530803
1187 1187 5.4197
1195 1187 0.184512
1188 1188 16.4197
1195 1188 0.73083
1189 1189 14.4197
1195 1189 0.693496
1190 1190 5.4197
1195 1190 0.184512
1191 1191 7.4197
1195 1191 0.404329
1192 1192 11.4197
1195 1192 0.612976
1193 1193 13.4197
1195 1193 0.670656
1194 1194 18.4197
1195 1194 0.760056
1173 1195 8
1174 1195 7
1175 1195 12
1176 1195 4
1177 1195 19
1178 1195 9
1179 1195 1
1180 1195 9
1181 1195 6
1182 1195 1
1183 1195 27
1184 1195 32
1185 1195 20
1186 1195 5
1187 1195 1
1188 1195 12
1189 1195 10
1190 1195 1
1191 1195 3
1192 1195 7
1193 1195 9
1194 1195 14
1195 1195 405.992
1196 1196 79.4197
1199 1196 0.94435
1197 1197 8.4197
1199 1197 0.475077
1198 1198 10.4197
1199 1198 0.575833
1196 1199 75
1197 1199 4
1198 1199 6
1199 1199 357.842
1200 1200 25.4197
1224 1200 0.826131
1201 1201 24.4197
1224 1201 0.819011
1202 1202 5.4197
1224 1202 0.184512
1203 1203 17.4197
1224 1203 0.746282
1204 1204 5.4197
1224 1204 0.184512
1205 1205 13.4197
1224 1205 0.670656
1206 1206 11.4197
1224 1206 0.612976
1207 1207 7.4197
1224 1207 0.404329
1208 1208 5.4197
1224 1208 0.184512
1209 1209 6.4197
1224 1209 0.311541
1210 1210 8.4197
1224 1210 0.475077
1211 1211 24.4197
1224 1211 0.819011
1212 1212 7.4197
1224 1212 0.404329
1213 1213 6.4197
1224 1213 0.311541
1214 1214 7.4197
1224 1214 0.404329
1215 1215 6.4197
1224 1215 0.311541
1216 1216 5.4197
1224 1216 0.184512
1217 1217 7.4197
1224 1217 0.404329
1218 1218 15.4197
1224 1218 0.713373
1219 1219 22.4197
1224 1219 0.802865
1220 1220 15.4197
1224 1220 0.713373
1221 1221 13.4197
1224 1221 0.670656
1222 1222 11.4197
1224 1222 0.612976
1223 1223 17.4197
1224 1223 0.746282
1200 1224 21
1201 1224 20
1202 1224 1
1203 1224 13
1204 1224 1
1205 1224 9
1206 1224 7
1207 1224 3
1208 1224 1
1209 1224 2
1210 1224 4
1211 1224 20
1212 1224 3
1213 1224 2
1214 1224 3
1215 1224 2
1216 1224 1
1217 1224 3
1218 1224 11
1219 1224 18
1220 1224 11
1221 1224 9
1222 1224 7
1223 1224 13
1224 1224 404.352
1225 1225 63.4197
1235 1225 0.93031
1226 1226 31.4197
1235 1226 0.859334
1227 1227 13.4197
1235 1227 0.670656
1228 1228 18.4197
1235 1228 0.760056
1229 1229 14.4197
1235 1229 0.693496
1230 1230 7.4197
1235 1230 0.404329
1231 1231 23.4197
1235 1231 0.811283
1232 1232 7.4197
1235 1232 0.404329
1233 1233 7.4197
1235 1233 0.404329
1234 1234 7.4197
1235 1234 0.404329
1225 1235 59
1226 1235 27
1227 1235 9
1228 1235 14
1229 1235 10
1230 1235 3
1231 1235 19
1232 1235 3
1233 1235 3
1234 1235 3
1235 1235 377.056
1236 1236 89.4197
1267 1236 0.950574
1237 1237 39.4197
1267 1237 0.887881
1238 1238 58.4197
1267 1238 0.924346
1239 1239 40.4197
1267 1239 0.890655
1240 1240 46.4197
1267 1240 0.904788
1241 1241 60.4197
1267 1241 0.92685
1242 1242 20.4197
1267 1242 0.783557
1243 1243 9.4197
1267 1243 0.530803
1244 1244 16.4197
1267 1244 0.73083
1245 1245 16.4197
1267 1245 0.73083
1246 1246 65.4197
1267 1246 0.932441
1247 1247 48.4197
1267 1247 0.908721
1248 1248 7.4197
1267 1248 0.404329
1249 1249 8.4197
1267 1249 0.475077
1250 1250 5.4197
1267 1250 0.184512
1251 1251 19.4197
1267 1251 0.772412
1252 1252 5.4197
1267 1252 0.184512
1253 1253 18.4197
1267 1253 0.760056
1254 1254 20.4197
1267 1254 0.783557
1255 1255 44.4197
1267 1255 0.900501
1256 1256 8.4197
1267 1256 0.475077
1257 1257 15.4197
1267 1257 0.713373
1258 1258 18.4197
1267 1258 0.760056
1259 1259 18.4197
1267 1259 0.760056
1260 1260 11.4197
1267 1260 0.612976
1261 1261 8.4197
1267 1261 0.475077
1262 1262 15.4197
1267 1262 0.713373
1263 1263 26.4197
1267 1263 0.832712
1264 1264 15.4197
1267 1264 0.713373
1265 1265 9.4197
1267 1265 0.530803
1266 1266 19.4197
1267 1266 0.772412
1236 1267 85
1237 1267 35
1238 1267 54
1239 1267 36
1240 1267 42
1241 1267 56
1242 1267 16
1243 1267 5
1244 1267 12
1245 1267 12
1246 1267 61
1247 1267 44
1248 1267 3
1249 1267 4
1250 1267 1
1251 1267 15
1252 1267 1
1253 1267 14
1254 1267 16
1255 1267 40
1256 1267 4
1257 1267 11
1258 1267 14
1259 1267 14
1260 1267 7
1261 1267 4
1262 1267 11
1263 1267 22
1264 1267 11
1265 1267 5
1266 1267 15
1267 1267 445.932
1268 1268 14.4197
1273 1268 0.693496
1269 1269 27.4197
1273 1269 0.838813
1270 1270 17.4197
1273 1270 0.746282
1271 1271 5.4197
1273 1271 0.184512
1272 1272 10.4197
1273 1272 0.575833
1268 1273 10
1269 1273 23
1270 1273 13
1271 1273 1
1272 1273 6
1273 1273 362.455
1274 1274 22.4197
1279 1274 0.802865
1275 1275 41.4197
1279 1275 0.893295
1276 1276 28.4197
1279 1276 0.844485
1277 1277 5.4197
1279 1277 0.184512
1278 1278 20.4197
1279 1278 0.783557
1274 1279 18
1275 1279 37
1276 1279 24
1277 1279 1
1278 1279 16
1279 1279 364.531
1280 1280 7.4197
1306 1280 0.404329
1281 1281 10.4197
1306 1281 0.575833
1282 1282 35.4197
1306 1282 0.875219
1283 1283 18.4197
1306 1283 0.760056
1284 1284 6.4197
1306 1284 0.311541
1285 1285 9.4197
1306 1285 0.530803
1286 1286 14.4197
1306 1286 0.693496
1287 1287 12.4197
1306 1287 0.644138
1288 1288 11.4197
1306 1288 0.612976
1289 1289 42.4197
1306 1289 0.89581
1290 1290 13.4197
1306 1290 0.670656
1291 1291 36.4197
1306 1291 0.878645
1292 1292 42.4197
1306 1292 0.89581
1293 1293 15.4197
1306 1293 0.713373
1294 1294 8.4197
1306 1294 0.475077
1295 1295 24.4197
1306 1295 0.819011
1296 1296 8.4197
1306 1296 0.475077
1297 1297 11.4197
1306 1297 0.612976
1298 1298 20.4197
1306 1298 0.783557
1299 1299 36.4197
1306 1299 0.878645
1300 1300 17.4197
1306 1300 0.746282
1301 1301 21.4197
1306 1301 0.793662
1302 1302 46.4197
1306 1302 0.904788
1303 1303 27.4197
1306 1303 0.838813
1304 1304 41.4197
1306 1304 0.893295
1305 1305 7.4197
1306 1305 0.404329
1280 1306 3
1281 1306 6
1282 1306 31
1283 1306 14
1284 1306 2
1285 1306 5
1286 1306 10
1287 1306 8
1288 1306 7
1289 1306 38
1290 1306 9
1291 1306 32
1292 1306 38
1293 1306 11
1294 1306 4
1295 1306 20
1296 1306 4
1297 1306 7
1298 1306 16
1299 1306 32
1300 1306 13
1301 1306 17
1302 1306 42
1303 1306 23
1304 1306 37
1305 1306 3
1306 1306 428.968
1307 1307 16.4197
1317 1307 0.73083
1308 1308 103.42
1317 1308 0.957264
1309 1309 27.4197
1317 1309 0.838813
1310 1310 7.4197
1317 1310 0.404329
1311 1311 34.4197
1317 1311 0.871594
1312 1312 11.4197
1317 1312 0.612976
1313 1313 8.4197
1317 1313 0.475077
1314 1314 21.4197
1317 1314 0.793662
1315 1315 6.4197
1317 1315 0.311541
1316 1316 10.4197
1317 1316 0.575833
1307 1317 12
1308 1317 99
1309 1317 23
1310 1317 3
1311 1317 30
1312 1317 7
1313 1317 4
1314 1317 17
1315 1317 2
1316 1317 6
1317 1317 378.07
1318 1318 29.4197
1321 1318 0.849771
1319 1319 23.4197
1321 1319 0.811283
1320 1320 35.4197
1321 1320 0.875219
1318 1321 25
1319 1321 19
1320 1321 31
1321 1321 360.233
1322 1322 12.4197
1377 1322 0.644138
1323 1323 16.4197
1377 1323 0.73083
1324 1324 6.4197
1377 1324 0.311541
1325 1325 60.4197
1377 1325 0.92685
1326 1326 6.4197
1377 1326 0.311541
1327 1327 8.4197
1377 1327 0.475077
1328 1328 15.4197
1377 1328 0.713373
1329 1329 7.4197
1377 1329 0.404329
1330 1330 8.4197
1377 1330 0.475077
1331 1331 6.4197
1377 1331 0.311541
1332 1332 14.4197
1377 1332 0.693496
1333 1333 12.4197
1377 1333 0.644138
1334 1334 10.4197
1377 1334 0.575833
1335 1335 8.4197
1377 1335 0.475077
1336 1336 9.4197
1377 1336 0.530803
1337 1337 18.4197
1377 1337 0.760056
1338 1338 5.4197
1377 1338 0.184512
1339 1339 14.4197
1377 1339 0.693496
1340 1340 9.4197
1377 1340 0.530803
1341 1341 9.4197
1377 1341 0.530803
1342 1342 10.4197
1377 1342 0.575833
1343 1343 15.4197
1377 1343 0.713373
1344 1344 12.4197
1377 1344 0.644138
1345 1345 22.4197
1377 1345 0.802865
1346 1346 11.4197
1377 1346 0.612976
1347 1347 5.4197
1377 1347 0.184512
1348 1348 10.4197
1377 1348 0.575833
1349 1349 11.4197
1377 1349 0.612976
1350 1350 24.4197
1377 1350 0.819011
1351 1351 12.4197
1377 1351 0.644138
1352 1352 17.4197
1377 1352 0.746282
1353 1353 28.4197
1377 1353 0.844485
1354 1354 6.4197
1377 1354 0.311541
1355 1355 7.4197
1377 1355 0.404329
1356 1356 10.4197
1377 1356 0.575833
1357 1357 6.4197
1377 1357 0.311541
1358 1358 23.4197
1377 1358 0.811283
1359 1359 15.4197
1377 1359 0.713373
1360 1360 22.4197
1377 1360 0.802865
1361 1361 17.4197
1377 1361 0.746282
1362 1362 20.4197
1377 1362 0.783557
1363 1363 8.4197
1377 1363 0.475077
1364 1364 9.4197
1377 1364 0.530803
1365 1365 7.4197
1377 1365 0.404329
1366 1366 5.4197
1377 1366 0.184512
1367 1367 5.4197
1377 1367 0.184512
1368 1368 12.4197
1377 1368 0.644138
1369 1369 25.4197
1377 1369 0.826131
1370 1370 7.4197
1377 1370 0.404329
1371 1371 5.4197
1377 1371 0.184512
1372 1372 6.4197
1377 1372 0.311541
1373 1373 9.4197
1377 1373 0.530803
1374 1374 19.4197
1377 1374 0.772412
1375 1375 8.4197
1377 1375 0.475077
1376 1376 6.4197
1377 1376 0.311541
1322 1377 8
1323 1377 12
1324 1377 2
1325 1377 56
1326 1377 2
1327 1377 4
1328 1377 11
1329 1377 3
1330 1377 4
1331 1377 2
1332 1377 10
1333 1377 8
1334 1377 6
1335 1377 4
1336 1377 5
1337 1377 14
1338 1377 1
1339 1377 10
1340 1377 5
1341 1377 5
1342 1377 6
1343 1377 11
1344 1377 8
1345 1377 18
1346 1377 7
1347 1377 1
1348 1377 6
1349 1377 7
1350 1377 20
1351 1377 8
1352 1377 13
1353 1377 24
1354 1377 2
1355 1377 3
1356 1377 6
1357 1377 2
1358 1377 19
1359 1377 11
1360 1377 18
1361 1377 13
1362 1377 16
1363 1377 4
1364 1377 5
1365 1377 3
1366 1377 1
1367 1377 1
1368 1377 8
1369 1377 21
1370 1377 3
1371 1377 1
1372 1377 2
1373 1377 5
1374 1377 15
1375 1377 4
1376 1377 2
1377 1377 483.383
1378 1378 61.4197
1382 1378 0.928041
1379 1379 10.4197
1382 1379 0.575833
1380 1380 6.4197
1382 1380 0.311541
1381 1381 7.4197
1382 1381 0.404329
1378 1382 57
1379 1382 6
1380 1382 2
1381 1382 3
1382 1382 358.834
1383 1383 10.4197
1408 1383 0.575833
1384 1384 10.4197
1408 1384 0.575833
1385 1385 26.4197
1408 1385 0.832712
1386 1386 6.4197
1408 1386 0.311541
1387 1387 25.4197
1408 1387 0.826131
1388 1388 16.4197
1408 1388 0.73083
1389 1389 6.4197
1408 1389 0.311541
1390 1390 5.4197
1408 1390 0.184512
1391 1391 10.4197
1408 1391 0.575833
1392 1392 12.4197
1408 1392 0.644138
1393 1393 40.4197
1408 1393 0.890655
1394 1394 19.4197
1408 1394 0.772412
1395 1395 9.4197
1408 1395 0.530803
1396 1396 10.4197
1408 1396 0.575833
1397 1397 20.4197
1408 1397 0.783557
1398 1398 17.4197
1408 1398 0.746282
1399 1399 26.4197
1408 1399 0.832712
1400 1400 11.4197
1408 1400 0.612976
1401 1401 17.4197
1408 1401 0.746282
1402 1402 11.4197
1408 1402 0.612976
1403 1403 17.4197
1408 1403 0.746282
1404 1404 11.4197
1408 1404 0.612976
1405 1405 6.4197
1408 1405 0.311541
1406 1406 25.4197
1408 1406 0.826131
1407 1407 13.4197
1408 1407 0.670656
1383 1408 6
1384 1408 6
1385 1408 22
1386 1408 2
1387 1408 21
1388 1408 12
1389 1408 2
1390 1408 1
1391 1408 6
1392 1408 8
1393 1408 36
1394 1408 15
1395 1408 5
1396 1408 6
1397 1408 16
1398 1408 13
1399 1408 22
1400 1408 7
1401 1408 13
1402 1408 7
1403 1408 13
1404 1408 7
1405 1408 2
1406 1408 21
1407 1408 9
1408 1408 419.036
1409 1409 47.4197
1413 1409 0.906796
1410 1410 8.4197
1413 1410 0.475077
1411 1411 12.4197
1413 1411 0.644138
1412 1412 13.4197
1413 1412 0.670656
1409 1413 43
1410 1413 4
1411 1413 8
1412 1413 9
1413 1413 360.942
1414 1414 16.4197
1477 1414 0.73083
1415 1415 9.4197
1477 1415 0.530803
1416 1416 5.4197
1477 1416 0.184512
1417 1417 9.4197
1477 1417 0.530803
1418 1418 22.4197
1477 1418 0.802865
1419 1419 5.4197
1477 1419 0.184512
1420 1420 46.4197
1477 1420 0.904788
1421 1421 9.4197
1477 1421 0.530803
1422 1422 9.4197
1477 1422 0.530803
1423 1423 20.4197
1477 1423 0.783557
1424 1424 10.4197
1477 1424 0.575833
1425 1425 6.4197
1477 1425 0.311541
1426 1426 9.4197
1477 1426 0.530803
1427 1427 14.4197
1477 1427 0.693496
1428 1428 43.4197
1477 1428 0.89821
1429 1429 21.4197
1477 1429 0.793662
1430 1430 22.4197
1477 1430 0.802865
1431 1431 8.4197
1477 1431 0.475077
1432 1432 12.4197
1477 1432 0.644138
1433 1433 8.4197
1477 1433 0.475077
1434 1434 6.4197
1477 1434 0.311541
1435 1435 6.4197
1477 1435 0.311541
1436 1436 6.4197
1477 1436 0.311541
1437 1437 15.4197
1477 1437 0.713373
1438 1438 28.4197
1477 1438 0.844485
1439 1439 5.4197
1477 1439 0.184512
1440 1440 27.4197
1477 1440 0.838813
1441 1441 15.4197
1477 1441 0.713373
1442 1442 19.4197
1477 1442 0.772412
1443 1443 9.4197
1477 1443 0.530803
1444 1444 21.4197
1477 1444 0.793662
1445 1445 34.4197
1477 1445 0.871594
1446 1446 37.4197
1477 1446 0.881889
1447 1447 30.4197
1477 1447 0.854709
1448 1448 17.4197
1477 1448 0.746282
1449 1449 8.4197
1477 1449 0.475077
1450 1450 8.4197
1477 1450 0.475077
1451 1451 16.4197
1477 1451 0.73083
1452 1452 25.4197
1477 1452 0.826131
1453 1453 9.4197
1477 1453 0.530803
1454 1454 10.4197
1477 1454 0.575833
1455 1455 6.4197
1477 1455 0.311541
1456 1456 8.4197
1477 1456 0.475077
1457 1457 20.4197
1477 1457 0.783557
1458 1458 31.4197
1477 1458 0.859334
1459 1459 13.4197
1477 1459 0.670656
1460 1460 10.4197
1477 1460 0.575833
1461 1461 18.4197
1477 1461 0.760056
1462 1462 14.4197
1477 1462 0.693496
1463 1463 10.4197
1477 1463 0.575833
1464 1464 17.4197
1477 1464 0.746282
1465 1465 11.4197
1477 1465 0.612976
1466 1466 25.4197
1477 1466 0.826131
1467 1467 13.4197
1477 1467 0.670656
1468 1468 15.4197
1477 1468 0.713373
1469 1469 20.4197
1477 1469 0.783557
1470 1470 19.4197
1477 1470 0.772412
1471 1471 7.4197
1477 1471 0.404329
1472 1472 13.4197
1477 1472 0.670656
1473 1473 13.4197
1477 1473 0.670656
1474 1474 6.4197
1477 1474 0.311541
1475 1475 8.4197
1477 1475 0.475077
1476 1476 5.4197
1477 1476 0.184512
1414 1477 12
1415 1477 5
1416 1477 1
1417 1477 5
1418 1477 18
1419 1477 1
1420 1477 42
1421 1477 5
1422 1477 5
1423 1477 16
1424 1477 6
1425 1477 2
1426 1477 5
1427 1477 10
1428 1477 39
1429 1477 17
1430 1477 18
1431 1477 4
1432 1477 8
1433 1477 4
1434 1477 2
1435 1477 2
1436 1477 2
1437 1477 11
1438 1477 24
1439 1477 1
1440 1477 23
1441 1477 11
1442 1477 15
1443 1477 5
1444 1477 17
1445 1477 30
1446 1477 33
1447 1477 26
1448 1477 13
1449 1477 4
1450 1477 4
1451 1477 12
1452 1477 21
1453 1477 5
1454 1477 6
1455 1477 2
1456 1477 4
1457 1477 16
1458 1477 27
1459 1477 9
1460 1477 6
1461 1477 14
1462 1477 10
1463 1477 6
1464 1477 13
1465 1477 7
1466 1477 21
1467 1477 9
1468 1477 11
1469 1477 16
1470 1477 15
1471 1477 3
1472 1477 9
1473 1477 9
1474 1477 2
1475 1477 4
1476 1477 1
1477 1477 520.317
1478 1478 36.4197
1517 1478 0.878645
1479 1479 130.42
1517 1479 0.966112
1480 1480 7.4197
1517 1480 0.404329
1481 1481 6.4197
1517 1481 0.311541
1482 1482 7.4197
1517 1482 0.404329
1483 1483 5.4197
1517 1483 0.184512
1484 1484 6.4197
1517 1484 0.311541
1485 1485 5.4197
1517 1485 0.184512
1486 1486 6.4197
1517 1486 0.311541
1487 1487 22.4197
1517 1487 0.802865
1488 1488 22.4197
1517 1488 0.802865
1489 1489 23.4197
1517 1489 0.811283
1490 1490 25.4197
1517 1490 0.826131
1491 1491 8.4197
1517 1491 0.475077
1492 1492 10.4197
1517 1492 0.575833
1493 1493 14.4197
1517 1493 0.693496
1494 1494 6.4197
1517 1494 0.311541
1495 1495 15.4197
1517 1495 0.713373
1496 1496 8.4197
1517 1496 0.475077
1497 1497 12.4197
1517 1497 0.644138
1498 1498 9.4197
1517 1498 0.530803
1499 1499 9.4197
1517 1499 0.530803
1500 1500 11.4197
1517 1500 0.612976
1501 1501 17.4197
1517 1501 0.746282
1502 1502 23.4197
1517 1502 0.811283
1503 1503 9.4197
1517 1503 0.530803
1504 1504 16.4197
1517 1504 0.73083
1505 1505 33.4197
1517 1505 0.867752
1506 1506 25.4197
1517 1506 0.826131
1507 1507 7.4197
1517 1507 0.404329
1508 1508 6.4197
1517 1508 0.311541
1509 1509 11.4197
1517 1509 0.612976
1510 1510 7.4197
1517 1510 0.404329
1511 1511 6.4197
1517 1511 0.311541
1512 1512 11.4197
1517 1512 0.612976
1513 1513 17.4197
1517 1513 0.746282
1514 1514 22.4197
1517 1514 0.802865
1515 1515 8.4197
1517 1515 0.475077
1516 1516 5.4197
1517 1516 0.184512
1478 1517 32
1479 1517 126
1480 1517 3
1481 1517 2
1482 1517 3
1483 1517 1
1484 1517 2
1485 1517 1
1486 1517 2
1487 1517 18
1488 1517 18
1489 1517 19
1490 1517 21
1491 1517 4
1492 1517 6
1493 1517 10
1494 1517 2
1495 1517 11
1496 1517 4
1497 1517 8
1498 1517 5
1499 1517 5
1500 1517 7
1501 1517 13
1502 1517 19
1503 1517 5
1504 1517 12
1505 1517 29
1506 1517 21
1507 1517 3
1508 1517 2
1509 1517 7
1510 1517 3
1511 1517 2
1512 1517 7
1513 1517 13
1514 1517 18
1515 1517 4
1516 1517 1
1517 1517 446.888
1518 1518 68.4197
1577 1518 0.935403
1519 1519 50.4197
1577 1519 0.912342
1520 1520 39.4197
1577 1520 0.887881
1521 1521 6.4197
1577 1521 0.311541
1522 1522 6.4197
1577 1522 0.311541
1523 1523 16.4197
1577 1523 0.73083
1524 1524 5.4197
1577 1524 0.184512
1525 1525 6.4197
1577 1525 0.311541
1526 1526 22.4197
1577 1526 0.802865
1527 1527 31.4197
1577 1527 0.859334
1528 1528 6.4197
1577 1528 0.311541
1529 1529 14.4197
1577 1529 0.693496
1530 1530 14.4197
1577 1530 0.693496
1531 1531 7.4197
1577 1531 0.404329
1532 1532 35.4197
1577 1532 0.875219
1533 1533 18.4197
1577 1533 0.760056
1534 1534 8.4197
1577 1534 0.475077
1535 1535 18.4197
1577 1535 0.760056
1536 1536 23.4197
1577 1536 0.811283
1537 1537 21.4197
1577 1537 0.793662
1538 1538 12.4197
1577 1538 0.644138
1539 1539 9.4197
1577 1539 0.530803
1540 1540 9.4197
1577 1540 0.530803
1541 1541 11.4197
1577 1541 0.612976
1542 1542 12.4197
1577 1542 0.644138
1543 1543 12.4197
1577 1543 0.644138
1544 1544 29.4197
1577 1544 0.849771
1545 1545 22.4197
1577 1545 0.802865
1546 1546 29.4197
1577 1546 0.849771
1547 1547 38.4197
1577 1547 0.884963
1548 1548 7.4197
1577 1548 0.404329
1549 1549 9.4197
1577 1549 0.530803
1550 1550 27.4197
1577 1550 0.838813
1551 1551 30.4197
1577 1551 0.854709
1552 1552 12.4197
1577 1552 0.644138
1553 1553 22.4197
1577 1553 0.802865
1554 1554 14.4197
1577 1554 0.693496
1555 1555 12.4197
1577 1555 0.644138
1556 1556 20.4197
1577 1556 0.783557
1557 1557 11.4197
1577 1557 0.612976
1558 1558 9.4197
1577 1558 0.530803
1559 1559 11.4197
1577 1559 0.612976
1560 1560 8.4197
1577 1560 0.475077
1561 1561 23.4197
1577 1561 0.811283
1562 1562 20.4197
1577 1562 0.783557
1563 1563 34.4197
1577 1563 0.871594
1564 1564 6.4197
1577 1564 0.311541
1565 1565 5.4197
1577 1565 0.184512
1566 1566 10.4197
1577 1566 0.575833
1567 1567 16.4197
1577 1567 0.73083
1568 1568 6.4197
1577 1568 0.311541
1569 1569 15.4197
1577 1569 0.713373
1570 1570 10.4197
1577 1570 0.575833
1571 1571 29.4197
1577 1571 0.849771
1572 1572 22.4197
1577 1572 0.802865
1573 1573 13.4197
1577 1573 0.670656
1574 1574 11.4197
1577 1574 0.612976
1575 1575 24.4197
1577 1575 0.819011
1576 1576 6.4197
1577 1576 0.311541
1518 1577 64
1519 1577 46
1520 1577 35
1521 1577 2
1522 1577 2
1523 1577 12
1524 1577 1
1525 1577 2
1526 1577 18
1527 1577 27
1528 1577 2
1529 1577 10
1530 1577 10
1531 1577 3
1532 1577 31
1533 1577 14
1534 1577 4
1535 1577 14
1536 1577 19
1537 1577 17
1538 1577 8
1539 1577 5
1540 1577 5
1541 1577 7
1542 1577 8
1543 1577 8
1544 1577 25
1545 1577 18
1546 1577 25
1547 1577 34
1548 1577 3
1549 1577 5
1550 1577 23
1551 1577 26
1552 1577 8
1553 1577 18
1554 1577 10
1555 1577 8
1556 1577 16
1557 1577 7
1558 1577 5
1559 1577 7
1560 1577 4
1561 1577 19
1562 1577 16
1563 1577 30
1564 1577 2
1565 1577 1
1566 1577 6
1567 1577 12
1568 1577 2
1569 1577 11
1570 1577 6
1571 1577 25
1572 1577 18
1573 1577 9
1574 1577 7
1575 1577 20
1576 1577 2
1577 1577 517.794
1578 1578 19.4197
1599 1578 0.772412
1579 1579 44.4197
1599 1579 0.900501
1580 1580 25.4197
1599 1580 0.826131
1581 1581 16.4197
1599 1581 0.73083
1582 1582 6.4197
1599 1582 0.311541
1583 1583 10.4197
1599 1583 0.575833
1584 1584 40.4197
1599 1584 0.890655
1585 1585 7.4197
1599 1585 0.404329
1586 1586 21.4197
1599 1586 0.793662
1587 1587 27.4197
1599 1587 0.838813
1588 1588 7.4197
1599 1588 0.404329
1589 1589 18.4197
1599 1589 0.760056
1590 1590 6.4197
1599 1590 0.311541
1591 1591 7.4197
1599 1591 0.404329
1592 1592 10.4197
1599 1592 0.575833
1593 1593 14.4197
1599 1593 0.693496
1594 1594 16.4197
1599 1594 0.73083
1595 1595 12.4197
1599 1595 0.644138
1596 1596 6.4197
1599 1596 0.311541
1597 1597 9.4197
1599 1597 0.530803
1598 1598 5.4197
1599 1598 0.184512
1578 1599 15
1579 1599 40
1580 1599 21
1581 1599 12
1582 1599 2
1583 1599 6
1584 1599 36
1585 1599 3
1586 1599 17
1587 1599 23
1588 1599 3
1589 1599 14
1590 1599 2
1591 1599 3
1592 1599 6
1593 1599 10
1594 1599 12
1595 1599 8
1596 1599 2
1597 1599 5
1598 1599 1
1599 1599 404.695
1600 1600 41.4197
1635 1600 0.893295
1601 1601 5.4197
1635 1601 0.184512
1602 1602 6.4197
1635 1602 0.311541
1603 1603 14.4197
1635 1603 0.693496
1604 1604 19.4197
1635 1604 0.772412
1605 1605 7.4197
1635 1605 0.404329
1606 1606 11.4197
1635 1606 0.612976
1607 1607 11.4197
1635 1607 0.612976
1608 1608 11.4197
1635 1608 0.612976
1609 1609 26.4197
1635 1609 0.832712
1610 1610 15.4197
1635 1610 0.713373
1611 1611 18.4197
1635 1611 0.760056
1612 1612 26.4197
1635 1612 0.832712
1613 1613 7.4197
1635 1613 0.404329
1614 1614 10.4197
1635 1614 0.575833
1615 1615 7.4197
1635 1615 0.404329
1616 1616 11.4197
1635 1616 0.612976
1617 1617 16.4197
1635 1617 0.73083
1618 1618 23.4197
1635 1618 0.811283
1619 1619 18.4197
1635 1619 0.760056
1620 1620 9.4197
1635 1620 0.530803
1621 1621 22.4197
1635 1621 0.802865
1622 1622 9.4197
1635 1622 0.530803
1623 1623 10.4197
1635 1623 0.575833
1624 1624 7.4197
1635 1624 0.404329
1625 1625 17.4197
1635 1625 0.746282
1626 1626 19.4197
1635 1626 0.772412
1627 1627 6.4197
1635 1627 0.311541
1628 1628 18.4197
1635 1628 0.760056
1629 1629 15.4197
1635 1629 0.713373
1630 1630 12.4197
1635 1630 0.644138
1631 1631 25.4197
1635 1631 0.826131
1632 1632 6.4197
1635 1632 0.311541
1633 1633 15.4197
1635 1633 0.713373
1634 1634 12.4197
1635 1634 0.644138
1600 1635 37
1601 1635 1
1602 1635 2
1603 1635 10
1604 1635 15
1605 1635 3
1606 1635 7
1607 1635 7
1608 1635 7
1609 1635 22
1610 1635 11
1611 1635 14
1612 1635 22
1613 1635 3
1614 1635 6
1615 1635 3
1616 1635 7
1617 1635 12
1618 1635 19
1619 1635 14
1620 1635 5
1621 1635 18
1622 1635 5
1623 1635 6
1624 1635 3
1625 1635 13
1626 1635 15
1627 1635 2
1628 1635 14
1629 1635 11
1630 1635 8
1631 1635 21
1632 1635 2
1633 1635 11
1634 1635 8
1635 1635 445.482
1636 1636 7.4197
1693 1636 0.404329
1637 1637 5.4197
1693 1637 0.184512
1638 1638 8.4197
1693 1638 0.475077
1639 1639 36.4197
1693 1639 0.878645
1640 1640 44.4197
1693 1640 0.900501
1641 1641 6.4197
1693 1641 0.311541
1642 1642 27.4197
1693 1642 0.838813
1643 1643 14.4197
1693 1643 0.693496
1644 1644 41.4197
1693 1644 0.893295
1645 1645 16.4197
1693 1645 0.73083
1646 1646 9.4197
1693 1646 0.530803
1647 1647 13.4197
1693 1647 0.670656
1648 1648 5.4197
1693 1648 0.184512
1649 1649 15.4197
1693 1649 0.713373
1650 1650 6.4197
1693 1650 0.311541
1651 1651 19.4197
1693 1651 0.772412
1652 1652 13.4197
1693 1652 0.670656
1653 1653 5.4197
1693 1653 0.184512
1654 1654 5.4197
1693 1654 0.184512
1655 1655 9.4197
1693 1655 0.530803
1656 1656 24.4197
1693 1656 0.819011
1657 1657 10.4197
1693 1657 0.575833
1658 1658 15.4197
1693 1658 0.713373
1659 1659 9.4197
1693 1659 0.530803
1660 1660 26.4197
1693 1660 0.832712
1661 1661 32.4197
1693 1661 0.863672
1662 1662 6.4197
1693 1662 0.311541
1663 1663 10.4197
1693 1663 0.575833
1664 1664 7.4197
1693 1664 0.404329
1665 1665 11.4197
1693 1665 0.612976
1666 1666 11.4197
1693 1666 0.612976
1667 1667 13.4197
1693 1667 0.670656
1668 1668 22.4197
1693 1668 0.802865
1669 1669 5.4197
1693 1669 0.184512
1670 1670 16.4197
1693 1670 0.73083
1671 1671 9.4197
1693 1671 0.530803
1672 1672 17.4197
1693 1672 0.746282
1673 1673 15.4197
1693 1673 0.713373
1674 1674 7.4197
1693 1674 0.404329
1675 1675 5.4197
1693 1675 0.184512
1676 1676 10.4197
1693 1676 0.575833
1677 1677 33.4197
1693 1677 0.867752
1678 1678 5.4197
1693 1678 0.184512
1679 1679 29.4197
1693 1679 0.849771
1680 1680 22.4197
1693 1680 0.802865
1681 1681 7.4197
1693 1681 0.404329
1682 1682 21.4197
1693 1682 0.793662
1683 1683 18.4197
1693 1683 0.760056
1684 1684 8.4197
1693 1684 0.475077
1685 1685 14.4197
1693 1685 0.693496
1686 1686 8.4197
1693 1686 0.475077
1687 1687 20.4197
1693 1687 0.783557
1688 1688 7.4197
1693 1688 0.404329
1689 1689 9.4197
1693 1689 0.530803
1690 1690 11.4197
1693 1690 0.612976
1691 1691 8.4197
1693 1691 0.475077
1692 1692 17.4197
1693 1692 0.746282
1636 1693 3
1637 1693 1
1638 1693 4
1639 1693 32
1640 1693 40
1641 1693 2
1642 1693 23
1643 1693 10
1644 1693 37
1645 1693 12
1646 1693 5
1647 1693 9
1648 1693 1
1649 1693 11
1650 1693 2
1651 1693 15
1652 1693 9
1653 1693 1
1654 1693 1
1655 1693 5
1656 1693 20
1657 1693 6
1658 1693 11
1659 1693 5
1660 1693 22
1661 1693 28
1662 1693 2
1663 1693 6
1664 1693 3
1665 1693 7
1666 1693 7
1667 1693 9
1668 1693 18
1669 1693 1
1670 1693 12
1671 1693 5
1672 1693 13
1673 1693 11
1674 1693 3
1675 1693 1
1676 1693 6
1677 1693 29
1678 1693 1
1679 1693 25
1680 1693 18
1681 1693 3
1682 1693 17
1683 1693 14
1684 1693 4
1685 1693 10
1686 1693 4
1687 1693 16
1688 1693 3
1689 1693 5
1690 1693 7
1691 1693 4
1692 1693 13
1693 1693 496.294
1694 1694 42.4197
1758 1694 0.89581
1695 1695 42.4197
1758 1695 0.89581
1696 1696 71.4197
1758 1696 0.938117
1697 1697 7.4197
1758 1697 0.404329
1698 1698 10.4197
1758 1698 0.575833
1699 1699 33.4197
1758 1699 0.867752
1700 1700 11.4197
1758 1700 0.612976
1701 1701 5.4197
1758 1701 0.184512
1702 1702 26.4197
1758 1702 0.832712
1703 1703 7.4197
1758 1703 0.404329
1704 1704 32.4197
1758 1704 0.863672
1705 1705 6.4197
1758 1705 0.311541
1706 1706 11.4197
1758 1706 0.612976
1707 1707 26.4197
1758 1707 0.832712
1708 1708 11.4197
1758 1708 0.612976
1709 1709 11.4197
1758 1709 0.612976
1710 1710 17.4197
1758 1710 0.746282
1711 1711 6.4197
1758 1711 0.311541
1712 1712 8.4197
1758 1712 0.475077
1713 1713 8.4197
1758 1713 0.475077
1714 1714 7.4197
1758 1714 0.404329
1715 1715 24.4197
1758 1715 0.819011
1716 1716 7.4197
1758 1716 0.404329
1717 1717 9.4197
1758 1717 0.530803
1718 1718 10.4197
1758 1718 0.575833
1719 1719 35.4197
1758 1719 0.875219
1720 1720 6.4197
1758 1720 0.311541
1721 1721 14.4197
1758 1721 0.693496
1722 1722 36.4197
1758 1722 0.878645
1723 1723 8.4197
1758 1723 0.475077
1724 1724 5.4197
1758 1724 0.184512
1725 1725 24.4197
1758 1725 0.819011
1726 1726 10.4197
1758 1726 0.575833
1727 1727 11.4197
1758 1727 0.612976
1728 1728 20.4197
1758 1728 0.783557
1729 1729 6.4197
1758 1729 0.311541
1730 1730 11.4197
1758 1730 0.612976
1731 1731 11.4197
1758 1731 0.612976
1732 1732 8.4197
1758 1732 0.475077
1733 1733 12.4197
1758 1733 0.644138
1734 1734 18.4197
1758 1734 0.760056
1735 1735 25.4197
1758 1735 0.826131
1736 1736 18.4197
1758 1736 0.760056
1737 1737 8.4197
1758 1737 0.475077
1738 1738 27.4197
1758 1738 0.838813
1739 1739 12.4197
1758 1739 0.644138
1740 1740 7.4197
1758 1740 0.404329
1741 1741 45.4197
1758 1741 0.902692
1742 1742 29.4197
1758 1742 0.849771
1743 1743 12.4197
1758 1743 0.644138
1744 1744 9.4197
1758 1744 0.530803
1745 1745 6.4197
1758 1745 0.311541
1746 1746 21.4197
1758 1746 0.793662
1747 1747 6.4197
1758 1747 0.311541
1748 1748 13.4197
1758 1748 0.670656
1749 1749 37.4197
1758 1749 0.881889
1750 1750 7.4197
1758 1750 0.404329
1751 1751 19.4197
1758 1751 0.772412
1752 1752 13.4197
1758 1752 0.670656
1753 1753 10.4197
1758 1753 0.575833
1754 1754 10.4197
1758 1754 0.575833
1755 1755 17.4197
1758 1755 0.746282
1756 1756 5.4197
1758 1756 0.184512
1757 1757 9.4197
1758 1757 0.530803
1694 1758 38
1695 1758 38
1696 1758 67
1697 1758 3
1698 1758 6
1699 1758 29
1700 1758 7
1701 1758 1
1702 1758 22
1703 1758 3
1704 1758 28
1705 1758 2
1706 1758 7
1707 1758 22
1708 1758 7
1709 1758 7
1710 1758 13
1711 1758 2
1712 1758 4
1713 1758 4
1714 1758 3
1715 1758 20
1716 1758 3
1717 1758 5
1718 1758 6
1719 1758 31
1720 1758 2
1721 1758 10
1722 1758 32
1723 1758 4
1724 1758 1
1725 1758 20
1726 1758 6
1727 1758 7
1728 1758 16
1729 1758 2
1730 1758 7
1731 1758 7
1732 1758 4
1733 1758 8
1734 1758 14
1735 1758 21
1736 1758 14
1737 1758 4
1738 1758 23
1739 1758 8
1740 1758 3
1741 1758 41
1742 1758 25
1743 1758 8
1744 1758 5
1745 1758 2
1746 1758 17
1747 1758 2
1748 1758 9
1749 1758 33
1750 1758 3
1751 1758 15
1752 1758 9
1753 1758 6
1754 1758 6
1755 1758 13
1756 1758 1
1757 1758 5
1758 1758 521.983
1759 1759 22.4197
1796 1759 0.802865
1760 1760 5.4197
1796 1760 0.184512
1761 1761 7.4197
1796 1761 0.404329
1762 1762 14.4197
1796 1762 0.693496
1763 1763 27.4197
1796 1763 0.838813
1764 1764 22.4197
1796 1764 0.802865
1765 1765 25.4197
1796 1765 0.826131
1766 1766 11.4197
1796 1766 0.612976
1767 1767 6.4197
1796 1767 0.311541
1768 1768 10.4197
1796 1768 0.575833
1769 1769 9.4197
1796 1769 0.530803
1770 1770 5.4197
1796 1770 0.184512
1771 1771 19.4197
1796 1771 0.772412
1772 1772 7.4197
1796 1772 0.404329
1773 1773 9.4197
1796 1773 0.530803
1774 1774 5.4197
1796 1774 0.184512
1775 1775 10.4197
1796 1775 0.575833
1776 1776 33.4197
1796 1776 0.867752
1777 1777 7.4197
1796 1777 0.404329
1778 1778 9.4197
1796 1778 0.530803
1779 1779 19.4197
1796 1779 0.772412
1780 1780 11.4197
1796 1780 0.612976
1781 1781 14.4197
1796 1781 0.693496
1782 1782 10.4197
1796 1782 0.575833
1783 1783 56.4197
1796 1783 0.921664
1784 1784 18.4197
1796 1784 0.760056
1785 1785 13.4197
1796 1785 0.670656
1786 1786 6.4197
1796 1786 0.311541
1787 1787 34.4197
1796 1787 0.871594
1788 1788 14.4197
1796 1788 0.693496
1789 1789 5.4197
1796 1789 0.184512
1790 1790 5.4197
1796 1790 0.184512
1791 1791 8.4197
1796 1791 0.475077
1792 1792 21.4197
1796 1792 0.793662
1793 1793 5.4197
1796 1793 0.184512
1794 1794 17.4197
1796 1794 0.746282
1795 1795 25.4197
1796 1795 0.826131
1759 1796 18
1760 1796 1
1761 1796 3
1762 1796 10
1763 1796 23
1764 1796 18
1765 1796 21
1766 1796 7
1767 1796 2
1768 1796 6
1769 1796 5
1770 1796 1
1771 1796 15
1772 1796 3
1773 1796 5
1774 1796 1
1775 1796 6
1776 1796 29
1777 1796 3
1778 1796 5
1779 1796 15
1780 1796 7
1781 1796 10
1782 1796 6
1783 1796 52
1784 1796 14
1785 1796 9
1786 1796 2
1787 1796 30
1788 1796 10
1789 1796 1
1790 1796 1
1791 1796 4
1792 1796 17
1793 1796 1
1794 1796 13
1795 1796 21
1796 1796 443.242
1797 1797 48.4197
1839 1797 0.908721
1798 1798 56.4197
1839 1798 0.921664
1799 1799 7.4197
1839 1799 0.404329
1800 1800 9.4197
1839 1800 0.530803
1801 1801 7.4197
1839 1801 0.404329
1802 1802 6.4197
1839 1802 0.311541
1803 1803 5.4197
1839 1803 0.184512
1804 1804 20.4197
1839 1804 0.783557
1805 1805 30.4197
1839 1805 0.854709
1806 1806 22.4197
1839 1806 0.802865
1807 1807 5.4197
1839 1807 0.184512
1808 1808 15.4197
1839 1808 0.713373
1809 1809 29.4197
1839 1809 0.849771
1810 1810 5.4197
1839 1810 0.184512
1811 1811 35.4197
1839 1811 0.875219
1812 1812 33.4197
1839 1812 0.867752
1813 1813 11.4197
1839 1813 0.612976
1814 1814 11.4197
1839 1814 0.612976
1815 1815 8.4197
1839 1815 0.475077
1816 1816 5.4197
1839 1816 0.184512
1817 1817 15.4197
1839 1817 0.713373
1818 1818 9.4197
1839 1818 0.530803
1819 1819 6.4197
1839 1819 0.311541
1820 1820 15.4197
1839 1820 0.713373
1821 1821 6.4197
1839 1821 0.311541
1822 1822 10.4197
1839 1822 0.575833
1823 1823 10.4197
1839 1823 0.575833
1824 1824 10.4197
1839 1824 0.575833
1825 1825 10.4197
1839 1825 0.575833
1826 1826 9.4197
1839 1826 0.530803
1827 1827 10.4197
1839 1827 0.575833
1828 1828 16.4197
1839 1828 0.73083
1829 1829 13.4197
1839 1829 0.670656
1830 1830 32.4197
1839 1830 0.863672
1831 1831 7.4197
1839 1831 0.404329
1832 1832 13.4197
1839 1832 0.670656
1833 1833 34.4197
1839 1833 0.871594
1834 1834 9.4197
1839 1834 0.530803
1835 1835 28.4197
1839 1835 0.844485
1836 1836 13.4197
1839 1836 0.670656
1837 1837 14.4197
1839 1837 0.693496
1838 1838 22.4197
1839 1838 0.802865
1797 1839 44
1798 1839 52
1799 1839 3
1800 1839 5
1801 1839 3
1802 1839 2
1803 1839 1
1804 1839 16
1805 1839 26
1806 1839 18
1807 1839 1
1808 1839 11
1809 1839 25
1810 1839 1
1811 1839 31
1812 1839 29
1813 1839 7
1814 1839 7
1815 1839 4
1816 1839 1
1817 1839 11
1818 1839 5
1819 1839 2
1820 1839 11
1821 1839 2
1822 1839 6
1823 1839 6
1824 1839 6
1825 1839 6
1826 1839 5
1827 1839 6
1828 1839 12
1829 1839 9
1830 1839 28
1831 1839 3
1832 1839 9
1833 1839 30
1834 1839 5
1835 1839 24
1836 1839 9
1837 1839 10
1838 1839 18
1839 1839 461.339
1840 1840 7.4197
1940 1840 0.404329
1841 1841 5.4197
1940 1841 0.184512
1842 1842 10.4197
1940 1842 0.575833
1843 1843 7.4197
1940 1843 0.404329
1844 1844 6.4197
1940 1844 0.311541
1845 1845 37.4197
1940 1845 0.881889
1846 1846 52.4197
1940 1846 0.915686
1847 1847 20.4197
1940 1847 0.783557
1848 1848 8.4197
1940 1848 0.475077
1849 1849 15.4197
1940 1849 0.713373
1850 1850 14.4197
1940 1850 0.693496
1851 1851 5.4197
1940 1851 0.184512
1852 1852 19.4197
1940 1852 0.772412
1853 1853 37.4197
1940 1853 0.881889
1854 1854 6.4197
1940 1854 0.311541
1855 1855 7.4197
1940 1855 0.404329
1856 1856 7.4197
1940 1856 0.404329
1857 1857 6.4197
1940 1857 0.311541
1858 1858 23.4197
1940 1858 0.811283
1859 1859 12.4197
1940 1859 0.644138
1860 1860 18.4197
1940 1860 0.760056
1861 1861 20.4197
1940 1861 0.783557
1862 1862 7.4197
1940 1862 0.404329
1863 1863 19.4197
1940 1863 0.772412
1864 1864 9.4197
1940 1864 0.530803
1865 1865 7.4197
1940 1865 0.404329
1866 1866 8.4197
1940 1866 0.475077
1867 1867 6.4197
1940 1867 0.311541
1868 1868 16.4197
1940 1868 0.73083
1869 1869 31.4197
1940 1869 0.859334
1870 1870 8.4197
1940 1870 0.475077
1871 1871 5.4197
1940 1871 0.184512
1872 1872 9.4197
1940 1872 0.530803
1873 1873 11.4197
1940 1873 0.612976
1874 1874 19.4197
1940 1874 0.772412
1875 1875 9.4197
1940 1875 0.530803
1876 1876 15.4197
1940 1876 0.713373
1877 1877 9.4197
1940 1877 0.530803
1878 1878 8.4197
1940 1878 0.475077
1879 1879 11.4197
1940 1879 0.612976
1880 1880 9.4197
1940 1880 0.530803
1881 1881 7.4197
1940 1881 0.404329
1882 1882 28.4197
1940 1882 0.844485
1883 1883 9.4197
1940 1883 0.530803
1884 1884 15.4197
1940 1884 0.713373
1885 1885 13.4197
1940 1885 0.670656
1886 1886 37.4197
1940 1886 0.881889
1887 1887 52.4197
1940 1887 0.915686
1888 1888 21.4197
1940 1888 0.793662
1889 1889 13.4197
1940 1889 0.670656
1890 1890 15.4197
1940 1890 0.713373
1891 1891 20.4197
1940 1891 0.783557
1892 1892 9.4197
1940 1892 0.530803
1893 1893 22.4197
1940 1893 0.802865
1894 1894 5.4197
1940 1894 0.184512
1895 1895 5.4197
1940 1895 0.184512
1896 1896 12.4197
1940 1896 0.644138
1897 1897 8.4197
1940 1897 0.475077
1898 1898 10.4197
1940 1898 0.575833
1899 1899 6.4197
1940 1899 0.311541
1900 1900 6.4197
1940 1900 0.311541
1901 1901 9.4197
1940 1901 0.530803
1902 1902 16.4197
1940 1902 0.73083
1903 1903 12.4197
1940 1903 0.644138
1904 1904 6.4197
1940 1904 0.311541
1905 1905 15.4197
1940 1905 0.713373
1906 1906 6.4197
1940 1906 0.311541
1907 1907 9.4197
1940 1907 0.530803
1908 1908 6.4197
1940 1908 0.311541
1909 1909 5.4197
1940 1909 0.184512
1910 1910 6.4197
1940 1910 0.311541
1911 1911 22.4197
1940 1911 0.802865
1912 1912 10.4197
1940 1912 0.575833
1913 1913 18.4197
1940 1913 0.760056
1914 1914 6.4197
1940 1914 0.311541
1915 1915 7.4197
1940 1915 0.404329
1916 1916 20.4197
1940 1916 0.783557
1917 1917 15.4197
1940 1917 0.713373
1918 1918 5.4197
1940 1918 0.184512
1919 1919 12.4197
1940 1919 0.644138
1920 1920 23.4197
1940 1920 0.811283
1921 1921 11.4197
1940 1921 0.612976
1922 1922 7.4197
1940 1922 0.404329
1923 1923 12.4197
1940 1923 0.644138
1924 1924 20.4197
1940 1924 0.783557
1925 1925 6.4197
1940 1925 0.311541
1926 1926 13.4197
1940 1926 0.670656
1927 1927 12.4197
1940 1927 0.644138
1928 1928 9.4197
1940 1928 0.530803
1929 1929 18.4197
1940 1929 0.760056
1930 1930 13.4197
1940 1930 0.670656
1931 1931 12.4197
1940 1931 0.644138
1932 1932 12.4197
1940 1932 0.644138
1933 1933 13.4197
1940 1933 0.670656
1934 1934 29.4197
1940 1934 0.849771
1935 1935 15.4197
1940 1935 0.713373
1936 1936 9.4197
1940 1936 0.530803
1937 1937 10.4197
1940 1937 0.575833
1938 1938 7.4197
1940 1938 0.404329
1939 1939 5.4197
1940 1939 0.184512
1840 1940 3
1841 1940 1
1842 1940 6
1843 1940 3
1844 1940 2
1845 1940 33
1846 1940 48
1847 1940 16
1848 1940 4
1849 1940 11
1850 1940 10
1851 1940 1
1852 1940 15
1853 1940 33
1854 1940 2
1855 1940 3
1856 1940 3
1857 1940 2
1858 1940 19
1859 1940 8
1860 1940 14
1861 1940 16
1862 1940 3
1863 1940 15
1864 1940 5
1865 1940 3
1866 1940 4
1867 1940 2
1868 1940 12
1869 1940 27
1870 1940 4
1871 1940 1
1872 1940 5
1873 1940 7
1874 1940 15
1875 1940 5
1876 1940 11
1877 1940 5
1878 1940 4
1879 1940 7
1880 1940 5
1881 1940 3
1882 1940 24
1883 1940 5
1884 1940 11
1885 1940 9
1886 1940 33
1887 1940 48
1888 1940 17
1889 1940 9
1890 1940 11
1891 1940 16
1892 1940 5
1893 1940 18
1894 1940 1
1895 1940 1
1896 1940 8
1897 1940 4
1898 1940 6
1899 1940 2
1900 1940 2
1901 1940 5
1902 1940 12
1903 1940 8
1904 1940 2
1905 1940 11
1906 1940 2
1907 1940 5
1908 1940 2
1909 1940 1
1910 1940 2
1911 1940 18
1912 1940 6
1913 1940 14
1914 1940 2
1915 1940 3
1916 1940 16
1917 1940 11
1918 1940 1
1919 1940 8
1920 1940 19
1921 1940 7
1922 1940 3
1923 1940 8
1924 1940 16
1925 1940 2
1926 1940 9
1927 1940 8
1928 1940 5
1929 1940 14
1930 1940 9
1931 1940 8
1932 1940 8
1933 1940 9
1934 1940 25
1935 1940 11
1936 1940 5
1937 1940 6
1938 1940 3
1939 1940 1
1940 1940 600.227
1941 1941 5.4197
1948 1941 0.184512
1942 1942 14.4197
1948 1942 0.693496
1943 1943 7.4197
1948 1943 0.404329
1944 1944 19.4197
1948 1944 0.772412
1945 1945 15.4197
1948 1945 0.713373
1946 1946 20.4197
1948 1946 0.783557
1947 1947 22.4197
1948 1947 0.802865
1941 1948 1
1942 1948 10
1943 1948 3
1944 1948 15
1945 1948 11
1946 1948 16
1947 1948 18
1948 1948 368.27
1949 1949 8.4197
2039 1949 0.475077
1950 1950 5.4197
2039 1950 0.184512
1951 1951 12.4197
2039 1951 0.644138
1952 1952 17.4197
2039 1952 0.746282
1953 1953 9.4197
2039 1953 0.530803
1954 1954 8.4197
2039 1954 0.475077
1955 1955 10.4197
2039 1955 0.575833
1956 1956 13.4197
2039 1956 0.670656
1957 1957 14.4197
2039 1957 0.693496
1958 1958 9.4197
2039 1958 0.530803
1959 1959 16.4197
2039 1959 0.73083
1960 1960 38.4197
2039 1960 0.884963
1961 1961 8.4197
2039 1961 0.475077
1962 1962 6.4197
2039 1962 0.311541
1963 1963 38.4197
2039 1963 0.884963
1964 1964 16.4197
2039 1964 0.73083
1965 1965 5.4197
2039 1965 0.184512
1966 1966 38.4197
2039 1966 0.884963
1967 1967 5.4197
2039 1967 0.184512
1968 1968 13.4197
2039 1968 0.670656
1969 1969 11.4197
2039 1969 0.612976
1970 1970 8.4197
2039 1970 0.475077
1971 1971 5.4197
2039 1971 0.184512
1972 1972 9.4197
2039 1972 0.530803
1973 1973 12.4197
2039 1973 0.644138
1974 1974 17.4197
2039 1974 0.746282
1975 1975 11.4197
2039 1975 0.612976
1976 1976 6.4197
2039 1976 0.311541
1977 1977 10.4197
2039 1977 0.575833
1978 1978 6.4197
2039 1978 0.311541
1979 1979 10.4197
2039 1979 0.575833
1980 1980 9.4197
2039 1980 0.530803
1981 1981 16.4197
2039 1981 0.73083
1982 1982 10.4197
2039 1982 0.575833
1983 1983 6.4197
2039 1983 0.311541
1984 1984 13.4197
2039 1984 0.670656
1985 1985 14.4197
2039 1985 0.693496
1986 1986 10.4197
2039 1986 0.575833
1987 1987 23.4197
2039 1987 0.811283
1988 1988 16.4197
2039 1988 0.73083
1989 1989 26.4197
2039 1989 0.832712
1990 1990 7.4197
2039 1990 0.404329
1991 1991 19.4197
2039 1991 0.772412
1992 1992 19.4197
2039 1992 0.772412
1993 1993 9.4197
2039 1993 0.530803
1994 1994 12.4197
2039 1994 0.644138
1995 1995 13.4197
2039 1995 0.670656
1996 1996 8.4197
2039 1996 0.475077
1997 1997 12.4197
2039 1997 0.644138
1998 1998 29.4197
2039 1998 0.849771
1999 1999 10.4197
2039 1999 0.575833
2000 2000 14.4197
2039 2000 0.693496
2001 2001 12.4197
2039 2001 0.644138
2002 2002 22.4197
2039 2002 0.802865
2003 2003 6.4197
2039 2003 0.311541
2004 2004 34.4197
2039 2004 0.871594
2005 2005 5.4197
2039 2005 0.184512
2006 2006 19.4197
2039 2006 0.772412
2007 2007 28.4197
2039 2007 0.844485
2008 2008 10.4197
2039 2008 0.575833
2009 2009 8.4197
2039 2009 0.475077
2010 2010 38.4197
2039 2010 0.884963
2011 2011 7.4197
2039 2011 0.404329
2012 2012 11.4197
2039 2012 0.612976
2013 2013 12.4197
2039 2013 0.644138
2014 2014 7.4197
2039 2014 0.404329
2015 2015 16.4197
2039 2015 0.73083
2016 2016 29.4197
2039 2016 0.849771
2017 2017 30.4197
2039 2017 0.854709
2018 2018 22.4197
2039 2018 0.802865
2019 2019 20.4197
2039 2019 0.783557
2020 2020 12.4197
2039 2020 0.644138
2021 2021 44.4197
2039 2021 0.900501
2022 2022 30.4197
2039 2022 0.854709
2023 2023 7.4197
2039 2023 0.404329
2024 2024 15.4197
2039 2024 0.713373
2025 2025 8.4197
2039 2025 0.475077
2026 2026 10.4197
2039 2026 0.575833
2027 2027 15.4197
2039 2027 0.713373
2028 2028 29.4197
2039 2028 0.849771
2029 2029 15.4197
2039 2029 0.713373
2030 2030 22.4197
2039 2030 0.802865
2031 2031 6.4197
2039 2031 0.311541
2032 2032 9.4197
2039 2032 0.530803
2033 2033 11.4197
2039 2033 0.612976
2034 2034 11.4197
2039 2034 0.612976
2035 2035 9.4197
2039 2035 0.530803
2036 2036 13.4197
2039 2036 0.670656
2037 2037 19.4197
2039 2037 0.772412
2038 2038 20.4197
2039 2038 0.783557
1949 2039 4
1950 2039 1
1951 2039 8
1952 2039 13
1953 2039 5
1954 2039 4
1955 2039 6
1956 2039 9
1957 2039 10
1958 2039 5
1959 2039 12
1960 2039 34
1961 2039 4
1962 2039 2
1963 2039 34
1964 2039 12
1965 2039 1
1966 2039 34
1967 2039 1
1968 2039 9
1969 2039 7
1970 2039 4
1971 2039 1
1972 2039 5
1973 2039 8
1974 2039 13
1975 2039 7
1976 2039 2
1977 2039 6
1978 2039 2
1979 2039 6
1980 2039 5
1981 2039 12
1982 2039 6
1983 2039 2
1984 2039 9
1985 2039 10
1986 2039 6
1987 2039 19
1988 2039 12
1989 2039 22
1990 2039 3
1991 2039 15
1992 2039 15
1993 2039 5
1994 2039 8
1995 2039 9
1996 2039 4
1997 2039 8
1998 2039 25
1999 2039 6
2000 2039 10
2001 2039 8
2002 2039 18
2003 2039 2
2004 2039 30
2005 2039 1
2006 2039 15
2007 2039 24
2008 2039 6
2009 2039 4
2010 2039 34
2011 2039 3
2012 2039 7
2013 2039 8
2014 2039 3
2015 2039 12
2016 2039 25
2017 2039 26
2018 2039 18
2019 2039 16
2020 2039 8
2021 2039 40
2022 2039 26
2023 2039 3
2024 2039 11
2025 2039 4
2026 2039 6
2027 2039 11
2028 2039 25
2029 2039 11
2030 2039 18
2031 2039 2
2032 2039 5
2033 2039 7
2034 2039 7
2035 2039 5
2036 2039 9
2037 2039 15
2038 2039 16
2039 2039 594.211
2040 2040 56.4197
2081 2040 0.921664
2041 2041 87.4197
2081 2041 0.949443
2042 2042 60.4197
2081 2042 0.92685
2043 2043 6.4197
2081 2043 0.311541
2044 2044 85.4197
2081 2044 0.948259
2045 2045 16.4197
2081 2045 0.73083
2046 2046 35.4197
2081 2046 0.875219
2047 2047 7.4197
2081 2047 0.404329
2048 2048 29.4197
2081 2048 0.849771
2049 2049 11.4197
2081 2049 0.612976
2050 2050 13.4197
2081 2050 0.670656
2051 2051 40.4197
2081 2051 0.890655
2052 2052 67.4197
2081 2052 0.934445
2053 2053 11.4197
2081 2053 0.612976
2054 2054 13.4197
2081 2054 0.670656
2055 2055 20.4197
2081 2055 0.783557
2056 2056 7.4197
2081 2056 0.404329
2057 2057 18.4197
2081 2057 0.760056
2058 2058 6.4197
2081 2058 0.311541
2059 2059 11.4197
2081 2059 0.612976
2060 2060 16.4197
2081 2060 0.73083
2061 2061 23.4197
2081 2061 0.811283
2062 2062 28.4197
2081 2062 0.844485
2063 2063 50.4197
2081 2063 0.912342
2064 2064 37.4197
2081 2064 0.881889
2065 2065 45.4197
2081 2065 0.902692
2066 2066 26.4197
2081 2066 0.832712
2067 2067 17.4197
2081 2067 0.746282
2068 2068 20.4197
2081 2068 0.783557
2069 2069 51.4197
2081 2069 0.914047
2070 2070 7.4197
2081 2070 0.404329
2071 2071 12.4197
2081 2071 0.644138
2072 2072 25.4197
2081 2072 0.826131
2073 2073 23.4197
2081 2073 0.811283
2074 2074 6.4197
2081 2074 0.311541
2075 2075 18.4197
2081 2075 0.760056
2076 2076 12.4197
2081 2076 0.644138
2077 2077 21.4197
2081 2077 0.793662
2078 2078 34.4197
2081 2078 0.871594
2079 2079 5.4197
2081 2079 0.184512
2080 2080 6.4197
2081 2080 0.311541
2040 2081 52
2041 2081 83
2042 2081 56
2043 2081 2
2044 2081 81
2045 2081 12
2046 2081 31
2047 2081 3
2048 2081 25
2049 2081 7
2050 2081 9
2051 2081 36
2052 2081 63
2053 2081 7
2054 2081 9
2055 2081 16
2056 2081 3
2057 2081 14
2058 2081 2
2059 2081 7
2060 2081 12
2061 2081 19
2062 2081 24
2063 2081 46
2064 2081 33
2065 2081 41
2066 2081 22
2067 2081 13
2068 2081 16
2069 2081 47
2070 2081 3
2071 2081 8
2072 2081 21
2073 2081 19
2074 2081 2
2075 2081 14
2076 2081 8
2077 2081 17
2078 2081 30
2079 2081 1
2080 2081 2
2081 2081 477.662
2082 2082 8.4197
2116 2082 0.475077
2083 2083 7.4197
2116 2083 0.404329
2084 2084 16.4197
2116 2084 0.73083
2085 2085 7.4197
2116 2085 0.404329
2086 2086 17.4197
2116 2086 0.746282
2087 2087 18.4197
2116 2087 0.760056
2088 2088 6.4197
2116 2088 0.311541
2089 2089 13.4197
2116 2089 0.670656
2090 2090 6.4197
2116 2090 0.311541
2091 2091 11.4197
2116 2091 0.612976
2092 2092 9.4197
2116 2092 0.530803
2093 2093 9.4197
2116 2093 0.530803
2094 2094 19.4197
2116 2094 0.772412
2095 2095 17.4197
2116 2095 0.746282
2096 2096 9.4197
2116 2096 0.530803
2097 2097 22.4197
2116 2097 0.802865
2098 2098 28.4197
2116 2098 0.844485
2099 2099 9.4197
2116 2099 0.530803
2100 2100 25.4197
2116 2100 0.826131
2101 2101 26.4197
2116 2101 0.832712
2102 2102 10.4197
2116 2102 0.575833
2103 2103 12.4197
2116 2103 0.644138
2104 2104 21.4197
2116 2104 0.793662
2105 2105 16.4197
2116 2105 0.73083
2106 2106 19.4197
2116 2106 0.772412
2107 2107 16.4197
2116 2107 0.73083
2108 2108 40.4197
2116 2108 0.890655
2109 2109 7.4197
2116 2109 0.404329
2110 2110 23.4197
2116 2110 0.811283
2111 2111 18.4197
2116 2111 0.760056
2112 2112 8.4197
2116 2112 0.475077
2113 2113 13.4197
2116 2113 0.670656
2114 2114 19.4197
2116 2114 0.772412
2115 2115 8.4197
2116 2115 0.475077
2082 2116 4
2083 2116 3
2084 2116 12
2085 2116 3
2086 2116 13
2087 2116 14
2088 2116 2
2089 2116 9
2090 2116 2
2091 2116 7
2092 2116 5
2093 2116 5
2094 2116 15
2095 2116 13
2096 2116 5
2097 2116 18
2098 2116 24
2099 2116 5
2100 2116 21
2101 2116 22
2102 2116 6
2103 2116 8
2104 2116 17
2105 2116 12
2106 2116 15
2107 2116 12
2108 2116 36
2109 2116 3
2110 2116 19
2111 2116 14
2112 2116 4
2113 2116 9
2114 2116 15
2115 2116 4
2116 2116 445.74
2117 2117 25.4197
2151 2117 0.826131
2118 2118 36.4197
2151 2118 0.878645
2119 2119 12.4197
2151 2119 0.644138
2120 2120 20.4197
2151 2120 0.783557
2121 2121 7.4197
2151 2121 0.404329
2122 2122 9.4197
2151 2122 0.530803
2123 2123 35.4197
2151 2123 0.875219
2124 2124 23.4197
2151 2124 0.811283
2125 2125 8.4197
2151 2125 0.475077
2126 2126 6.4197
2151 2126 0.311541
2127 2127 17.4197
2151 2127 0.746282
2128 2128 9.4197
2151 2128 0.530803
2129 2129 13.4197
2151 2129 0.670656
2130 2130 19.4197
2151 2130 0.772412
2131 2131 19.4197
2151 2131 0.772412
2132 2132 11.4197
2151 2132 0.612976
2133 2133 14.4197
2151 2133 0.693496
2134 2134 16.4197
2151 2134 0.73083
2135 2135 18.4197
2151 2135 0.760056
2136 2136 15.4197
2151 2136 0.713373
2137 2137 12.4197
2151 2137 0.644138
2138 2138 24.4197
2151 2138 0.819011
2139 2139 10.4197
2151 2139 0.575833
2140 2140 7.4197
2151 2140 0.404329
2141 2141 5.4197
2151 2141 0.184512
2142 2142 40.4197
2151 2142 0.890655
2143 2143 36.4197
2151 2143 0.878645
2144 2144 17.4197
2151 2144 0.746282
2145 2145 5.4197
2151 2145 0.184512
2146 2146 8.4197
2151 2146 0.475077
2147 2147 9.4197
2151 2147 0.530803
2148 2148 11.4197
2151 2148 0.612976
2149 2149 11.4197
2151 2149 0.612976
2150 2150 17.4197
2151 2150 0.746282
2117 2151 21
2118 2151 32
2119 2151 8
2120 2151 16
2121 2151 3
2122 2151 5
2123 2151 31
2124 2151 19
2125 2151 4
2126 2151 2
2127 2151 13
2128 2151 5
2129 2151 9
2130 2151 15
2131 2151 15
2132 2151 7
2133 2151 10
2134 2151 12
2135 2151 14
2136 2151 11
2137 2151 8
2138 2151 20
2139 2151 6
2140 2151 3
2141 2151 1
2142 2151 36
2143 2151 32
2144 2151 13
2145 2151 1
2146 2151 4
2147 2151 5
2148 2151 7
2149 2151 7
2150 2151 13
2151 2151 445.594
2152 2152 5.4197
2195 2152 0.184512
2153 2153 8.4197
2195 2153 0.475077
2154 2154 9.4197
2195 2154 0.530803
2155 2155 18.4197
2195 2155 0.760056
2156 2156 9.4197
2195 2156 0.530803
2157 2157 18.4197
2195 2157 0.760056
2158 2158 8.4197
2195 2158 0.475077
2159 2159 13.4197
2195 2159 0.670656
2160 2160 55.4197
2195 2160 0.92025
2161 2161 5.4197
2195 2161 0.184512
2162 2162 16.4197
2195 2162 0.73083
2163 2163 14.4197
2195 2163 0.693496
2164 2164 17.4197
2195 2164 0.746282
2165 2165 12.4197
2195 2165 0.644138
2166 2166 6.4197
2195 2166 0.311541
2167 2167 7.4197
2195 2167 0.404329
2168 2168 12.4197
2195 2168 0.644138
2169 2169 5.4197
2195 2169 0.184512
2170 2170 27.4197
2195 2170 0.838813
2171 2171 15.4197
2195 2171 0.713373
2172 2172 5.4197
2195 2172 0.184512
2173 2173 6.4197
2195 2173 0.311541
2174 2174 8.4197
2195 2174 0.475077
2175 2175 9.4197
2195 2175 0.530803
2176 2176 25.4197
2195 2176 0.826131
2177 2177 8.4197
2195 2177 0.475077
2178 2178 5.4197
2195 2178 0.184512
2179 2179 10.4197
2195 2179 0.575833
2180 2180 6.4197
2195 2180 0.311541
2181 2181 5.4197
2195 2181 0.184512
2182 2182 6.4197
2195 2182 0.311541
2183 2183 19.4197
2195 2183 0.772412
2184 2184 10.4197
2195 2184 0.575833
2185 2185 7.4197
2195 2185 0.404329
2186 2186 11.4197
2195 2186 0.612976
2187 2187 9.4197
2195 2187 0.530803
2188 2188 18.4197
2195 2188 0.760056
2189 2189 10.4197
2195 2189 0.575833
2190 2190 9.4197
2195 2190 0.530803
2191 2191 9.4197
2195 2191 0.530803
2192 2192 6.4197
2195 2192 0.311541
2193 2193 8.4197
2195 2193 0.475077
2194 2194 13.4197
2195 2194 0.670656
2152 2195 1
2153 2195 4
2154 2195 5
2155 2195 14
2156 2195 5
2157 2195 14
2158 2195 4
2159 2195 9
2160 2195 51
2161 2195 1
2162 2195 12
2163 2195 10
2164 2195 13
2165 2195 8
2166 2195 2
2167 2195 3
2168 2195 8
2169 2195 1
2170 2195 23
2171 2195 11
2172 2195 1
2173 2195 2
2174 2195 4
2175 2195 5
2176 2195 21
2177 2195 4
2178 2195 1
2179 2195 6
2180 2195 2
2181 2195 1
2182 2195 2
2183 2195 15
2184 2195 6
2185 2195 3
2186 2195 7
2187 2195 5
2188 2195 14
2189 2195 6
2190 2195 5
2191 2195 5
2192 2195 2
2193 2195 4
2194 2195 9
2195 2195 448.579
2196 2196 5.4197
2214 2196 0.184512
2197 2197 6.4197
2214 2197 0.311541
2198 2198 16.4197
2214 2198 0.73083
2199 2199 9.4197
2214 2199 0.530803
2200 2200 41.4197
2214 2200 0.893295
2201 2201 17.4197
2214 2201 0.746282
2202 2202 21.4197
2214 2202 0.793662
2203 2203 11.4197
2214 2203 0.612976
2204 2204 14.4197
2214 2204 0.693496
2205 2205 13.4197
2214 2205 0.670656
2206 2206 41.4197
2214 2206 0.893295
2207 2207 21.4197
2214 2207 0.793662
2208 2208 31.4197
2214 2208 0.859334
2209 2209 13.4197
2214 2209 0.670656
2210 2210 27.4197
2214 2210 0.838813
2211 2211 16.4197
2214 2211 0.73083
2212 2212 7.4197
2214 2212 0.404329
2213 2213 14.4197
2214 2213 0.693496
2196 2214 1
2197 2214 2
2198 2214 12
2199 2214 5
2200 2214 37
2201 2214 13
2202 2214 17
2203 2214 7
2204 2214 10
2205 2214 9
2206 2214 37
2207 2214 17
2208 2214 27
2209 2214 9
2210 2214 23
2211 2214 12
2212 2214 3
2213 2214 10
2214 2214 402.292
2215 2215 35.4197
2276 2215 0.875219
2216 2216 45.4197
2276 2216 0.902692
2217 2217 21.4197
2276 2217 0.793662
2218 2218 7.4197
2276 2218 0.404329
2219 2219 5.4197
2276 2219 0.184512
2220 2220 7.4197
2276 2220 0.404329
2221 2221 5.4197
2276 2221 0.184512
2222 2222 17.4197
2276 2222 0.746282
2223 2223 7.4197
2276 2223 0.404329
2224 2224 45.4197
2276 2224 0.902692
2225 2225 5.4197
2276 2225 0.184512
2226 2226 49.4197
2276 2226 0.910568
2227 2227 12.4197
2276 2227 0.644138
2228 2228 12.4197
2276 2228 0.644138
2229 2229 8.4197
2276 2229 0.475077
2230 2230 26.4197
2276 2230 0.832712
2231 2231 17.4197
2276 2231 0.746282
2232 2232 10.4197
2276 2232 0.575833
2233 2233 13.4197
2276 2233 0.670656
2234 2234 7.4197
2276 2234 0.404329
2235 2235 32.4197
2276 2235 0.863672
2236 2236 13.4197
2276 2236 0.670656
2237 2237 23.4197
2276 2237 0.811283
2238 2238 13.4197
2276 2238 0.670656
2239 2239 6.4197
2276 2239 0.311541
2240 2240 5.4197
2276 2240 0.184512
2241 2241 31.4197
2276 2241 0.859334
2242 2242 10.4197
2276 2242 0.575833
2243 2243 12.4197
2276 2243 0.644138
2244 2244 19.4197
2276 2244 0.772412
2245 2245 32.4197
2276 2245 0.863672
2246 2246 18.4197
2276 2246 0.760056
2247 2247 6.4197
2276 2247 0.311541
2248 2248 10.4197
2276 2248 0.575833
2249 2249 21.4197
2276 2249 0.793662
2250 2250 6.4197
2276 2250 0.311541
2251 2251 19.4197
2276 2251 0.772412
2252 2252 20.4197
2276 2252 0.783557
2253 2253 11.4197
2276 2253 0.612976
2254 2254 22.4197
2276 2254 0.802865
2255 2255 8.4197
2276 2255 0.475077
2256 2256 5.4197
2276 2256 0.184512
2257 2257 8.4197
2276 2257 0.475077
2258 2258 9.4197
2276 2258 0.530803
2259 2259 12.4197
2276 2259 0.644138
2260 2260 21.4197
2276 2260 0.793662
2261 2261 6.4197
2276 2261 0.311541
2262 2262 6.4197
2276 2262 0.311541
2263 2263 11.4197
2276 2263 0.612976
2264 2264 17.4197
2276 2264 0.746282
2265 2265 10.4197
2276 2265 0.575833
2266 2266 7.4197
2276 2266 0.404329
2267 2267 23.4197
2276 2267 0.811283
2268 2268 14.4197
2276 2268 0.693496
2269 2269 12.4197
2276 2269 0.644138
2270 2270 9.4197
2276 2270 0.530803
2271 2271 8.4197
2276 2271 0.475077
2272 2272 8.4197
2276 2272 0.475077
2273 2273 7.4197
2276 2273 0.404329
2274 2274 15.4197
2276 2274 0.713373
2275 2275 7.4197
2276 2275 0.404329
2215 2276 31
2216 2276 41
2217 2276 17
2218 2276 3
2219 2276 1
2220 2276 3
2221 2276 1
2222 2276 13
2223 2276 3
2224 2276 41
2225 2276 1
2226 2276 45
2227 2276 8
2228 2276 8
2229 2276 4
2230 2276 22
2231 2276 13
2232 2276 6
2233 2276 9
2234 2276 3
2235 2276 28
2236 2276 9
2237 2276 19
2238 2276 9
2239 2276 2
2240 2276 1
2241 2276 27
2242 2276 6
2243 2276 8
2244 2276 15
2245 2276 28
2246 2276 14
2247 2276 2
2248 2276 6
2249 2276 17
2250 2276 2
2251 2276 15
2252 2276 16
2253 2276 7
2254 2276 18
2255 2276 4
2256 2276 1
2257 2276 4
2258 2276 5
2259 2276 8
2260 2276 17
2261 2276 2
2262 2276 2
2263 2276 7
2264 2276 13
2265 2276 6
2266 2276 3
2267 2276 19
2268 2276 10
2269 2276 8
2270 2276 5
2271 2276 4
2272 2276 4
2273 2276 3
2274 2276 11
2275 2276 3
2276 2276 508.401
2277 2277 5.4197
2324 2277 0.184512
2278 2278 8.4197
2324 2278 0.475077
2279 2279 5.4197
2324 2279 0.184512
2280 2280 45.4197
2324 2280 0.902692
2281 2281 9.4197
2324 2281 0.530803
2282 2282 18.4197
2324 2282 0.760056
2283 2283 44.4197
2324 2283 0.900501
2284 2284 24.4197
2324 2284 0.819011
2285 2285 21.4197
2324 2285 0.793662
2286 2286 5.4197
2324 2286 0.184512
2287 2287 28.4197
2324 2287 0.844485
2288 2288 9.4197
2324 2288 0.530803
2289 2289 15.4197
2324 2289 0.713373
2290 2290 5.4197
2324 2290 0.184512
2291 2291 25.4197
2324 2291 0.826131
2292 2292 24.4197
2324 2292 0.819011
2293 2293 9.4197
2324 2293 0.530803
2294 2294 9.4197
2324 2294 0.530803
2295 2295 10.4197
2324 2295 0.575833
2296 2296 5.4197
2324 2296 0.184512
2297 2297 17.4197
2324 2297 0.746282
2298 2298 5.4197
2324 2298 0.184512
2299 2299 27.4197
2324 2299 0.838813
2300 2300 6.4197
2324 2300 0.311541
2301 2301 27.4197
2324 2301 0.838813
2302 2302 10.4197
2324 2302 0.575833
2303 2303 22.4197
2324 2303 0.802865
2304 2304 13.4197
2324 2304 0.670656
2305 2305 14.4197
2324 2305 0.693496
2306 2306 10.4197
2324 2306 0.575833
2307 2307 10.4197
2324 2307 0.575833
2308 2308 11.4197
2324 2308 0.612976
2309 2309 10.4197
2324 2309 0.575833
2310 2310 7.4197
2324 2310 0.404329
2311 2311 8.4197
2324 2311 0.475077
2312 2312 38.4197
2324 2312 0.884963
2313 2313 28.4197
2324 2313 0.844485
2314 2314 6.4197
2324 2314 0.311541
2315 2315 10.4197
2324 2315 0.575833
2316 2316 7.4197
2324 2316 0.404329
2317 2317 20.4197
2324 2317 0.783557
2318 2318 20.4197
2324 2318 0.783557
2319 2319 17.4197
2324 2319 0.746282
2320 2320 8.4197
2324 2320 0.475077
2321 2321 11.4197
2324 2321 0.612976
2322 2322 14.4197
2324 2322 0.693496
2323 2323 9.4197
2324 2323 0.530803
2277 2324 1
2278 2324 4
2279 2324 1
2280 2324 41
2281 2324 5
2282 2324 14
2283 2324 40
2284 2324 20
2285 2324 17
2286 2324 1
2287 2324 24
2288 2324 5
2289 2324 11
2290 2324 1
2291 2324 21
2292 2324 20
2293 2324 5
2294 2324 5
2295 2324 6
2296 2324 1
2297 2324 13
2298 2324 1
2299 2324 23
2300 2324 2
2301 2324 23
2302 2324 6
2303 2324 18
2304 2324 9
2305 2324 10
2306 2324 6
2307 2324 6
2308 2324 7
2309 2324 6
2310 2324 3
2311 2324 4
2312 2324 34
2313 2324 24
2314 2324 2
2315 2324 6
2316 2324 3
2317 2324 16
2318 2324 16
2319 2324 13
2320 2324 4
2321 2324 7
2322 2324 10
2323 2324 5
2324 2324 472.798
2325 2325 13.4197
2350 2325 0.670656
2326 2326 43.4197
2350 2326 0.89821
2327 2327 53.4197
2350 2327 0.917265
2328 2328 5.4197
2350 2328 0.184512
2329 2329 13.4197
2350 2329 0.670656
2330 2330 10.4197
2350 2330 0.575833
2331 2331 5.4197
2350 2331 0.184512
2332 2332 15.4197
2350 2332 0.713373
2333 2333 7.4197
2350 2333 0.404329
2334 2334 13.4197
2350 2334 0.670656
2335 2335 33.4197
2350 2335 0.867752
2336 2336 9.4197
2350 2336 0.530803
2337 2337 8.4197
2350 2337 0.475077
2338 2338 6.4197
2350 2338 0.311541
2339 2339 7.4197
2350 2339 0.404329
2340 2340 17.4197
2350 2340 0.746282
2341 2341 13.4197
2350 2341 0.670656
2342 2342 9.4197
2350 2342 0.530803
2343 2343 9.4197
2350 2343 0.530803
2344 2344 20.4197
2350 2344 0.783557
2345 2345 11.4197
2350 2345 0.612976
2346 2346 15.4197
2350 2346 0.713373
2347 2347 14.4197
2350 2347 0.693496
2348 2348 7.4197
2350 2348 0.404329
2349 2349 10.4197
2350 2349 0.575833
2325 2350 9
2326 2350 39
2327 2350 49
2328 2350 1
2329 2350 9
2330 2350 6
2331 2350 1
2332 2350 11
2333 2350 3
2334 2350 9
2335 2350 29
2336 2350 5
2337 2350 4
2338 2350 2
2339 2350 3
2340 2350 13
2341 2350 9
2342 2350 5
2343 2350 5
2344 2350 16
2345 2350 7
2346 2350 11
2347 2350 10
2348 2350 3
2349 2350 6
2350 2350 414.177
2351 2351 55.4197
2373 2351 0.92025
2352 2352 28.4197
2373 2352 0.844485
2353 2353 20.4197
2373 2353 0.783557
2354 2354 8.4197
2373 2354 0.475077
2355 2355 12.4197
2373 2355 0.644138
2356 2356 24.4197
2373 2356 0.819011
2357 2357 19.4197
2373 2357 0.772412
2358 2358 13.4197
2373 2358 0.670656
2359 2359 26.4197
2373 2359 0.832712
2360 2360 17.4197
2373 2360 0.746282
2361 2361 41.4197
2373 2361 0.893295
2362 2362 10.4197
2373 2362 0.575833
2363 2363 10.4197
2373 2363 0.575833
2364 2364 14.4197
2373 2364 0.693496
2365 2365 13.4197
2373 2365 0.670656
2366 2366 23.4197
2373 2366 0.811283
2367 2367 12.4197
2373 2367 0.644138
2368 2368 15.4197
2373 2368 0.713373
2369 2369 9.4197
2373 2369 0.530803
2370 2370 13.4197
2373 2370 0.670656
2371 2371 7.4197
2373 2371 0.404329
2372 2372 20.4197
2373 2372 0.783557
2351 2373 51
2352 2373 24
2353 2373 16
2354 2373 4
2355 2373 8
2356 2373 20
2357 2373 15
2358 2373 9
2359 2373 22
2360 2373 13
2361 2373 37
2362 2373 6
2363 2373 6
2364 2373 10
2365 2373 9
2366 2373 19
2367 2373 8
2368 2373 11
2369 2373 5
2370 2373 9
2371 2373 3
2372 2373 16
2373 2373 417.422
2374 2374 12.4197
2410 2374 0.644138
2375 2375 8.4197
2410 2375 0.475077
2376 2376 5.4197
2410 2376 0.184512
2377 2377 14.4197
2410 2377 0.693496
2378 2378 15.4197
2410 2378 0.713373
2379 2379 27.4197
2410 2379 0.838813
2380 2380 13.4197
2410 2380 0.670656
2381 2381 16.4197
2410 2381 0.73083
2382 2382 13.4197
2410 2382 0.670656
2383 2383 35.4197
2410 2383 0.875219
2384 2384 7.4197
2410 2384 0.404329
2385 2385 7.4197
2410 2385 0.404329
2386 2386 21.4197
2410 2386 0.793662
2387 2387 13.4197
2410 2387 0.670656
2388 2388 7.4197
2410 2388 0.404329
2389 2389 11.4197
2410 2389 0.612976
2390 2390 12.4197
2410 2390 0.644138
2391 2391 15.4197
2410 2391 0.713373
2392 2392 52.4197
2410 2392 0.915686
2393 2393 13.4197
2410 2393 0.670656
2394 2394 17.4197
2410 2394 0.746282
2395 2395 15.4197
2410 2395 0.713373
2396 2396 7.4197
2410 2396 0.404329
2397 2397 6.4197
2410 2397 0.311541
2398 2398 26.4197
2410 2398 0.832712
2399 2399 25.4197
2410 2399 0.826131
2400 2400 25.4197
2410 2400 0.826131
2401 2401 11.4197
2410 2401 0.612976
2402 2402 15.4197
2410 2402 0.713373
2403 2403 11.4197
2410 2403 0.612976
2404 2404 19.4197
2410 2404 0.772412
2405 2405 19.4197
2410 2405 0.772412
2406 2406 26.4197
2410 2406 0.832712
2407 2407 16.4197
2410 2407 0.73083
2408 2408 8.4197
2410 2408 0.475077
2409 2409 14.4197
2410 2409 0.693496
2374 2410 8
2375 2410 4
2376 2410 1
2377 2410 10
2378 2410 11
2379 2410 23
2380 2410 9
2381 2410 12
2382 2410 9
2383 2410 31
2384 2410 3
2385 2410 3
2386 2410 17
2387 2410 9
2388 2410 3
2389 2410 7
2390 2410 8
2391 2410 11
2392 2410 48
2393 2410 9
2394 2410 13
2395 2410 11
2396 2410 3
2397 2410 2
2398 2410 22
2399 2410 21
2400 2410 21
2401 2410 7
2402 2410 11
2403 2410 7
2404 2410 15
2405 2410 15
2406 2410 22
2407 2410 12
2408 2410 4
2409 2410 10
2410 2410 453.363
2411 2411 23.4197
2475 2411 0.811283
2412 2412 20.4197
2475 2412 0.783557
2413 2413 5.4197
2475 2413 0.184512
2414 2414 26.4197
2475 2414 0.832712
2415 2415 41.4197
2475 2415 0.893295
2416 2416 52.4197
2475 2416 0.915686
2417 2417 51.4197
2475 2417 0.914047
2418 2418 14.4197
2475 2418 0.693496
2419 2419 5.4197
2475 2419 0.184512
2420 2420 8.4197
2475 2420 0.475077
2421 2421 6.4197
2475 2421 0.311541
2422 2422 5.4197
2475 2422 0.184512
2423 2423 19.4197
2475 2423 0.772412
2424 2424 20.4197
2475 2424 0.783557
2425 2425 39.4197
2475 2425 0.887881
2426 2426 32.4197
2475 2426 0.863672
2427 2427 6.4197
2475 2427 0.311541
2428 2428 10.4197
2475 2428 0.575833
2429 2429 8.4197
2475 2429 0.475077
2430 2430 9.4197
2475 2430 0.530803
2431 2431 5.4197
2475 2431 0.184512
2432 2432 10.4197
2475 2432 0.575833
2433 2433 13.4197
2475 2433 0.670656
2434 2434 7.4197
2475 2434 0.404329
2435 2435 13.4197
2475 2435 0.670656
2436 2436 8.4197
2475 2436 0.475077
2437 2437 6.4197
2475 2437 0.311541
2438 2438 6.4197
2475 2438 0.311541
2439 2439 14.4197
2475 2439 0.693496
2440 2440 6.4197
2475 2440 0.311541
2441 2441 14.4197
2475 2441 0.693496
2442 2442 23.4197
2475 2442 0.811283
2443 2443 31.4197
2475 2443 0.859334
2444 2444 5.4197
2475 2444 0.184512
2445 2445 57.4197
2475 2445 0.923028
2446 2446 23.4197
2475 2446 0.811283
2447 2447 6.4197
2475 2447 0.311541
2448 2448 14.4197
2475 2448 0.693496
2449 2449 13.4197
2475 2449 0.670656
2450 2450 9.4197
2475 2450 0.530803
2451 2451 18.4197
2475 2451 0.760056
2452 2452 22.4197
2475 2452 0.802865
2453 2453 8.4197
2475 2453 0.475077
2454 2454 7.4197
2475 2454 0.404329
2455 2455 12.4197
2475 2455 0.644138
2456 2456 7.4197
2475 2456 0.404329
2457 2457 13.4197
2475 2457 0.670656
2458 2458 24.4197
2475 2458 0.819011
2459 2459 12.4197
2475 2459 0.644138
2460 2460 33.4197
2475 2460 0.867752
2461 2461 16.4197
2475 2461 0.73083
2462 2462 8.4197
2475 2462 0.475077
2463 2463 18.4197
2475 2463 0.760056
2464 2464 8.4197
2475 2464 0.475077
2465 2465 8.4197
2475 2465 0.475077
2466 2466 21.4197
2475 2466 0.793662
2467 2467 16.4197
2475 2467 0.73083
2468 2468 8.4197
2475 2468 0.475077
2469 2469 23.4197
2475 2469 0.811283
2470 2470 6.4197
2475 2470 0.311541
2471 2471 5.4197
2475 2471 0.184512
2472 2472 15.4197
2475 2472 0.713373
2473 2473 14.4197
2475 2473 0.693496
2474 2474 14.4197
2475 2474 0.693496
2411 2475 19
2412 2475 16
2413 2475 1
2414 2475 22
2415 2475 37
2416 2475 48
2417 2475 47
2418 2475 10
2419 2475 1
2420 2475 4
2421 2475 2
2422 2475 1
2423 2475 15
2424 2475 16
2425 2475 35
2426 2475 28
2427 2475 2
2428 2475 6
2429 2475 4
2430 2475 5
2431 2475 1
2432 2475 6
2433 2475 9
2434 2475 3
2435 2475 9
2436 2475 4
2437 2475 2
2438 2475 2
2439 2475 10
2440 2475 2
2441 2475 10
2442 2475 19
2443 2475 27
2444 2475 1
2445 2475 53
2446 2475 19
2447 2475 2
2448 2475 10
2449 2475 9
2450 2475 5
2451 2475 14
2452 2475 18
2453 2475 4
2454 2475 3
2455 2475 8
2456 2475 3
2457 2475 9
2458 2475 20
2459 2475 8
2460 2475 29
2461 2475 12
2462 2475 4
2463 2475 14
2464 2475 4
2465 2475 4
2466 2475 17
2467 2475 12
2468 2475 4
2469 2475 19
2470 2475 2
2471 2475 1
2472 2475 11
2473 2475 10
2474 2475 10
2475 2475 518.295
2476 2476 49.4197
2506 2476 0.910568
2477 2477 6.4197
2506 2477 0.311541
2478 2478 8.4197
2506 2478 0.475077
2479 2479 5.4197
2506 2479 0.184512
2480 2480 13.4197
2506 2480 0.670656
2481 2481 28.4197
2506 2481 0.844485
2482 2482 10.4197
2506 2482 0.575833
2483 2483 31.4197
2506 2483 0.859334
2484 2484 36.4197
2506 2484 0.878645
2485 2485 5.4197
2506 2485 0.184512
2486 2486 11.4197
2506 2486 0.612976
2487 2487 6.4197
2506 2487 0.311541
2488 2488 31.4197
2506 2488 0.859334
2489 2489 20.4197
2506 2489 0.783557
2490 2490 9.4197
2506 2490 0.530803
2491 2491 29.4197
2506 2491 0.849771
2492 2492 20.4197
2506 2492 0.783557
2493 2493 31.4197
2506 2493 0.859334
2494 2494 13.4197
2506 2494 0.670656
2495 2495 12.4197
2506 2495 0.644138
2496 2496 11.4197
2506 2496 0.612976
2497 2497 25.4197
2506 2497 0.826131
2498 2498 6.4197
2506 2498 0.311541
2499 2499 10.4197
2506 2499 0.575833
2500 2500 13.4197
2506 2500 0.670656
2501 2501 12.4197
2506 2501 0.644138
2502 2502 7.4197
2506 2502 0.404329
2503 2503 9.4197
2506 2503 0.530803
2504 2504 12.4197
2506 2504 0.644138
2505 2505 33.4197
2506 2505 0.867752
2476 2506 45
2477 2506 2
2478 2506 4
2479 2506 1
2480 2506 9
2481 2506 24
2482 2506 6
2483 2506 27
2484 2506 32
2485 2506 1
2486 2506 7
2487 2506 2
2488 2506 27
2489 2506 16
2490 2506 5
2491 2506 25
2492 2506 16
2493 2506 27
2494 2506 9
2495 2506 8
2496 2506 7
2497 2506 21
2498 2506 2
2499 2506 6
2500 2506 9
2501 2506 8
2502 2506 3
2503 2506 5
2504 2506 8
2505 2506 29
2506 2506 432.508
2507 2507 39.4197
2541 2507 0.887881
2508 2508 57.4197
2541 2508 0.923028
2509 2509 69.4197
2541 2509 0.936334
2510 2510 13.4197
2541 2510 0.670656
2511 2511 7.4197
2541 2511 0.404329
2512 2512 12.4197
2541 2512 0.644138
2513 2513 8.4197
2541 2513 0.475077
2514 2514 10.4197
2541 2514 0.575833
2515 2515 6.4197
2541 2515 0.311541
2516 2516 5.4197
2541 2516 0.184512
2517 2517 14.4197
2541 2517 0.693496
2518 2518 8.4197
2541 2518 0.475077
2519 2519 21.4197
2541 2519 0.793662
2520 2520 34.4197
2541 2520 0.871594
2521 2521 11.4197
2541 2521 0.612976
2522 2522 14.4197
2541 2522 0.693496
2523 2523 16.4197
2541 2523 0.73083
2524 2524 9.4197
2541 2524 0.530803
2525 2525 22.4197
2541 2525 0.802865
2526 2526 19.4197
2541 2526 0.772412
2527 2527 22.4197
2541 2527 0.802865
2528 2528 14.4197
2541 2528 0.693496
2529 2529 13.4197
2541 2529 0.670656
2530 2530 8.4197
2541 2530 0.475077
2531 2531 7.4197
2541 2531 0.404329
2532 2532 8.4197
2541 2532 0.475077
2533 2533 17.4197
2541 2533 0.746282
2534 2534 10.4197
2541 2534 0.575833
2535 2535 10.4197
2541 2535 0.575833
2536 2536 7.4197
2541 2536 0.404329
2537 2537 22.4197
2541 2537 0.802865
2538 2538 17.4197
2541 2538 0.746282
2539 2539 16.4197
2541 2539 0.73083
2540 2540 13.4197
2541 2540 0.670656
2507 2541 35
2508 2541 53
2509 2541 65
2510 2541 9
2511 2541 3
2512 2541 8
2513 2541 4
2514 2541 6
2515 2541 2
2516 2541 1
2517 2541 10
2518 2541 4
2519 2541 17
2520 2541 30
2521 2541 7
2522 2541 10
2523 2541 12
2524 2541 5
2525 2541 18
2526 2541 15
2527 2541 18
2528 2541 10
2529 2541 9
2530 2541 4
2531 2541 3
2532 2541 4
2533 2541 13
2534 2541 6
2535 2541 6
2536 2541 3
2537 2541 18
2538 2541 13
2539 2541 12
2540 2541 9
2541 2541 445.218
