%%MatrixMarket matrix coordinate real general
135 135 854
1 1 0.133348
4 1 -1.4e-05
5 1 -0.066667
2 2 0.133342
5 2 -0.066667
13 2 -9e-06
3 3 0.029325
4 3 -6.2e-05
5 3 -1e-06
6 3 -0.029204
13 3 -5.8e-05
1 4 -1.4e-05
3 4 -7.7e-05
4 4 0.014197
5 4 4.9e-05
6 4 -1.7e-05
13 4 -0.002168
1 5 -0.066667
2 5 -0.066667
3 5 6e-06
4 5 -3.3e-05
5 5 0.333351
6 5 1e-06
13 5 7e-06
3 6 -0.029204
4 6 -1.8e-05
5 6 0
6 6 0.862573
13 6 -1.8e-05
131 6 -0.833333
7 7 0.02394
12 7 -0.01197
13 7 -0.01197
8 8 0.133348
11 8 -0.066667
12 8 -1.4e-05
9 9 0.133342
11 9 -0.066667
110 9 -9e-06
10 10 0.028957
11 10 -1e-06
12 10 -6.3e-05
93 10 -0.028832
110 10 -6.1e-05
8 11 -0.066667
9 11 -0.066667
10 11 6e-06
11 11 0.333351
12 11 -3.1e-05
93 11 1e-06
110 11 5e-06
7 12 -0.01197
8 12 -1.4e-05
10 12 -8.1e-05
11 12 4.9e-05
12 12 0.014178
13 12 0
93 12 -1.7e-05
110 12 -0.002146
2 13 -9e-06
3 13 -5e-05
4 13 -0.0021
5 13 -6.6e-05
6 13 -2e-05
7 13 -0.01197
12 13 0
13 13 0.014216
93 13 0
110 13 0
131 13 0
14 14 0.02394
16 14 -0.01197
92 14 -0.01197
15 15 0.133348
16 15 -1.4e-05
20 15 -0.066667
14 16 -0.01197
15 16 -1.4e-05
16 16 0.012001
20 16 0
91 16 -1.6e-05
92 16 0
17 17 0.13334
19 17 -7e-06
20 17 -0.066667
18 18 0.006544
19 18 -2e-06
20 18 -1.6e-05
91 18 -0.006525
17 19 -7e-06
19 19 0.011992
20 19 -2e-06
21 19 -0.01197
91 19 -1.4e-05
15 20 -0.066667
16 20 0
17 20 -0.066667
18 20 -1.9e-05
19 20 0
20 20 0.333352
21 20 0
91 20 0
92 20 0
19 21 -0.01197
20 21 0
21 21 0.857273
90 21 -0.01197
91 21 0
92 21 0
93 21 -0.833333
22 22 15.0005
23 22 -0.000494
26 22 -1e-06
27 22 -1.8e-05
90 22 -1.8e-05
22 23 -0.000495
23 23 0.002577
26 23 -8.3e-05
27 23 -0.001001
90 23 -0.000997
24 24 0.133348
26 24 -0.066667
27 24 -1.4e-05
130 24 -0.066667
25 25 0.133342
26 25 -0.066667
90 25 -9e-06
130 25 -0.066667
22 26 2e-06
23 26 0.000135
24 26 -0.066667
25 26 -0.066667
26 26 0.333653
27 26 -0.000234
90 26 -0.000223
130 26 -0.2
22 27 -1.6e-05
23 27 -0.001314
24 27 -1.4e-05
26 27 0.000341
27 27 0.01279
90 27 0.000183
130 27 -0.01197
28 28 0.01752
31 28 -6e-06
32 28 -0.000111
43 28 -0.017292
44 28 -0.000111
29 29 0.133362
31 29 -0.066667
32 29 -2.9e-05
130 29 -0.066667
30 30 0.133351
31 30 -0.066667
44 30 -1.8e-05
130 30 -0.066667
28 31 1.5e-05
29 31 -0.066667
30 31 -0.066667
31 31 0.33337
32 31 -2.6e-05
43 31 0
44 31 -2.6e-05
130 31 -0.2
28 32 -0.000138
29 32 -2.9e-05
31 32 0.000108
32 32 0.025372
43 32 -3.5e-05
44 32 -0.001338
130 32 -0.02394
33 33 0.133348
34 33 -1.4e-05
37 33 -0.066667
33 34 -1.4e-05
34 34 0.012001
37 34 0
40 34 -1.6e-05
35 35 0.13334
37 35 -0.066667
38 35 -6e-06
36 36 0.006554
37 36 -9e-06
38 36 -1e-05
40 36 -0.006535
33 37 -0.066667
34 37 0
35 37 -0.066667
36 37 -1.9e-05
37 37 0.333352
38 37 0
40 37 0
35 38 -6e-06
37 38 -1e-05
38 38 0.012
39 38 -0.01197
40 38 -1.4e-05
38 39 -0.01197
39 39 0.869243
40 39 0
44 39 -0.02394
89 39 -0.833333
34 40 -1.6e-05
36 40 -0.006535
37 40 0
38 40 -1.4e-05
39 40 0
40 40 0.839898
41 40 -0.833333
44 40 0
89 40 0
41 41 1
40 42 -0.833333
41 42 2.08333
42 42 1
43 42 -0.416667
44 42 0
89 42 0
91 42 -0.833333
28 43 -0.017292
31 43 0
32 43 -3.6e-05
41 43 -0.416667
43 43 0.43403
44 43 -3.6e-05
130 43 0
28 44 -0.000105
30 44 -1.8e-05
31 44 -0.000138
32 44 -0.001231
39 44 -0.02394
40 44 0
41 44 0
43 44 -3.6e-05
44 44 0.025468
89 44 0
130 44 0
45 45 0.133348
46 45 -1.4e-05
49 45 -0.066667
45 46 -1.4e-05
46 46 0.012001
49 46 0
58 46 -1.6e-05
47 47 0.006551
49 47 -1.9e-05
58 47 -0.006532
48 48 0.13334
49 48 -0.066667
50 48 -7e-06
45 49 -0.066667
46 49 0
47 49 -1.9e-05
48 49 -0.066667
49 49 0.333352
50 49 0
58 49 0
48 50 -7e-06
49 50 0
50 50 0.01199
51 50 -0.01197
58 50 -1.4e-05
50 51 -0.01197
51 51 0.02394
57 51 -0.01197
58 51 0
52 52 0.133344
54 52 -0.066667
57 52 -1.1e-05
53 53 0.13334
54 53 -0.066667
56 53 -7e-06
52 54 -0.066667
53 54 -0.066667
54 54 0.333344
55 54 -1e-05
56 54 0
57 54 0
54 55 -1e-05
55 55 0.003722
56 55 1e-06
57 55 -1e-06
89 55 -0.003712
53 56 -7e-06
54 56 0
55 56 0
56 56 0.011994
57 56 0
89 56 -1.7e-05
131 56 -0.01197
51 57 -0.01197
52 57 -1.1e-05
54 57 0
55 57 0
56 57 -1e-06
57 57 0.011999
58 57 0
89 57 -1.7e-05
131 57 0
46 58 -1.6e-05
47 58 -0.006532
49 58 0
50 58 -1.4e-05
51 58 0
57 58 0
58 58 0.839895
60 58 -0.833333
89 58 0
131 58 0
58 59 -0.833333
59 59 1
60 59 2.08333
87 59 -0.416667
88 59 -0.833333
89 59 0
131 59 0
60 60 1
61 61 15.0005
62 61 -0.000478
65 61 -1e-06
66 61 -1.8e-05
67 61 -1.8e-05
61 62 -0.000479
62 62 0.002551
65 62 -8.8e-05
66 62 -0.000996
67 62 -0.000989
63 63 0.133348
65 63 -0.066667
66 63 -1.4e-05
130 63 -0.066667
64 64 0.133342
65 64 -0.066667
67 64 -8e-06
130 64 -0.066667
61 65 2e-06
62 65 0.000133
63 65 -0.066667
64 65 -0.066667
65 65 0.333641
66 65 -0.00023
67 65 -0.000213
130 65 -0.2
61 66 -1.6e-05
62 66 -0.001344
63 66 -1.4e-05
65 66 0.000331
66 66 0.012809
67 66 0.000204
130 66 -0.01197
61 67 -2.2e-05
62 67 -0.000862
64 67 -8e-06
65 67 -0.00055
66 67 0.000419
67 67 0.012994
130 67 0
131 67 -0.01197
68 68 0.133348
69 68 -1.4e-05
72 68 -0.066667
68 69 -1.4e-05
69 69 0.012001
72 69 0
88 69 -1.6e-05
70 70 0.13334
72 70 -0.066667
73 70 -6e-06
71 71 0.006553
72 71 -1e-05
73 71 -9e-06
88 71 -0.006535
68 72 -0.066667
69 72 0
70 72 -0.066667
71 72 -1.9e-05
72 72 0.333352
73 72 0
88 72 0
70 73 -6e-06
72 73 -9e-06
73 73 0.011999
74 73 -0.01197
88 73 -1.4e-05
73 74 -0.01197
74 74 0.869243
80 74 -0.833333
86 74 -0.02394
88 74 0
75 75 0.133348
78 75 -1.4e-05
79 75 -0.066667
76 76 0.133342
79 76 -0.066667
92 76 -9e-06
77 77 0.029318
78 77 -7.2e-05
79 77 -2e-06
80 77 -0.029171
92 77 -7.3e-05
75 78 -1.4e-05
77 78 -0.000105
78 78 0.014252
79 78 5.2e-05
80 78 -1.5e-05
92 78 -0.002199
75 79 -0.066667
76 79 -0.066667
77 79 6e-06
78 79 -1.5e-05
79 79 0.333352
80 79 3e-06
92 79 -1.2e-05
74 80 -0.833333
77 80 -0.029171
78 80 -1.8e-05
79 80 0
80 80 0.862539
86 80 0
88 80 0
92 80 -1.8e-05
81 81 0.017469
84 81 -6e-06
85 81 -0.00011
86 81 -0.000111
87 81 -0.017241
82 82 0.133362
84 82 -0.066667
85 82 -2.9e-05
130 82 -0.066667
83 83 0.133351
84 83 -0.066667
86 83 -1.8e-05
130 83 -0.066667
81 84 1.5e-05
82 84 -0.066667
83 84 -0.066667
84 84 0.33337
85 84 -2.9e-05
86 84 -2.3e-05
87 84 0
130 84 -0.2
81 85 -0.000138
82 85 -2.9e-05
84 85 0.000107
85 85 0.025367
86 85 -0.001332
87 85 -3.5e-05
130 85 -0.02394
74 86 -0.02394
80 86 0
81 86 -0.000104
83 86 -1.8e-05
84 86 -0.000138
85 86 -0.001223
86 86 0.025459
87 86 -3.6e-05
88 86 0
92 86 0
130 86 0
60 87 -0.416667
81 87 -0.017241
84 87 0
85 87 -3.6e-05
86 87 -3.6e-05
87 87 0.433979
88 87 0
92 87 0
130 87 0
60 88 -0.833333
69 88 -1.6e-05
71 88 -0.006535
72 88 0
73 88 -1.4e-05
74 88 0
80 88 0
86 88 0
87 88 0
88 88 0.839898
92 88 0
130 88 0
39 89 -0.833333
40 89 0
41 89 0
44 89 0
55 89 -0.003712
56 89 -1.7e-05
57 89 -1.7e-05
58 89 0
60 89 0
89 89 0.83708
130 89 0
131 89 0
21 90 -0.01197
22 90 -2.2e-05
23 90 -0.000903
25 90 -9e-06
26 90 -0.000577
27 90 0.000447
90 90 0.013034
91 90 0
92 90 0
93 90 0
130 90 0
16 91 -1.6e-05
18 91 -0.006525
19 91 -1.4e-05
20 91 0
21 91 0
41 91 -0.833333
90 91 0
91 91 0.839889
92 91 0
93 91 0
130 91 0
14 92 -0.01197
16 92 0
20 92 0
21 92 0
76 92 -9e-06
77 92 -4.8e-05
78 92 -0.002163
79 92 -6.9e-05
80 92 -2.2e-05
86 92 0
87 92 0
88 92 0
90 92 0
91 92 0
92 92 0.014281
93 92 0
130 92 0
10 93 -0.028832
11 93 0
12 93 -1.8e-05
13 93 0
21 93 -0.833333
90 93 0
91 93 0
92 93 0
93 93 0.862201
110 93 -1.8e-05
130 93 0
131 93 0
94 94 0.03591
101 94 -0.01197
117 94 -0.02394
95 95 0.133348
97 95 -0.066667
98 95 -1.4e-05
96 96 0.13334
97 96 -0.066667
101 96 -6e-06
95 97 -0.066667
96 97 -0.066667
97 97 0.333351
98 97 0
99 97 -1.8e-05
101 97 0
95 98 -1.4e-05
97 98 0
98 98 0.012003
99 98 0
100 98 -1.7e-05
101 98 -2e-06
97 99 -1.3e-05
98 99 -1e-06
99 99 0.006581
100 99 -0.006563
101 99 -4e-06
98 100 -1.7e-05
99 100 -0.006563
100 100 0.839926
101 100 -1.4e-05
102 100 -0.833333
94 101 -0.01197
96 101 -6e-06
97 101 -5e-06
98 101 0
99 101 0
100 101 -1.4e-05
101 101 0.011995
102 101 0
117 101 0
100 102 -0.833333
101 102 0
102 102 1.28621
109 102 -0.02394
110 102 -0.01197
116 102 -0.416667
117 102 0
103 103 7.50066
104 103 -0.000587
107 103 -1e-06
108 103 -3.6e-05
109 103 -3.3e-05
103 104 -0.00059
104 104 0.003945
107 104 -0.000661
108 104 -0.001637
109 104 -0.001057
105 105 0.133362
107 105 -0.066667
108 105 -2.9e-05
130 105 -0.066667
106 106 0.133346
107 106 -0.066667
109 106 -1.3e-05
130 106 -0.066667
103 107 4e-06
104 107 0.000191
105 107 -0.066667
106 107 -0.066667
107 107 0.333777
108 107 -0.000401
109 107 -0.000238
130 107 -0.2
103 108 -3.8e-05
104 108 -0.003547
105 108 -2.9e-05
107 108 0.00022
108 108 0.026043
109 108 0.00129
130 108 -0.02394
102 109 -0.02394
103 109 -3.3e-05
104 109 -3e-06
106 109 -1.3e-05
107 109 -1e-06
108 109 -1e-06
109 109 0.02399
110 109 0
116 109 0
117 109 0
130 109 0
9 110 -9e-06
10 110 -5.1e-05
11 110 -6.6e-05
12 110 -0.002082
13 110 0
93 110 -2e-05
102 110 -0.01197
109 110 0
110 110 0.014198
116 110 0
117 110 0
130 110 0
131 110 0
111 111 0.017634
114 111 -4e-06
115 111 -0.000111
116 111 -0.017409
117 111 -0.000111
112 112 0.133362
114 112 -0.066667
115 112 -2.9e-05
130 112 -0.066667
113 113 0.133351
114 113 -0.066667
117 113 -1.8e-05
130 113 -0.066667
111 114 1.5e-05
112 114 -0.066667
113 114 -0.066667
114 114 0.33337
115 114 -2.6e-05
116 114 0
117 114 -2.6e-05
130 114 -0.2
111 115 -0.000135
112 115 -2.9e-05
114 115 0.000105
115 115 0.025376
116 115 -3.6e-05
117 115 -0.001342
130 115 -0.02394
102 116 -0.416667
109 116 0
110 116 0
111 116 -0.017409
114 116 0
115 116 -3.6e-05
116 116 0.434147
117 116 -3.6e-05
130 116 0
131 116 0
94 117 -0.02394
101 117 0
102 117 0
109 117 0
110 117 0
111 117 -0.000105
113 117 -1.8e-05
114 117 -0.000138
115 117 -0.001235
116 117 -3.6e-05
117 117 0.025471
130 117 0
131 117 0
118 118 0.03591
125 118 -0.01197
133 118 -0.02394
119 119 0.133348
122 119 -1.4e-05
123 119 -0.066667
120 120 0.133342
123 120 -0.066667
125 120 -9e-06
121 121 0.029756
122 121 -6.1e-05
123 121 -1e-06
124 121 -0.029634
125 121 -6.1e-05
119 122 -1.4e-05
121 122 -7.9e-05
122 122 0.014246
123 122 5e-05
124 122 -1.7e-05
125 122 -0.002216
119 123 -0.066667
120 123 -0.066667
121 123 6e-06
122 123 -1.4e-05
123 123 0.333352
124 123 1e-06
125 123 -1.2e-05
121 124 -0.029634
122 124 -1.8e-05
123 124 0
124 124 0.863003
125 124 -1.8e-05
131 124 -0.833333
118 125 -0.01197
120 125 -9e-06
121 125 -5e-05
122 125 -0.002169
123 125 -6.8e-05
124 125 -2e-05
125 125 0.014285
131 125 0
133 125 0
126 126 0.004277
127 126 -0.004243
132 126 -1.9e-05
133 126 1.7e-05
134 126 -3.2e-05
126 127 -0.004243
127 127 0.420971
131 127 -0.416667
132 127 -3.4e-05
133 127 -2.7e-05
134 127 0
128 128 0.133362
130 128 -0.066667
132 128 -2.9e-05
134 128 -0.066667
129 129 0.133346
130 129 -0.066667
133 129 -1.3e-05
134 129 -0.066667
130 130 1
6 131 -0.833333
13 131 0
56 131 -0.01197
57 131 0
58 131 0
60 131 0
67 131 -0.01197
89 131 0
93 131 0
110 131 0
116 131 0
117 131 0
124 131 -0.833333
125 131 0
127 131 -0.416667
130 131 0
131 131 2.10737
132 131 0
133 131 0
134 131 0
126 132 -1e-06
127 132 -3.4e-05
128 132 -2.9e-05
130 132 -0.02394
131 132 0
132 132 0.024027
133 132 -2.4e-05
134 132 1e-06
118 133 -0.02394
125 133 0
127 133 -2.7e-05
129 133 -1.3e-05
130 133 0
131 133 0
132 133 0
133 133 0.023982
134 133 -2e-06
126 134 -3.3e-05
127 134 0
128 134 -0.066667
129 134 -0.066667
130 134 -0.2
131 134 0
132 134 -5e-06
133 134 5e-06
134 134 0.333367
24 135 -0.066667
25 135 -0.066667
26 135 -0.2
27 135 -0.01197
29 135 -0.066667
30 135 -0.066667
31 135 -0.2
32 135 -0.02394
43 135 0
44 135 0
63 135 -0.066667
64 135 -0.066667
65 135 -0.2
66 135 -0.01197
67 135 0
82 135 -0.066667
83 135 -0.066667
84 135 -0.2
85 135 -0.02394
86 135 0
87 135 0
88 135 0
89 135 0
90 135 0
91 135 0
92 135 0
93 135 0
105 135 -0.066667
106 135 -0.066667
107 135 -0.2
108 135 -0.02394
109 135 0
110 135 0
112 135 -0.066667
113 135 -0.066667
114 135 -0.2
115 135 -0.02394
116 135 0
117 135 0
128 135 -0.066667
129 135 -0.066667
130 135 2.47697
131 135 0
132 135 -0.02394
133 135 0
134 135 -0.2
135 135 1
