%%MatrixMarket matrix coordinate real general
135 135 854
1 1 0.133348
4 1 -0.000104988
5 1 -0.499947
2 2 0.133342
5 2 -0.49997
13 2 -6.74956e-05
3 3 0.029325
4 3 -0.00211424
5 3 -3.41006e-05
6 3 -0.995874
13 3 -0.00197783
1 4 -1.4e-05
3 4 -7.7e-05
4 4 0.0141968
5 4 0.00295827
6 4 -0.00659881
13 4 -0.152721
1 5 -0.066667
2 5 -0.066667
3 5 6e-06
4 5 -3.99866e-05
5 5 0.26669
6 5 2.51655e-05
13 5 -1.34788e-05
3 6 -0.029204
4 6 -7.97442e-05
5 6 -7.59969e-07
6 6 0.833489
13 6 -0.000105507
131 6 -0.999813
7 7 0.02394
12 7 -0.5
13 7 -0.5
8 8 0.133348
11 8 -0.499947
12 8 -0.000104988
9 9 0.133342
11 9 -0.49997
110 9 -6.74956e-05
10 10 0.028957
11 10 -3.4534e-05
12 10 -0.00217564
93 10 -0.995683
110 10 -0.00210657
8 11 -0.066667
9 11 -0.066667
10 11 6e-06
11 11 0.266689
12 11 -0.000142436
93 11 2.61506e-05
110 11 1.92324e-06
7 12 -0.01197
8 12 -1.4e-05
10 12 -8.1e-05
11 12 4.19979e-05
12 12 0.00819283
13 12 -0.730517
93 12 -0.0119191
110 12 -0.261957
2 13 -9e-06
3 13 -5e-05
4 13 -0.00210011
5 13 -6.42887e-05
6 13 -8.36503e-05
7 13 -0.01197
12 13 -0.005985
13 13 0.00353802
93 13 -0.0201627
110 13 -0.443134
131 13 -0.0236388
14 14 0.02394
16 14 -0.5
92 14 -0.5
15 15 0.133348
16 15 -0.000104988
20 15 -0.499947
14 16 -0.01197
15 16 -1.4e-05
16 16 0.006016
20 16 -0.00116344
91 16 -0.00265958
92 16 -0.994847
17 17 0.13334
19 17 -5.24974e-05
20 17 -0.499977
18 18 0.006544
19 18 -0.000305623
20 18 -0.00244499
91 18 -0.997097
17 19 -7e-06
19 19 0.011992
20 19 -0.000458626
21 19 -0.998165
91 19 -0.00116744
15 20 -0.066667
16 20 -6.99926e-06
17 20 -0.066667
18 20 -1.9e-05
19 20 -3.50565e-06
20 20 0.26669
21 20 -1.31209e-05
91 20 -7.11221e-05
92 20 -2.61097e-05
19 21 -0.01197
20 21 -5.48975e-06
21 21 0.845325
90 21 -0.0141602
91 21 -1.65318e-05
92 21 -1.69563e-10
93 21 -0.985814
22 22 15.0005
23 22 -3.29322e-05
26 22 -6.66643e-08
27 22 -1.19996e-06
90 22 -1.19996e-06
22 23 -0.000495
23 23 0.00257698
26 23 -0.0322082
27 23 -0.388439
90 23 -0.386887
24 24 0.133348
26 24 -0.499947
27 24 -0.000104988
130 24 -0.499947
25 25 0.133342
26 25 -0.49997
90 25 -6.74956e-05
130 25 -0.49997
22 26 2e-06
23 26 0.000135
24 26 -0.066667
25 26 -0.066667
26 26 0.266996
27 26 -0.000706228
90 26 -0.000656452
130 26 -0.998748
22 27 -1.6e-05
23 27 -0.001314
24 27 -1.4e-05
26 27 0.000291679
27 27 0.0122798
90 27 -0.0264807
130 27 -0.951619
28 28 0.01752
31 28 -0.000342466
32 28 -0.00633562
43 28 -0.986986
44 28 -0.00633562
29 29 0.133362
31 29 -0.499895
32 29 -0.000217453
130 29 -0.499895
30 30 0.133351
31 30 -0.499936
44 30 -0.000134982
130 30 -0.499936
28 31 1.5e-05
29 31 -0.066667
30 31 -0.066667
31 31 0.266714
32 31 -0.00015148
43 31 5.55081e-05
44 31 -0.000130866
130 31 -0.999781
28 32 -0.000138
29 32 -2.9e-05
31 32 9.34558e-05
32 32 0.0253711
43 32 -0.00674819
44 32 -0.0527711
130 32 -0.940481
33 33 0.133348
34 33 -0.000104988
37 33 -0.499947
33 34 -1.4e-05
34 34 0.012001
37 34 -0.000583224
40 34 -0.00133322
35 35 0.13334
37 35 -0.499977
38 35 -4.49978e-05
36 36 0.006554
37 36 -0.00137321
38 36 -0.00152579
40 36 -0.997101
33 37 -0.066667
34 37 -6.99926e-06
35 37 -0.066667
36 37 -1.9e-05
37 37 0.26669
38 37 -1.13572e-05
40 37 -7.10722e-05
35 38 -6e-06
37 38 -1.29999e-05
38 38 0.012
39 38 -0.9975
40 38 -0.00116674
38 39 -0.01197
39 39 0.857303
40 39 -1.62905e-05
44 39 -0.0279248
89 39 -0.97204
34 40 -1.6e-05
36 40 -0.006535
37 40 -8.98324e-06
38 40 -2.39711e-05
39 40 -2.39112e-05
40 40 0.833382
41 40 -0.999941
44 40 -8.01211e-07
89 40 -2.78895e-05
41 41 1
40 42 -0.833333
41 42 1.25005
42 42 1
43 42 -0.416667
44 42 -6.67675e-07
89 42 -2.32413e-05
91 42 -0.833333
28 43 -0.017292
31 43 -5.92192e-06
32 43 -0.000145556
41 43 -0.416667
43 43 0.416962
44 43 -0.000367509
130 43 -0.00034251
28 44 -0.000105
30 44 -1.8e-05
31 44 -0.000147035
32 44 -0.00123169
39 44 -0.02394
40 44 -3.89995e-07
41 44 -3.89972e-07
43 44 -0.000147937
44 44 0.0247337
89 44 -0.940846
130 44 -0.0531432
45 45 0.133348
46 45 -0.000104988
49 45 -0.499947
45 46 -1.4e-05
46 46 0.012001
49 46 -0.000583224
58 46 -0.00133322
47 47 0.006551
49 47 -0.00290032
58 47 -0.9971
48 48 0.13334
49 48 -0.499977
50 48 -5.24974e-05
45 49 -0.066667
46 49 -6.99926e-06
47 49 -1.9e-05
48 49 -0.066667
49 49 0.26669
50 49 -1.31233e-05
58 49 -7.10721e-05
48 50 -7e-06
49 50 -3.49984e-06
50 50 0.01199
51 50 -0.998332
58 50 -0.00116766
50 51 -0.01197
51 51 0.01199
57 51 -0.998335
58 51 -0.00116572
52 52 0.133344
54 52 -0.499963
57 52 -8.24934e-05
53 53 0.13334
54 53 -0.499977
56 53 -5.24974e-05
52 54 -0.066667
53 54 -0.066667
54 54 0.266681
55 54 -3.7498e-05
56 54 -1.31237e-05
57 54 -2.06223e-05
54 55 -1e-05
55 55 0.003722
56 55 0.000268638
57 55 -0.000268728
89 55 -0.997313
53 56 -7e-06
54 56 -3.49984e-06
55 56 -1.31237e-10
56 56 0.011994
57 56 -6.02053e-09
89 56 -0.00141739
131 56 -0.997999
51 57 -0.01197
52 57 -1.1e-05
54 57 -5.49959e-06
55 57 -2.06223e-10
56 57 -1.00007e-06
57 57 4.89308e-05
58 57 -0.285171
89 57 -0.347463
131 57 -0.0203976
46 58 -1.6e-05
47 58 -0.006532
49 58 -1.89542e-05
50 58 -1.40002e-05
51 58 -1.39769e-05
57 58 -1.39536e-05
58 58 0.833378
60 58 -0.999946
89 58 -5.81773e-06
131 58 -3.41527e-07
58 59 -0.833333
59 59 1
60 59 1.25004
87 59 -0.416667
88 59 -0.833333
89 59 -4.8481e-06
131 59 -2.84605e-07
60 60 1
61 61 15.0005
62 61 -3.18656e-05
65 61 -6.66644e-08
66 61 -1.19996e-06
67 61 -1.19996e-06
61 62 -0.000479
62 62 0.00255098
65 62 -0.0344965
66 62 -0.390438
67 62 -0.387694
63 63 0.133348
65 63 -0.499947
66 63 -0.000104988
130 63 -0.499947
64 64 0.133342
65 64 -0.49997
67 64 -5.99961e-05
130 64 -0.49997
61 65 2e-06
62 65 0.000133
63 65 -0.066667
64 65 -0.066667
65 65 0.266984
66 65 -0.000693191
67 65 -0.000619649
130 65 -0.998792
61 66 -1.6e-05
62 66 -0.001344
63 66 -1.4e-05
65 66 0.000277637
66 66 0.0122844
67 66 -0.0257959
130 66 -0.952399
61 67 -2.2e-05
62 67 -0.000862001
64 67 -8e-06
65 67 -0.000583736
66 67 8.20378e-05
67 67 0.0126616
130 67 -0.0401923
131 67 -0.945381
68 68 0.133348
69 68 -0.000104988
72 68 -0.499947
68 69 -1.4e-05
69 69 0.012001
72 69 -0.000583224
88 69 -0.00133322
70 70 0.13334
72 70 -0.499977
73 70 -4.49978e-05
71 71 0.006553
72 71 -0.00152602
73 71 -0.00137342
88 71 -0.997253
68 72 -0.066667
69 72 -6.99926e-06
70 72 -0.066667
71 72 -1.9e-05
72 72 0.26669
73 72 -1.13464e-05
88 72 -7.10831e-05
70 73 -6e-06
72 73 -1.19999e-05
73 73 0.011999
74 73 -0.997583
88 73 -0.00116684
73 74 -0.01197
74 74 0.857302
80 74 -0.972041
86 74 -0.0279248
88 74 -1.62918e-05
75 75 0.133348
78 75 -0.000104988
79 75 -0.499947
76 76 0.133342
79 76 -0.49997
92 76 -6.74956e-05
77 77 0.029318
78 77 -0.00245583
79 77 -6.82175e-05
80 77 -0.994986
92 77 -0.00248994
75 78 -1.4e-05
77 78 -0.000105
78 78 0.0142517
79 78 0.00315706
80 78 -0.00838308
92 78 -0.154315
75 79 -0.066667
76 79 -0.066667
77 79 6e-06
78 79 -2.19845e-05
79 79 0.266691
80 79 3.29431e-05
92 79 -7.45333e-05
74 80 -0.833333
77 80 -0.029171
78 80 -8.9639e-05
79 80 -1.70698e-06
80 80 0.0234793
86 80 -0.991115
88 80 -0.000578234
92 80 -0.00444932
81 81 0.017469
84 81 -0.000343466
85 81 -0.00629687
86 81 -0.00635411
87 81 -0.986948
82 82 0.133362
84 82 -0.499895
85 82 -0.000217453
130 82 -0.499895
83 83 0.133351
84 83 -0.499936
86 83 -0.000134982
130 83 -0.499936
81 84 1.5e-05
82 84 -0.066667
83 84 -0.066667
84 84 0.266714
85 84 -0.00016273
86 84 -0.000119617
87 84 5.55059e-05
130 84 -0.999781
81 85 -0.000138
82 85 -2.9e-05
84 85 9.24557e-05
85 85 0.0253661
86 85 -0.0525451
87 85 -0.00674931
130 85 -0.940705
74 86 -0.02394
80 86 -0.0232707
81 86 -0.000104
83 86 -1.8e-05
84 86 -0.000147035
85 86 -0.00122368
86 86 0.00166159
87 86 -0.0884055
88 86 -0.00833295
92 86 -0.0623131
130 86 -0.786671
60 87 -0.416667
81 87 -0.017241
84 87 -5.92169e-06
85 87 -0.000144565
86 87 -0.000153148
87 87 0.416949
88 87 -3.06075e-06
92 87 -2.2888e-05
130 87 -0.000629312
60 88 -0.833333
69 88 -1.6e-05
71 88 -0.006535
72 88 -9.98186e-06
73 88 -2.29754e-05
74 88 -2.29199e-05
80 88 -2.22791e-05
86 88 -2.27211e-05
87 88 -2.00867e-06
88 88 0.833381
92 88 -1.81789e-06
130 88 -2.14492e-05
39 89 -0.833333
40 89 -1.35754e-05
41 89 -1.35746e-05
44 89 -0.0232706
55 89 -0.003712
56 89 -1.60028e-05
57 89 -1.79975e-05
58 89 -5.13237e-06
60 89 -5.13209e-06
89 89 0.00144432
130 89 -0.856233
131 89 -0.0113118
21 90 -0.01197
22 90 -2.2e-05
23 90 -0.000903001
25 90 -9e-06
26 90 -0.000610584
27 90 9.58082e-05
90 90 0.0125173
91 90 -1.5809e-05
92 90 -1.62149e-10
93 90 -0.942712
130 90 -0.0417939
16 91 -1.6e-05
18 91 -0.006525
19 91 -1.59942e-05
20 91 -1.59795e-05
21 91 -1.59651e-05
41 91 -0.833333
90 91 -2.26069e-07
91 91 0.833383
92 91 -1.91004e-05
93 91 -1.91409e-05
130 91 -1.13373e-08
14 92 -0.01197
16 92 -0.005985
20 92 -6.9632e-06
21 92 -9.13636e-11
76 92 -9e-06
77 92 -4.8e-05
78 92 -0.00216312
79 92 -6.66739e-05
80 92 -8.78907e-05
86 92 -8.71098e-05
87 92 -7.70099e-06
88 92 -7.76727e-07
90 92 -1.29373e-12
91 92 -1.59181e-05
92 92 0.00200209
93 92 -1.9778e-07
130 92 -0.03423
10 93 -0.028832
11 93 -9.95683e-07
12 93 -8.07282e-05
13 93 -5.89733e-05
21 93 -0.833333
90 93 -0.0118002
91 93 -1.3963e-05
92 93 -4.09915e-10
93 93 0.000855874
110 93 -0.147238
130 93 -0.576225
131 93 -0.00162882
94 94 0.03591
101 94 -0.333333
117 94 -0.666667
95 95 0.133348
97 95 -0.499947
98 95 -0.000104988
96 96 0.13334
97 96 -0.499977
101 96 -4.49978e-05
95 97 -0.066667
96 97 -0.066667
97 97 0.266689
98 97 -2.6245e-05
99 97 -6.74944e-05
101 97 -1.12486e-05
95 98 -1.4e-05
97 98 -6.99926e-06
98 98 0.012003
99 98 -3.93577e-08
100 98 -0.00141631
101 98 -0.000166632
97 99 -1.3e-05
98 99 -1.00034e-06
99 99 0.006581
100 99 -0.997265
101 99 -0.000607858
98 100 -1.7e-05
99 100 -0.006563
100 100 0.833381
101 100 -2.15894e-05
102 100 -0.999942
94 101 -0.01197
96 101 -6e-06
97 101 -7.99986e-06
98 101 -2.09957e-10
99 101 -5.39946e-10
100 101 -1.40005e-05
101 101 0.008005
102 101 -0.00174887
117 101 -0.996877
100 102 -0.833333
101 102 -1.79912e-05
102 102 0.452925
109 102 -0.0528565
110 102 -0.0264282
116 102 -0.919947
117 102 -3.95981e-05
103 103 7.50066
104 103 -7.82598e-05
107 103 -1.33322e-07
108 103 -4.79958e-06
109 103 -4.39962e-06
103 104 -0.00059
104 104 0.00394495
107 104 -0.167556
108 104 -0.414961
109 104 -0.267938
105 105 0.133362
107 105 -0.499895
108 105 -0.000217453
130 105 -0.499895
106 106 0.133346
107 106 -0.499955
109 106 -9.74907e-05
130 106 -0.499955
103 107 4e-06
104 107 0.000191
105 107 -0.066667
106 107 -0.066667
107 107 0.267152
108 107 -0.00125861
109 107 -0.000723645
130 107 -0.998147
103 108 -3.8e-05
104 108 -0.003547
105 108 -2.9e-05
107 108 -0.000388818
108 108 0.0245706
109 108 0.0138109
130 108 -0.990719
102 109 -0.02394
103 109 -3.3e-05
104 109 -3.00258e-06
106 109 -1.3e-05
107 109 -8.00252e-06
108 109 -2.25619e-06
109 109 0.0227238
110 109 -0.0278427
116 109 -0.969182
117 109 -4.17174e-05
130 109 -0.000735895
9 110 -9e-06
10 110 -5.1e-05
11 110 -7.05015e-05
12 110 -0.00208212
13 110 -0.00152102
93 110 -0.000126263
102 110 -0.01197
109 110 -0.000632692
110 110 0.0126259
116 110 -0.920724
117 110 -3.96316e-05
130 110 -0.00579932
131 110 -0.00286403
111 111 0.017634
114 111 -0.000226835
115 111 -0.00629466
116 111 -0.987241
117 111 -0.00629466
112 112 0.133362
114 112 -0.499895
115 112 -0.000217453
130 112 -0.499895
113 113 0.133351
114 113 -0.499936
117 113 -0.000134982
130 113 -0.499936
111 114 1.5e-05
112 114 -0.066667
113 114 -0.066667
114 114 0.266714
115 114 -0.000151482
116 114 5.55224e-05
117 114 -0.000130868
130 114 -0.999781
111 115 -0.000135
112 115 -2.9e-05
114 115 9.04724e-05
115 115 0.0253752
116 115 -0.00667119
117 115 -0.0529194
130 115 -0.940449
102 116 -0.416667
109 116 -0.0220235
110 116 -0.011625
111 116 -0.017409
114 116 -3.94896e-06
115 116 -0.000145584
116 116 0.0015992
117 116 -0.107033
130 116 -0.140374
131 116 -0.0208193
94 117 -0.02394
101 117 -0.00798
102 117 -1.3956e-05
109 117 -7.37665e-07
110 117 -3.89371e-07
111 117 -0.000105
113 117 -1.8e-05
114 117 -0.000147023
115 117 -0.00123568
116 117 -0.000161808
117 117 0.00147253
130 117 -0.910546
131 117 -0.00228847
118 118 0.03591
125 118 -0.333333
133 118 -0.666667
119 119 0.133348
122 119 -0.000104988
123 119 -0.499947
120 120 0.133342
123 120 -0.49997
125 120 -6.74956e-05
121 121 0.029756
122 121 -0.00205001
123 121 -3.36067e-05
124 121 -0.9959
125 121 -0.00205001
119 122 -1.4e-05
121 122 -7.9e-05
122 122 0.0142458
123 122 0.00301829
124 122 -0.00671607
125 122 -0.155566
119 123 -0.066667
120 123 -0.066667
121 123 6e-06
122 123 -2.0987e-05
123 123 0.266691
124 123 2.56269e-05
125 123 -7.40644e-05
121 124 -0.029634
122 124 -7.87499e-05
123 124 -7.5821e-07
124 124 0.83349
125 124 -0.00010918
131 124 -0.999812
118 125 -0.01197
120 125 -9e-06
121 125 -5e-05
122 125 -0.0021691
123 125 -6.59544e-05
124 125 -8.43612e-05
125 125 0.00995744
131 125 -0.00847057
133 125 -0.80141
126 126 0.004277
127 126 -0.99205
132 126 -0.00444237
133 126 0.00397475
134 126 -0.00748188
126 127 -0.004243
127 127 0.416762
131 127 -0.999773
132 127 -0.000126809
133 127 -2.43188e-05
134 127 -7.61721e-05
128 128 0.133362
130 128 -0.499895
132 128 -0.000217453
134 128 -0.499895
129 129 0.133346
130 129 -0.499955
133 129 -9.74907e-05
134 129 -0.499955
130 130 1
6 131 -0.833333
13 131 -8.79228e-05
56 131 -0.01197
57 131 -7.20657e-11
58 131 -2.0551e-11
60 131 -2.05499e-11
67 131 -0.01197
89 131 -1.69661e-05
93 131 -1.77276e-06
110 131 -3.92226e-05
116 131 -3.61132e-05
117 131 -3.86685e-06
124 131 -0.833333
125 131 -9.09836e-05
127 131 -0.416667
130 131 -0.000505468
131 131 0.00118132
132 131 -0.044727
133 131 -0.070301
134 131 -0.0268669
126 132 -1e-06
127 132 -3.49921e-05
128 132 -2.9e-05
130 132 -0.0239545
131 132 -3.49841e-05
132 132 0.0240254
133 132 -0.00110118
134 132 -0.000601322
118 133 -0.02394
125 133 -0.00798
127 133 -2.7e-05
129 133 -1.3e-05
130 133 -6.49941e-06
131 133 -9.4589e-05
132 133 -4.23411e-06
133 133 0.00162009
134 133 -0.00681774
126 134 -3.3e-05
127 134 -3.27377e-05
128 134 -0.066667
129 134 -0.066667
130 134 -0.266657
131 134 -3.27302e-05
132 134 -2.11116e-05
133 134 -3.69326e-06
134 134 0.266709
24 135 -0.066667
25 135 -0.066667
26 135 -0.266661
27 135 -0.0121653
29 135 -0.066667
30 135 -0.066667
31 135 -0.266656
32 135 -0.0239949
43 135 -0.000147121
44 135 -0.00131019
63 135 -0.066667
64 135 -0.066667
65 135 -0.266661
66 135 -0.0121618
67 135 -0.000482962
82 135 -0.066667
83 135 -0.066667
84 135 -0.266656
85 135 -0.0239979
86 135 -0.00130187
87 135 -0.00026226
88 135 -1.08492e-05
89 135 -0.00123268
90 135 -0.000501697
91 135 -7.9313e-09
92 135 -8.11293e-05
93 135 -0.000472956
105 135 -0.066667
106 135 -0.066667
107 135 -0.266657
108 135 -0.0242901
109 135 0.000136003
110 135 -6.58503e-05
112 135 -0.066667
113 135 -0.066667
114 135 -0.266656
115 135 -0.0239949
116 135 -7.40869e-05
117 135 -0.00132162
128 135 -0.066667
129 135 -0.066667
130 135 0.293136
131 135 -0.000476053
132 135 -0.0239758
133 135 -6.6368e-05
134 135 -0.266685
135 135 1
