%%MatrixMarket matrix coordinate real general
4510 4510 32701
1 1 1
2 2 1
3 3 1
4 4 1
5 5 1
6 6 1
7 7 1
8 8 1
9 9 1
10 10 1
11 11 1
12 12 1
13 13 1
14 14 1
15 15 1
16 16 1
17 17 1
18 18 1
19 19 1
20 20 1
21 21 1
22 22 1
23 23 1
24 24 1
25 25 1
26 26 1
27 27 1
28 28 1
29 29 1
30 30 1
31 31 1
32 32 1
33 33 1
34 34 1
35 35 1
36 36 1
37 37 1
38 38 1
39 39 1
40 40 1
41 41 1
42 42 1
43 43 1
44 44 1
45 45 1
46 46 1
47 47 1
48 48 1
49 49 1
50 50 1
51 51 1
52 52 1
53 53 1
54 54 1
55 55 1
56 56 1
57 57 1
58 58 1
59 59 1
60 60 1
61 61 1
62 62 1
63 63 1
64 64 1
65 65 1
66 66 1
67 67 1
68 68 1
69 69 1
70 70 1
71 71 1
72 72 1
73 73 1
74 74 1
75 75 1
76 76 1
77 77 1
78 78 1
79 79 1
80 80 1
81 81 1
82 82 1
83 83 1
84 84 1
85 85 1
86 86 1
87 87 1
88 88 1
89 89 1
90 90 1
91 91 1
92 92 1
93 93 1
94 94 1
95 95 1
96 96 1
97 97 1
98 98 1
99 99 1
100 100 1
101 101 1
102 102 1
103 103 1
104 104 1
105 105 1
106 106 1
107 107 1
108 108 1
109 109 1
110 110 1
111 111 1
112 112 1
113 113 1
114 114 1
115 115 1
116 116 1
117 117 1
118 118 1
119 119 1
120 120 1
121 121 1
122 122 1
123 123 1
124 124 1
125 125 1
126 126 1
127 127 1
128 128 1
129 129 1
130 130 1
131 131 1
132 132 1
133 133 1
134 134 1
135 135 1
136 136 1
137 137 1
138 138 1
139 139 1
140 140 1
141 141 1
142 142 1
143 143 1
144 144 1
145 145 1
146 146 1
147 147 1
148 148 1
149 149 1
150 150 1
151 151 1
152 152 1
153 153 1
154 154 1
155 155 1
156 156 1
157 157 1
158 158 1
159 159 1
160 160 1
161 161 1
162 162 1
163 163 1
164 164 1
165 165 1
166 166 1
167 167 1
168 168 1
169 169 1
170 170 1
171 171 1
172 172 1
173 173 1
174 174 1
175 175 1
176 176 1
177 177 1
178 178 1
179 179 1
180 180 1
181 181 1
182 182 1
183 183 1
184 184 1
185 185 1
186 186 1
187 187 1
188 188 1
189 189 1
190 190 1
191 191 1
192 192 1
193 193 1
194 194 1
195 195 1
196 196 1
197 197 1
198 198 1
199 199 1
200 200 1
201 201 1
202 202 1
203 203 1
204 204 1
205 205 1
206 206 1
207 207 1
208 208 1
209 209 1
210 210 1
211 211 1
212 212 1
213 213 1
214 214 1
215 215 1
216 216 1
217 217 1
218 218 1
219 219 1
220 220 1
221 221 1
222 222 1
223 223 1
224 224 1
225 225 1
226 226 1
227 227 1
228 228 1
229 229 1
230 230 1
231 231 1
232 232 1
233 233 1
234 234 1
235 235 1
236 236 1
237 237 1
238 238 1
239 239 1
240 240 1
241 241 1
242 242 1
243 243 1
244 244 1
245 245 1
246 246 1
247 247 1
248 248 1
249 249 1
250 250 1
251 251 1
252 252 1
253 253 1
254 254 1
255 255 1
256 256 1
257 257 1
258 258 1
259 259 1
260 260 1
261 261 1
262 262 1
263 263 1
264 264 1
265 265 1
266 266 1
267 267 1
268 268 1
269 269 1
270 270 1
271 271 1
272 272 1
273 273 1
274 274 1
275 275 1
276 276 1
277 277 1
278 278 1
279 279 1
280 280 1
281 281 1
282 282 1
283 283 1
284 284 1
285 285 1
286 286 1
287 287 1
288 288 1
289 289 1
290 290 1
291 291 1
292 292 1
293 293 1
294 294 1
295 295 1
296 296 1
297 297 1
298 298 1
299 299 1
300 300 1
301 301 1
302 302 1
303 303 1
304 304 1
305 305 1
306 306 1
307 307 1
308 308 1
309 309 1
310 310 1
311 311 1
312 312 1
313 313 1
314 314 1
315 315 1
316 316 1
317 317 1
318 318 1
319 319 1
320 320 1
321 321 1
322 322 1
323 323 1
324 324 1
325 325 1
326 326 1
327 327 1
328 328 1
329 329 1
330 330 1
331 331 1
332 332 1
333 333 1
334 334 1
335 335 1
336 336 1
337 337 1
338 338 1
339 339 1
340 340 1
341 341 1
342 342 1
343 343 1
344 344 1
345 345 1
346 346 1
347 347 1
348 348 1
349 349 1
350 350 1
351 351 1
352 352 1
353 353 1
354 354 1
355 355 1
356 356 1
357 357 1
358 358 1
359 359 1
360 360 1
361 361 1
362 362 1
363 363 1
364 364 1
365 365 1
366 366 1
367 367 1
368 368 1
369 369 1
370 370 1
371 371 1
372 372 1
373 373 1
374 374 1
375 375 1
376 376 1
377 377 1
378 378 1
379 379 1
380 380 1
381 381 1
382 382 1
383 383 1
384 384 1
385 385 1
386 386 1
387 387 1
388 388 1
389 389 1
390 390 1
391 391 1
392 392 1
393 393 1
394 394 1
395 395 1
396 396 1
397 397 1
398 398 1
399 399 1
400 400 1
401 401 1
402 402 1
403 403 1
404 404 1
405 405 1
406 406 1
407 407 1
408 408 1
409 409 1
410 410 1
411 411 1
412 412 1
413 413 1
414 414 1
415 415 1
416 416 1
417 417 1
418 418 1
419 419 1
420 420 1
421 421 1
422 422 1
423 423 1
424 424 1
425 425 1
426 426 1
427 427 1
428 428 1
429 429 1
430 430 1
431 431 1
432 432 1
433 433 1
434 434 1
435 435 1
436 436 1
437 437 1
438 438 1
439 439 1
440 440 1
441 441 1
442 442 1
443 443 1
444 444 1
445 445 1
446 446 1
447 447 1
448 448 1
449 449 1
450 450 1
451 451 1
452 452 1
453 453 1
454 454 1
455 455 1
456 456 1
457 457 1
458 458 1
459 459 1
460 460 1
461 461 1
462 462 1
463 463 1
464 464 1
465 465 1
466 466 1
467 467 1
468 468 1
469 469 1
470 470 1
471 471 1
472 472 1
473 473 1
474 474 1
475 475 1
476 476 1
477 477 1
478 478 1
479 479 1
480 480 1
481 481 1
482 482 1
483 483 1
484 484 1
485 485 1
486 486 1
487 487 1
488 488 1
489 489 1
490 490 1
491 491 1
492 492 1
493 493 1
494 494 1
495 495 1
496 496 1
497 497 1
498 498 1
499 499 1
500 500 1
501 501 1
502 502 1
503 503 1
504 504 1
505 505 1
506 506 1
507 507 1
508 508 1
509 509 1
510 510 1
511 511 1
512 512 1
513 513 1
514 514 1
515 515 1
516 516 1
517 517 1
518 518 1
519 519 1
520 520 1
521 521 1
522 522 1
523 523 1
524 524 1
525 525 1
526 526 1
527 527 1
528 528 1
529 529 1
530 530 1
531 531 1
532 532 1
533 533 1
534 534 1
535 535 1
536 536 1
537 537 1
538 538 1
539 539 1
540 540 1
541 541 1
542 542 1
543 543 1
544 544 1
545 545 1
546 546 1
547 547 1
548 548 1
549 549 1
550 550 1
551 551 1
552 552 1
553 553 1
554 554 1
555 555 1
556 556 1
557 557 1
558 558 1
559 559 1
560 560 1
561 561 1
562 562 1
563 563 1
564 564 1
565 565 1
566 566 1
567 567 1
568 568 1
569 569 1
570 570 1
571 571 1
572 572 1
573 573 1
574 574 1
575 575 1
576 576 1
577 577 1
578 578 1
579 579 1
580 580 1
581 581 1
582 582 1
583 583 1
584 584 1
585 585 1
586 586 1
587 587 1
588 588 1
589 589 1
590 590 1
591 591 1
592 592 1
593 593 1
594 594 1
595 595 1
596 596 1
597 597 1
598 598 1
599 599 1
600 600 1
601 601 1
602 602 1
603 603 1
604 604 1
605 605 1
606 606 1
607 607 1
608 608 1
609 609 1
610 610 1
611 611 1
612 612 1
613 613 1
614 614 1
615 615 1
616 616 1
617 617 1
618 618 1
619 619 1
620 620 1
621 621 1
622 622 1
623 623 1
624 624 1
625 625 1
626 626 1
627 627 1
628 628 1
629 629 1
630 630 1
631 631 1
632 632 1
633 633 1
634 634 1
635 635 1
636 636 1
637 637 1
638 638 1
639 639 1
640 640 1
641 641 1
642 642 1
643 643 1
644 644 1
645 645 1
646 646 1
647 647 1
648 648 1
649 649 1
650 650 1
651 651 1
652 652 1
653 653 1
654 654 1
655 655 1
656 656 1
657 657 1
658 658 1
659 659 1
660 660 1
661 661 1
662 662 1
663 663 1
664 664 1
665 665 1
666 666 1
667 667 1
668 668 1
669 669 1
670 670 1
671 671 1
672 672 1
673 673 1
674 674 1
675 675 1
676 676 1
677 677 1
678 678 1
679 679 1
680 680 1
681 681 1
682 682 1
683 683 1
684 684 1
685 685 1
686 686 1
687 687 1
688 688 1
689 689 1
690 690 1
691 691 1
692 692 1
693 693 1
694 694 1
695 695 1
696 696 1
697 697 1
698 698 1
699 699 1
700 700 1
696 701 -1
697 701 -1
698 701 -1
701 701 0.00339321
932 701 -0.00246151
943 701 -0.000123916
1867 701 -2.73006e-05
4509 701 -0.000780483
702 702 1
703 703 1
704 704 1
705 705 1
704 706 -1
705 706 -1
706 706 0.00288433
1868 706 -0.000229821
4504 706 -0.00242542
4509 706 -0.000229092
707 707 1
708 708 1
709 709 1
710 710 1
711 711 1
712 712 1
713 713 1
714 714 1
715 715 1
716 716 1
717 717 1
718 718 1
719 719 1
720 720 1
721 721 1
722 722 1
723 723 1
724 724 1
725 725 1
726 726 1
727 727 1
728 728 1
729 729 1
730 730 1
731 731 1
732 732 1
733 733 1
734 734 1
735 735 1
736 736 1
737 737 1
738 738 1
739 739 1
740 740 1
741 741 1
742 742 1
743 743 1
744 744 1
745 745 1
746 746 1
747 747 1
748 748 1
749 749 1
750 750 1
751 751 1
752 752 1
753 753 1
754 754 1
755 755 1
756 756 1
757 757 1
758 758 1
759 759 1
760 760 1
761 761 1
762 762 1
763 763 1
764 764 1
765 765 1
766 766 1
767 767 1
768 768 1
769 769 1
770 770 1
771 771 1
772 772 1
773 773 1
774 774 1
775 775 1
776 776 1
777 777 1
778 778 1
779 779 1
780 780 1
781 781 1
782 782 1
783 783 1
784 784 1
785 785 1
786 786 1
787 787 1
788 788 1
789 789 1
790 790 1
791 791 1
792 792 1
793 793 1
794 794 1
795 795 1
796 796 1
797 797 1
798 798 1
799 799 1
800 800 1
801 801 1
802 802 1
803 803 1
804 804 1
805 805 1
806 806 1
807 807 1
808 808 1
809 809 1
810 810 1
811 811 1
812 812 1
813 813 1
814 814 1
815 815 1
816 816 1
817 817 1
818 818 1
819 819 1
820 820 1
821 821 1
822 822 1
823 823 1
824 824 1
825 825 1
826 826 1
827 827 1
828 828 1
829 829 1
830 830 1
831 831 1
832 832 1
833 833 1
834 834 1
835 835 1
836 836 1
837 837 1
838 838 1
839 839 1
840 840 1
841 841 1
842 842 1
843 843 1
844 844 1
845 845 1
846 846 1
847 847 1
848 848 1
849 849 1
850 850 1
851 851 1
852 852 1
853 853 1
854 854 1
855 855 1
856 856 1
857 857 1
858 858 1
859 859 1
860 860 1
861 861 1
862 862 1
863 863 1
864 864 1
865 865 1
866 866 1
867 867 1
868 868 1
869 869 1
870 870 1
871 871 1
872 872 1
873 873 1
874 874 1
875 875 1
876 876 1
877 877 1
878 878 1
879 879 1
880 880 1
881 881 1
882 882 1
883 883 1
884 884 1
885 885 1
886 886 1
887 887 1
888 888 1
889 889 1
890 890 1
891 891 1
892 892 1
893 893 1
894 894 1
895 895 1
896 896 1
897 897 1
898 898 1
899 899 1
900 900 1
901 901 1
902 902 1
903 903 1
904 904 1
905 905 1
906 906 1
907 907 1
908 908 1
909 909 1
910 910 1
911 911 1
912 912 1
913 913 1
914 914 1
915 915 1
916 916 1
917 917 1
918 918 1
919 919 1
920 920 1
921 921 1
922 922 1
923 923 1
924 924 1
925 925 1
926 926 1
927 927 1
928 928 1
926 929 -1
927 929 -1
928 929 -1
929 929 0.00612936
930 929 -0.00253636
4504 929 -0.0002523
4509 929 -0.00334071
709 930 -1
710 930 -1
711 930 -1
929 930 -0.00253636
930 930 0.00347219
931 930 -8.12543e-12
932 930 -1.72422e-05
4504 930 -0.00012615
4509 930 -0.000792443
707 931 -1
708 931 -1
930 931 -2.57777e-14
931 931 0.00428355
932 931 -0.000149565
1868 931 -0.00031132
4504 931 -0.00335566
4509 931 -0.000467006
693 932 -1
694 932 -1
695 932 -1
701 932 -0.00246151
930 932 -3.38941e-05
931 932 -0.000151718
932 932 0.0061383
943 932 -0.000125782
1206 932 -0.00020316
1867 932 0
1868 932 0
4504 932 -0.000541732
4509 932 -0.00262051
933 933 1
934 934 1
935 935 1
936 936 1
937 937 1
938 938 1
939 939 1
940 940 1
933 941 -1
934 941 -1
935 941 -1
941 941 0.000818273
942 941 -1.53726e-05
1206 941 -8.06267e-12
1867 941 -2.79681e-05
4509 941 -0.000774932
939 942 -1
940 942 -1
941 942 -3.28883e-05
942 942 0.00139403
943 942 -3.91281e-05
1018 942 -6.21466e-05
1206 942 -4.25306e-05
1867 942 -3.3482e-06
4504 942 -0.000297863
4509 942 -0.000916122
699 943 -1
700 943 -1
701 943 -0.000126903
932 943 -0.000128765
942 943 -3.86137e-05
943 943 0.00151917
1017 943 -1.65548e-05
1018 943 -6.97542e-06
1206 943 -1.93365e-06
1867 943 -2.05304e-05
1868 943 0
4504 943 -0.000867894
4509 943 -0.000311
944 944 1
945 945 1
946 946 1
947 947 1
948 948 1
949 949 1
950 950 1
951 951 1
952 952 1
953 953 1
954 954 1
955 955 1
956 956 1
957 957 1
958 958 1
959 959 1
960 960 1
961 961 1
962 962 1
963 963 1
964 964 1
965 965 1
966 966 1
967 967 1
968 968 1
969 969 1
970 970 1
965 971 -1
966 971 -1
971 971 0.00760823
972 971 -1.01225e-05
973 971 -0.000123728
1016 971 -0.00704225
4509 971 -0.000432131
967 972 -1
968 972 -1
969 972 -1
970 972 -1
971 972 -1.01225e-05
972 972 0.00320244
973 972 -6.68225e-06
1015 972 -0.000531944
1016 972 0
4484 972 -4.82245e-05
4492 972 -0.000892681
4509 972 -0.00171278
971 973 -0.000123728
972 973 -0.000130898
973 973 0.00462092
1015 973 0
1016 973 0
4474 973 -4.19823e-06
4479 973 -0.00423729
4484 973 -6.37197e-06
4492 973 -1.07389e-05
4506 973 -7.20253e-06
4509 973 -0.000100497
974 974 1
975 975 1
976 976 1
977 977 1
978 978 1
979 979 1
980 980 1
981 981 1
976 982 -1
977 982 -1
978 982 -1
982 982 0.0116531
983 982 -0.0113636
4484 982 -8.24722e-06
4509 982 -0.000281227
979 983 -1
980 983 -1
981 983 -1
982 983 -0.0113636
983 983 0.0185869
1013 983 -0.0070922
1016 983 -2.10885e-06
4484 983 0
4506 983 -2.99132e-06
4507 983 -2.35542e-06
4509 983 -0.000123588
984 984 1
985 985 1
986 986 1
987 987 1
988 988 1
989 989 1
990 990 1
991 991 1
992 992 1
993 993 1
994 994 1
995 995 1
996 996 1
997 997 1
998 998 1
988 999 -1
989 999 -1
990 999 -1
991 999 -1
992 999 -1
999 999 0.00406852
1000 999 -8.51183e-05
1001 999 -1.65479e-05
1006 999 -0.00061316
4509 999 -0.00335369
999 1000 -7.53655e-05
1000 1000 0.00571631
1001 1000 0
1006 1000 0
4507 1000 -0.00552486
4509 1000 -0.000116081
996 1001 -1
997 1001 -1
998 1001 -1
999 1001 -4.94094e-05
1000 1001 0
1001 1001 0.00574168
1003 1001 -0.000185497
1005 1001 -0.00416863
1006 1001 -5.70466e-05
4507 1001 0
4509 1001 -0.0012811
1002 1002 0.00219879
1003 1002 -1.65548e-05
1005 1002 -0.00209205
1006 1002 -1.65548e-05
4507 1002 -8.38348e-06
4509 1002 -6.52478e-05
984 1003 -1
985 1003 -1
986 1003 -1
987 1003 -1
1001 1003 -0.000245942
1002 1003 8.76362e-07
1003 1003 0.00196794
1004 1003 -3.06641e-05
1005 1003 -1.9661e-06
1006 1003 -6.47812e-05
4507 1003 -8.01362e-06
4509 1003 -0.00161745
1003 1004 -2.77824e-05
1004 1004 0.00444311
1005 1004 0
1006 1004 0
4506 1004 -0.00436681
4507 1004 -1.9661e-06
4509 1004 -4.65518e-05
1001 1005 -0.00416863
1002 1005 -0.00209205
1003 1005 -1.9661e-06
1004 1005 0
1005 1005 0.00994678
1006 1005 0
1017 1005 -0.00363636
4506 1005 -5.56087e-06
4507 1005 -1.23157e-05
4509 1005 -2.98872e-05
993 1006 -1
994 1006 -1
995 1006 -1
999 1006 -0.000504875
1000 1006 0
1001 1006 -9.59334e-06
1002 1006 -1.65548e-05
1003 1006 -0.00011565
1004 1006 0
1005 1006 0
1006 1006 0.00383088
1017 1006 0
1018 1006 -0.00229885
4506 1006 -1.98556e-06
4507 1006 0
4509 1006 -0.000883369
1007 1007 1
1008 1008 1
1007 1009 -1
1008 1009 -1
1009 1009 0.00220542
1010 1009 -0.00192308
4484 1009 -8.24722e-06
4506 1009 -2.75772e-06
4507 1009 -2.08938e-06
4509 1009 -0.000269249
1009 1010 -0.00192308
1010 1010 0.00526198
1011 1010 -0.000497417
1012 1010 -0.00214133
1013 1010 -3.06919e-06
1017 1010 9.23542e-05
1867 1010 -1.21145e-05
4484 1010 0
4506 1010 -0.000710005
4507 1010 -2.08938e-06
4509 1010 -6.5238e-05
1010 1011 -0.000308829
1011 1011 0.00314519
1012 1011 0
1013 1011 -5.82044e-05
1015 1011 -0.00139082
1017 1011 -0.000218314
1867 1011 0
4484 1011 0
4506 1011 -0.00110386
4507 1011 -1.04145e-05
4509 1011 -5.47457e-05
1010 1012 -0.00214133
1011 1012 0
1012 1012 0.00256232
1013 1012 -1.95312e-06
1014 1012 -0.000616952
1015 1012 0
1017 1012 0
1018 1012 0.000239263
1867 1012 -6.39792e-06
4484 1012 0
4506 1012 -2.91236e-05
4507 1012 0
4509 1012 -5.82691e-06
974 1013 -1
975 1013 -1
983 1013 -0.0070922
1010 1013 -3.06919e-06
1011 1013 0.000111626
1012 1013 -1.95312e-06
1013 1013 0.00920562
1014 1013 8.18358e-05
1015 1013 0
1016 1013 0
1017 1013 0
1018 1013 -8.83121e-06
1867 1013 -6.32655e-06
4484 1013 0
4506 1013 -0.00216958
4507 1013 -2.35542e-06
4509 1013 -0.000114766
1012 1014 -0.000301319
1013 1014 -7.37774e-05
1014 1014 0.00428734
1015 1014 0
1016 1014 -0.00225225
1017 1014 0
1018 1014 -0.000373544
1867 1014 0
4484 1014 0
4506 1014 -0.00125425
4507 1014 -3.13407e-06
4509 1014 -2.90697e-05
963 1015 -1
964 1015 -1
972 1015 -1.22447e-05
973 1015 0
1011 1015 -0.00139082
1012 1015 0
1013 1015 0
1014 1015 0
1015 1015 0.00202375
1016 1015 0
1017 1015 -3.80242e-06
1018 1015 0
1867 1015 0
4474 1015 0
4479 1015 0
4484 1015 0
4492 1015 -0.000123728
4506 1015 -3.4066e-06
4507 1015 -1.04145e-05
4509 1015 -0.000479333
971 1016 -0.00704225
972 1016 0
973 1016 0
983 1016 -2.10885e-06
1013 1016 0
1014 1016 -0.00225225
1015 1016 0
1016 1016 0.00936821
1017 1016 0
1018 1016 -2.08938e-06
1867 1016 0
4474 1016 0
4479 1016 0
4484 1016 0
4492 1016 0
4506 1016 -6.74183e-06
4507 1016 -3.13407e-06
4509 1016 -5.96253e-05
943 1017 -1.65546e-05
1005 1017 -0.00363636
1006 1017 0
1010 1017 -7.82221e-05
1011 1017 -1.51468e-05
1012 1017 0
1013 1017 0
1014 1017 0
1015 1017 -3.80242e-06
1016 1017 0
1017 1017 0.00427664
1018 1017 0
1206 1017 0
1867 1017 0
1868 1017 0
4474 1017 0
4479 1017 0
4484 1017 0
4492 1017 0
4504 1017 0
4506 1017 -0.000431786
4507 1017 0
4509 1017 -9.47681e-05
942 1018 -6.31163e-05
943 1018 -6.97542e-06
1006 1018 -0.00229885
1012 1018 -5.82042e-05
1013 1018 -8.83121e-06
1014 1018 -1.4209e-05
1015 1018 0
1016 1018 -2.08938e-06
1017 1018 0
1018 1018 0.00309011
1206 1018 0
1867 1018 -1.13618e-05
1868 1018 0
4474 1018 0
4479 1018 0
4484 1018 0
4492 1018 0
4504 1018 0
4506 1018 -0.000482642
4507 1018 0
4509 1018 -0.000143835
1019 1019 1
1020 1020 1
1021 1021 1
1022 1022 1
1021 1023 -1
1022 1023 -1
1023 1023 0.00288433
1870 1023 -0.000229821
4504 1023 -0.00242542
4509 1023 -0.000229092
1024 1024 1
1025 1025 1
1026 1026 1
1027 1027 1
1028 1028 1
1029 1029 1
1030 1030 1
1031 1031 1
1029 1032 -1
1030 1032 -1
1031 1032 -1
1032 1032 0.00612936
1033 1032 -0.00253636
1206 1032 -0.00012615
1865 1032 -0.00012615
4509 1032 -0.00334071
1026 1033 -1
1027 1033 -1
1028 1033 -1
1032 1033 -0.00253636
1033 1033 0.00347219
1034 1033 -8.12542e-12
1055 1033 -1.72423e-05
1206 1033 0
1865 1033 -0.00012615
4509 1033 -0.000792442
1024 1034 -1
1025 1034 -1
1033 1034 -2.57777e-14
1034 1034 0.00428447
1055 1034 -0.000149565
1206 1034 -2.51873e-05
1865 1034 -2.51873e-05
1870 1034 -0.00031132
4504 1034 -0.0033062
4509 1034 -0.000467006
1035 1035 1
1036 1036 1
1037 1037 1
1038 1038 1
1039 1039 1
1040 1040 1
1041 1041 1
1042 1042 1
1038 1043 -1
1039 1043 -1
1040 1043 -1
1043 1043 0.00339321
1054 1043 -0.000123916
1055 1043 -0.00246151
1867 1043 -2.73006e-05
4509 1043 -0.000780482
1044 1044 1
1045 1045 1
1046 1046 1
1047 1047 1
1048 1048 1
1049 1049 1
1050 1050 1
1051 1051 1
1044 1052 -1
1045 1052 -1
1046 1052 -1
1052 1052 0.000818273
1053 1052 -1.53726e-05
1866 1052 -8.06268e-12
1867 1052 -2.79681e-05
4509 1052 -0.000774932
1050 1053 -1
1051 1053 -1
1052 1053 -3.28883e-05
1053 1053 0.00139381
1054 1053 -3.91281e-05
1110 1053 -6.21466e-05
1866 1053 -4.25306e-05
1867 1053 -3.3482e-06
4504 1053 -0.000297643
4509 1053 -0.000916124
1041 1054 -1
1042 1054 -1
1043 1054 -0.000126903
1053 1054 -3.86138e-05
1054 1054 0.00151815
1055 1054 -0.000128765
1109 1054 -1.65548e-05
1110 1054 -6.97542e-06
1866 1054 -1.93365e-06
1867 1054 -1.96869e-05
4504 1054 -0.000866164
4509 1054 -0.00031255
1033 1055 -3.38941e-05
1034 1055 -0.000151718
1035 1055 -1
1036 1055 -1
1037 1055 -1
1043 1055 -0.00246151
1054 1055 -0.000125782
1055 1055 0.00613412
1109 1055 0
1110 1055 0
1206 1055 0
1865 1055 -1.33928e-05
1866 1055 -0.00020316
1867 1055 0
1870 1055 0
4504 1055 -0.00053157
4509 1055 -0.00261309
1056 1056 1
1057 1057 1
1058 1058 1
1059 1059 1
1060 1060 1
1061 1061 1
1062 1062 1
1063 1063 1
1058 1064 -1
1059 1064 -1
1064 1064 0.00760823
1065 1064 -1.01225e-05
1108 1064 -0.00704225
4487 1064 -0.000123728
4509 1064 -0.000432131
1060 1065 -1
1061 1065 -1
1062 1065 -1
1063 1065 -1
1064 1065 -1.01225e-05
1065 1065 0.00320202
1066 1065 -0.000531951
1108 1065 0
4484 1065 -4.82245e-05
4487 1065 -6.27059e-06
4492 1065 -0.000892681
4509 1065 -0.00171277
1056 1066 -1
1057 1066 -1
1065 1066 -1.22448e-05
1066 1066 0.00201543
1107 1066 -0.00139082
1108 1066 0
1109 1066 -3.80242e-06
4484 1066 0
4487 1066 0
4492 1066 -0.000123728
4506 1066 -3.4066e-06
4507 1066 -2.08938e-06
4509 1066 -0.000479335
1067 1067 1
1068 1068 1
1069 1069 1
1070 1070 1
1071 1071 1
1072 1072 1
1073 1073 1
1074 1074 1
1069 1075 -1
1070 1075 -1
1071 1075 -1
1075 1075 0.0116531
1076 1075 -0.0113636
4484 1075 -8.24722e-06
4509 1075 -0.000281227
1072 1076 -1
1073 1076 -1
1074 1076 -1
1075 1076 -0.0113636
1076 1076 0.0185869
1105 1076 -0.0070922
1108 1076 -2.10885e-06
4484 1076 0
4506 1076 -2.99132e-06
4507 1076 -2.35542e-06
4509 1076 -0.000123588
1077 1077 1
1078 1078 1
1079 1079 1
1080 1080 1
1081 1081 1
1082 1082 1
1083 1083 1
1084 1084 1
1085 1085 1
1086 1086 1
1087 1087 1
1088 1088 1
1089 1089 1
1090 1090 1
1091 1091 1
1081 1092 -1
1082 1092 -1
1083 1092 -1
1084 1092 -1
1085 1092 -1
1092 1092 0.00406852
1093 1092 -8.51183e-05
1094 1092 -1.65493e-05
1099 1092 -0.000613161
4509 1092 -0.00335369
1092 1093 -7.53655e-05
1093 1093 0.00571631
1094 1093 0
1099 1093 0
4507 1093 -0.00552486
4509 1093 -0.000116081
1089 1094 -1
1090 1094 -1
1091 1094 -1
1092 1094 -4.94094e-05
1093 1094 0
1094 1094 0.0057417
1096 1094 -0.000185506
1098 1094 -0.00416863
1099 1094 -5.70475e-05
4507 1094 0
4509 1094 -0.00128111
1095 1095 0.00219879
1096 1095 -1.65548e-05
1098 1095 -0.00209205
1099 1095 -1.65548e-05
4507 1095 -8.38348e-06
4509 1095 -6.52498e-05
1077 1096 -1
1078 1096 -1
1079 1096 -1
1080 1096 -1
1094 1096 -0.000245944
1095 1096 8.75635e-07
1096 1096 0.00196794
1097 1096 -3.06641e-05
1098 1096 -1.9661e-06
1099 1096 -6.47806e-05
4507 1096 -8.01362e-06
4509 1096 -0.00161745
1096 1097 -2.77824e-05
1097 1097 0.00444311
1098 1097 0
1099 1097 0
4506 1097 -0.00436681
4507 1097 -1.9661e-06
4509 1097 -4.65518e-05
1094 1098 -0.00416863
1095 1098 -0.00209205
1096 1098 -1.9661e-06
1097 1098 0
1098 1098 0.00994678
1099 1098 0
1109 1098 -0.00363636
4506 1098 -5.56087e-06
4507 1098 -1.23157e-05
4509 1098 -2.98872e-05
1086 1099 -1
1087 1099 -1
1088 1099 -1
1092 1099 -0.000504875
1093 1099 0
1094 1099 -9.59939e-06
1095 1099 -1.65548e-05
1096 1099 -0.000115644
1097 1099 0
1098 1099 0
1099 1099 0.00383088
1109 1099 0
1110 1099 -0.00229885
4506 1099 -1.98556e-06
4507 1099 0
4509 1099 -0.000883369
1100 1100 1
1101 1101 1
1100 1102 -1
1101 1102 -1
1102 1102 0.00220337
1103 1102 -0.00192308
4484 1102 -8.24722e-06
4506 1102 -2.75772e-06
4507 1102 -2.08938e-06
4509 1102 -0.000267199
1102 1103 -0.00192308
1103 1103 0.00526116
1104 1103 -0.00214133
1105 1103 -3.06919e-06
1107 1103 -0.000497375
1109 1103 9.23117e-05
1867 1103 -1.1271e-05
4484 1103 0
4506 1103 -0.000709784
4507 1103 -2.08938e-06
4509 1103 -6.54781e-05
1103 1104 -0.00214133
1104 1104 0.00256232
1105 1104 -1.95312e-06
1106 1104 -0.000616954
1107 1104 0
1109 1104 0
1110 1104 0.000239264
1867 1104 -6.39792e-06
4484 1104 0
4506 1104 -2.91235e-05
4507 1104 0
4509 1104 -5.82691e-06
1067 1105 -1
1068 1105 -1
1076 1105 -0.0070922
1103 1105 -3.06919e-06
1104 1105 -1.95312e-06
1105 1105 0.00920561
1106 1105 8.18513e-05
1107 1105 0.000111627
1108 1105 0
1109 1105 0
1110 1105 -8.83121e-06
1867 1105 -6.32655e-06
4484 1105 0
4506 1105 -0.00216959
4507 1105 -2.35542e-06
4509 1105 -0.000114766
1104 1106 -0.000301319
1105 1106 -7.37682e-05
1106 1106 0.00428732
1107 1106 0
1108 1106 -0.00225225
1109 1106 0
1110 1106 -0.000373546
1867 1106 0
4484 1106 0
4506 1106 -0.00125423
4507 1106 -3.13407e-06
4509 1106 -2.90697e-05
1066 1107 -0.00139082
1103 1107 -0.000308829
1104 1107 0
1105 1107 -5.82044e-05
1106 1107 0
1107 1107 0.00313679
1108 1107 0
1109 1107 -0.000218261
1110 1107 0
1867 1107 0
4484 1107 0
4487 1107 0
4492 1107 0
4506 1107 -0.00110384
4507 1107 -2.08938e-06
4509 1107 -5.47457e-05
1064 1108 -0.00704225
1065 1108 0
1066 1108 0
1076 1108 -2.10885e-06
1105 1108 0
1106 1108 -0.00225225
1107 1108 0
1108 1108 0.00936821
1109 1108 0
1110 1108 -2.08938e-06
1867 1108 0
4484 1108 0
4487 1108 0
4492 1108 0
4506 1108 -6.74183e-06
4507 1108 -3.13407e-06
4509 1108 -5.96253e-05
1054 1109 -1.65546e-05
1055 1109 0
1066 1109 -3.80242e-06
1098 1109 -0.00363636
1099 1109 0
1103 1109 -7.82221e-05
1104 1109 0
1105 1109 0
1106 1109 0
1107 1109 -1.51458e-05
1108 1109 0
1109 1109 0.00427664
1110 1109 0
1206 1109 0
1865 1109 0
1866 1109 0
1867 1109 0
1870 1109 0
4484 1109 0
4487 1109 0
4492 1109 0
4504 1109 0
4506 1109 -0.000431785
4507 1109 0
4509 1109 -9.47705e-05
1053 1110 -6.31163e-05
1054 1110 -6.97542e-06
1055 1110 0
1099 1110 -0.00229885
1104 1110 -5.82042e-05
1105 1110 -8.83121e-06
1106 1110 -1.42091e-05
1107 1110 0
1108 1110 -2.08938e-06
1109 1110 0
1110 1110 0.00309012
1206 1110 0
1865 1110 0
1866 1110 0
1867 1110 -1.13618e-05
1870 1110 0
4484 1110 0
4487 1110 0
4492 1110 0
4504 1110 0
4506 1110 -0.000482642
4507 1110 0
4509 1110 -0.000143835
1111 1111 1
1112 1112 1
1113 1113 1
1114 1114 1
1113 1115 -1
1114 1115 -1
1115 1115 0.00288433
1869 1115 -0.000229821
4504 1115 -0.00242542
4509 1115 -0.000229092
1116 1116 1
1117 1117 1
1118 1118 1
1119 1119 1
1120 1120 1
1121 1121 1
1122 1122 1
1123 1123 1
1116 1124 -1
1117 1124 -1
1118 1124 -1
1124 1124 0.00347219
1125 1124 -0.00253636
1126 1124 -8.12543e-12
1147 1124 -1.72423e-05
1206 1124 -0.00012615
4509 1124 -0.000792442
1121 1125 -1
1122 1125 -1
1123 1125 -1
1124 1125 -0.00253636
1125 1125 0.00612936
1126 1125 0
1147 1125 0
1206 1125 -0.00012615
4504 1125 -0.00012615
4509 1125 -0.00334071
1119 1126 -1
1120 1126 -1
1124 1126 -2.57777e-14
1125 1126 0
1126 1126 0.00428447
1147 1126 -0.000149565
1206 1126 -2.51873e-05
1869 1126 -0.00031132
4504 1126 -0.00333139
4509 1126 -0.000467006
1127 1127 1
1128 1128 1
1129 1129 1
1130 1130 1
1131 1131 1
1132 1132 1
1133 1133 1
1134 1134 1
1130 1135 -1
1131 1135 -1
1132 1135 -1
1135 1135 0.00339321
1146 1135 -0.000123916
1147 1135 -0.00246151
1867 1135 -2.73006e-05
4509 1135 -0.000780482
1136 1136 1
1137 1137 1
1138 1138 1
1139 1139 1
1140 1140 1
1141 1141 1
1142 1142 1
1143 1143 1
1136 1144 -1
1137 1144 -1
1138 1144 -1
1144 1144 0.000818273
1145 1144 -1.53726e-05
1865 1144 -8.06268e-12
1867 1144 -2.79681e-05
4509 1144 -0.000774932
1142 1145 -1
1143 1145 -1
1144 1145 -3.28883e-05
1145 1145 0.00139381
1146 1145 -3.91281e-05
1205 1145 -6.21466e-05
1865 1145 -4.25306e-05
1867 1145 -3.3482e-06
4504 1145 -0.000297643
4509 1145 -0.000916125
1133 1146 -1
1134 1146 -1
1135 1146 -0.000126903
1145 1146 -3.86138e-05
1146 1146 0.00151815
1147 1146 -0.000128765
1204 1146 -1.65548e-05
1205 1146 -6.97542e-06
1865 1146 -1.93365e-06
1867 1146 -1.96869e-05
4504 1146 -0.000866164
4509 1146 -0.00031255
1124 1147 -3.38941e-05
1125 1147 0
1126 1147 -0.000151718
1127 1147 -1
1128 1147 -1
1129 1147 -1
1135 1147 -0.00246151
1146 1147 -0.000125782
1147 1147 0.00614693
1204 1147 0
1205 1147 0
1206 1147 -1.52486e-05
1865 1147 -0.000203439
1867 1147 0
1869 1147 0
4504 1147 -0.000531304
4509 1147 -0.00262403
1148 1148 1
1149 1149 1
1150 1150 1
1151 1151 1
1152 1152 1
1153 1153 1
1154 1154 1
1155 1155 1
1156 1156 1
1157 1157 1
1152 1158 -1
1153 1158 -1
1158 1158 0.00760823
1159 1158 -1.01225e-05
1202 1158 -0.00704225
1203 1158 -0.000123728
4509 1158 -0.000432131
1154 1159 -1
1155 1159 -1
1156 1159 -1
1157 1159 -1
1158 1159 -1.01225e-05
1159 1159 0.00320202
1160 1159 -0.000531948
1202 1159 0
1203 1159 -6.45987e-06
4484 1159 -4.82245e-05
4492 1159 -0.000892681
4509 1159 -0.00171258
1150 1160 -1
1151 1160 -1
1159 1160 -1.22447e-05
1160 1160 0.00201543
1201 1160 -0.00139082
1202 1160 0
1203 1160 0
1204 1160 -3.80242e-06
4484 1160 0
4492 1160 -0.000123728
4506 1160 -3.4066e-06
4507 1160 -2.08938e-06
4509 1160 -0.000479335
1161 1161 1
1162 1162 1
1163 1163 1
1164 1164 1
1165 1165 1
1166 1166 1
1167 1167 1
1168 1168 1
1163 1169 -1
1164 1169 -1
1165 1169 -1
1169 1169 0.0116531
1170 1169 -0.0113636
4484 1169 -8.24722e-06
4509 1169 -0.000281227
1166 1170 -1
1167 1170 -1
1168 1170 -1
1169 1170 -0.0113636
1170 1170 0.0185869
1199 1170 -0.0070922
1202 1170 -2.10885e-06
4484 1170 0
4506 1170 -2.99132e-06
4507 1170 -2.35542e-06
4509 1170 -0.000123588
1171 1171 1
1172 1172 1
1173 1173 1
1174 1174 1
1175 1175 1
1176 1176 1
1177 1177 1
1178 1178 1
1179 1179 1
1180 1180 1
1181 1181 1
1182 1182 1
1183 1183 1
1184 1184 1
1185 1185 1
1175 1186 -1
1176 1186 -1
1177 1186 -1
1178 1186 -1
1179 1186 -1
1186 1186 0.00406852
1187 1186 -8.51183e-05
1188 1186 -1.65493e-05
1193 1186 -0.000613161
4509 1186 -0.00335369
1186 1187 -7.53655e-05
1187 1187 0.00571631
1188 1187 0
1193 1187 0
4507 1187 -0.00552486
4509 1187 -0.000116081
1183 1188 -1
1184 1188 -1
1185 1188 -1
1186 1188 -4.94094e-05
1187 1188 0
1188 1188 0.0057417
1190 1188 -0.000185507
1192 1188 -0.00416863
1193 1188 -5.70475e-05
4507 1188 0
4509 1188 -0.00128111
1189 1189 0.00219879
1190 1189 -1.65548e-05
1192 1189 -0.00209205
1193 1189 -1.65548e-05
4507 1189 -8.38348e-06
4509 1189 -6.52498e-05
1171 1190 -1
1172 1190 -1
1173 1190 -1
1174 1190 -1
1188 1190 -0.000245944
1189 1190 8.75637e-07
1190 1190 0.00196794
1191 1190 -3.06641e-05
1192 1190 -1.9661e-06
1193 1190 -6.47806e-05
4507 1190 -8.01362e-06
4509 1190 -0.00161745
1190 1191 -2.77824e-05
1191 1191 0.00444311
1192 1191 0
1193 1191 0
4506 1191 -0.00436681
4507 1191 -1.9661e-06
4509 1191 -4.65518e-05
1188 1192 -0.00416863
1189 1192 -0.00209205
1190 1192 -1.9661e-06
1191 1192 0
1192 1192 0.00994678
1193 1192 0
1204 1192 -0.00363636
4506 1192 -5.56087e-06
4507 1192 -1.23157e-05
4509 1192 -2.98872e-05
1180 1193 -1
1181 1193 -1
1182 1193 -1
1186 1193 -0.000504875
1187 1193 0
1188 1193 -9.59939e-06
1189 1193 -1.65548e-05
1190 1193 -0.000115644
1191 1193 0
1192 1193 0
1193 1193 0.00383088
1204 1193 0
1205 1193 -0.00229885
4506 1193 -1.98556e-06
4507 1193 0
4509 1193 -0.000883369
1194 1194 1
1195 1195 1
1194 1196 -1
1195 1196 -1
1196 1196 0.00220337
1197 1196 -0.00192308
4484 1196 -8.24722e-06
4506 1196 -2.75772e-06
4507 1196 -2.08938e-06
4509 1196 -0.000267199
1196 1197 -0.00192308
1197 1197 0.00526116
1198 1197 -0.00214133
1199 1197 -3.06919e-06
1201 1197 -0.000497375
1204 1197 9.2312e-05
1867 1197 -1.1271e-05
4484 1197 0
4506 1197 -0.000709784
4507 1197 -2.08938e-06
4509 1197 -6.54781e-05
1197 1198 -0.00214133
1198 1198 0.00256232
1199 1198 -1.95312e-06
1200 1198 -0.000616955
1201 1198 0
1204 1198 0
1205 1198 0.000239265
1867 1198 -6.39792e-06
4484 1198 0
4506 1198 -2.91235e-05
4507 1198 0
4509 1198 -5.82691e-06
1161 1199 -1
1162 1199 -1
1170 1199 -0.0070922
1197 1199 -3.06919e-06
1198 1199 -1.95312e-06
1199 1199 0.00920562
1200 1199 8.18483e-05
1201 1199 0.000111627
1202 1199 0
1204 1199 0
1205 1199 -8.83121e-06
1867 1199 -6.32655e-06
4484 1199 0
4506 1199 -0.00216959
4507 1199 -2.35542e-06
4509 1199 -0.000114766
1198 1200 -0.000301319
1199 1200 -7.377e-05
1200 1200 0.00428733
1201 1200 0
1202 1200 -0.00225225
1204 1200 0
1205 1200 -0.000373546
1867 1200 0
4484 1200 0
4506 1200 -0.00125424
4507 1200 -3.13407e-06
4509 1200 -2.90697e-05
1160 1201 -0.00139082
1197 1201 -0.000308829
1198 1201 0
1199 1201 -5.82044e-05
1200 1201 0
1201 1201 0.0031368
1202 1201 0
1203 1201 0
1204 1201 -0.000218262
1205 1201 0
1867 1201 0
4484 1201 0
4492 1201 0
4506 1201 -0.00110384
4507 1201 -2.08938e-06
4509 1201 -5.47457e-05
1158 1202 -0.00704225
1159 1202 0
1160 1202 0
1170 1202 -2.10885e-06
1199 1202 0
1200 1202 -0.00225225
1201 1202 0
1202 1202 0.00936821
1203 1202 0
1204 1202 0
1205 1202 -2.08938e-06
1867 1202 0
4484 1202 0
4492 1202 0
4506 1202 -6.74183e-06
4507 1202 -3.13407e-06
4509 1202 -5.96253e-05
1158 1203 -0.000123728
1159 1203 -0.000130898
1160 1203 0
1201 1203 0
1202 1203 0
1203 1203 0.00308074
1204 1203 0
1205 1203 0
1867 1203 0
4467 1203 -4.19823e-06
4468 1203 -4.19823e-06
4478 1203 -0.0026738
4479 1203 -3.9257e-06
4484 1203 -2.86154e-06
4492 1203 -1.15695e-05
4506 1203 -2.26977e-05
4507 1203 0
4509 1203 -0.000102866
1146 1204 -1.65546e-05
1147 1204 0
1160 1204 -3.80242e-06
1192 1204 -0.00363636
1193 1204 0
1197 1204 -7.82221e-05
1198 1204 0
1199 1204 0
1200 1204 0
1201 1204 -1.51458e-05
1202 1204 0
1203 1204 0
1204 1204 0.00427664
1205 1204 0
1206 1204 0
1865 1204 0
1867 1204 0
1869 1204 0
4467 1204 0
4468 1204 0
4478 1204 0
4479 1204 0
4484 1204 0
4492 1204 0
4504 1204 0
4506 1204 -0.000431785
4507 1204 0
4509 1204 -9.47705e-05
1145 1205 -6.31163e-05
1146 1205 -6.97542e-06
1147 1205 0
1193 1205 -0.00229885
1198 1205 -5.82042e-05
1199 1205 -8.83121e-06
1200 1205 -1.42091e-05
1201 1205 0
1202 1205 -2.08938e-06
1203 1205 0
1204 1205 0
1205 1205 0.00309012
1206 1205 0
1865 1205 0
1867 1205 -1.13618e-05
1869 1205 0
4467 1205 0
4468 1205 0
4478 1205 0
4479 1205 0
4484 1205 0
4492 1205 0
4504 1205 0
4506 1205 -0.000482642
4507 1205 0
4509 1205 -0.000143835
932 1206 -0.000203325
936 1206 -1
937 1206 -1
938 1206 -1
941 1206 -2.48153e-14
942 1206 -4.25306e-05
943 1206 -1.93365e-06
1017 1206 0
1018 1206 0
1032 1206 -0.000129226
1033 1206 0
1034 1206 -2.7149e-05
1055 1206 0
1109 1206 0
1110 1206 0
1124 1206 -0.000129226
1125 1206 -0.000129226
1126 1206 -2.7149e-05
1147 1206 -1.52486e-05
1204 1206 0
1205 1206 0
1206 1206 0.0031413
1865 1206 -7.97469e-06
1866 1206 0
1867 1206 0
1868 1206 0
1869 1206 0
1870 1206 0
4467 1206 0
4468 1206 0
4474 1206 0
4478 1206 0
4479 1206 0
4484 1206 0
4487 1206 0
4492 1206 0
4504 1206 -0.00166343
4506 1206 0
4507 1206 0
4509 1206 -0.000764884
1207 1207 1
1208 1208 1
1209 1209 1
1210 1210 1
1209 1211 -1
1210 1211 -1
1211 1211 0.00288433
1864 1211 -0.000229821
4504 1211 -0.00242542
4509 1211 -0.000229092
1212 1212 1
1213 1213 1
1214 1214 1
1215 1215 1
1216 1216 1
1217 1217 1
1218 1218 1
1219 1219 1
1217 1220 -1
1218 1220 -1
1219 1220 -1
1220 1220 0.00612936
1221 1220 -0.00253636
1865 1220 -0.00012615
1866 1220 -0.00012615
4509 1220 -0.00334071
1214 1221 -1
1215 1221 -1
1216 1221 -1
1220 1221 -0.00253636
1221 1221 0.00347219
1222 1221 -8.12542e-12
1243 1221 -1.72423e-05
1865 1221 0
1866 1221 -0.00012615
4509 1221 -0.000792442
1212 1222 -1
1213 1222 -1
1221 1222 -2.57777e-14
1222 1222 0.00428447
1243 1222 -0.000149565
1864 1222 -0.00031132
1865 1222 -2.51874e-05
1866 1222 -2.51874e-05
4504 1222 -0.0033062
4509 1222 -0.000467006
1223 1223 1
1224 1224 1
1225 1225 1
1226 1226 1
1227 1227 1
1228 1228 1
1229 1229 1
1230 1230 1
1226 1231 -1
1227 1231 -1
1228 1231 -1
1231 1231 0.00339321
1242 1231 -0.000123916
1243 1231 -0.00246151
1867 1231 -2.73006e-05
4509 1231 -0.000780482
1232 1232 1
1233 1233 1
1234 1234 1
1235 1235 1
1236 1236 1
1237 1237 1
1238 1238 1
1239 1239 1
1232 1240 -1
1233 1240 -1
1234 1240 -1
1240 1240 0.000818273
1241 1240 -1.53726e-05
1598 1240 -8.06268e-12
1867 1240 -2.79681e-05
4509 1240 -0.000774932
1238 1241 -1
1239 1241 -1
1240 1241 -3.28883e-05
1241 1241 0.00139381
1242 1241 -3.91281e-05
1298 1241 -6.21466e-05
1598 1241 -4.25306e-05
1867 1241 -3.3482e-06
4504 1241 -0.000297643
4509 1241 -0.000916123
1229 1242 -1
1230 1242 -1
1231 1242 -0.000126903
1241 1242 -3.86138e-05
1242 1242 0.00151837
1243 1242 -0.000128765
1297 1242 -1.65548e-05
1298 1242 -6.97542e-06
1598 1242 -1.93365e-06
1867 1242 -1.96869e-05
4504 1242 -0.000866384
4509 1242 -0.00031255
1221 1243 -3.38941e-05
1222 1243 -0.000151718
1223 1243 -1
1224 1243 -1
1225 1243 -1
1231 1243 -0.00246151
1242 1243 -0.000125782
1243 1243 0.00613756
1297 1243 0
1298 1243 0
1598 1243 -0.00020316
1864 1243 0
1865 1243 0
1866 1243 -1.2718e-05
1867 1243 0
4504 1243 -0.000533212
4509 1243 -0.00261557
1244 1244 1
1245 1245 1
1246 1246 1
1247 1247 1
1248 1248 1
1249 1249 1
1250 1250 1
1251 1251 1
1246 1252 -1
1247 1252 -1
1252 1252 0.00760823
1253 1252 -1.01225e-05
1296 1252 -0.00704225
4488 1252 -0.000123728
4509 1252 -0.000432131
1248 1253 -1
1249 1253 -1
1250 1253 -1
1251 1253 -1
1252 1253 -1.01225e-05
1253 1253 0.00320202
1254 1253 -0.000531952
1296 1253 0
4484 1253 -4.82245e-05
4488 1253 -6.09639e-06
4492 1253 -0.000892681
4509 1253 -0.00171295
1244 1254 -1
1245 1254 -1
1253 1254 -1.22448e-05
1254 1254 0.00201543
1295 1254 -0.00139082
1296 1254 0
1297 1254 -3.80242e-06
4484 1254 0
4488 1254 0
4492 1254 -0.000123728
4506 1254 -3.4066e-06
4507 1254 -2.08938e-06
4509 1254 -0.000479335
1255 1255 1
1256 1256 1
1257 1257 1
1258 1258 1
1259 1259 1
1260 1260 1
1261 1261 1
1262 1262 1
1257 1263 -1
1258 1263 -1
1259 1263 -1
1263 1263 0.0116531
1264 1263 -0.0113636
4484 1263 -8.24722e-06
4509 1263 -0.000281227
1260 1264 -1
1261 1264 -1
1262 1264 -1
1263 1264 -0.0113636
1264 1264 0.0185869
1293 1264 -0.0070922
1296 1264 -2.10885e-06
4484 1264 0
4506 1264 -2.99132e-06
4507 1264 -2.35542e-06
4509 1264 -0.000123588
1265 1265 1
1266 1266 1
1267 1267 1
1268 1268 1
1269 1269 1
1270 1270 1
1271 1271 1
1272 1272 1
1273 1273 1
1274 1274 1
1275 1275 1
1276 1276 1
1277 1277 1
1278 1278 1
1279 1279 1
1269 1280 -1
1270 1280 -1
1271 1280 -1
1272 1280 -1
1273 1280 -1
1280 1280 0.00406852
1281 1280 -8.51183e-05
1282 1280 -1.65493e-05
1287 1280 -0.000613161
4509 1280 -0.00335369
1280 1281 -7.53655e-05
1281 1281 0.00571631
1282 1281 0
1287 1281 0
4507 1281 -0.00552486
4509 1281 -0.000116081
1277 1282 -1
1278 1282 -1
1279 1282 -1
1280 1282 -4.94094e-05
1281 1282 0
1282 1282 0.0057417
1284 1282 -0.000185506
1286 1282 -0.00416863
1287 1282 -5.70475e-05
4507 1282 0
4509 1282 -0.00128111
1283 1283 0.00219879
1284 1283 -1.65548e-05
1286 1283 -0.00209205
1287 1283 -1.65548e-05
4507 1283 -8.38348e-06
4509 1283 -6.52498e-05
1265 1284 -1
1266 1284 -1
1267 1284 -1
1268 1284 -1
1282 1284 -0.000245944
1283 1284 8.75634e-07
1284 1284 0.00196794
1285 1284 -3.06641e-05
1286 1284 -1.9661e-06
1287 1284 -6.47806e-05
4507 1284 -8.01362e-06
4509 1284 -0.00161745
1284 1285 -2.77824e-05
1285 1285 0.00444311
1286 1285 0
1287 1285 0
4506 1285 -0.00436681
4507 1285 -1.9661e-06
4509 1285 -4.65518e-05
1282 1286 -0.00416863
1283 1286 -0.00209205
1284 1286 -1.9661e-06
1285 1286 0
1286 1286 0.00994678
1287 1286 0
1297 1286 -0.00363636
4506 1286 -5.56087e-06
4507 1286 -1.23157e-05
4509 1286 -2.98872e-05
1274 1287 -1
1275 1287 -1
1276 1287 -1
1280 1287 -0.000504875
1281 1287 0
1282 1287 -9.5994e-06
1283 1287 -1.65548e-05
1284 1287 -0.000115644
1285 1287 0
1286 1287 0
1287 1287 0.00383088
1297 1287 0
1298 1287 -0.00229885
4506 1287 -1.98556e-06
4507 1287 0
4509 1287 -0.000883369
1288 1288 1
1289 1289 1
1288 1290 -1
1289 1290 -1
1290 1290 0.00220337
1291 1290 -0.00192308
4484 1290 -8.24722e-06
4506 1290 -2.75772e-06
4507 1290 -2.08938e-06
4509 1290 -0.000267199
1290 1291 -0.00192308
1291 1291 0.00526116
1292 1291 -0.00214133
1293 1291 -3.06919e-06
1295 1291 -0.000497374
1297 1291 9.23116e-05
1867 1291 -1.1271e-05
4484 1291 0
4506 1291 -0.000709784
4507 1291 -2.08938e-06
4509 1291 -6.54781e-05
1291 1292 -0.00214133
1292 1292 0.00256232
1293 1292 -1.95312e-06
1294 1292 -0.000616954
1295 1292 0
1297 1292 0
1298 1292 0.000239264
1867 1292 -6.39792e-06
4484 1292 0
4506 1292 -2.91235e-05
4507 1292 0
4509 1292 -5.82691e-06
1255 1293 -1
1256 1293 -1
1264 1293 -0.0070922
1291 1293 -3.06919e-06
1292 1293 -1.95312e-06
1293 1293 0.00920561
1294 1293 8.18527e-05
1295 1293 0.000111627
1296 1293 0
1297 1293 0
1298 1293 -8.83121e-06
1867 1293 -6.32655e-06
4484 1293 0
4506 1293 -0.00216959
4507 1293 -2.35542e-06
4509 1293 -0.000114766
1292 1294 -0.000301319
1293 1294 -7.37673e-05
1294 1294 0.00428732
1295 1294 0
1296 1294 -0.00225225
1297 1294 0
1298 1294 -0.000373545
1867 1294 0
4484 1294 0
4506 1294 -0.00125423
4507 1294 -3.13407e-06
4509 1294 -2.90697e-05
1254 1295 -0.00139082
1291 1295 -0.000308829
1292 1295 0
1293 1295 -5.82044e-05
1294 1295 0
1295 1295 0.00313679
1296 1295 0
1297 1295 -0.000218261
1298 1295 0
1867 1295 0
4484 1295 0
4488 1295 0
4492 1295 0
4506 1295 -0.00110384
4507 1295 -2.08938e-06
4509 1295 -5.47457e-05
1252 1296 -0.00704225
1253 1296 0
1254 1296 0
1264 1296 -2.10885e-06
1293 1296 0
1294 1296 -0.00225225
1295 1296 0
1296 1296 0.00936821
1297 1296 0
1298 1296 -2.08938e-06
1867 1296 0
4484 1296 0
4488 1296 0
4492 1296 0
4506 1296 -6.74183e-06
4507 1296 -3.13407e-06
4509 1296 -5.96253e-05
1242 1297 -1.65546e-05
1243 1297 0
1254 1297 -3.80242e-06
1286 1297 -0.00363636
1287 1297 0
1291 1297 -7.82221e-05
1292 1297 0
1293 1297 0
1294 1297 0
1295 1297 -1.51458e-05
1296 1297 0
1297 1297 0.00427664
1298 1297 0
1598 1297 0
1864 1297 0
1865 1297 0
1866 1297 0
1867 1297 0
4484 1297 0
4488 1297 0
4492 1297 0
4504 1297 0
4506 1297 -0.000431785
4507 1297 0
4509 1297 -9.47705e-05
1241 1298 -6.31163e-05
1242 1298 -6.97542e-06
1243 1298 0
1287 1298 -0.00229885
1292 1298 -5.82042e-05
1293 1298 -8.83121e-06
1294 1298 -1.42091e-05
1295 1298 0
1296 1298 -2.08938e-06
1297 1298 0
1298 1298 0.00309012
1598 1298 0
1864 1298 0
1865 1298 0
1866 1298 0
1867 1298 -1.13618e-05
4484 1298 0
4488 1298 0
4492 1298 0
4504 1298 0
4506 1298 -0.000482642
4507 1298 0
4509 1298 -0.000143835
1299 1299 1
1300 1300 1
1301 1301 1
1302 1302 1
1301 1303 -1
1302 1303 -1
1303 1303 0.00288433
1862 1303 -0.000229821
4504 1303 -0.00242542
4509 1303 -0.000229092
1304 1304 1
1305 1305 1
1306 1306 1
1307 1307 1
1308 1308 1
1309 1309 1
1310 1310 1
1311 1311 1
1309 1312 -1
1310 1312 -1
1311 1312 -1
1312 1312 0.00612936
1313 1312 -0.00253636
1598 1312 -0.00012615
1866 1312 -0.00012615
4509 1312 -0.00334071
1306 1313 -1
1307 1313 -1
1308 1313 -1
1312 1313 -0.00253636
1313 1313 0.00347219
1314 1313 -8.12542e-12
1335 1313 -1.72423e-05
1598 1313 -0.00012615
1866 1313 0
4509 1313 -0.000792442
1304 1314 -1
1305 1314 -1
1313 1314 -2.57777e-14
1314 1314 0.00428419
1335 1314 -0.000149286
1598 1314 -2.51873e-05
1862 1314 -0.00031132
1866 1314 -2.51873e-05
4504 1314 -0.0033062
4509 1314 -0.000467006
1315 1315 1
1316 1316 1
1317 1317 1
1318 1318 1
1319 1319 1
1320 1320 1
1321 1321 1
1322 1322 1
1318 1323 -1
1319 1323 -1
1320 1323 -1
1323 1323 0.00339321
1334 1323 -0.000123916
1335 1323 -0.00246151
1867 1323 -2.73006e-05
4509 1323 -0.000780482
1324 1324 1
1325 1325 1
1326 1326 1
1327 1327 1
1328 1328 1
1329 1329 1
1330 1330 1
1331 1331 1
1324 1332 -1
1325 1332 -1
1326 1332 -1
1332 1332 0.000818273
1333 1332 -1.53726e-05
1597 1332 -8.06268e-12
1867 1332 -2.79681e-05
4509 1332 -0.000774932
1330 1333 -1
1331 1333 -1
1332 1333 -3.28883e-05
1333 1333 0.00139381
1334 1333 -3.91281e-05
1390 1333 -6.21466e-05
1597 1333 -4.25306e-05
1867 1333 -3.3482e-06
4504 1333 -0.000297643
4509 1333 -0.000916123
1321 1334 -1
1322 1334 -1
1323 1334 -0.000126903
1333 1334 -3.86138e-05
1334 1334 0.00151815
1335 1334 -0.000128765
1389 1334 -1.65548e-05
1390 1334 -6.97542e-06
1597 1334 -1.93365e-06
1867 1334 -1.96869e-05
4504 1334 -0.000866164
4509 1334 -0.00031255
1313 1335 -3.38941e-05
1314 1335 -0.000151439
1315 1335 -1
1316 1335 -1
1317 1335 -1
1323 1335 -0.00246151
1334 1335 -0.000125782
1335 1335 0.00614145
1389 1335 0
1390 1335 0
1597 1335 -0.00020316
1598 1335 -1.31397e-05
1862 1335 0
1866 1335 0
1867 1335 0
4504 1335 -0.000533991
4509 1335 -0.00261853
1336 1336 1
1337 1337 1
1338 1338 1
1339 1339 1
1340 1340 1
1341 1341 1
1342 1342 1
1343 1343 1
1338 1344 -1
1339 1344 -1
1344 1344 0.00760823
1345 1344 -1.01225e-05
1388 1344 -0.00704225
4476 1344 -0.000123728
4509 1344 -0.000432131
1340 1345 -1
1341 1345 -1
1342 1345 -1
1343 1345 -1
1344 1345 -1.01225e-05
1345 1345 0.00320202
1346 1345 -0.000531952
1388 1345 0
4476 1345 -5.93286e-06
4484 1345 -4.82245e-05
4492 1345 -0.000892681
4509 1345 -0.00171311
1336 1346 -1
1337 1346 -1
1345 1346 -1.22448e-05
1346 1346 0.00201543
1387 1346 -0.00139082
1388 1346 0
1389 1346 -3.80242e-06
4476 1346 0
4484 1346 0
4492 1346 -0.000123728
4506 1346 -3.4066e-06
4507 1346 -2.08938e-06
4509 1346 -0.000479335
1347 1347 1
1348 1348 1
1349 1349 1
1350 1350 1
1351 1351 1
1352 1352 1
1353 1353 1
1354 1354 1
1349 1355 -1
1350 1355 -1
1351 1355 -1
1355 1355 0.0116531
1356 1355 -0.0113636
4484 1355 -8.24722e-06
4509 1355 -0.000281227
1352 1356 -1
1353 1356 -1
1354 1356 -1
1355 1356 -0.0113636
1356 1356 0.0185869
1385 1356 -0.0070922
1388 1356 -2.10885e-06
4484 1356 0
4506 1356 -2.99132e-06
4507 1356 -2.35542e-06
4509 1356 -0.000123588
1357 1357 1
1358 1358 1
1359 1359 1
1360 1360 1
1361 1361 1
1362 1362 1
1363 1363 1
1364 1364 1
1365 1365 1
1366 1366 1
1367 1367 1
1368 1368 1
1369 1369 1
1370 1370 1
1371 1371 1
1361 1372 -1
1362 1372 -1
1363 1372 -1
1364 1372 -1
1365 1372 -1
1372 1372 0.00406852
1373 1372 -8.51183e-05
1374 1372 -1.65493e-05
1379 1372 -0.000613161
4509 1372 -0.00335369
1372 1373 -7.53655e-05
1373 1373 0.00571631
1374 1373 0
1379 1373 0
4507 1373 -0.00552486
4509 1373 -0.000116081
1369 1374 -1
1370 1374 -1
1371 1374 -1
1372 1374 -4.94094e-05
1373 1374 0
1374 1374 0.0057417
1376 1374 -0.000185506
1378 1374 -0.00416863
1379 1374 -5.70475e-05
4507 1374 0
4509 1374 -0.00128111
1375 1375 0.00219879
1376 1375 -1.65548e-05
1378 1375 -0.00209205
1379 1375 -1.65548e-05
4507 1375 -8.38348e-06
4509 1375 -6.52498e-05
1357 1376 -1
1358 1376 -1
1359 1376 -1
1360 1376 -1
1374 1376 -0.000245944
1375 1376 8.75634e-07
1376 1376 0.00196794
1377 1376 -3.06641e-05
1378 1376 -1.9661e-06
1379 1376 -6.47806e-05
4507 1376 -8.01362e-06
4509 1376 -0.00161745
1376 1377 -2.77824e-05
1377 1377 0.00444311
1378 1377 0
1379 1377 0
4506 1377 -0.00436681
4507 1377 -1.9661e-06
4509 1377 -4.65518e-05
1374 1378 -0.00416863
1375 1378 -0.00209205
1376 1378 -1.9661e-06
1377 1378 0
1378 1378 0.00994678
1379 1378 0
1389 1378 -0.00363636
4506 1378 -5.56087e-06
4507 1378 -1.23157e-05
4509 1378 -2.98872e-05
1366 1379 -1
1367 1379 -1
1368 1379 -1
1372 1379 -0.000504875
1373 1379 0
1374 1379 -9.5994e-06
1375 1379 -1.65548e-05
1376 1379 -0.000115644
1377 1379 0
1378 1379 0
1379 1379 0.00383088
1389 1379 0
1390 1379 -0.00229885
4506 1379 -1.98556e-06
4507 1379 0
4509 1379 -0.000883369
1380 1380 1
1381 1381 1
1380 1382 -1
1381 1382 -1
1382 1382 0.00220337
1383 1382 -0.00192308
4484 1382 -8.24722e-06
4506 1382 -2.75772e-06
4507 1382 -2.08938e-06
4509 1382 -0.000267199
1382 1383 -0.00192308
1383 1383 0.00526116
1384 1383 -0.00214133
1385 1383 -3.06919e-06
1387 1383 -0.000497374
1389 1383 9.23116e-05
1867 1383 -1.1271e-05
4484 1383 0
4506 1383 -0.000709784
4507 1383 -2.08938e-06
4509 1383 -6.54781e-05
1383 1384 -0.00214133
1384 1384 0.00256232
1385 1384 -1.95312e-06
1386 1384 -0.000616954
1387 1384 0
1389 1384 0
1390 1384 0.000239264
1867 1384 -6.39792e-06
4484 1384 0
4506 1384 -2.91235e-05
4507 1384 0
4509 1384 -5.82691e-06
1347 1385 -1
1348 1385 -1
1356 1385 -0.0070922
1383 1385 -3.06919e-06
1384 1385 -1.95312e-06
1385 1385 0.00920561
1386 1385 8.18527e-05
1387 1385 0.000111627
1388 1385 0
1389 1385 0
1390 1385 -8.83121e-06
1867 1385 -6.32655e-06
4484 1385 0
4506 1385 -0.00216959
4507 1385 -2.35542e-06
4509 1385 -0.000114766
1384 1386 -0.000301319
1385 1386 -7.37673e-05
1386 1386 0.00428732
1387 1386 0
1388 1386 -0.00225225
1389 1386 0
1390 1386 -0.000373545
1867 1386 0
4484 1386 0
4506 1386 -0.00125423
4507 1386 -3.13407e-06
4509 1386 -2.90697e-05
1346 1387 -0.00139082
1383 1387 -0.000308829
1384 1387 0
1385 1387 -5.82044e-05
1386 1387 0
1387 1387 0.00313679
1388 1387 0
1389 1387 -0.000218261
1390 1387 0
1867 1387 0
4476 1387 0
4484 1387 0
4492 1387 0
4506 1387 -0.00110384
4507 1387 -2.08938e-06
4509 1387 -5.47457e-05
1344 1388 -0.00704225
1345 1388 0
1346 1388 0
1356 1388 -2.10885e-06
1385 1388 0
1386 1388 -0.00225225
1387 1388 0
1388 1388 0.00936821
1389 1388 0
1390 1388 -2.08938e-06
1867 1388 0
4476 1388 0
4484 1388 0
4492 1388 0
4506 1388 -6.74183e-06
4507 1388 -3.13407e-06
4509 1388 -5.96253e-05
1334 1389 -1.65546e-05
1335 1389 0
1346 1389 -3.80242e-06
1378 1389 -0.00363636
1379 1389 0
1383 1389 -7.82221e-05
1384 1389 0
1385 1389 0
1386 1389 0
1387 1389 -1.51458e-05
1388 1389 0
1389 1389 0.00427664
1390 1389 0
1597 1389 0
1598 1389 0
1862 1389 0
1866 1389 0
1867 1389 0
4476 1389 0
4484 1389 0
4492 1389 0
4504 1389 0
4506 1389 -0.000431785
4507 1389 0
4509 1389 -9.47705e-05
1333 1390 -6.31163e-05
1334 1390 -6.97542e-06
1335 1390 0
1379 1390 -0.00229885
1384 1390 -5.82042e-05
1385 1390 -8.83121e-06
1386 1390 -1.42091e-05
1387 1390 0
1388 1390 -2.08938e-06
1389 1390 0
1390 1390 0.00309012
1597 1390 0
1598 1390 0
1862 1390 0
1866 1390 0
1867 1390 -1.13618e-05
4476 1390 0
4484 1390 0
4492 1390 0
4504 1390 0
4506 1390 -0.000482642
4507 1390 0
4509 1390 -0.000143835
1391 1391 1
1392 1392 1
1393 1393 1
1394 1394 1
1393 1395 -1
1394 1395 -1
1395 1395 0.00288433
1861 1395 -0.000229821
4504 1395 -0.00242542
4509 1395 -0.000229092
1396 1396 1
1397 1397 1
1398 1398 1
1399 1399 1
1400 1400 1
1401 1401 1
1402 1402 1
1403 1403 1
1401 1404 -1
1402 1404 -1
1403 1404 -1
1404 1404 0.00612936
1405 1404 -0.00253636
1596 1404 -0.00012615
1597 1404 -0.00012615
4509 1404 -0.00334071
1398 1405 -1
1399 1405 -1
1400 1405 -1
1404 1405 -0.00253636
1405 1405 0.00347219
1406 1405 -8.12542e-12
1446 1405 -1.72423e-05
1596 1405 -0.00012615
1597 1405 0
4509 1405 -0.000792442
1396 1406 -1
1397 1406 -1
1405 1406 -2.57777e-14
1406 1406 0.00428419
1446 1406 -0.000149286
1596 1406 -2.51873e-05
1597 1406 -2.51873e-05
1861 1406 -0.00031132
4504 1406 -0.0033062
4509 1406 -0.000467006
1407 1407 1
1408 1408 1
1409 1409 1
1410 1410 1
1409 1411 -1
1410 1411 -1
1411 1411 0.00337494
1860 1411 -0.000158613
4504 1411 -0.000491071
4509 1411 -0.00272525
1412 1412 1
1413 1413 1
1414 1414 1
1415 1415 1
1416 1416 1
1417 1417 1
1418 1418 1
1419 1419 1
1417 1420 -1
1418 1420 -1
1419 1420 -1
1420 1420 0.00612937
1421 1420 -0.00253636
1445 1420 -0.00012615
1596 1420 -0.00012615
4509 1420 -0.00334071
1414 1421 -1
1415 1421 -1
1416 1421 -1
1420 1421 -0.00253636
1421 1421 0.0061238
1422 1421 -0.00253636
1445 1421 -0.00012615
1596 1421 0
4504 1421 -0.000126149
4509 1421 -0.000798783
1412 1422 -1
1413 1422 -1
1421 1422 -0.00253636
1422 1422 0.00514756
1445 1422 -2.7149e-05
1596 1422 -2.7149e-05
1860 1422 -0.000346714
4504 1422 -0.00137741
4509 1422 -0.000832778
1423 1423 1
1424 1424 1
1425 1425 1
1426 1426 1
1427 1427 1
1428 1428 1
1429 1429 1
1430 1430 1
1426 1431 -1
1427 1431 -1
1428 1431 -1
1431 1431 0.00339321
1444 1431 -0.000123916
1446 1431 -0.00246151
1867 1431 -2.73006e-05
4509 1431 -0.000780482
1432 1432 1
1433 1433 1
1434 1434 1
1435 1435 1
1436 1436 1
1437 1437 1
1438 1438 1
1439 1439 1
1440 1440 1
1441 1441 1
1432 1442 -1
1433 1442 -1
1434 1442 -1
1442 1442 0.000818273
1443 1442 -1.53726e-05
1445 1442 -8.06268e-12
1867 1442 -2.79681e-05
4509 1442 -0.000774932
1438 1443 -1
1439 1443 -1
1442 1443 -3.28883e-05
1443 1443 0.00139381
1444 1443 -3.91281e-05
1445 1443 -4.25306e-05
1503 1443 -6.21466e-05
1867 1443 -3.3482e-06
4504 1443 -0.000297643
4509 1443 -0.000916125
1429 1444 -1
1430 1444 -1
1431 1444 -0.000126903
1443 1444 -3.86138e-05
1444 1444 0.00151815
1445 1444 -1.93365e-06
1446 1444 -0.000128765
1502 1444 -1.65548e-05
1503 1444 -6.97542e-06
1867 1444 -1.96869e-05
4504 1444 -0.000866164
4509 1444 -0.00031255
1420 1445 -0.000129226
1421 1445 -0.000129226
1422 1445 -2.7149e-05
1435 1445 -1
1436 1445 -1
1437 1445 -1
1442 1445 -2.48153e-14
1443 1445 -4.25306e-05
1444 1445 -1.93365e-06
1445 1445 0.00258112
1446 1445 -0.000203325
1502 1445 0
1503 1445 0
1596 1445 -5.0223e-06
1860 1445 0
1867 1445 0
4504 1445 -0.00145981
4509 1445 -0.000582901
1405 1446 -3.38941e-05
1406 1446 -0.000151439
1423 1446 -1
1424 1446 -1
1425 1446 -1
1431 1446 -0.00246151
1444 1446 -0.000125782
1445 1446 -0.00020316
1446 1446 0.00615108
1502 1446 0
1503 1446 0
1596 1446 -1.63712e-05
1597 1446 0
1860 1446 0
1861 1446 0
1867 1446 0
4504 1446 -0.000535107
4509 1446 -0.00262381
1447 1447 1
1448 1448 1
1449 1449 1
1450 1450 1
1451 1451 1
1452 1452 1
1453 1453 1
1454 1454 1
1449 1455 -1
1450 1455 -1
1455 1455 0.00760823
1456 1455 -1.01225e-05
1501 1455 -0.00704225
4496 1455 -0.000123728
4509 1455 -0.000432131
1451 1456 -1
1452 1456 -1
1453 1456 -1
1454 1456 -1
1455 1456 -1.01225e-05
1456 1456 0.00320202
1457 1456 -0.000531948
1501 1456 0
4484 1456 -4.82245e-05
4492 1456 -0.000892681
4496 1456 -5.66549e-06
4509 1456 -0.00171338
1447 1457 -1
1448 1457 -1
1456 1457 -1.22447e-05
1457 1457 0.00201543
1500 1457 -0.00139082
1501 1457 0
1502 1457 -3.80242e-06
4484 1457 0
4492 1457 -0.000123728
4496 1457 0
4506 1457 -3.4066e-06
4507 1457 -2.08938e-06
4509 1457 -0.000479335
1458 1458 1
1459 1459 1
1460 1460 1
1461 1461 1
1462 1462 1
1463 1463 1
1464 1464 1
1465 1465 1
1466 1466 1
1467 1467 1
1460 1468 -1
1461 1468 -1
1462 1468 -1
1468 1468 0.0116552
1469 1468 -0.0113636
4484 1468 -8.24722e-06
4509 1468 -0.000283343
1465 1469 -1
1466 1469 -1
1467 1469 -1
1468 1469 -0.0113636
1469 1469 0.0185869
1498 1469 -0.0070922
1501 1469 -2.10885e-06
4484 1469 0
4506 1469 -2.99132e-06
4507 1469 -2.35542e-06
4509 1469 -0.000123588
1470 1470 1
1471 1471 1
1472 1472 1
1473 1473 1
1474 1474 1
1475 1475 1
1476 1476 1
1477 1477 1
1478 1478 1
1479 1479 1
1480 1480 1
1481 1481 1
1482 1482 1
1483 1483 1
1484 1484 1
1474 1485 -1
1475 1485 -1
1476 1485 -1
1477 1485 -1
1478 1485 -1
1485 1485 0.00406852
1486 1485 -8.51183e-05
1487 1485 -1.65493e-05
1492 1485 -0.000613161
4509 1485 -0.00335369
1485 1486 -7.53655e-05
1486 1486 0.00571631
1487 1486 0
1492 1486 0
4507 1486 -0.00552486
4509 1486 -0.000116081
1482 1487 -1
1483 1487 -1
1484 1487 -1
1485 1487 -4.94094e-05
1486 1487 0
1487 1487 0.0057417
1489 1487 -0.000185507
1491 1487 -0.00416863
1492 1487 -5.70475e-05
4507 1487 0
4509 1487 -0.00128111
1488 1488 0.00219879
1489 1488 -1.65548e-05
1491 1488 -0.00209205
1492 1488 -1.65548e-05
4507 1488 -8.38348e-06
4509 1488 -6.52498e-05
1470 1489 -1
1471 1489 -1
1472 1489 -1
1473 1489 -1
1487 1489 -0.000245944
1488 1489 8.75637e-07
1489 1489 0.00196794
1490 1489 -3.06641e-05
1491 1489 -1.9661e-06
1492 1489 -6.47806e-05
4507 1489 -8.01362e-06
4509 1489 -0.00161745
1489 1490 -2.77824e-05
1490 1490 0.00444311
1491 1490 0
1492 1490 0
4506 1490 -0.00436681
4507 1490 -1.9661e-06
4509 1490 -4.65518e-05
1487 1491 -0.00416863
1488 1491 -0.00209205
1489 1491 -1.9661e-06
1490 1491 0
1491 1491 0.00994678
1492 1491 0
1502 1491 -0.00363636
4506 1491 -5.56087e-06
4507 1491 -1.23157e-05
4509 1491 -2.98872e-05
1479 1492 -1
1480 1492 -1
1481 1492 -1
1485 1492 -0.000504875
1486 1492 0
1487 1492 -9.59939e-06
1488 1492 -1.65548e-05
1489 1492 -0.000115644
1490 1492 0
1491 1492 0
1492 1492 0.00383088
1502 1492 0
1503 1492 -0.00229885
4506 1492 -1.98556e-06
4507 1492 0
4509 1492 -0.000883369
1493 1493 1
1494 1494 1
1493 1495 -1
1494 1495 -1
1495 1495 0.00220337
1496 1495 -0.00192308
4484 1495 -8.24722e-06
4506 1495 -2.75772e-06
4507 1495 -2.08938e-06
4509 1495 -0.000267199
1495 1496 -0.00192308
1496 1496 0.00526116
1497 1496 -0.00214133
1498 1496 -3.06919e-06
1500 1496 -0.000497375
1502 1496 9.23119e-05
1867 1496 -1.1271e-05
4484 1496 0
4506 1496 -0.000709784
4507 1496 -2.08938e-06
4509 1496 -6.54781e-05
1496 1497 -0.00214133
1497 1497 0.00256232
1498 1497 -1.95312e-06
1499 1497 -0.000616955
1500 1497 0
1502 1497 0
1503 1497 0.000239265
1867 1497 -6.39792e-06
4484 1497 0
4506 1497 -2.91235e-05
4507 1497 0
4509 1497 -5.82691e-06
1458 1498 -1
1459 1498 -1
1469 1498 -0.0070922
1496 1498 -3.06919e-06
1497 1498 -1.95312e-06
1498 1498 0.00920821
1499 1498 8.18485e-05
1500 1498 0.000111627
1501 1498 0
1502 1498 0
1503 1498 -8.83121e-06
1867 1498 -6.32655e-06
4484 1498 0
4506 1498 -0.00217339
4507 1498 -2.35542e-06
4509 1498 -0.000113566
1497 1499 -0.000301319
1498 1499 -7.37698e-05
1499 1499 0.00428733
1500 1499 0
1501 1499 -0.00225225
1502 1499 0
1503 1499 -0.000373546
1867 1499 0
4484 1499 0
4506 1499 -0.00125424
4507 1499 -3.13407e-06
4509 1499 -2.90697e-05
1457 1500 -0.00139082
1496 1500 -0.000308829
1497 1500 0
1498 1500 -5.82044e-05
1499 1500 0
1500 1500 0.0031368
1501 1500 0
1502 1500 -0.000218262
1503 1500 0
1867 1500 0
4484 1500 0
4492 1500 0
4496 1500 0
4506 1500 -0.00110384
4507 1500 -2.08938e-06
4509 1500 -5.47457e-05
1455 1501 -0.00704225
1456 1501 0
1457 1501 0
1469 1501 -2.10885e-06
1498 1501 0
1499 1501 -0.00225225
1500 1501 0
1501 1501 0.00936798
1502 1501 0
1503 1501 -2.08938e-06
1867 1501 0
4484 1501 0
4492 1501 0
4496 1501 0
4506 1501 -6.74183e-06
4507 1501 -3.13407e-06
4509 1501 -5.94046e-05
1444 1502 -1.65546e-05
1445 1502 0
1446 1502 0
1457 1502 -3.80242e-06
1491 1502 -0.00363636
1492 1502 0
1496 1502 -7.82221e-05
1497 1502 0
1498 1502 0
1499 1502 0
1500 1502 -1.51458e-05
1501 1502 0
1502 1502 0.00427664
1503 1502 0
1596 1502 0
1597 1502 0
1860 1502 0
1861 1502 0
1867 1502 0
4484 1502 0
4492 1502 0
4496 1502 0
4504 1502 0
4506 1502 -0.000431785
4507 1502 0
4509 1502 -9.47705e-05
1443 1503 -6.31163e-05
1444 1503 -6.97542e-06
1445 1503 0
1446 1503 0
1492 1503 -0.00229885
1497 1503 -5.82042e-05
1498 1503 -8.83121e-06
1499 1503 -1.42091e-05
1500 1503 0
1501 1503 -2.08938e-06
1502 1503 0
1503 1503 0.00309056
1596 1503 0
1597 1503 0
1860 1503 0
1861 1503 0
1867 1503 -1.13618e-05
4484 1503 0
4492 1503 0
4496 1503 0
4504 1503 0
4506 1503 -0.000482642
4507 1503 0
4509 1503 -0.000144276
1504 1504 1
1505 1505 1
1506 1506 1
1507 1507 1
1506 1508 -1
1507 1508 -1
1508 1508 0.00288433
1863 1508 -0.000229821
4504 1508 -0.00242542
4509 1508 -0.000229092
1509 1509 1
1510 1510 1
1511 1511 1
1512 1512 1
1513 1513 1
1514 1514 1
1515 1515 1
1516 1516 1
1514 1517 -1
1515 1517 -1
1516 1517 -1
1517 1517 0.00612936
1518 1517 -0.00253636
1597 1517 -0.00012615
1598 1517 -0.00012615
4509 1517 -0.00334071
1511 1518 -1
1512 1518 -1
1513 1518 -1
1517 1518 -0.00253636
1518 1518 0.00347219
1519 1518 -8.12542e-12
1540 1518 -1.72423e-05
1597 1518 -0.00012615
1598 1518 0
4509 1518 -0.000792442
1509 1519 -1
1510 1519 -1
1518 1519 -2.57777e-14
1519 1519 0.00428419
1540 1519 -0.000149286
1597 1519 -2.51873e-05
1598 1519 -2.51873e-05
1863 1519 -0.00031132
4504 1519 -0.0033062
4509 1519 -0.000467006
1520 1520 1
1521 1521 1
1522 1522 1
1523 1523 1
1524 1524 1
1525 1525 1
1526 1526 1
1527 1527 1
1523 1528 -1
1524 1528 -1
1525 1528 -1
1528 1528 0.00339321
1539 1528 -0.000123916
1540 1528 -0.00246151
1867 1528 -2.73006e-05
4509 1528 -0.000780482
1529 1529 1
1530 1530 1
1531 1531 1
1532 1532 1
1533 1533 1
1534 1534 1
1535 1535 1
1536 1536 1
1529 1537 -1
1530 1537 -1
1531 1537 -1
1537 1537 0.000818273
1538 1537 -1.53726e-05
1596 1537 -8.06268e-12
1867 1537 -2.79681e-05
4509 1537 -0.000774932
1535 1538 -1
1536 1538 -1
1537 1538 -3.28883e-05
1538 1538 0.00139381
1539 1538 -3.91281e-05
1595 1538 -6.21466e-05
1596 1538 -4.25306e-05
1867 1538 -3.3482e-06
4504 1538 -0.000297643
4509 1538 -0.000916124
1526 1539 -1
1527 1539 -1
1528 1539 -0.000126903
1538 1539 -3.86138e-05
1539 1539 0.00151815
1540 1539 -0.000128765
1594 1539 -1.65548e-05
1595 1539 -6.97542e-06
1596 1539 -1.93365e-06
1867 1539 -1.96869e-05
4504 1539 -0.000866164
4509 1539 -0.00031255
1518 1540 -3.38941e-05
1519 1540 -0.000151439
1520 1540 -1
1521 1540 -1
1522 1540 -1
1528 1540 -0.00246151
1539 1540 -0.000125782
1540 1540 0.00614645
1594 1540 0
1595 1540 0
1596 1540 -0.00020316
1597 1540 -1.51058e-05
1598 1540 0
1863 1540 0
1867 1540 0
4504 1540 -0.000534335
4509 1540 -0.00262122
1541 1541 1
1542 1542 1
1543 1543 1
1544 1544 1
1545 1545 1
1546 1546 1
1547 1547 1
1548 1548 1
1543 1549 -1
1544 1549 -1
1549 1549 0.00760823
1550 1549 -1.01225e-05
1593 1549 -0.00704225
4482 1549 -0.000123728
4509 1549 -0.000432131
1545 1550 -1
1546 1550 -1
1547 1550 -1
1548 1550 -1
1549 1550 -1.01225e-05
1550 1550 0.00320202
1551 1550 -0.000531951
1593 1550 0
4482 1550 -5.7838e-06
4484 1550 -4.82245e-05
4492 1550 -0.000892681
4509 1550 -0.00171326
1541 1551 -1
1542 1551 -1
1550 1551 -1.22448e-05
1551 1551 0.00201543
1592 1551 -0.00139082
1593 1551 0
1594 1551 -3.80242e-06
4482 1551 0
4484 1551 0
4492 1551 -0.000123728
4506 1551 -3.4066e-06
4507 1551 -2.08938e-06
4509 1551 -0.000479335
1552 1552 1
1553 1553 1
1554 1554 1
1555 1555 1
1556 1556 1
1557 1557 1
1558 1558 1
1559 1559 1
1554 1560 -1
1555 1560 -1
1556 1560 -1
1560 1560 0.0116531
1561 1560 -0.0113636
4484 1560 -8.24722e-06
4509 1560 -0.000281227
1557 1561 -1
1558 1561 -1
1559 1561 -1
1560 1561 -0.0113636
1561 1561 0.0185869
1590 1561 -0.0070922
1593 1561 -2.10885e-06
4484 1561 0
4506 1561 -2.99132e-06
4507 1561 -2.35542e-06
4509 1561 -0.000123588
1562 1562 1
1563 1563 1
1564 1564 1
1565 1565 1
1566 1566 1
1567 1567 1
1568 1568 1
1569 1569 1
1570 1570 1
1571 1571 1
1572 1572 1
1573 1573 1
1574 1574 1
1575 1575 1
1576 1576 1
1566 1577 -1
1567 1577 -1
1568 1577 -1
1569 1577 -1
1570 1577 -1
1577 1577 0.00406852
1578 1577 -8.51183e-05
1579 1577 -1.65493e-05
1584 1577 -0.000613161
4509 1577 -0.00335369
1577 1578 -7.53655e-05
1578 1578 0.00571631
1579 1578 0
1584 1578 0
4507 1578 -0.00552486
4509 1578 -0.000116081
1574 1579 -1
1575 1579 -1
1576 1579 -1
1577 1579 -4.94094e-05
1578 1579 0
1579 1579 0.0057417
1581 1579 -0.000185506
1583 1579 -0.00416863
1584 1579 -5.70475e-05
4507 1579 0
4509 1579 -0.00128111
1580 1580 0.00219879
1581 1580 -1.65548e-05
1583 1580 -0.00209205
1584 1580 -1.65548e-05
4507 1580 -8.38348e-06
4509 1580 -6.52498e-05
1562 1581 -1
1563 1581 -1
1564 1581 -1
1565 1581 -1
1579 1581 -0.000245944
1580 1581 8.75635e-07
1581 1581 0.00196794
1582 1581 -3.06641e-05
1583 1581 -1.9661e-06
1584 1581 -6.47806e-05
4507 1581 -8.01362e-06
4509 1581 -0.00161745
1581 1582 -2.77824e-05
1582 1582 0.00444311
1583 1582 0
1584 1582 0
4506 1582 -0.00436681
4507 1582 -1.9661e-06
4509 1582 -4.65518e-05
1579 1583 -0.00416863
1580 1583 -0.00209205
1581 1583 -1.9661e-06
1582 1583 0
1583 1583 0.00994678
1584 1583 0
1594 1583 -0.00363636
4506 1583 -5.56087e-06
4507 1583 -1.23157e-05
4509 1583 -2.98872e-05
1571 1584 -1
1572 1584 -1
1573 1584 -1
1577 1584 -0.000504875
1578 1584 0
1579 1584 -9.59939e-06
1580 1584 -1.65548e-05
1581 1584 -0.000115644
1582 1584 0
1583 1584 0
1584 1584 0.00383088
1594 1584 0
1595 1584 -0.00229885
4506 1584 -1.98556e-06
4507 1584 0
4509 1584 -0.000883369
1585 1585 1
1586 1586 1
1585 1587 -1
1586 1587 -1
1587 1587 0.00220337
1588 1587 -0.00192308
4484 1587 -8.24722e-06
4506 1587 -2.75772e-06
4507 1587 -2.08938e-06
4509 1587 -0.000267199
1587 1588 -0.00192308
1588 1588 0.00526116
1589 1588 -0.00214133
1590 1588 -3.06919e-06
1592 1588 -0.000497375
1594 1588 9.23117e-05
1867 1588 -1.1271e-05
4484 1588 0
4506 1588 -0.000709784
4507 1588 -2.08938e-06
4509 1588 -6.54781e-05
1588 1589 -0.00214133
1589 1589 0.00256232
1590 1589 -1.95312e-06
1591 1589 -0.000616954
1592 1589 0
1594 1589 0
1595 1589 0.000239264
1867 1589 -6.39792e-06
4484 1589 0
4506 1589 -2.91235e-05
4507 1589 0
4509 1589 -5.82691e-06
1552 1590 -1
1553 1590 -1
1561 1590 -0.0070922
1588 1590 -3.06919e-06
1589 1590 -1.95312e-06
1590 1590 0.00920561
1591 1590 8.18514e-05
1592 1590 0.000111627
1593 1590 0
1594 1590 0
1595 1590 -8.83121e-06
1867 1590 -6.32655e-06
4484 1590 0
4506 1590 -0.00216959
4507 1590 -2.35542e-06
4509 1590 -0.000114766
1589 1591 -0.000301319
1590 1591 -7.37681e-05
1591 1591 0.00428732
1592 1591 0
1593 1591 -0.00225225
1594 1591 0
1595 1591 -0.000373546
1867 1591 0
4484 1591 0
4506 1591 -0.00125423
4507 1591 -3.13407e-06
4509 1591 -2.90697e-05
1551 1592 -0.00139082
1588 1592 -0.000308829
1589 1592 0
1590 1592 -5.82044e-05
1591 1592 0
1592 1592 0.00313679
1593 1592 0
1594 1592 -0.000218261
1595 1592 0
1867 1592 0
4482 1592 0
4484 1592 0
4492 1592 0
4506 1592 -0.00110384
4507 1592 -2.08938e-06
4509 1592 -5.47457e-05
1549 1593 -0.00704225
1550 1593 0
1551 1593 0
1561 1593 -2.10885e-06
1590 1593 0
1591 1593 -0.00225225
1592 1593 0
1593 1593 0.00936821
1594 1593 0
1595 1593 -2.08938e-06
1867 1593 0
4482 1593 0
4484 1593 0
4492 1593 0
4506 1593 -6.74183e-06
4507 1593 -3.13407e-06
4509 1593 -5.96253e-05
1539 1594 -1.65546e-05
1540 1594 0
1551 1594 -3.80242e-06
1583 1594 -0.00363636
1584 1594 0
1588 1594 -7.82221e-05
1589 1594 0
1590 1594 0
1591 1594 0
1592 1594 -1.51458e-05
1593 1594 0
1594 1594 0.00427664
1595 1594 0
1596 1594 0
1597 1594 0
1598 1594 0
1863 1594 0
1867 1594 0
4482 1594 0
4484 1594 0
4492 1594 0
4504 1594 0
4506 1594 -0.000431785
4507 1594 0
4509 1594 -9.47705e-05
1538 1595 -6.31163e-05
1539 1595 -6.97542e-06
1540 1595 0
1584 1595 -0.00229885
1589 1595 -5.82042e-05
1590 1595 -8.83121e-06
1591 1595 -1.42091e-05
1592 1595 0
1593 1595 -2.08938e-06
1594 1595 0
1595 1595 0.00309012
1596 1595 0
1597 1595 0
1598 1595 0
1863 1595 0
1867 1595 -1.13618e-05
4482 1595 0
4484 1595 0
4492 1595 0
4504 1595 0
4506 1595 -0.000482642
4507 1595 0
4509 1595 -0.000143835
1404 1596 -0.000129226
1405 1596 -0.000129226
1406 1596 -2.7149e-05
1420 1596 -0.000129226
1421 1596 0
1422 1596 -2.7149e-05
1445 1596 -5.0223e-06
1446 1596 -1.63712e-05
1502 1596 0
1503 1596 0
1532 1596 -1
1533 1596 -1
1534 1596 -1
1537 1596 -2.48153e-14
1538 1596 -4.25306e-05
1539 1596 -1.93365e-06
1540 1596 -0.000203325
1594 1596 0
1595 1596 0
1596 1596 0.00312084
1597 1596 -5.0223e-06
1598 1596 0
1860 1596 0
1861 1596 0
1863 1596 0
1867 1596 0
4482 1596 0
4484 1596 0
4492 1596 0
4496 1596 0
4504 1596 -0.00165213
4506 1596 0
4507 1596 0
4509 1596 -0.000752536
1327 1597 -1
1328 1597 -1
1329 1597 -1
1332 1597 -2.48153e-14
1333 1597 -4.25306e-05
1334 1597 -1.93365e-06
1335 1597 -0.000203325
1389 1597 0
1390 1597 0
1404 1597 -0.000129226
1405 1597 0
1406 1597 -2.7149e-05
1446 1597 0
1502 1597 0
1503 1597 0
1517 1597 -0.000129226
1518 1597 -0.000129226
1519 1597 -2.7149e-05
1540 1597 -1.51058e-05
1594 1597 0
1595 1597 0
1596 1597 -5.0223e-06
1597 1597 0.00311917
1598 1597 -5.0223e-06
1860 1597 0
1861 1597 0
1862 1597 0
1863 1597 0
1866 1597 0
1867 1597 0
4476 1597 0
4482 1597 0
4484 1597 0
4492 1597 0
4496 1597 0
4504 1597 -0.00165274
4506 1597 0
4507 1597 0
4509 1597 -0.000751517
1235 1598 -1
1236 1598 -1
1237 1598 -1
1240 1598 -2.48153e-14
1241 1598 -4.25306e-05
1242 1598 -1.93365e-06
1243 1598 -0.000203325
1297 1598 0
1298 1598 0
1312 1598 -0.000129226
1313 1598 -0.000129226
1314 1598 -2.7149e-05
1335 1598 -1.31397e-05
1389 1598 0
1390 1598 0
1517 1598 -0.000129226
1518 1598 0
1519 1598 -2.7149e-05
1540 1598 0
1594 1598 0
1595 1598 0
1596 1598 0
1597 1598 -5.0223e-06
1598 1598 0.00312645
1860 1598 0
1861 1598 0
1862 1598 0
1863 1598 0
1864 1598 0
1865 1598 0
1866 1598 -5.0223e-06
1867 1598 0
4476 1598 0
4482 1598 0
4484 1598 0
4488 1598 0
4492 1598 0
4496 1598 0
4504 1598 -0.00165808
4506 1598 0
4507 1598 0
4509 1598 -0.000755424
1599 1599 1
1600 1600 1
1601 1601 1
1602 1602 1
1603 1603 1
1604 1604 1
1605 1605 1
1606 1606 1
1607 1607 1
1608 1608 1
1609 1609 1
1610 1610 1
1611 1611 1
1612 1612 1
1613 1613 1
1614 1614 1
1615 1615 1
1616 1616 1
1617 1617 1
1618 1618 1
1619 1619 1
1620 1620 1
1621 1621 1
1622 1622 1
1623 1623 1
1624 1624 1
1625 1625 1
1626 1626 1
1627 1627 1
1628 1628 1
1629 1629 1
1630 1630 1
1631 1631 1
1632 1632 1
1633 1633 1
1634 1634 1
1635 1635 1
1636 1636 1
1637 1637 0.0161429
1678 1637 -5.14559e-05
1854 1637 -0.00680272
4470 1637 -0.00900901
4490 1637 -7.53346e-06
4509 1637 -0.000272223
1638 1638 1
1639 1639 1
1640 1640 1
1641 1641 1
1642 1642 1
1643 1643 1
1644 1644 1
1645 1645 1
1646 1646 1
1647 1647 1
1648 1648 1
1649 1649 1
1650 1650 1
1651 1651 1
1652 1652 1
1653 1653 1
1654 1654 1
1655 1655 1
1656 1656 1
1657 1657 1
1658 1658 1
1659 1659 1
1660 1660 1
1661 1661 1
1662 1662 1
1663 1663 1
1664 1664 1
1665 1665 1
1666 1666 1
1667 1667 1
1668 1668 1
1669 1669 1
1670 1670 1
1671 1671 1
1672 1672 1
1673 1673 1
1674 1674 1
1675 1675 1
1676 1676 0.0119042
1677 1676 -3.92246e-05
1853 1676 -0.00680272
4472 1676 -0.0047619
4490 1676 -7.53346e-06
4509 1676 -0.000292793
1676 1677 -3.92246e-05
1677 1677 0.0128892
1678 1677 -4.42858e-05
1853 1677 0
1856 1677 -0.00680272
4471 1677 -0.00574713
4472 1677 0
4490 1677 -7.53346e-06
4509 1677 -0.000248344
1637 1678 -5.14559e-05
1677 1678 -4.42858e-05
1678 1678 0.0142797
1853 1678 0
1854 1678 0
1855 1678 -0.00680272
1856 1678 0
4469 1678 -0.00714286
4470 1678 0
4471 1678 0
4472 1678 0
4490 1678 -7.53346e-06
4509 1678 -0.000230857
1679 1679 1
1680 1680 1
1681 1681 1
1682 1682 1
1683 1683 1
1684 1684 1
1685 1685 1
1686 1686 1
1687 1687 1
1688 1688 1
1689 1689 1
1690 1690 1
1691 1691 1
1692 1692 1
1693 1693 1
1694 1694 1
1695 1695 1
1696 1696 1
1697 1697 1
1698 1698 1
1699 1699 1
1700 1700 1
1701 1701 1
1702 1702 1
1696 1703 -1
1697 1703 -1
1698 1703 -1
1703 1703 0.00135216
1704 1703 -2.53062e-06
1705 1703 -7.00453e-05
1850 1703 -1.22182e-05
4502 1703 -2.70581e-06
4504 1703 -0.000911338
4509 1703 -0.000353325
1701 1704 -1
1702 1704 -1
1703 1704 -2.53062e-06
1704 1704 0.00170297
1705 1704 0
1844 1704 -0.000167983
1850 1704 -1.40858e-05
4502 1704 -5.85287e-06
4504 1704 -0.00108447
4509 1704 -0.000428049
1699 1705 -1
1700 1705 -1
1703 1705 -7.03225e-05
1704 1705 0
1705 1705 0.00101633
1706 1705 -0.000211458
1844 1705 0
1850 1705 -5.78149e-06
4502 1705 -5.00286e-05
4504 1705 -6.7124e-05
4509 1705 -0.000611612
1689 1706 -1
1690 1706 -1
1691 1706 -1
1692 1706 -1
1705 1706 -2.06722e-06
1706 1706 0.000618885
1844 1706 0
1845 1706 -2.47197e-15
1847 1706 -1.2705e-05
1848 1706 -2.73658e-06
1850 1706 0
1859 1706 -1.38545e-08
4502 1706 -1.02587e-05
4504 1706 0
4509 1706 -0.000591103
1707 1707 1
1708 1708 1
1709 1709 1
1710 1710 1
1711 1711 1
1712 1712 1
1713 1713 1
1714 1714 1
1715 1715 1
1716 1716 1
1710 1717 -1
1711 1717 -1
1712 1717 -1
1717 1717 0.00135255
1718 1717 -2.53062e-06
1846 1717 -6.99741e-05
1850 1717 -1.18044e-05
4502 1717 -2.70581e-06
4504 1717 -0.000911671
4509 1717 -0.000353869
1715 1718 -1
1716 1718 -1
1717 1718 -2.53062e-06
1718 1718 0.00170296
1737 1718 -0.000167991
1846 1718 0
1850 1718 -1.44995e-05
4502 1718 -5.85287e-06
4504 1718 -0.00108446
4509 1718 -0.000427627
1719 1719 1
1720 1720 1
1721 1721 1
1722 1722 1
1723 1723 1
1724 1724 1
1725 1725 1
1726 1726 1
1727 1727 1
1728 1728 1
1729 1729 1
1730 1730 1
1731 1731 1
1732 1732 1
1726 1733 -1
1727 1733 -1
1728 1733 -1
1733 1733 0.00135222
1734 1733 -2.53062e-06
1735 1733 -7.00427e-05
1850 1733 -1.22171e-05
4502 1733 -2.70581e-06
4504 1733 -0.000911393
4509 1733 -0.000353336
1731 1734 -1
1732 1734 -1
1733 1734 -2.53062e-06
1734 1734 0.00170296
1735 1734 0
1778 1734 -0.000167999
1850 1734 -1.40869e-05
4502 1734 -5.85287e-06
4504 1734 -0.00108446
4509 1734 -0.000428032
1729 1735 -1
1730 1735 -1
1733 1735 -7.03108e-05
1734 1735 0
1735 1735 0.00100483
1736 1735 -0.000196989
1737 1735 -2.79017e-06
1778 1735 0
1850 1735 -5.78149e-06
4502 1735 -5.00446e-05
4504 1735 -6.58117e-05
4509 1735 -0.000613104
1719 1736 -1
1720 1736 -1
1721 1736 -1
1722 1736 -1
1735 1736 -1.96177e-06
1736 1736 0.00122884
1737 1736 -2.19732e-15
1778 1736 0
1847 1736 -1.2705e-05
1848 1736 -1.89311e-05
1850 1736 0
1855 1736 -0.000326539
4502 1736 -1.02587e-05
4504 1736 0
4509 1736 -0.00085844
1707 1737 -1
1708 1737 -1
1709 1737 -1
1718 1737 -0.000166702
1735 1737 -2.79017e-06
1736 1737 -4.27352e-13
1737 1737 0.00382291
1778 1737 0
1846 1737 0
1847 1737 -3.85225e-06
1848 1737 -8.85716e-06
1850 1737 -2.70581e-06
1855 1737 -1.88758e-05
4502 1737 -1.51188e-06
4504 1737 -0.000347054
4506 1737 -7.89034e-06
4509 1737 -0.00326267
1738 1738 1
1739 1739 1
1740 1740 1
1741 1741 1
1740 1742 -1
1741 1742 -1
1742 1742 0.00152383
1758 1742 -9.02724e-05
4504 1742 -0.00120945
4506 1742 -7.89034e-06
4509 1742 -0.000216211
1743 1743 1
1744 1744 1
1745 1745 1
1746 1746 1
1747 1747 1
1748 1748 1
1749 1749 1
1750 1750 1
1751 1751 1
1752 1752 1
1753 1753 1
1747 1754 -1
1748 1754 -1
1749 1754 -1
1754 1754 0.00135222
1755 1754 -2.53062e-06
1756 1754 -7.00427e-05
1850 1754 -1.22172e-05
4502 1754 -2.70581e-06
4504 1754 -0.000911393
4509 1754 -0.000353335
1752 1755 -1
1753 1755 -1
1754 1755 -2.53062e-06
1755 1755 0.00171044
1756 1755 0
1758 1755 -0.000168002
1850 1755 -1.40868e-05
4502 1755 -5.85287e-06
4504 1755 -0.00109172
4509 1755 -0.00042825
1750 1756 -1
1751 1756 -1
1754 1756 -7.03108e-05
1755 1756 0
1756 1756 0.00100483
1757 1756 -0.000196989
1758 1756 0
1777 1756 -2.79017e-06
1850 1756 -5.78149e-06
4502 1756 -5.00446e-05
4504 1756 -6.58117e-05
4509 1756 -0.000613104
1743 1757 -1
1744 1757 -1
1745 1757 -1
1746 1757 -1
1756 1757 -1.96177e-06
1757 1757 0.00122882
1758 1757 0
1777 1757 -2.19737e-15
1847 1757 -1.2705e-05
1848 1757 -1.89307e-05
1850 1757 0
1853 1757 -0.000326548
4502 1757 -1.02587e-05
4504 1757 0
4509 1757 -0.000858419
1738 1758 -1
1739 1758 -1
1742 1758 -9.12221e-05
1755 1758 -0.000166624
1756 1758 0
1757 1758 0
1758 1758 0.00336796
1777 1758 0
1847 1758 -1.51188e-06
1848 1758 -1.19393e-06
1850 1758 -2.70581e-06
1853 1758 0
4502 1758 -1.51188e-06
4504 1758 -0.000489193
4506 1758 0
4509 1758 -0.002614
1759 1759 1
1760 1760 1
1761 1761 1
1762 1762 1
1763 1763 1
1764 1764 1
1765 1765 1
1766 1766 1
1767 1767 1
1768 1768 1
1769 1769 1
1770 1770 1
1771 1771 1
1772 1772 1
1766 1773 -1
1767 1773 -1
1768 1773 -1
1773 1773 0.00135255
1774 1773 -2.53062e-06
1775 1773 -6.99728e-05
1850 1773 -1.17983e-05
4502 1773 -2.70581e-06
4504 1773 -0.000911665
4509 1773 -0.000353876
1771 1774 -1
1772 1774 -1
1773 1774 -2.53062e-06
1774 1774 0.00170296
1775 1774 0
1777 1774 -0.000167992
1850 1774 -1.45056e-05
4502 1774 -5.85287e-06
4504 1774 -0.00108446
4509 1774 -0.00042762
1769 1775 -1
1770 1775 -1
1773 1775 -7.0159e-05
1774 1775 0
1775 1775 0.00107286
1776 1775 -0.00024658
1777 1775 0
1778 1775 -2.79017e-06
1850 1775 -5.78149e-06
4502 1775 -4.29736e-05
4504 1775 -6.59609e-05
4509 1775 -0.000638615
1759 1776 -1
1760 1776 -1
1761 1776 -1
1762 1776 -1
1775 1776 -0.000249746
1776 1776 0.00199872
1777 1776 0
1778 1776 -2.65718e-13
1847 1776 -1.27036e-05
1848 1776 -1.99107e-05
1850 1776 0
1856 1776 -0.000415647
4502 1776 -3.67625e-05
4504 1776 0
4509 1776 -0.00126395
1756 1777 -2.79017e-06
1757 1777 -4.27309e-13
1758 1777 0
1763 1777 -1
1764 1777 -1
1765 1777 -1
1774 1777 -0.0001667
1775 1777 0
1776 1777 0
1777 1777 0.00382454
1778 1777 0
1847 1777 -3.85298e-06
1848 1777 -8.85716e-06
1850 1777 -2.70581e-06
1853 1777 -1.88758e-05
1856 1777 -2.0764e-06
4502 1777 -1.51188e-06
4504 1777 -0.000346405
4506 1777 -7.89034e-06
4509 1777 -0.00326288
1723 1778 -1
1724 1778 -1
1725 1778 -1
1734 1778 -0.000166646
1735 1778 0
1736 1778 0
1737 1778 0
1775 1778 -2.79017e-06
1776 1778 -4.68199e-13
1777 1778 0
1778 1778 0.00382313
1846 1778 0
1847 1778 -3.88412e-06
1848 1778 -8.85716e-06
1850 1778 -2.70581e-06
1853 1778 0
1855 1778 -2.0764e-06
1856 1778 -1.89537e-05
4502 1778 -1.51188e-06
4504 1778 -0.000346405
4506 1778 -7.89034e-06
4509 1778 -0.00326141
1779 1779 1
1780 1780 1
1781 1781 1
1782 1782 1
1779 1783 -1
1780 1783 -1
1781 1783 -1
1782 1783 -1
1783 1783 0.00199534
1844 1783 -2.49207e-13
1846 1783 -0.000248658
1847 1783 -1.27039e-05
1848 1783 -1.9915e-05
1854 1783 -0.000415691
4502 1783 -3.67359e-05
4509 1783 -0.00126163
1784 1784 1
1785 1785 1
1786 1786 1
1787 1787 1
1788 1788 1
1789 1789 1
1790 1790 1
1791 1791 1
1792 1792 1
1793 1793 1
1794 1794 1
1795 1795 1
1796 1796 1
1797 1797 1
1798 1798 1
1799 1799 1
1800 1800 1
1801 1801 1
1802 1802 1
1803 1803 1
1804 1804 1
1805 1805 1
1806 1806 1
1807 1807 1
1801 1808 -1
1802 1808 -1
1803 1808 -1
1808 1808 0.00135216
1809 1808 -2.53062e-06
1810 1808 -7.00453e-05
1850 1808 -1.22182e-05
4502 1808 -2.70581e-06
4504 1808 -0.000911338
4509 1808 -0.000353325
1806 1809 -1
1807 1809 -1
1808 1809 -2.53062e-06
1809 1809 0.00170297
1810 1809 0
1845 1809 -0.000167986
1850 1809 -1.40858e-05
4502 1809 -5.85287e-06
4504 1809 -0.00108447
4509 1809 -0.000428046
1804 1810 -1
1805 1810 -1
1808 1810 -7.03225e-05
1809 1810 0
1810 1810 0.00101648
1811 1810 -0.000211465
1844 1810 -2.79017e-06
1845 1810 0
1850 1810 -5.78149e-06
4502 1810 -5.00286e-05
4504 1810 -6.58003e-05
4509 1810 -0.000610296
1794 1811 -1
1795 1811 -1
1796 1811 -1
1797 1811 -1
1810 1811 -2.06734e-06
1811 1811 0.000618885
1843 1811 -2.47485e-15
1844 1811 0
1845 1811 0
1847 1811 -1.2705e-05
1848 1811 -2.73658e-06
1850 1811 0
1857 1811 -1.38571e-08
4502 1811 -1.02587e-05
4504 1811 0
4509 1811 -0.000591104
1812 1812 1
1813 1813 1
1814 1814 1
1815 1815 1
1816 1816 1
1817 1817 1
1818 1818 1
1819 1819 1
1820 1820 1
1821 1821 1
1822 1822 1
1823 1823 1
1824 1824 1
1825 1825 1
1826 1826 1
1827 1827 1
1828 1828 1
1829 1829 1
1830 1830 1
1831 1831 1
1832 1832 1
1833 1833 1
1834 1834 1
1835 1835 1
1836 1836 1
1837 1837 1
1831 1838 -1
1832 1838 -1
1833 1838 -1
1838 1838 0.00135216
1839 1838 -2.53062e-06
1840 1838 -7.00453e-05
1850 1838 -1.22182e-05
4502 1838 -2.70581e-06
4504 1838 -0.000911338
4509 1838 -0.000353325
1836 1839 -1
1837 1839 -1
1838 1839 -2.53062e-06
1839 1839 0.00170296
1840 1839 0
1843 1839 -0.000168001
1850 1839 -1.40857e-05
4502 1839 -5.85287e-06
4504 1839 -0.00108446
4509 1839 -0.000428031
1834 1840 -1
1835 1840 -1
1838 1840 -7.03225e-05
1839 1840 0
1840 1840 0.00101648
1841 1840 -0.000211465
1843 1840 0
1845 1840 -2.79017e-06
1850 1840 -5.78149e-06
4502 1840 -5.00286e-05
4504 1840 -6.58003e-05
4509 1840 -0.000610296
1824 1841 -1
1825 1841 -1
1826 1841 -1
1827 1841 -1
1840 1841 -2.06734e-06
1841 1841 0.000618885
1842 1841 -2.11169e-15
1843 1841 0
1845 1841 0
1847 1841 -1.2705e-05
1848 1841 -2.73658e-06
1850 1841 0
1858 1841 -1.38575e-08
4502 1841 -1.02587e-05
4504 1841 0
4509 1841 -0.000591104
1812 1842 -1
1813 1842 -1
1841 1842 -4.27168e-13
1842 1842 0.000685667
1843 1842 -3.72455e-06
1845 1842 0
1846 1842 -1.08427e-05
1847 1842 -6.98086e-06
1848 1842 -9.88239e-06
1850 1842 -4.22419e-06
1854 1842 -4.86008e-06
1858 1842 -3.37416e-06
4502 1842 -4.22419e-06
4504 1842 -1.59429e-05
4506 1842 -7.09871e-06
4509 1842 -0.000614512
1811 1843 -5.20466e-13
1828 1843 -1
1829 1843 -1
1830 1843 -1
1839 1843 -0.000166634
1840 1843 0
1841 1843 0
1842 1843 -3.72455e-06
1843 1843 0.00400279
1844 1843 -1.39508e-06
1845 1843 -5.64522e-06
1846 1843 -2.79017e-06
1847 1843 -3.8806e-06
1848 1843 -8.85716e-06
1850 1843 -2.70581e-06
1854 1843 0
1857 1843 -7.35177e-06
1858 1843 -1.04664e-05
4502 1843 -1.51188e-06
4504 1843 -0.000346404
4506 1843 -7.89034e-06
4509 1843 -0.00343354
1693 1844 -1
1694 1844 -1
1695 1844 -1
1704 1844 -0.000166763
1705 1844 0
1706 1844 0
1783 1844 -4.75671e-13
1810 1844 -2.79017e-06
1811 1844 0
1843 1844 -1.39508e-06
1844 1844 0.00380414
1845 1844 -2.36126e-05
1846 1844 0
1847 1844 -3.83484e-06
1848 1844 -8.85716e-06
1850 1844 -2.70581e-06
1854 1844 -1.56704e-05
1857 1844 -3.67394e-05
1858 1844 -4.83283e-05
1859 1844 0
4502 1844 -1.51188e-06
4504 1844 -0.000346627
4506 1844 -7.89034e-06
4509 1844 -0.00313742
1706 1845 -5.241e-13
1798 1845 -1
1799 1845 -1
1800 1845 -1
1809 1845 -0.000166746
1810 1845 0
1811 1845 0
1840 1845 -2.79017e-06
1841 1845 0
1842 1845 0
1843 1845 -5.64522e-06
1844 1845 -2.36126e-05
1845 1845 0.0037111
1846 1845 0
1847 1845 -3.8348e-06
1848 1845 -8.85716e-06
1850 1845 -2.70581e-06
1854 1845 0
1857 1845 -3.76348e-06
1858 1845 0
1859 1845 0
4502 1845 -1.51188e-06
4504 1845 -0.000346406
4506 1845 -7.89034e-06
4509 1845 -0.00313733
1713 1846 -1
1714 1846 -1
1717 1846 -7.01601e-05
1718 1846 0
1737 1846 0
1778 1846 0
1783 1846 -0.000246385
1842 1846 -1.08427e-05
1843 1846 -2.79017e-06
1844 1846 0
1845 1846 0
1846 1846 0.00108327
1847 1846 0
1848 1846 0
1850 1846 -5.78149e-06
1853 1846 0
1854 1846 0
1855 1846 0
1856 1846 0
1857 1846 0
1858 1846 0
1859 1846 0
4502 1846 -4.30128e-05
4504 1846 -6.59598e-05
4506 1846 0
4509 1846 -0.000638334
1847 1847 1
4509 1847 -1
1848 1848 1
4509 1848 -1
1706 1849 -5.24267e-06
1736 1849 -2.26617e-05
1737 1849 -8.85716e-06
1757 1849 -2.26442e-05
1758 1849 -1.19393e-06
1776 1849 -1.89268e-05
1777 1849 -8.85716e-06
1778 1849 -8.85716e-06
1783 1849 -1.90926e-05
1811 1849 -5.24267e-06
1841 1849 -5.24267e-06
1842 1849 -9.88239e-06
1843 1849 -8.85716e-06
1844 1849 -8.85716e-06
1845 1849 -8.85716e-06
1846 1849 0
1847 1849 -5.85481e-05
1848 1849 0.000542314
1849 1849 1
1850 1849 0
1853 1849 -2.12127e-05
1854 1849 -2.47648e-05
1855 1849 -2.11952e-05
1856 1849 -2.49305e-05
1857 1849 -9.19483e-06
1858 1849 -9.19483e-06
1859 1849 -9.19483e-06
4502 1849 0
4504 1849 -7.63079e-06
4506 1849 -7.09871e-06
4509 1849 -0.000186077
1850 1850 1
4509 1850 -1
1703 1851 -1.22248e-05
1704 1851 -1.46322e-05
1705 1851 -5.78149e-06
1706 1851 0
1717 1851 -1.22248e-05
1718 1851 -1.46322e-05
1733 1851 -1.22248e-05
1734 1851 -1.46322e-05
1735 1851 -5.78149e-06
1736 1851 0
1737 1851 -2.70581e-06
1754 1851 -1.22248e-05
1755 1851 -1.46322e-05
1756 1851 -5.78149e-06
1757 1851 0
1758 1851 -2.70581e-06
1773 1851 -1.22248e-05
1774 1851 -1.46322e-05
1775 1851 -5.78149e-06
1776 1851 0
1777 1851 -2.70581e-06
1778 1851 -2.70581e-06
1808 1851 -1.22248e-05
1809 1851 -1.46322e-05
1810 1851 -5.78149e-06
1811 1851 0
1838 1851 -1.22248e-05
1839 1851 -1.46322e-05
1840 1851 -5.78149e-06
1841 1851 0
1842 1851 -4.22419e-06
1843 1851 -2.70581e-06
1844 1851 -2.70581e-06
1845 1851 -2.70581e-06
1846 1851 -5.78149e-06
1847 1851 0
1848 1851 0
1850 1851 0.00099184
1851 1851 1
1853 1851 -1.89212e-05
1854 1851 0
1855 1851 0
1856 1851 0
1857 1851 0
1858 1851 0
1859 1851 0
4502 1851 -0.000133292
4504 1851 -8.21478e-06
4506 1851 -6.30708e-06
4509 1851 -0.00057347
1706 1852 -1.2705e-05
1736 1852 -1.2705e-05
1737 1852 -6.74183e-06
1757 1852 -1.2705e-05
1758 1852 -1.51188e-06
1776 1852 -1.2705e-05
1777 1852 -6.74183e-06
1778 1852 -6.74183e-06
1783 1852 -1.2705e-05
1811 1852 -1.2705e-05
1841 1852 -1.2705e-05
1842 1852 -1.03171e-05
1843 1852 -6.74183e-06
1844 1852 -6.74183e-06
1845 1852 -6.74183e-06
1846 1852 0
1847 1852 0.000629375
1848 1852 -5.85481e-05
1850 1852 0
1852 1852 1
1853 1852 0
1854 1852 0
1855 1852 0
1856 1852 0
1857 1852 0
1858 1852 0
1859 1852 0
4502 1852 0
4504 1852 -8.94801e-06
4506 1852 -7.09871e-06
4509 1852 -0.000413565
1657 1853 -1
1658 1853 -1
1676 1853 -0.00680272
1677 1853 0
1678 1853 0
1757 1853 -0.000324688
1758 1853 0
1777 1853 -1.88758e-05
1778 1853 0
1846 1853 0
1847 1853 0
1848 1853 -2.38427e-05
1850 1853 -1.89212e-05
1853 1853 0.00789895
1854 1853 0
1855 1853 0
1856 1853 -4.48763e-05
1857 1853 0
1858 1853 0
1859 1853 0
4469 1853 0
4470 1853 0
4471 1853 0
4472 1853 0
4490 1853 -7.53346e-06
4502 1853 -3.85433e-06
4504 1853 -1.02652e-05
4506 1853 0
4509 1853 -0.000643369
1618 1854 -1
1619 1854 -1
1637 1854 -0.00680272
1678 1854 0
1783 1854 -0.000414416
1842 1854 -4.86008e-06
1843 1854 0
1844 1854 -1.56704e-05
1845 1854 0
1846 1854 0
1847 1854 0
1848 1854 -2.19738e-05
1850 1854 0
1853 1854 0
1854 1854 0.0083816
1855 1854 -6.76194e-05
1856 1854 0
1857 1854 0
1858 1854 -1.34966e-05
1859 1854 0
4469 1854 0
4470 1854 0
4471 1854 0
4472 1854 0
4490 1854 -7.53346e-06
4502 1854 -4.37408e-05
4504 1854 -4.71344e-05
4506 1854 0
4509 1854 -0.000942435
1599 1855 -1
1600 1855 -1
1678 1855 -0.00680272
1736 1855 -0.000324658
1737 1855 -1.88758e-05
1778 1855 -2.0764e-06
1846 1855 0
1847 1855 0
1848 1855 -2.38422e-05
1850 1855 0
1853 1855 0
1854 1855 -6.76194e-05
1855 1855 0.00811021
1856 1855 -5.18842e-05
1857 1855 0
1858 1855 0
1859 1855 0
4469 1855 0
4470 1855 0
4471 1855 0
4472 1855 0
4490 1855 -7.53346e-06
4502 1855 -1.49242e-06
4504 1855 -1.63971e-05
4506 1855 0
4509 1855 -0.000793114
1638 1856 -1
1639 1856 -1
1677 1856 -0.00680272
1678 1856 0
1776 1856 -0.000414714
1777 1856 -2.0764e-06
1778 1856 -1.89537e-05
1846 1856 0
1847 1856 0
1848 1856 -2.20024e-05
1850 1856 0
1853 1856 -4.48763e-05
1854 1856 0
1855 1856 -5.18842e-05
1856 1856 0.00832113
1857 1856 0
1858 1856 0
1859 1856 0
4469 1856 0
4470 1856 0
4471 1856 0
4472 1856 0
4490 1856 -7.53346e-06
4502 1856 0
4504 1856 -1.75781e-05
4506 1856 0
4509 1856 -0.000938794
1784 1857 -1
1785 1857 -1
1786 1857 -1
1787 1857 -1
1788 1857 -1
1789 1857 -1
1790 1857 -1
1791 1857 -1
1792 1857 -1
1793 1857 -1
1811 1857 -1.94509e-10
1843 1857 -7.35177e-06
1844 1857 -3.67394e-05
1845 1857 -3.76348e-06
1846 1857 0
1847 1857 0
1848 1857 -9.20754e-06
1850 1857 0
1853 1857 0
1854 1857 0
1855 1857 0
1856 1857 0
1857 1857 0.00203557
1858 1857 -8.43539e-06
1859 1857 -2.95239e-06
1860 1857 -1.59507e-05
1861 1857 -2.47046e-05
1862 1857 -2.60913e-05
1863 1857 -2.60913e-05
1864 1857 -2.47046e-05
1868 1857 -2.33336e-05
1869 1857 -2.60913e-05
1870 1857 -2.47046e-05
4469 1857 0
4470 1857 0
4471 1857 0
4472 1857 0
4490 1857 0
4502 1857 0
4504 1857 -3.0621e-05
4506 1857 0
4509 1857 -0.00174482
1814 1858 -1
1815 1858 -1
1816 1858 -1
1817 1858 -1
1818 1858 -1
1819 1858 -1
1820 1858 -1
1821 1858 -1
1822 1858 -1
1823 1858 -1
1841 1858 -1.94514e-10
1842 1858 -3.37416e-06
1843 1858 -1.04664e-05
1844 1858 -4.83283e-05
1845 1858 0
1846 1858 0
1847 1858 0
1848 1858 -9.20754e-06
1850 1858 0
1853 1858 0
1854 1858 -1.34966e-05
1855 1858 0
1856 1858 0
1857 1858 -8.43539e-06
1858 1858 0.00206586
1859 1858 0
1860 1858 -1.56978e-05
1861 1858 -2.58383e-05
1862 1858 -2.58383e-05
1863 1858 -2.44515e-05
1864 1858 -2.44515e-05
1868 1858 -2.33336e-05
1869 1858 -2.44515e-05
1870 1858 -2.58383e-05
4469 1858 0
4470 1858 0
4471 1858 0
4472 1858 0
4490 1858 0
4502 1858 0
4504 1858 -3.10428e-05
4506 1858 0
4509 1858 -0.00175161
1679 1859 -1
1680 1859 -1
1681 1859 -1
1682 1859 -1
1683 1859 -1
1684 1859 -1
1685 1859 -1
1686 1859 -1
1687 1859 -1
1688 1859 -1
1706 1859 -1.94473e-10
1844 1859 0
1845 1859 0
1846 1859 0
1847 1859 0
1848 1859 -9.20754e-06
1850 1859 0
1853 1859 0
1854 1859 0
1855 1859 0
1856 1859 0
1857 1859 -2.95239e-06
1858 1859 0
1859 1859 0.00197404
1860 1859 -1.59507e-05
1861 1859 -2.47046e-05
1862 1859 -2.47046e-05
1863 1859 -2.47046e-05
1864 1859 -2.60913e-05
1868 1859 -2.33336e-05
1869 1859 -2.60913e-05
1870 1859 -2.60913e-05
4469 1859 0
4470 1859 0
4471 1859 0
4472 1859 0
4490 1859 0
4502 1859 0
4504 1859 -3.15359e-05
4506 1859 0
4509 1859 -0.00173868
1407 1860 -1
1408 1860 -1
1411 1860 -0.00016126
1422 1860 -0.000341711
1445 1860 0
1446 1860 0
1502 1860 0
1503 1860 0
1596 1860 0
1597 1860 0
1598 1860 0
1857 1860 -2.60978e-05
1858 1860 -2.58447e-05
1859 1860 -2.60978e-05
1860 1860 0.00452196
1861 1860 -0.000158183
1862 1860 -9.62284e-06
1863 1860 -1.52032e-05
1864 1860 -1.1855e-05
1865 1860 0
1866 1860 0
1867 1860 0
1868 1860 -9.8759e-06
1869 1860 -9.62284e-06
1870 1860 -9.62284e-06
4469 1860 0
4470 1860 0
4471 1860 0
4472 1860 0
4476 1860 0
4482 1860 0
4484 1860 0
4488 1860 0
4490 1860 0
4492 1860 0
4496 1860 0
4502 1860 0
4504 1860 -0.00261352
4506 1860 0
4507 1860 0
4509 1860 -0.00110345
1391 1861 -1
1392 1861 -1
1395 1861 -0.000233748
1406 1861 -0.000306026
1446 1861 0
1502 1861 0
1503 1861 0
1596 1861 0
1597 1861 0
1598 1861 0
1857 1861 -2.60913e-05
1858 1861 -2.58383e-05
1859 1861 -2.60913e-05
1860 1861 -0.000158183
1861 1861 0.00774264
1862 1861 -9.62284e-06
1863 1861 -0.000135479
1864 1861 -9.62284e-06
1865 1861 0
1866 1861 0
1867 1861 0
1868 1861 -9.8759e-06
1869 1861 -1.12969e-05
1870 1861 -1.1855e-05
4469 1861 0
4470 1861 0
4471 1861 0
4472 1861 0
4476 1861 0
4482 1861 0
4484 1861 0
4488 1861 0
4490 1861 0
4492 1861 0
4496 1861 0
4502 1861 0
4504 1861 -0.000564783
4506 1861 0
4507 1861 0
4509 1861 -0.00621413
1299 1862 -1
1300 1862 -1
1303 1862 -0.000233748
1314 1862 -0.000306026
1335 1862 0
1389 1862 0
1390 1862 0
1597 1862 0
1598 1862 0
1857 1862 -2.60913e-05
1858 1862 -2.58383e-05
1859 1862 -2.60913e-05
1860 1862 -9.62284e-06
1861 1862 -9.62284e-06
1862 1862 0.00758918
1863 1862 -0.000126862
1864 1862 -0.000110575
1865 1862 0
1866 1862 0
1867 1862 0
1868 1862 -1.1271e-05
1869 1862 -1.12969e-05
1870 1862 -1.1576e-05
4469 1862 0
4470 1862 0
4471 1862 0
4472 1862 0
4476 1862 0
4482 1862 0
4484 1862 0
4488 1862 0
4490 1862 0
4492 1862 0
4496 1862 0
4502 1862 0
4504 1862 -0.000541449
4506 1862 0
4507 1862 0
4509 1862 -0.00613911
1504 1863 -1
1505 1863 -1
1508 1863 -0.000233748
1519 1863 -0.000306026
1540 1863 0
1594 1863 0
1595 1863 0
1596 1863 0
1597 1863 0
1598 1863 0
1857 1863 -2.60913e-05
1858 1863 -2.58383e-05
1859 1863 -2.60913e-05
1860 1863 -1.52032e-05
1861 1863 -0.000135479
1862 1863 -0.000126862
1863 1863 0.00767778
1864 1863 -9.62284e-06
1865 1863 0
1866 1863 0
1867 1863 0
1868 1863 -9.8759e-06
1869 1863 -1.12969e-05
1870 1863 -9.62284e-06
4469 1863 0
4470 1863 0
4471 1863 0
4472 1863 0
4476 1863 0
4482 1863 0
4484 1863 0
4488 1863 0
4490 1863 0
4492 1863 0
4496 1863 0
4502 1863 0
4504 1863 -0.000564562
4506 1863 0
4507 1863 0
4509 1863 -0.00617746
1207 1864 -1
1208 1864 -1
1211 1864 -0.000233748
1222 1864 -0.000306026
1243 1864 0
1297 1864 0
1298 1864 0
1598 1864 0
1857 1864 -2.60913e-05
1858 1864 -2.58383e-05
1859 1864 -2.60913e-05
1860 1864 -1.1855e-05
1861 1864 -9.62284e-06
1862 1864 -0.000110575
1863 1864 -9.62284e-06
1864 1864 0.00754838
1865 1864 0
1866 1864 0
1867 1864 0
1868 1864 -9.8759e-06
1869 1864 -1.12969e-05
1870 1864 -9.80517e-05
4469 1864 0
4470 1864 0
4471 1864 0
4472 1864 0
4476 1864 0
4482 1864 0
4484 1864 0
4488 1864 0
4490 1864 0
4492 1864 0
4496 1864 0
4502 1864 0
4504 1864 -0.000564783
4506 1864 0
4507 1864 0
4509 1864 -0.0061049
1032 1865 -0.000129226
1033 1865 -0.000129226
1034 1865 -2.7149e-05
1055 1865 -1.33928e-05
1109 1865 0
1110 1865 0
1139 1865 -1
1140 1865 -1
1141 1865 -1
1144 1865 -2.48153e-14
1145 1865 -4.25306e-05
1146 1865 -1.93365e-06
1147 1865 -0.000203604
1204 1865 0
1205 1865 0
1206 1865 -7.97469e-06
1220 1865 -0.000129226
1221 1865 0
1222 1865 -2.7149e-05
1243 1865 0
1297 1865 0
1298 1865 0
1598 1865 0
1860 1865 0
1861 1865 0
1862 1865 0
1863 1865 0
1864 1865 0
1865 1865 0.00313555
1866 1865 -5.0223e-06
1867 1865 0
1868 1865 0
1869 1865 0
1870 1865 0
4467 1865 0
4468 1865 0
4469 1865 0
4470 1865 0
4471 1865 0
4472 1865 0
4474 1865 0
4476 1865 0
4478 1865 0
4479 1865 0
4482 1865 0
4484 1865 0
4487 1865 0
4488 1865 0
4490 1865 0
4492 1865 0
4496 1865 0
4502 1865 0
4504 1865 -0.00165592
4506 1865 0
4507 1865 0
4509 1865 -0.000763191
1047 1866 -1
1048 1866 -1
1049 1866 -1
1052 1866 -2.48153e-14
1053 1866 -4.25306e-05
1054 1866 -1.93365e-06
1055 1866 -0.000203325
1109 1866 0
1110 1866 0
1206 1866 0
1220 1866 -0.000129226
1221 1866 -0.000129226
1222 1866 -2.7149e-05
1243 1866 -1.2718e-05
1297 1866 0
1298 1866 0
1312 1866 -0.000129226
1313 1866 0
1314 1866 -2.7149e-05
1335 1866 0
1389 1866 0
1390 1866 0
1597 1866 0
1598 1866 -5.0223e-06
1860 1866 0
1861 1866 0
1862 1866 0
1863 1866 0
1864 1866 0
1865 1866 -5.0223e-06
1866 1866 0.00312749
1867 1866 0
1868 1866 0
1869 1866 0
1870 1866 0
4467 1866 0
4468 1866 0
4469 1866 0
4470 1866 0
4471 1866 0
4472 1866 0
4474 1866 0
4476 1866 0
4478 1866 0
4479 1866 0
4482 1866 0
4484 1866 0
4487 1866 0
4488 1866 0
4490 1866 0
4492 1866 0
4496 1866 0
4502 1866 0
4504 1866 -0.00165667
4506 1866 0
4507 1866 0
4509 1866 -0.000758292
701 1867 -3.28883e-05
932 1867 0
941 1867 -3.28883e-05
942 1867 -3.3482e-06
943 1867 -2.05304e-05
1010 1867 -1.21145e-05
1011 1867 0
1012 1867 -6.39792e-06
1013 1867 -6.32655e-06
1014 1867 0
1015 1867 0
1016 1867 0
1017 1867 0
1018 1867 -1.13618e-05
1043 1867 -3.28883e-05
1052 1867 -3.28883e-05
1053 1867 -3.3482e-06
1054 1867 -1.96869e-05
1055 1867 0
1103 1867 -1.1271e-05
1104 1867 -6.39792e-06
1105 1867 -6.32655e-06
1106 1867 0
1107 1867 0
1108 1867 0
1109 1867 0
1110 1867 -1.13618e-05
1135 1867 -3.28883e-05
1144 1867 -3.28883e-05
1145 1867 -3.3482e-06
1146 1867 -1.96869e-05
1147 1867 0
1197 1867 -1.1271e-05
1198 1867 -6.39792e-06
1199 1867 -6.32655e-06
1200 1867 0
1201 1867 0
1202 1867 0
1203 1867 0
1204 1867 0
1205 1867 -1.13618e-05
1206 1867 0
1231 1867 -3.28883e-05
1240 1867 -3.28883e-05
1241 1867 -3.3482e-06
1242 1867 -1.96869e-05
1243 1867 0
1291 1867 -1.1271e-05
1292 1867 -6.39792e-06
1293 1867 -6.32655e-06
1294 1867 0
1295 1867 0
1296 1867 0
1297 1867 0
1298 1867 -1.13618e-05
1323 1867 -3.28883e-05
1332 1867 -3.28883e-05
1333 1867 -3.3482e-06
1334 1867 -1.96869e-05
1335 1867 0
1383 1867 -1.1271e-05
1384 1867 -6.39792e-06
1385 1867 -6.32655e-06
1386 1867 0
1387 1867 0
1388 1867 0
1389 1867 0
1390 1867 -1.13618e-05
1431 1867 -3.28883e-05
1440 1867 -1
1441 1867 -1
1442 1867 -3.28883e-05
1443 1867 -3.3482e-06
1444 1867 -1.96869e-05
1445 1867 0
1446 1867 0
1496 1867 -1.1271e-05
1497 1867 -6.39792e-06
1498 1867 -6.32655e-06
1499 1867 0
1500 1867 0
1501 1867 0
1502 1867 0
1503 1867 -1.13618e-05
1528 1867 -3.28883e-05
1537 1867 -3.28883e-05
1538 1867 -3.3482e-06
1539 1867 -1.96869e-05
1540 1867 0
1588 1867 -1.1271e-05
1589 1867 -6.39792e-06
1590 1867 -6.32655e-06
1591 1867 0
1592 1867 0
1593 1867 0
1594 1867 0
1595 1867 -1.13618e-05
1596 1867 0
1597 1867 0
1598 1867 0
1860 1867 0
1861 1867 0
1862 1867 0
1863 1867 0
1864 1867 0
1865 1867 0
1866 1867 0
1867 1867 0.00759994
1868 1867 0
1869 1867 0
1870 1867 0
4467 1867 0
4468 1867 0
4469 1867 0
4470 1867 0
4471 1867 0
4472 1867 0
4474 1867 0
4476 1867 0
4478 1867 0
4479 1867 0
4482 1867 0
4484 1867 0
4487 1867 0
4488 1867 0
4490 1867 0
4492 1867 0
4496 1867 0
4502 1867 0
4504 1867 -3.79593e-06
4506 1867 -0.000613479
4507 1867 -0.000188834
4509 1867 -0.00592296
702 1868 -1
703 1868 -1
706 1868 -0.000233748
931 1868 -0.000306026
932 1868 0
943 1868 0
1017 1868 0
1018 1868 0
1206 1868 0
1857 1868 -2.33336e-05
1858 1868 -2.33336e-05
1859 1868 -2.33336e-05
1860 1868 -9.8759e-06
1861 1868 -9.8759e-06
1862 1868 -1.1271e-05
1863 1868 -9.8759e-06
1864 1868 -9.8759e-06
1865 1868 0
1866 1868 0
1867 1868 0
1868 1868 0.00728724
1869 1868 -6.83786e-05
1870 1868 -1.1271e-05
4467 1868 0
4468 1868 0
4469 1868 0
4470 1868 0
4471 1868 0
4472 1868 0
4474 1868 0
4476 1868 0
4478 1868 0
4479 1868 0
4482 1868 0
4484 1868 0
4487 1868 0
4488 1868 0
4490 1868 0
4492 1868 0
4496 1868 0
4502 1868 0
4504 1868 -0.000518369
4506 1868 0
4507 1868 0
4509 1868 -0.00602868
1111 1869 -1
1112 1869 -1
1115 1869 -0.000233748
1126 1869 -0.000306026
1147 1869 0
1204 1869 0
1205 1869 0
1206 1869 0
1857 1869 -2.60913e-05
1858 1869 -2.58383e-05
1859 1869 -2.60913e-05
1860 1869 -9.62284e-06
1861 1869 -1.12969e-05
1862 1869 -1.12969e-05
1863 1869 -1.12969e-05
1864 1869 -1.12969e-05
1865 1869 0
1866 1869 0
1867 1869 0
1868 1869 -6.83786e-05
1869 1869 0.00744727
1870 1869 -8.23229e-05
4467 1869 0
4468 1869 0
4469 1869 0
4470 1869 0
4471 1869 0
4472 1869 0
4474 1869 0
4476 1869 0
4478 1869 0
4479 1869 0
4482 1869 0
4484 1869 0
4487 1869 0
4488 1869 0
4490 1869 0
4492 1869 0
4496 1869 0
4502 1869 0
4504 1869 -0.000541229
4506 1869 0
4507 1869 0
4509 1869 -0.00608273
1019 1870 -1
1020 1870 -1
1023 1870 -0.000233748
1034 1870 -0.000306026
1055 1870 0
1109 1870 0
1110 1870 0
1206 1870 0
1857 1870 -2.60913e-05
1858 1870 -2.58383e-05
1859 1870 -2.60913e-05
1860 1870 -9.62284e-06
1861 1870 -1.1855e-05
1862 1870 -1.1576e-05
1863 1870 -9.62284e-06
1864 1870 -9.80517e-05
1865 1870 0
1866 1870 0
1867 1870 0
1868 1870 -1.1271e-05
1869 1870 -8.23229e-05
1870 1870 0.00750001
4467 1870 0
4468 1870 0
4469 1870 0
4470 1870 0
4471 1870 0
4472 1870 0
4474 1870 0
4476 1870 0
4478 1870 0
4479 1870 0
4482 1870 0
4484 1870 0
4487 1870 0
4488 1870 0
4490 1870 0
4492 1870 0
4496 1870 0
4502 1870 0
4504 1870 -0.000541449
4506 1870 0
4507 1870 0
4509 1870 -0.00610644
1871 1871 0.0329541
1872 1871 -0.0277778
2207 1871 -5.48301e-06
2209 1871 -0.00512821
4463 1871 -2.86154e-06
4509 1871 -3.97437e-05
1871 1872 -0.0277778
1872 1872 0.0453802
1895 1872 -0.0175439
1896 1872 -3.25736e-06
2207 1872 0
2209 1872 0
4462 1872 -7.72163e-06
4463 1872 -9.07129e-06
4509 1872 -3.84719e-05
1873 1873 1
1874 1874 1
1875 1875 1
1876 1876 1
1875 1877 -1
1876 1877 -1
1877 1877 0.0221018
1878 1877 -0.0105263
1894 1877 -8.97962e-05
1895 1877 -9.29807e-05
1896 1877 -5.36621e-06
3185 1877 -0.0105425
4458 1877 -2.85051e-05
4459 1877 -3.25736e-06
4484 1877 -5.36621e-06
4506 1877 -0.000480563
4509 1877 -0.000327093
1873 1878 -1
1874 1878 -1
1877 1878 -0.0105263
1878 1878 0.0220944
1893 1878 -0.0105263
1894 1878 -9.03135e-05
1895 1878 -9.37399e-05
1896 1878 -5.36621e-06
3185 1878 0
4458 1878 -3.25736e-06
4459 1878 -2.93357e-05
4464 1878 -6.20975e-06
4484 1878 -5.36621e-06
4506 1878 -0.000481207
4509 1878 -0.000326934
1879 1879 1
1880 1880 1
1881 1881 1
1882 1882 1
1883 1883 1
1884 1884 1
1881 1885 -1
1882 1885 -1
1885 1885 0.0220918
1891 1885 -0.0105263
1892 1885 -0.0105263
1894 1885 -9.03575e-05
1895 1885 -9.37399e-05
1896 1885 -5.36621e-06
4478 1885 -2.99392e-05
4479 1885 -7.05329e-06
4484 1885 -5.36621e-06
4506 1885 -0.00047903
4509 1885 -0.000328284
1886 1886 1
1887 1887 1
1888 1888 1
1889 1889 1
1886 1890 -1
1887 1890 -1
1890 1890 0.0220909
1891 1890 -0.0105263
1893 1890 -0.0105263
1894 1890 -9.03356e-05
1895 1890 -9.37399e-05
1896 1890 -5.36621e-06
4460 1890 -2.95498e-05
4465 1890 -6.20975e-06
4484 1890 -5.36621e-06
4506 1890 -0.000480114
4509 1890 -0.000327607
1883 1891 -1
1884 1891 -1
1885 1891 -0.0105263
1890 1891 -0.0105263
1891 1891 0.0220905
1892 1891 0
1893 1891 0
1894 1891 -9.03465e-05
1895 1891 -9.37399e-05
1896 1891 -5.36621e-06
4460 1891 0
4465 1891 -2.93033e-05
4478 1891 -6.20975e-06
4479 1891 0
4484 1891 -5.36621e-06
4506 1891 -0.000479571
4509 1891 -0.000327945
1879 1892 -1
1880 1892 -1
1885 1892 -0.0105263
1891 1892 0
1892 1892 0.0223463
1893 1892 0
1894 1892 -9.07447e-05
1895 1892 -9.34869e-05
1896 1892 -5.36621e-06
2208 1892 -0.0104167
4458 1892 -1.28997e-05
4459 1892 -2.10236e-05
4460 1892 -1.40871e-05
4464 1892 -1.40871e-05
4465 1892 -1.40871e-05
4478 1892 -1.40871e-05
4479 1892 -6.36742e-05
4484 1892 -5.36621e-06
4506 1892 -0.000475422
4509 1892 -0.000578974
1878 1893 -0.0105263
1888 1893 -1
1889 1893 -1
1890 1893 -0.0105263
1891 1893 0
1892 1893 0
1893 1893 0.0220902
1894 1893 -9.03246e-05
1895 1893 -9.37399e-05
1896 1893 -5.36621e-06
2208 1893 0
3185 1893 0
4458 1893 0
4459 1893 0
4460 1893 -6.20975e-06
4464 1893 -2.8596e-05
4465 1893 0
4478 1893 0
4479 1893 0
4484 1893 -5.36621e-06
4506 1893 -0.000480659
4509 1893 -0.00032727
1877 1894 -9.76494e-05
1878 1894 -9.81555e-05
1885 1894 -9.81555e-05
1890 1894 -9.81555e-05
1891 1894 -9.81555e-05
1892 1894 -9.85319e-05
1893 1894 -9.81555e-05
1894 1894 0.0127791
1895 1894 -2.23213e-06
1896 1894 -9.85643e-06
2207 1894 -0.0075188
2208 1894 -2.00633e-05
3185 1894 -1.6741e-05
4458 1894 -8.49898e-05
4459 1894 -9.16992e-05
4460 1894 -9.16992e-05
4462 1894 -6.87809e-06
4463 1894 -3.52989e-06
4464 1894 -9.16992e-05
4465 1894 -9.16992e-05
4478 1894 -9.16992e-05
4479 1894 -9.16992e-05
4484 1894 0
4506 1894 -0.0038359
4509 1894 -4.29167e-05
1872 1895 -0.0175439
1877 1895 -9.29807e-05
1878 1895 -9.37399e-05
1885 1895 -9.37399e-05
1890 1895 -9.37399e-05
1891 1895 -9.37399e-05
1892 1895 -9.34869e-05
1893 1895 -9.37399e-05
1894 1895 -2.23213e-06
1895 1895 0.0220288
1896 1895 -5.48301e-06
2207 1895 0
2208 1895 -1.58001e-05
2209 1895 0
3185 1895 -2.29702e-05
4458 1895 -8.19304e-05
4459 1895 -8.83672e-05
4460 1895 -8.83672e-05
4462 1895 -3.9257e-06
4463 1895 0
4464 1895 -8.83672e-05
4465 1895 -8.83672e-05
4478 1895 -8.83672e-05
4479 1895 -8.83672e-05
4484 1895 0
4506 1895 0
4509 1895 -0.0031672
1872 1896 -3.25736e-06
1877 1896 -5.36621e-06
1878 1896 -5.36621e-06
1885 1896 -5.36621e-06
1890 1896 -5.36621e-06
1891 1896 -5.36621e-06
1892 1896 -5.36621e-06
1893 1896 -5.36621e-06
1894 1896 -9.85643e-06
1895 1896 -5.48301e-06
1896 1896 0.00700918
2207 1896 0
2208 1896 -1.13359e-05
2209 1896 0
3185 1896 -1.49696e-05
4458 1896 -6.82618e-06
4459 1896 -4.69787e-06
4460 1896 -4.69787e-06
4462 1896 -4.57458e-06
4463 1896 -0.00581395
4464 1896 -4.69787e-06
4465 1896 -4.69787e-06
4478 1896 -4.69787e-06
4479 1896 -4.69787e-06
4484 1896 -0.000765111
4492 1896 -3.98864e-05
4506 1896 -4.70695e-05
4509 1896 -0.000221105
1897 1897 0.0329541
1898 1897 -0.0277778
2205 1897 -5.48301e-06
2206 1897 -0.00512821
4463 1897 -2.86154e-06
4509 1897 -3.97437e-05
1897 1898 -0.0277778
1898 1898 0.0505601
1921 1898 -0.0227273
2205 1898 0
2206 1898 0
4462 1898 -9.83048e-06
4463 1898 -2.86154e-06
4509 1898 -4.23197e-05
1899 1899 1
1900 1900 1
1901 1901 1
1902 1902 1
1903 1903 1
1904 1904 1
1903 1905 -1
1904 1905 -1
1905 1905 0.0220938
1906 1905 -0.0105263
1920 1905 -8.9884e-05
1921 1905 -9.29807e-05
2208 1905 -0.0105425
4458 1905 -2.85051e-05
4459 1905 -3.25736e-06
4506 1905 -0.000476706
4509 1905 -0.000333622
1901 1906 -1
1902 1906 -1
1905 1906 -0.0105263
1906 1906 0.0220914
1919 1906 -0.0105263
1920 1906 -9.04009e-05
1921 1906 -9.37399e-05
2208 1906 0
4458 1906 -7.45559e-06
4459 1906 -2.93357e-05
4464 1906 -6.20975e-06
4496 1906 -4.19823e-06
4506 1906 -0.000475283
4509 1906 -0.000332177
1907 1907 1
1908 1908 1
1909 1909 1
1910 1910 1
1911 1911 1
1912 1912 1
1909 1913 -1
1910 1913 -1
1913 1913 0.0220889
1917 1913 -0.0105263
1918 1913 -0.0105263
1920 1913 -9.04434e-05
1921 1913 -9.37399e-05
4458 1913 -4.19823e-06
4478 1913 -2.99392e-05
4479 1913 -7.05329e-06
4496 1913 -4.19823e-06
4506 1913 -0.00047317
4509 1913 -0.000333569
1914 1914 1
1915 1915 1
1914 1916 -1
1915 1916 -1
1916 1916 0.022088
1917 1916 -0.0105263
1919 1916 -0.0105263
1920 1916 -9.04223e-05
1921 1916 -9.37399e-05
4458 1916 -4.19823e-06
4460 1916 -2.95498e-05
4465 1916 -6.20975e-06
4496 1916 -4.19823e-06
4506 1916 -0.000474223
4509 1916 -0.00033287
1911 1917 -1
1912 1917 -1
1913 1917 -0.0105263
1916 1917 -0.0105263
1917 1917 0.0220876
1918 1917 0
1919 1917 0
1920 1917 -9.04329e-05
1921 1917 -9.37399e-05
4458 1917 -4.19823e-06
4460 1917 0
4465 1917 -2.93033e-05
4478 1917 -6.20975e-06
4479 1917 0
4496 1917 -4.19823e-06
4506 1917 -0.000473695
4509 1917 -0.000333219
1907 1918 -1
1908 1918 -1
1913 1918 -0.0105263
1917 1918 0
1918 1918 0.022344
1919 1918 0
1920 1918 -9.08303e-05
1921 1918 -9.34868e-05
4456 1918 -0.0104167
4458 1918 -1.70979e-05
4459 1918 -2.10236e-05
4460 1918 -1.40871e-05
4464 1918 -1.40871e-05
4465 1918 -1.40871e-05
4478 1918 -1.40871e-05
4479 1918 -6.36742e-05
4496 1918 -4.19823e-06
4506 1918 -0.000469818
4509 1918 -0.00058449
1899 1919 -1
1900 1919 -1
1906 1919 -0.0105263
1916 1919 -0.0105263
1917 1919 0
1918 1919 0
1919 1919 0.0220873
1920 1919 -9.04116e-05
1921 1919 -9.37399e-05
2208 1919 0
4456 1919 0
4458 1919 -4.19823e-06
4459 1919 0
4460 1919 -6.20975e-06
4464 1919 -2.8596e-05
4465 1919 0
4478 1919 0
4479 1919 0
4496 1919 -4.19823e-06
4506 1919 -0.000474752
4509 1919 -0.000332523
1905 1920 -9.76494e-05
1906 1920 -9.81555e-05
1913 1920 -9.81555e-05
1916 1920 -9.81555e-05
1917 1920 -9.81555e-05
1918 1920 -9.85319e-05
1919 1920 -9.81555e-05
1920 1920 0.0128311
1921 1920 -2.23213e-06
2205 1920 -0.00757576
2208 1920 -1.6741e-05
4456 1920 -2.0485e-05
4458 1920 -8.49898e-05
4459 1920 -9.16992e-05
4460 1920 -9.16992e-05
4462 1920 -8.1434e-06
4464 1920 -9.16992e-05
4465 1920 -9.16992e-05
4478 1920 -9.16992e-05
4479 1920 -9.16992e-05
4496 1920 0
4506 1920 -0.00383621
4509 1920 -4.9373e-05
1898 1921 -0.0227273
1905 1921 -9.29807e-05
1906 1921 -9.37399e-05
1913 1921 -9.37399e-05
1916 1921 -9.37399e-05
1917 1921 -9.37399e-05
1918 1921 -9.34869e-05
1919 1921 -9.37399e-05
1920 1921 -2.23213e-06
1921 1921 0.0272031
2205 1921 0
2206 1921 0
2208 1921 -2.1653e-05
4456 1921 -1.44829e-05
4458 1921 -8.19304e-05
4459 1921 -8.83672e-05
4460 1921 -8.83672e-05
4462 1921 -3.9257e-06
4463 1921 0
4464 1921 -8.83672e-05
4465 1921 -8.83672e-05
4478 1921 -8.83672e-05
4479 1921 -8.83672e-05
4496 1921 0
4506 1921 0
4509 1921 -0.0031662
1922 1922 1
1923 1923 1
1924 1924 1
1925 1925 1
1926 1926 1
1927 1927 1
1928 1928 1
1929 1929 1
1924 1930 -1
1925 1930 -1
1926 1930 -1
1930 1930 0.0116524
1931 1930 -0.0113636
4463 1930 -8.24722e-06
4509 1930 -0.000280487
1927 1931 -1
1928 1931 -1
1929 1931 -1
1930 1931 -0.0113636
1931 1931 0.018589
1976 1931 -2.10885e-06
2021 1931 -0.0070922
2209 1931 -3.79593e-06
4463 1931 0
4502 1931 -2.35542e-06
4506 1931 -2.99132e-06
4509 1931 -0.000121879
1932 1932 1
1933 1933 1
1934 1934 1
1935 1935 1
1936 1936 1
1937 1937 1
1938 1938 1
1939 1939 1
1934 1940 -1
1935 1940 -1
1940 1940 0.00760699
1941 1940 -1.01225e-05
1943 1940 -0.000123728
1976 1940 -0.00704225
4509 1940 -0.000430886
1936 1941 -1
1937 1941 -1
1938 1941 -1
1939 1941 -1
1940 1941 -1.01225e-05
1941 1941 0.00320237
1942 1941 -0.000892683
1943 1941 -2.93014e-06
1975 1941 -0.000532338
1976 1941 0
4463 1941 -4.82245e-05
4509 1941 -0.00171607
1941 1942 -0.00139643
1942 1942 0.0117431
1943 1942 -2.51115e-06
1975 1942 0.000349509
1976 1942 0
4462 1942 -0.0106383
4463 1942 -2.86154e-06
4509 1942 -5.25618e-05
1940 1943 -0.000123728
1941 1943 -0.000130898
1942 1943 -2.51115e-06
1943 1943 0.00618219
1975 1943 0
1976 1943 0
3185 1943 -0.00584795
4462 1943 -4.57458e-06
4463 1943 -2.86154e-06
4509 1943 -6.96635e-05
1944 1944 1
1945 1945 1
1944 1946 -1
1945 1946 -1
1946 1946 0.00220604
1974 1946 -0.00192308
3183 1946 -4.2177e-06
4463 1946 -8.24722e-06
4502 1946 -2.08938e-06
4506 1946 -2.75772e-06
4509 1946 -0.000265647
1947 1947 1
1948 1948 1
1949 1949 1
1950 1950 1
1951 1951 1
1952 1952 1
1953 1953 1
1954 1954 1
1955 1955 1
1956 1956 1
1957 1957 1
1958 1958 1
1959 1959 1
1960 1960 1
1961 1961 1
1951 1962 -1
1952 1962 -1
1953 1962 -1
1954 1962 -1
1955 1962 -1
1962 1962 0.00262854
1963 1962 -4.94093e-05
1964 1962 -1.45433e-05
1969 1962 -0.00060722
4509 1962 -0.00195736
1959 1963 -1
1960 1963 -1
1961 1963 -1
1962 1963 -4.94093e-05
1963 1963 0.00649126
1964 1963 0
1966 1963 -0.000842224
1968 1963 -0.00416863
1969 1963 -6.28709e-05
4509 1963 -0.00136812
1962 1964 0.000136255
1963 1964 0
1964 1964 0.00568123
1966 1964 0
1968 1964 0
1969 1964 0
4502 1964 -0.00552486
4509 1964 -0.000292623
1965 1965 0.00220827
1966 1965 -1.65548e-05
1968 1965 -0.00209205
1969 1965 -1.65548e-05
4502 1965 -8.38348e-06
4509 1965 -7.47309e-05
1947 1966 -1
1948 1966 -1
1949 1966 -1
1950 1966 -1
1963 1966 -0.000845217
1964 1966 0
1965 1966 -2.76001e-06
1966 1966 0.00255572
1967 1966 -3.06427e-05
1968 1966 -1.9661e-06
1969 1966 -5.81735e-05
4502 1966 -8.01362e-06
4509 1966 -0.00160894
1966 1967 -2.7459e-05
1967 1967 0.00444311
1968 1967 0
1969 1967 0
4502 1967 -1.9661e-06
4506 1967 -0.00436681
4509 1967 -4.68748e-05
1963 1968 -0.00416863
1964 1968 0
1965 1968 -0.00209205
1966 1968 -1.9661e-06
1967 1968 0
1968 1968 0.00994678
1969 1968 0
1970 1968 -0.00363636
4502 1968 -1.23157e-05
4506 1968 -5.56087e-06
4509 1968 -2.98872e-05
1956 1969 -1
1957 1969 -1
1958 1969 -1
1962 1969 -0.00053828
1963 1969 -5.57429e-05
1964 1969 0
1965 1969 -1.65548e-05
1966 1969 -7.04901e-05
1967 1969 0
1968 1969 0
1969 1969 0.00366855
1970 1969 0
2022 1969 -0.00229885
4502 1969 0
4506 1969 -1.98556e-06
4509 1969 -0.000686644
1968 1970 -0.00363636
1969 1970 0
1970 1970 0.0042839
1971 1970 -1.51284e-05
1974 1970 -7.82221e-05
1975 1970 -3.80242e-06
2022 1970 0
3181 1970 -1.65547e-05
4502 1970 0
4506 1970 -0.000429105
4509 1970 -0.000104723
1970 1971 -0.000218027
1971 1971 0.0031373
1974 1971 -0.000308816
1975 1971 -0.00139082
2021 1971 -5.82044e-05
2022 1971 0
3181 1971 0
4502 1971 -2.08938e-06
4506 1971 -0.0011046
4509 1971 -5.47457e-05
1972 1972 0.00256246
1973 1972 -0.000596605
1974 1972 -0.00214133
2021 1972 -1.95312e-06
2022 1972 0.000218915
4461 1972 -6.39792e-06
4506 1972 -2.92646e-05
4509 1972 -5.82691e-06
1972 1973 -0.000301312
1973 1973 0.00438228
1974 1973 0
1976 1973 -0.00225225
2021 1973 -0.000123573
2022 1973 -0.000350589
4461 1973 0
4502 1973 -3.13407e-06
4506 1973 -0.00132235
4509 1973 -2.90697e-05
1946 1974 -0.00192308
1970 1974 9.2127e-05
1971 1974 -0.000497189
1972 1974 -0.00214133
1973 1974 0
1974 1974 0.00526119
1975 1974 0
1976 1974 0
2021 1974 -3.06919e-06
2022 1974 0
3181 1974 0
3183 1974 0
4461 1974 -1.1271e-05
4463 1974 0
4502 1974 -2.08938e-06
4506 1974 -0.000710053
4509 1974 -6.5238e-05
1932 1975 -1
1933 1975 -1
1941 1975 -1.2247e-05
1942 1975 -0.000123728
1943 1975 0
1970 1975 -3.80242e-06
1971 1975 -0.00139082
1974 1975 0
1975 1975 0.00201534
1976 1975 0
2021 1975 0
2022 1975 0
3181 1975 0
3183 1975 0
3185 1975 0
4461 1975 0
4462 1975 0
4463 1975 0
4502 1975 -2.08938e-06
4506 1975 -3.4066e-06
4509 1975 -0.000479242
1931 1976 -2.10885e-06
1940 1976 -0.00704225
1941 1976 0
1942 1976 0
1943 1976 0
1973 1976 -0.00225225
1974 1976 0
1975 1976 0
1976 1976 0.00936798
2021 1976 0
2022 1976 -2.08938e-06
2209 1976 0
3181 1976 0
3183 1976 0
3185 1976 0
4461 1976 0
4462 1976 0
4463 1976 0
4502 1976 -3.13407e-06
4506 1976 -6.74183e-06
4509 1976 -5.94046e-05
1977 1977 1
1978 1978 1
1979 1979 1
1980 1980 1
1981 1981 1
1982 1982 1
1983 1983 1
1984 1984 1
1982 1985 -1
1983 1985 -1
1984 1985 -1
1985 1985 0.00612996
1986 1985 -0.00253667
3184 1985 -0.000126171
4457 1985 -0.000126145
4509 1985 -0.00334097
1979 1986 -1
1980 1986 -1
1981 1986 -1
1985 1986 -0.00253668
1986 1986 0.00347242
1987 1986 -8.09933e-12
2020 1986 -1.72943e-05
3184 1986 -0.000126156
4457 1986 0
4509 1986 -0.000792289
1977 1987 -1
1978 1987 -1
1986 1987 -2.57217e-14
1987 1987 0.00428483
2020 1987 -0.000149293
3184 1987 -2.51933e-05
4457 1987 -2.51933e-05
4493 1987 -0.000311319
4500 1987 -0.00330682
4509 1987 -0.000467007
1988 1988 1
1989 1989 1
1990 1990 1
1991 1991 1
1992 1992 1
1993 1993 1
1994 1994 1
1995 1995 1
1991 1996 -1
1992 1996 -1
1993 1996 -1
1996 1996 0.00344935
1997 1996 -2.34999e-05
2008 1996 -7.19097e-12
4461 1996 -0.000122589
4509 1996 -0.00330326
1994 1997 -1
1995 1997 -1
1996 1997 -3.28883e-05
1997 1997 0.00197634
2008 1997 -4.25306e-05
2022 1997 -6.16133e-05
3181 1997 -3.91281e-05
4461 1997 -3.3482e-06
4500 1997 -0.000297639
4509 1997 -0.00149919
1998 1998 1
1999 1999 1
2000 2000 1
2001 2001 1
2002 2002 1
2003 2003 1
2004 2004 1
2005 2005 1
1998 2006 -1
1999 2006 -1
2000 2006 -1
2006 2006 0.00603876
2007 2006 -0.002499
3181 2006 -0.000124208
4461 2006 -0.000122282
4509 2006 -0.00329327
2003 2007 -1
2004 2007 -1
2005 2007 -1
2006 2007 -0.00249612
2007 2007 0.0101976
2008 2007 -0.000202798
2020 2007 -0.00454545
3181 2007 -0.000127276
4461 2007 0
4500 2007 -0.00038343
4509 2007 -0.00244255
1988 2008 -1
1989 2008 -1
1990 2008 -1
1996 2008 -2.52009e-14
1997 2008 -4.25306e-05
2007 2008 -0.000203078
2008 2008 0.011142
2020 2008 0
2022 2008 0
3181 2008 -1.93365e-06
3182 2008 -0.00909091
4461 2008 0
4500 2008 -0.00125353
4509 2008 -0.000550038
2009 2009 0.00634458
2010 2009 -0.0037037
2019 2009 -1.0966e-05
2204 2009 -0.0025641
4506 2009 -1.98556e-06
4509 2009 -6.38235e-05
2009 2010 -0.0037037
2010 2010 0.00867492
2019 2010 0
2204 2010 0
2207 2010 -0.00492611
2209 2010 -2.95239e-06
4506 2010 -1.98556e-06
4509 2010 -4.01719e-05
2011 2011 1
2012 2012 1
2013 2013 1
2014 2014 1
2013 2015 -1
2014 2015 -1
2015 2015 0.00676451
2016 2015 -0.00384615
4493 2015 -0.000231931
4500 2015 -0.00244806
4509 2015 -0.000238371
2015 2016 -0.00384615
2016 2016 0.0144277
2017 2016 -2.53062e-06
2020 2016 -4.2177e-06
2204 2016 -0.0105263
3182 2016 -2.10885e-06
4493 2016 0
4500 2016 -1.15824e-05
4509 2016 -3.47603e-05
2016 2017 -2.53062e-06
2017 2017 0.0203509
2018 2017 -0.00561798
2020 2017 0
2204 2017 0
3182 2017 0
4493 2017 -0.0147059
4500 2017 -1.98556e-06
4509 2017 -2.2516e-05
2017 2018 -0.00561798
2018 2018 0.00830474
2019 2018 -0.00263158
2020 2018 0
2204 2018 -3.37416e-06
3182 2018 0
4493 2018 0
4500 2018 -1.98556e-06
4509 2018 -4.98207e-05
2009 2019 -1.0966e-05
2010 2019 0
2018 2019 -0.00263158
2019 2019 0.00641466
2020 2019 0
2021 2019 -6.32655e-06
2204 2019 0
2207 2019 0
2209 2019 -0.0037037
3182 2019 0
4493 2019 0
4500 2019 0
4506 2019 -1.98556e-06
4509 2019 -6.00989e-05
1986 2020 -3.38941e-05
1987 2020 -0.000151439
2007 2020 -0.00454545
2008 2020 0
2016 2020 -4.2177e-06
2017 2020 0
2018 2020 0
2019 2020 0
2020 2020 0.00510113
2021 2020 0
2022 2020 0
2204 2020 0
2207 2020 0
2209 2020 0
3181 2020 0
3182 2020 0
3184 2020 -1.98881e-05
4457 2020 0
4461 2020 0
4493 2020 -2.50466e-06
4500 2020 -0.000138646
4506 2020 0
4509 2020 -0.000205085
1922 2021 -1
1923 2021 -1
1931 2021 -0.0070922
1971 2021 0.000111095
1972 2021 -1.95312e-06
1973 2021 4.7215e-07
1974 2021 -3.06919e-06
1975 2021 0
1976 2021 0
2019 2021 -6.32655e-06
2020 2021 0
2021 2021 0.00924999
2022 2021 -8.83121e-06
2204 2021 0
2207 2021 0
2209 2021 0
3181 2021 0
3182 2021 0
3183 2021 0
3184 2021 0
3185 2021 0
4457 2021 0
4461 2021 -6.32655e-06
4462 2021 0
4463 2021 0
4493 2021 0
4500 2021 0
4502 2021 -2.35542e-06
4506 2021 -0.0021268
4509 2021 -0.000113693
1969 2022 -0.00229885
1970 2022 0
1971 2022 0
1972 2022 -5.82042e-05
1973 2022 -1.44073e-05
1974 2022 0
1975 2022 0
1976 2022 -2.08938e-06
1997 2022 -6.3167e-05
2008 2022 0
2020 2022 0
2021 2022 -8.83121e-06
2022 2022 0.00320127
2204 2022 0
2207 2022 0
2209 2022 0
3181 2022 -6.97542e-06
3182 2022 0
3183 2022 0
3184 2022 0
3185 2022 0
4457 2022 0
4461 2022 -1.13618e-05
4462 2022 0
4463 2022 0
4493 2022 0
4500 2022 0
4502 2022 0
4506 2022 -0.000594971
4509 2022 -0.000142412
2023 2023 1
2024 2024 1
2025 2025 1
2026 2026 1
2027 2027 1
2028 2028 1
2029 2029 1
2030 2030 1
2028 2031 -1
2029 2031 -1
2030 2031 -1
2031 2031 0.00612996
2032 2031 -0.00253667
4455 2031 -0.000126145
4457 2031 -0.000126171
4509 2031 -0.00334097
2025 2032 -1
2026 2032 -1
2027 2032 -1
2031 2032 -0.00253668
2032 2032 0.00347242
2033 2032 -8.09924e-12
2203 2032 -1.72939e-05
4455 2032 0
4457 2032 -0.000126156
4509 2032 -0.00079229
2023 2033 -1
2024 2033 -1
2032 2033 -2.57212e-14
2033 2033 0.00428509
2203 2033 -0.000149293
4455 2033 -2.51932e-05
4457 2033 -2.51932e-05
4491 2033 -0.000311597
4500 2033 -0.00330681
4509 2033 -0.000467009
2034 2034 1
2035 2035 1
2036 2036 1
2037 2037 1
2038 2038 1
2039 2039 1
2040 2040 1
2041 2041 1
2037 2042 -1
2038 2042 -1
2039 2042 -1
2042 2042 0.00344935
2043 2042 -2.34999e-05
2054 2042 -7.19096e-12
4461 2042 -0.000122589
4509 2042 -0.00330326
2040 2043 -1
2041 2043 -1
2042 2043 -3.28883e-05
2043 2043 0.00197634
2054 2043 -4.25306e-05
2055 2043 -3.91281e-05
2111 2043 -6.16133e-05
4461 2043 -3.3482e-06
4500 2043 -0.000297639
4509 2043 -0.0014992
2044 2044 1
2045 2045 1
2046 2046 1
2047 2047 1
2048 2048 1
2049 2049 1
2050 2050 1
2051 2051 1
2044 2052 -1
2045 2052 -1
2046 2052 -1
2052 2052 0.00603876
2053 2052 -0.002499
2055 2052 -0.000124208
4461 2052 -0.000122282
4509 2052 -0.00329327
2049 2053 -1
2050 2053 -1
2051 2053 -1
2052 2053 -0.00249612
2053 2053 0.0103047
2054 2053 -0.000202798
2055 2053 -0.000127276
2203 2053 -0.00465116
4461 2053 0
4500 2053 -0.000384475
4509 2053 -0.00244291
2034 2054 -1
2035 2054 -1
2036 2054 -1
2042 2054 -2.52009e-14
2043 2054 -4.25306e-05
2053 2054 -0.000203079
2054 2054 0.0085058
2055 2054 -1.93365e-06
2111 2054 0
2203 2054 0
3184 2054 -0.00645161
4461 2054 0
4500 2054 -0.00125481
4509 2054 -0.000551829
2043 2055 -3.8614e-05
2047 2055 -1
2048 2055 -1
2052 2055 -0.000126992
2053 2055 -0.000128677
2054 2055 -1.93365e-06
2055 2055 0.00151864
2110 2055 -1.65548e-05
2111 2055 -6.97542e-06
2203 2055 0
2204 2055 -5.06124e-06
3184 2055 0
4461 2055 -1.92651e-05
4500 2055 -0.000865906
4509 2055 -0.000308657
2056 2056 1
2057 2057 1
2058 2058 1
2059 2059 1
2060 2060 1
2061 2061 1
2062 2062 1
2063 2063 1
2058 2064 -1
2059 2064 -1
2060 2064 -1
2064 2064 0.0116524
2065 2064 -0.0113636
4463 2064 -8.24722e-06
4509 2064 -0.000280487
2061 2065 -1
2062 2065 -1
2063 2065 -1
2064 2065 -0.0113636
2065 2065 0.018589
2109 2065 -2.10885e-06
2202 2065 -0.0070922
2206 2065 -3.79593e-06
4463 2065 0
4502 2065 -2.35542e-06
4506 2065 -2.99132e-06
4509 2065 -0.000121879
2066 2066 1
2067 2067 1
2068 2068 1
2069 2069 1
2070 2070 1
2071 2071 1
2072 2072 1
2073 2073 1
2074 2074 1
2075 2075 1
2076 2076 1
2077 2077 1
2078 2078 1
2079 2079 1
2080 2080 1
2070 2081 -1
2071 2081 -1
2072 2081 -1
2073 2081 -1
2074 2081 -1
2081 2081 0.00262854
2082 2081 -4.94093e-05
2083 2081 -1.45433e-05
2088 2081 -0.00060722
4509 2081 -0.00195736
2078 2082 -1
2079 2082 -1
2080 2082 -1
2081 2082 -4.94093e-05
2082 2082 0.00649126
2083 2082 0
2085 2082 -0.000842224
2087 2082 -0.00416863
2088 2082 -6.28709e-05
4509 2082 -0.00136812
2081 2083 0.000136255
2082 2083 0
2083 2083 0.00568123
2085 2083 0
2087 2083 0
2088 2083 0
4502 2083 -0.00552486
4509 2083 -0.000292623
2084 2084 0.00220827
2085 2084 -1.65548e-05
2087 2084 -0.00209205
2088 2084 -1.65548e-05
4502 2084 -8.38348e-06
4509 2084 -7.47309e-05
2066 2085 -1
2067 2085 -1
2068 2085 -1
2069 2085 -1
2082 2085 -0.000845217
2083 2085 0
2084 2085 -2.76001e-06
2085 2085 0.00255572
2086 2085 -3.06427e-05
2087 2085 -1.9661e-06
2088 2085 -5.81735e-05
4502 2085 -8.01362e-06
4509 2085 -0.00160894
2085 2086 -2.7459e-05
2086 2086 0.00444311
2087 2086 0
2088 2086 0
4502 2086 -1.9661e-06
4506 2086 -0.00436681
4509 2086 -4.68748e-05
2082 2087 -0.00416863
2083 2087 0
2084 2087 -0.00209205
2085 2087 -1.9661e-06
2086 2087 0
2087 2087 0.00994678
2088 2087 0
2110 2087 -0.00363636
4502 2087 -1.23157e-05
4506 2087 -5.56087e-06
4509 2087 -2.98872e-05
2075 2088 -1
2076 2088 -1
2077 2088 -1
2081 2088 -0.00053828
2082 2088 -5.57429e-05
2083 2088 0
2084 2088 -1.65548e-05
2085 2088 -7.04901e-05
2086 2088 0
2087 2088 0
2088 2088 0.00366855
2110 2088 0
2111 2088 -0.00229885
4502 2088 0
4506 2088 -1.98556e-06
4509 2088 -0.000686644
2089 2089 1
2090 2090 1
2089 2091 -1
2090 2091 -1
2091 2091 0.00220604
2108 2091 -0.00192308
2207 2091 -4.2177e-06
4463 2091 -8.24722e-06
4502 2091 -2.08938e-06
4506 2091 -2.75772e-06
4509 2091 -0.000265647
2092 2092 0.00256246
2093 2092 -0.000596606
2108 2092 -0.00214133
2111 2092 0.000218916
2202 2092 -1.95312e-06
4461 2092 -6.39792e-06
4506 2092 -2.92646e-05
4509 2092 -5.82691e-06
2092 2093 -0.000301312
2093 2093 0.00438228
2108 2093 0
2109 2093 -0.00225225
2111 2093 -0.00035059
2202 2093 -0.000123574
4461 2093 0
4502 2093 -3.13407e-06
4506 2093 -0.00132235
4509 2093 -2.90697e-05
2094 2094 1
2095 2095 1
2096 2096 1
2097 2097 1
2098 2098 1
2099 2099 1
2100 2100 1
2101 2101 1
2096 2102 -1
2097 2102 -1
2102 2102 0.00760699
2103 2102 -1.01225e-05
2105 2102 -0.000123728
2109 2102 -0.00704225
4509 2102 -0.000430886
2098 2103 -1
2099 2103 -1
2100 2103 -1
2101 2103 -1
2102 2103 -1.01225e-05
2103 2103 0.00320237
2104 2103 -0.000892683
2105 2103 -3.51219e-06
2106 2103 -0.000532337
2109 2103 0
4463 2103 -4.82245e-05
4509 2103 -0.00171549
2103 2104 -0.00139643
2104 2104 0.0114145
2105 2104 -2.51115e-06
2106 2104 0.000349508
2109 2104 0
4462 2104 -0.0103093
4463 2104 -2.86154e-06
4509 2104 -5.29186e-05
2102 2105 -0.000123728
2103 2105 -0.000130898
2104 2105 -2.51115e-06
2105 2105 0.00595368
2106 2105 0
2109 2105 0
2208 2105 -0.00561798
4462 2105 -3.9257e-06
4463 2105 -2.86154e-06
4509 2105 -7.17759e-05
2094 2106 -1
2095 2106 -1
2103 2106 -1.2247e-05
2104 2106 -0.000123728
2105 2106 0
2106 2106 0.00201534
2107 2106 -0.00139082
2109 2106 0
2110 2106 -3.80242e-06
2208 2106 0
4462 2106 0
4463 2106 0
4502 2106 -2.08938e-06
4506 2106 -3.4066e-06
4509 2106 -0.000479242
2106 2107 -0.00139082
2107 2107 0.0031373
2108 2107 -0.000308816
2109 2107 0
2110 2107 -0.000218027
2202 2107 -5.82044e-05
2208 2107 0
4462 2107 0
4463 2107 0
4502 2107 -2.08938e-06
4506 2107 -0.0011046
4509 2107 -5.47457e-05
2091 2108 -0.00192308
2092 2108 -0.00214133
2093 2108 0
2107 2108 -0.00049719
2108 2108 0.00526119
2109 2108 0
2110 2108 9.21272e-05
2111 2108 0
2202 2108 -3.06919e-06
2207 2108 0
2208 2108 0
4461 2108 -1.1271e-05
4462 2108 0
4463 2108 0
4502 2108 -2.08938e-06
4506 2108 -0.000710053
4509 2108 -6.5238e-05
2065 2109 -2.10885e-06
2093 2109 -0.00225225
2102 2109 -0.00704225
2103 2109 0
2104 2109 0
2105 2109 0
2106 2109 0
2107 2109 0
2108 2109 0
2109 2109 0.00936798
2110 2109 0
2111 2109 -2.08938e-06
2202 2109 0
2206 2109 0
2207 2109 0
2208 2109 0
4461 2109 0
4462 2109 0
4463 2109 0
4502 2109 -3.13407e-06
4506 2109 -6.74183e-06
4509 2109 -5.94046e-05
2055 2110 -1.65547e-05
2087 2110 -0.00363636
2088 2110 0
2106 2110 -3.80242e-06
2107 2110 -1.51284e-05
2108 2110 -7.82221e-05
2109 2110 0
2110 2110 0.0042839
2111 2110 0
2202 2110 0
2203 2110 0
2204 2110 0
2206 2110 0
2207 2110 0
2208 2110 0
3184 2110 0
4461 2110 0
4462 2110 0
4463 2110 0
4500 2110 0
4502 2110 0
4506 2110 -0.000429105
4509 2110 -0.000104723
2043 2111 -6.3167e-05
2054 2111 0
2055 2111 -6.97542e-06
2088 2111 -0.00229885
2092 2111 -5.82042e-05
2093 2111 -1.44073e-05
2108 2111 0
2109 2111 -2.08938e-06
2110 2111 0
2111 2111 0.00320127
2202 2111 -8.83121e-06
2203 2111 0
2204 2111 0
2206 2111 0
2207 2111 0
2208 2111 0
3184 2111 0
4461 2111 -1.13618e-05
4462 2111 0
4463 2111 0
4500 2111 0
4502 2111 0
4506 2111 -0.000594971
4509 2111 -0.000142412
2112 2112 1
2113 2113 1
2114 2114 1
2115 2115 1
2116 2116 1
2117 2117 1
2118 2118 1
2119 2119 1
2114 2120 -1
2115 2120 -1
2116 2120 -1
2120 2120 0.0116524
2121 2120 -0.0113636
4463 2120 -8.24722e-06
4509 2120 -0.000280487
2117 2121 -1
2118 2121 -1
2119 2121 -1
2120 2121 -0.0113636
2121 2121 0.018589
2165 2121 -2.10885e-06
4453 2121 -3.79593e-06
4463 2121 0
4466 2121 -0.0070922
4502 2121 -2.35542e-06
4506 2121 -2.99132e-06
4509 2121 -0.000121879
2122 2122 1
2123 2123 1
2124 2124 1
2125 2125 1
2126 2126 1
2127 2127 1
2128 2128 1
2129 2129 1
2130 2130 1
2131 2131 1
2132 2132 1
2133 2133 1
2134 2134 1
2135 2135 1
2136 2136 1
2126 2137 -1
2127 2137 -1
2128 2137 -1
2129 2137 -1
2130 2137 -1
2137 2137 0.00262854
2138 2137 -4.94093e-05
2139 2137 -1.45433e-05
2144 2137 -0.00060722
4509 2137 -0.00195736
2134 2138 -1
2135 2138 -1
2136 2138 -1
2137 2138 -4.94093e-05
2138 2138 0.00649126
2139 2138 0
2141 2138 -0.000842224
2143 2138 -0.00416863
2144 2138 -6.28709e-05
4509 2138 -0.00136812
2137 2139 0.000136255
2138 2139 0
2139 2139 0.00568123
2141 2139 0
2143 2139 0
2144 2139 0
4502 2139 -0.00552486
4509 2139 -0.000292623
2140 2140 0.00220827
2141 2140 -1.65548e-05
2143 2140 -0.00209205
2144 2140 -1.65548e-05
4502 2140 -8.38348e-06
4509 2140 -7.47309e-05
2122 2141 -1
2123 2141 -1
2124 2141 -1
2125 2141 -1
2138 2141 -0.000845217
2139 2141 0
2140 2141 -2.76001e-06
2141 2141 0.00255572
2142 2141 -3.06427e-05
2143 2141 -1.9661e-06
2144 2141 -5.81735e-05
4502 2141 -8.01362e-06
4509 2141 -0.00160894
2141 2142 -2.7459e-05
2142 2142 0.00444311
2143 2142 0
2144 2142 0
4502 2142 -1.9661e-06
4506 2142 -0.00436681
4509 2142 -4.68748e-05
2138 2143 -0.00416863
2139 2143 0
2140 2143 -0.00209205
2141 2143 -1.9661e-06
2142 2143 0
2143 2143 0.00994678
2144 2143 0
2200 2143 -0.00363636
4502 2143 -1.23157e-05
4506 2143 -5.56087e-06
4509 2143 -2.98872e-05
2131 2144 -1
2132 2144 -1
2133 2144 -1
2137 2144 -0.00053828
2138 2144 -5.57429e-05
2139 2144 0
2140 2144 -1.65548e-05
2141 2144 -7.04901e-05
2142 2144 0
2143 2144 0
2144 2144 0.00366855
2200 2144 0
2201 2144 -0.00229885
4502 2144 0
4506 2144 -1.98556e-06
4509 2144 -0.000686644
2145 2145 1
2146 2146 1
2145 2147 -1
2146 2147 -1
2147 2147 0.00220604
2164 2147 -0.00192308
2205 2147 -4.2177e-06
4463 2147 -8.24722e-06
4502 2147 -2.08938e-06
4506 2147 -2.75772e-06
4509 2147 -0.000265647
2148 2148 0.00256246
2149 2148 -0.000596606
2164 2148 -0.00214133
2201 2148 0.000218916
4461 2148 -6.39792e-06
4466 2148 -1.95312e-06
4506 2148 -2.92646e-05
4509 2148 -5.82691e-06
2148 2149 -0.000301312
2149 2149 0.00438228
2164 2149 0
2165 2149 -0.00225225
2201 2149 -0.00035059
4461 2149 0
4466 2149 -0.000123575
4502 2149 -3.13407e-06
4506 2149 -0.00132235
4509 2149 -2.90697e-05
2150 2150 1
2151 2151 1
2152 2152 1
2153 2153 1
2154 2154 1
2155 2155 1
2156 2156 1
2157 2157 1
2152 2158 -1
2153 2158 -1
2158 2158 0.00760699
2159 2158 -1.01225e-05
2161 2158 -0.000123728
2165 2158 -0.00704225
4509 2158 -0.000430886
2154 2159 -1
2155 2159 -1
2156 2159 -1
2157 2159 -1
2158 2159 -1.01225e-05
2159 2159 0.00320237
2160 2159 -0.000892683
2161 2159 -4.15459e-06
2162 2159 -0.000532335
2165 2159 0
4463 2159 -4.82245e-05
4509 2159 -0.00171485
2159 2160 -0.00139642
2160 2160 0.0108139
2161 2160 -2.51115e-06
2162 2160 0.000349506
2165 2160 0
4462 2160 -0.00970874
4463 2160 -2.86154e-06
4509 2160 -5.29186e-05
2158 2161 -0.000123728
2159 2161 -0.000130898
2160 2161 -2.51115e-06
2161 2161 0.00529189
2162 2161 0
2165 2161 0
4456 2161 -0.00495049
4462 2161 -3.9257e-06
4463 2161 -2.86154e-06
4509 2161 -7.74741e-05
2150 2162 -1
2151 2162 -1
2159 2162 -1.2247e-05
2160 2162 -0.000123728
2161 2162 0
2162 2162 0.00201534
2163 2162 -0.00139082
2165 2162 0
2200 2162 -3.80242e-06
4456 2162 0
4462 2162 0
4463 2162 0
4502 2162 -2.08938e-06
4506 2162 -3.4066e-06
4509 2162 -0.000479242
2162 2163 -0.00139082
2163 2163 0.00313731
2164 2163 -0.000308816
2165 2163 0
2200 2163 -0.000218028
4456 2163 0
4462 2163 0
4463 2163 0
4466 2163 -5.82044e-05
4502 2163 -2.08938e-06
4506 2163 -0.0011046
4509 2163 -5.47457e-05
2147 2164 -0.00192308
2148 2164 -0.00214133
2149 2164 0
2163 2164 -0.00049719
2164 2164 0.00526119
2165 2164 0
2200 2164 9.21274e-05
2201 2164 0
2205 2164 0
4456 2164 0
4461 2164 -1.1271e-05
4462 2164 0
4463 2164 0
4466 2164 -3.06919e-06
4502 2164 -2.08938e-06
4506 2164 -0.000710053
4509 2164 -6.5238e-05
2121 2165 -2.10885e-06
2149 2165 -0.00225225
2158 2165 -0.00704225
2159 2165 0
2160 2165 0
2161 2165 0
2162 2165 0
2163 2165 0
2164 2165 0
2165 2165 0.00936798
2200 2165 0
2201 2165 -2.08938e-06
2205 2165 0
4453 2165 0
4456 2165 0
4461 2165 0
4462 2165 0
4463 2165 0
4466 2165 0
4502 2165 -3.13407e-06
4506 2165 -6.74183e-06
4509 2165 -5.94046e-05
2166 2166 1
2167 2167 1
2168 2168 1
2169 2169 1
2170 2170 1
2171 2171 1
2172 2172 1
2173 2173 1
2169 2174 -1
2170 2174 -1
2171 2174 -1
2174 2174 0.00344935
2175 2174 -2.34999e-05
2186 2174 -7.19096e-12
4461 2174 -0.000122589
4509 2174 -0.00330326
2172 2175 -1
2173 2175 -1
2174 2175 -3.28883e-05
2175 2175 0.00197634
2186 2175 -4.25306e-05
2187 2175 -3.91281e-05
2201 2175 -6.16133e-05
4461 2175 -3.3482e-06
4500 2175 -0.000297639
4509 2175 -0.0014992
2176 2176 1
2177 2177 1
2178 2178 1
2179 2179 1
2180 2180 1
2181 2181 1
2182 2182 1
2183 2183 1
2176 2184 -1
2177 2184 -1
2178 2184 -1
2184 2184 0.00603876
2185 2184 -0.00249901
2187 2184 -0.000124207
4461 2184 -0.000122282
4509 2184 -0.00329326
2181 2185 -1
2182 2185 -1
2183 2185 -1
2184 2185 -0.00249613
2185 2185 0.0109124
2186 2185 -0.000202798
2187 2185 -0.000127276
4454 2185 -0.00526316
4461 2185 0
4500 2185 -0.000381464
4509 2185 -0.00244157
2166 2186 -1
2167 2186 -1
2168 2186 -1
2174 2186 -2.52009e-14
2175 2186 -4.25306e-05
2185 2186 -0.000203079
2186 2186 0.00644254
2187 2186 -1.93365e-06
2201 2186 0
4454 2186 0
4457 2186 -0.00438596
4461 2186 0
4500 2186 -0.00125536
4509 2186 -0.000553671
2175 2187 -3.8614e-05
2179 2187 -1
2180 2187 -1
2184 2187 -0.000126992
2185 2187 -0.000128677
2186 2187 -1.93365e-06
2187 2187 0.00151864
2199 2187 -5.06124e-06
2200 2187 -1.65548e-05
2201 2187 -6.97542e-06
4454 2187 0
4457 2187 0
4461 2187 -1.92651e-05
4500 2187 -0.000865907
4509 2187 -0.000308657
2188 2188 0.00634458
2189 2188 -0.0037037
2198 2188 -1.0966e-05
2199 2188 -0.0025641
4506 2188 -1.98556e-06
4509 2188 -6.38235e-05
2188 2189 -0.0037037
2189 2189 0.00867492
2198 2189 0
2199 2189 0
2205 2189 -0.00492611
2206 2189 -2.95239e-06
4506 2189 -1.98556e-06
4509 2189 -4.01719e-05
2190 2190 1
2191 2191 1
2192 2192 1
2193 2193 1
2192 2194 -1
2193 2194 -1
2194 2194 0.00662249
2195 2194 -0.0037037
4491 2194 -0.00023193
4500 2194 -0.00244813
4509 2194 -0.000238728
2194 2195 -0.0037037
2195 2195 0.0142884
2196 2195 -3.79593e-06
2199 2195 -0.0105263
2203 2195 -5.48301e-06
3184 2195 -2.10885e-06
4491 2195 0
4500 2195 -1.15824e-05
4509 2195 -3.54287e-05
2195 2196 -3.79593e-06
2196 2196 0.00965633
2197 2196 -0.00561798
2199 2196 0
2203 2196 0
3184 2196 0
4491 2196 -0.004
4500 2196 -4.51618e-06
4509 2196 -3.0043e-05
2196 2197 -0.00561798
2197 2197 0.00830474
2198 2197 -0.00263158
2199 2197 -3.37416e-06
2203 2197 0
3184 2197 0
4491 2197 0
4500 2197 -1.98556e-06
4509 2197 -4.98207e-05
2188 2198 -1.0966e-05
2189 2198 0
2197 2198 -0.00263158
2198 2198 0.00641466
2199 2198 0
2202 2198 -6.32655e-06
2203 2198 0
2205 2198 0
2206 2198 -0.0037037
3184 2198 0
4491 2198 0
4500 2198 0
4506 2198 -1.98556e-06
4509 2198 -6.00989e-05
2187 2199 -5.06124e-06
2188 2199 -0.0025641
2189 2199 0
2195 2199 -0.0105263
2196 2199 0
2197 2199 -3.37416e-06
2198 2199 0
2199 2199 0.0131419
2200 2199 0
2201 2199 0
2202 2199 0
2203 2199 0
2205 2199 0
2206 2199 0
3184 2199 0
4454 2199 0
4457 2199 0
4461 2199 0
4491 2199 0
4500 2199 -7.08573e-06
4506 2199 0
4509 2199 -3.59348e-05
2143 2200 -0.00363636
2144 2200 0
2162 2200 -3.80242e-06
2163 2200 -1.51284e-05
2164 2200 -7.82221e-05
2165 2200 0
2187 2200 -1.65547e-05
2199 2200 0
2200 2200 0.0042839
2201 2200 0
2202 2200 0
2203 2200 0
2205 2200 0
2206 2200 0
3184 2200 0
4453 2200 0
4454 2200 0
4456 2200 0
4457 2200 0
4461 2200 0
4462 2200 0
4463 2200 0
4466 2200 0
4491 2200 0
4500 2200 0
4502 2200 0
4506 2200 -0.000429105
4509 2200 -0.000104723
2144 2201 -0.00229885
2148 2201 -5.82042e-05
2149 2201 -1.44073e-05
2164 2201 0
2165 2201 -2.08938e-06
2175 2201 -6.3167e-05
2186 2201 0
2187 2201 -6.97542e-06
2199 2201 0
2200 2201 0
2201 2201 0.00320127
2202 2201 0
2203 2201 0
2205 2201 0
2206 2201 0
3184 2201 0
4453 2201 0
4454 2201 0
4456 2201 0
4457 2201 0
4461 2201 -1.13618e-05
4462 2201 0
4463 2201 0
4466 2201 -8.83121e-06
4491 2201 0
4500 2201 0
4502 2201 0
4506 2201 -0.000594971
4509 2201 -0.000142412
2056 2202 -1
2057 2202 -1
2065 2202 -0.0070922
2092 2202 -1.95312e-06
2093 2202 4.70959e-07
2107 2202 0.000111095
2108 2202 -3.06919e-06
2109 2202 0
2110 2202 0
2111 2202 -8.83121e-06
2198 2202 -6.32655e-06
2199 2202 0
2200 2202 0
2201 2202 0
2202 2202 0.00924999
2203 2202 0
2204 2202 0
2205 2202 0
2206 2202 0
2207 2202 0
2208 2202 0
3184 2202 0
4453 2202 0
4454 2202 0
4456 2202 0
4457 2202 0
4461 2202 -6.32655e-06
4462 2202 0
4463 2202 0
4466 2202 0
4491 2202 0
4500 2202 0
4502 2202 -2.35542e-06
4506 2202 -0.0021268
4509 2202 -0.000113693
2032 2203 -3.38941e-05
2033 2203 -0.000151439
2053 2203 -0.00465116
2054 2203 0
2055 2203 0
2110 2203 0
2111 2203 0
2195 2203 -5.48301e-06
2196 2203 0
2197 2203 0
2198 2203 0
2199 2203 0
2200 2203 0
2201 2203 0
2202 2203 0
2203 2203 0.00520218
2204 2203 0
2205 2203 0
2206 2203 0
2207 2203 0
2208 2203 0
3184 2203 0
4453 2203 0
4454 2203 0
4455 2203 0
4456 2203 0
4457 2203 -1.8201e-05
4461 2203 0
4462 2203 0
4463 2203 0
4466 2203 0
4491 2203 0
4500 2203 -0.000138899
4502 2203 0
4506 2203 0
4509 2203 -0.0002031
2009 2204 -0.0025641
2010 2204 0
2016 2204 -0.0105263
2017 2204 0
2018 2204 -3.37416e-06
2019 2204 0
2020 2204 0
2021 2204 0
2022 2204 0
2055 2204 -5.06124e-06
2110 2204 0
2111 2204 0
2202 2204 0
2203 2204 0
2204 2204 0.0131419
2205 2204 0
2206 2204 0
2207 2204 0
2208 2204 0
2209 2204 0
3181 2204 0
3182 2204 0
3183 2204 0
3184 2204 0
3185 2204 0
4453 2204 0
4454 2204 0
4455 2204 0
4456 2204 0
4457 2204 0
4461 2204 0
4462 2204 0
4463 2204 0
4466 2204 0
4491 2204 0
4493 2204 0
4500 2204 -7.08573e-06
4502 2204 0
4506 2204 0
4509 2204 -3.59348e-05
1897 2205 -5.48301e-06
1898 2205 0
1920 2205 -0.00757576
1921 2205 0
2147 2205 -4.2177e-06
2164 2205 0
2165 2205 0
2189 2205 -0.00492611
2198 2205 0
2199 2205 0
2200 2205 0
2201 2205 0
2202 2205 0
2203 2205 0
2204 2205 0
2205 2205 0.0125786
2206 2205 0
2207 2205 0
2208 2205 0
2209 2205 0
3181 2205 0
3182 2205 0
3183 2205 0
3184 2205 0
3185 2205 0
4453 2205 0
4454 2205 0
4455 2205 0
4456 2205 0
4457 2205 0
4458 2205 0
4459 2205 0
4460 2205 0
4461 2205 0
4462 2205 -3.9257e-06
4463 2205 -4.56809e-06
4464 2205 0
4465 2205 0
4466 2205 0
4478 2205 0
4479 2205 0
4491 2205 0
4493 2205 0
4496 2205 0
4500 2205 0
4502 2205 0
4506 2205 0
4509 2205 -5.85222e-05
1897 2206 -0.00512821
1898 2206 0
1921 2206 0
2065 2206 -3.79593e-06
2109 2206 0
2110 2206 0
2111 2206 0
2189 2206 -2.95239e-06
2198 2206 -0.0037037
2199 2206 0
2200 2206 0
2201 2206 0
2202 2206 0
2203 2206 0
2204 2206 0
2205 2206 0
2206 2206 0.00887867
2207 2206 0
2208 2206 0
2209 2206 0
3181 2206 0
3182 2206 0
3183 2206 0
3184 2206 0
3185 2206 0
4453 2206 0
4454 2206 0
4455 2206 0
4456 2206 0
4457 2206 0
4458 2206 0
4459 2206 0
4460 2206 0
4461 2206 0
4462 2206 0
4463 2206 0
4464 2206 0
4465 2206 0
4466 2206 0
4478 2206 0
4479 2206 0
4491 2206 0
4493 2206 0
4496 2206 0
4500 2206 0
4502 2206 0
4506 2206 -1.98556e-06
4509 2206 -3.80242e-05
1871 2207 -5.48301e-06
1872 2207 0
1894 2207 -0.0075188
1895 2207 0
1896 2207 0
2010 2207 -0.00492611
2019 2207 0
2020 2207 0
2021 2207 0
2022 2207 0
2091 2207 -4.2177e-06
2108 2207 0
2109 2207 0
2110 2207 0
2111 2207 0
2202 2207 0
2203 2207 0
2204 2207 0
2205 2207 0
2206 2207 0
2207 2207 0.0125216
2208 2207 0
2209 2207 0
3181 2207 0
3182 2207 0
3183 2207 0
3184 2207 0
3185 2207 0
4453 2207 0
4454 2207 0
4455 2207 0
4456 2207 0
4457 2207 0
4458 2207 0
4459 2207 0
4460 2207 0
4461 2207 0
4462 2207 -3.9257e-06
4463 2207 -4.56809e-06
4464 2207 0
4465 2207 0
4466 2207 0
4478 2207 0
4479 2207 0
4484 2207 0
4491 2207 0
4492 2207 0
4493 2207 0
4496 2207 0
4500 2207 0
4502 2207 0
4506 2207 0
4509 2207 -5.85222e-05
1892 2208 -0.0104167
1893 2208 0
1894 2208 -2.00633e-05
1895 2208 -1.58001e-05
1896 2208 -1.13359e-05
1905 2208 -0.0105425
1906 2208 0
1919 2208 0
1920 2208 -1.6741e-05
1921 2208 -2.1653e-05
2105 2208 -0.00561798
2106 2208 0
2107 2208 0
2108 2208 0
2109 2208 0
2110 2208 0
2111 2208 0
2202 2208 0
2203 2208 0
2204 2208 0
2205 2208 0
2206 2208 0
2207 2208 0
2208 2208 0.104369
2209 2208 0
3181 2208 0
3182 2208 0
3183 2208 0
3184 2208 0
3185 2208 -0.0384641
4453 2208 0
4454 2208 0
4455 2208 0
4456 2208 -0.0384641
4457 2208 0
4458 2208 -3.30083e-05
4459 2208 -2.95823e-05
4460 2208 -1.40871e-05
4461 2208 0
4462 2208 -6.45632e-06
4463 2208 -2.86154e-06
4464 2208 -1.40871e-05
4465 2208 -1.40871e-05
4466 2208 0
4478 2208 -1.40871e-05
4479 2208 -1.40676e-05
4484 2208 0
4491 2208 0
4492 2208 0
4493 2208 0
4496 2208 0
4500 2208 0
4502 2208 0
4506 2208 -1.71303e-05
4509 2208 -0.000619041
1871 2209 -0.00512821
1872 2209 0
1895 2209 0
1896 2209 0
1931 2209 -3.79593e-06
1976 2209 0
2010 2209 -2.95239e-06
2019 2209 -0.0037037
2020 2209 0
2021 2209 0
2022 2209 0
2204 2209 0
2205 2209 0
2206 2209 0
2207 2209 0
2208 2209 0
2209 2209 0.00887867
3181 2209 0
3182 2209 0
3183 2209 0
3184 2209 0
3185 2209 0
4453 2209 0
4454 2209 0
4455 2209 0
4456 2209 0
4457 2209 0
4458 2209 0
4459 2209 0
4460 2209 0
4461 2209 0
4462 2209 0
4463 2209 0
4464 2209 0
4465 2209 0
4466 2209 0
4478 2209 0
4479 2209 0
4484 2209 0
4491 2209 0
4492 2209 0
4493 2209 0
4496 2209 0
4500 2209 0
4502 2209 0
4506 2209 -1.98556e-06
4509 2209 -3.80242e-05
2210 2210 0.0329541
2211 2210 -0.0277778
2478 2210 -0.00512821
3183 2210 -5.48301e-06
4463 2210 -2.86154e-06
4509 2210 -3.97437e-05
2210 2211 -0.0277778
2211 2211 0.0478244
2234 2211 -0.02
2478 2211 0
3183 2211 0
4462 2211 -7.29986e-06
4463 2211 -2.86154e-06
4509 2211 -3.64863e-05
2212 2212 1
2213 2213 1
2214 2214 1
2215 2215 1
2214 2216 -1
2215 2216 -1
2216 2216 0.0252374
2217 2216 -0.0105263
2233 2216 -0.000317072
2234 2216 -0.000249332
2477 2216 -0.0105425
4458 2216 -0.00273045
4459 2216 -3.25736e-06
4462 2216 -5.36621e-06
4492 2216 -5.36621e-06
4506 2216 -0.000518376
4509 2216 -0.000339348
2212 2217 -1
2213 2217 -1
2216 2217 -0.0105263
2217 2217 0.0253416
2232 2217 -0.0105263
2233 2217 -0.000312257
2234 2217 -0.000253923
2477 2217 0
4458 2217 -3.25736e-06
4459 2217 -0.00284672
4462 2217 -5.36621e-06
4464 2217 -6.20975e-06
4492 2217 -5.36621e-06
4506 2217 -0.000513072
4509 2217 -0.000342763
2218 2218 1
2219 2219 1
2220 2220 1
2221 2221 1
2222 2222 1
2223 2223 1
2220 2224 -1
2221 2224 -1
2224 2224 0.0253769
2230 2224 -0.0105263
2231 2224 -0.0105263
2233 2224 -0.000313189
2234 2224 -0.00025417
4462 2224 -5.36621e-06
4478 2224 -0.00288388
4479 2224 -7.05329e-06
4492 2224 -5.36621e-06
4506 2224 -0.00050936
4509 2224 -0.000345936
2225 2225 1
2226 2226 1
2227 2227 1
2228 2228 1
2225 2229 -1
2226 2229 -1
2229 2229 0.0254253
2230 2229 -0.0105263
2232 2229 -0.0105263
2233 2229 -0.000308327
2234 2229 -0.000256281
4460 2229 -0.00293702
4462 2229 -5.36621e-06
4465 2229 -6.20975e-06
4492 2229 -5.36621e-06
4506 2229 -0.000507437
4509 2229 -0.000346698
2222 2230 -1
2223 2230 -1
2224 2230 -0.0105263
2229 2230 -0.0105263
2230 2230 0.0254183
2231 2230 0
2232 2230 0
2233 2230 -0.00030958
2234 2230 -0.000255817
4460 2230 0
4462 2230 -5.36621e-06
4465 2230 -0.00292897
4478 2230 -6.20975e-06
4479 2230 0
4492 2230 -5.36621e-06
4506 2230 -0.000507434
4509 2230 -0.000346948
2218 2231 -1
2219 2231 -1
2224 2231 -0.0105263
2230 2231 0
2231 2231 0.0255398
2232 2231 0
2233 2231 -0.000319824
2234 2231 -0.000250419
3185 2231 -0.0104167
4458 2231 -1.28997e-05
4459 2231 -2.10236e-05
4460 2231 -1.40871e-05
4462 2231 -5.36621e-06
4464 2231 -1.40871e-05
4465 2231 -1.40871e-05
4478 2231 -1.40871e-05
4479 2231 -0.0028208
4492 2231 -5.36621e-06
4506 2231 -0.000511163
4509 2231 -0.000593581
2217 2232 -0.0105263
2227 2232 -1
2228 2232 -1
2229 2232 -0.0105263
2230 2232 0
2231 2232 0
2232 2232 0.025399
2233 2232 -0.00030922
2234 2232 -0.000255726
2477 2232 0
3185 2232 0
4458 2232 0
4459 2232 0
4460 2232 -6.20975e-06
4462 2232 -5.36621e-06
4464 2232 -0.00291004
4465 2232 0
4478 2232 0
4479 2232 0
4492 2232 -5.36621e-06
4506 2232 -0.000509149
4509 2232 -0.000345337
2216 2233 -0.00041712
2217 2233 -0.000379184
2224 2233 -0.000379859
2229 2233 -0.000353299
2230 2233 -0.000359532
2231 2233 -0.0004201
2232 2233 -0.000359374
2233 2233 0.0131252
2234 2233 -2.23213e-06
2477 2233 -1.6741e-05
3183 2233 -0.00775194
3185 2233 -1.87979e-05
4458 2233 -0.000180781
4459 2233 -0.000227452
4460 2233 -0.000254072
4462 2233 -1.27829e-05
4464 2233 -0.000247856
4465 2233 -0.000247644
4478 2233 -0.00022658
4479 2233 -0.000184758
4492 2233 0
4506 2233 -0.00104268
4509 2233 -4.23976e-05
2211 2234 -0.02
2216 2234 1.02441e-06
2217 2234 -9.46989e-05
2224 2234 -9.9378e-05
2229 2234 -0.000157225
2230 2234 -0.000144147
2231 2234 -9.33103e-06
2232 2234 -0.000142292
2233 2234 -2.23213e-06
2234 2234 0.024704
2477 2234 -2.1653e-05
2478 2234 0
3183 2234 0
3185 2234 -1.44829e-05
4458 2234 -0.000507274
4459 2234 -0.000419222
4460 2234 -0.000356881
4462 2234 -1.10958e-05
4463 2234 0
4464 2234 -0.000371778
4465 2234 -0.000369929
4478 2234 -0.000414566
4479 2234 -0.000503947
4492 2234 0
4506 2234 0
4509 2234 -0.0010649
2235 2235 0.0329541
2236 2235 -0.0277778
2475 2235 -0.00512821
2476 2235 -5.48301e-06
4463 2235 -2.86154e-06
4509 2235 -3.97437e-05
2235 2236 -0.0277778
2236 2236 0.0500412
2259 2236 -0.0222222
2475 2236 0
2476 2236 0
4462 2236 -6.03455e-06
4463 2236 -2.86154e-06
4509 2236 -3.22816e-05
2237 2237 1
2238 2238 1
2239 2239 1
2240 2240 1
2239 2241 -1
2240 2241 -1
2241 2241 0.0221023
2242 2241 -0.0105263
2258 2241 -8.94681e-05
2259 2241 -9.29807e-05
3180 2241 -0.0105425
4458 2241 -2.85051e-05
4459 2241 -3.25736e-06
4506 2241 -0.000497147
4509 2241 -0.000322119
2237 2242 -1
2238 2242 -1
2241 2242 -0.0105263
2242 2242 0.0220945
2257 2242 -0.0105263
2258 2242 -9e-05
2259 2242 -9.37399e-05
3180 2242 0
4458 2242 -3.25736e-06
4459 2242 -2.93357e-05
4464 2242 -6.20975e-06
4506 2242 -0.000497082
4509 2242 -0.00032225
2243 2243 1
2244 2244 1
2245 2245 1
2246 2246 1
2247 2247 1
2248 2248 1
2245 2249 -1
2246 2249 -1
2249 2249 0.0220902
2255 2249 -0.0105263
2256 2249 -0.0105263
2258 2249 -9.0101e-05
2259 2249 -9.37399e-05
4478 2249 -2.99392e-05
4479 2249 -7.05329e-06
4506 2249 -0.000491909
4509 2249 -0.000324791
2250 2250 1
2251 2251 1
2252 2252 1
2253 2253 1
2250 2254 -1
2251 2254 -1
2254 2254 0.02209
2255 2254 -0.0105263
2257 2254 -0.0105263
2258 2254 -9.0051e-05
2259 2254 -9.37399e-05
4460 2254 -2.95498e-05
4465 2254 -6.20975e-06
4506 2254 -0.000494355
4509 2254 -0.000323511
2247 2255 -1
2248 2255 -1
2249 2255 -0.0105263
2254 2255 -0.0105263
2255 2255 0.0220892
2256 2255 0
2257 2255 0
2258 2255 -9.00761e-05
2259 2255 -9.37399e-05
4460 2255 0
4465 2255 -2.93033e-05
4478 2255 -6.20975e-06
4479 2255 0
4506 2255 -0.000493127
4509 2255 -0.000324149
2243 2256 -1
2244 2256 -1
2249 2256 -0.0105263
2255 2256 0
2256 2256 0.0223444
2257 2256 0
2258 2256 -9.05019e-05
2259 2256 -9.34869e-05
2477 2256 -0.0104167
4458 2256 -1.28997e-05
4459 2256 -2.10236e-05
4460 2256 -1.40871e-05
4464 2256 -1.40871e-05
4465 2256 -1.40871e-05
4478 2256 -1.40871e-05
4479 2256 -6.36742e-05
4506 2256 -0.000487872
4509 2256 -0.0005756
2242 2257 -0.0105263
2252 2257 -1
2253 2257 -1
2254 2257 -0.0105263
2255 2257 0
2256 2257 0
2257 2257 0.0220897
2258 2257 -9.00256e-05
2259 2257 -9.37399e-05
2477 2257 0
3180 2257 0
4458 2257 0
4459 2257 0
4460 2257 -6.20975e-06
4464 2257 -2.8596e-05
4465 2257 0
4478 2257 0
4479 2257 0
4506 2257 -0.000495593
4509 2257 -0.000322878
2241 2258 -9.76494e-05
2242 2258 -9.81555e-05
2249 2258 -9.81555e-05
2254 2258 -9.81555e-05
2255 2258 -9.81555e-05
2256 2258 -9.85319e-05
2257 2258 -9.81555e-05
2258 2258 0.0114491
2259 2258 -2.51115e-06
2476 2258 -0.00621118
2477 2258 -1.71109e-05
3180 2258 -1.6741e-05
4458 2258 -8.49898e-05
4459 2258 -9.16992e-05
4460 2258 -9.16992e-05
4462 2258 -3.9257e-06
4464 2258 -9.16992e-05
4465 2258 -9.16992e-05
4478 2258 -9.16992e-05
4479 2258 -9.16992e-05
4506 2258 -0.00383416
4509 2258 -4.13205e-05
2236 2259 -0.0222222
2241 2259 -9.29807e-05
2242 2259 -9.37399e-05
2249 2259 -9.37399e-05
2254 2259 -9.37399e-05
2255 2259 -9.37399e-05
2256 2259 -9.34869e-05
2257 2259 -9.37399e-05
2258 2259 -2.51115e-06
2259 2259 0.0266977
2475 2259 0
2476 2259 0
2477 2259 -1.44829e-05
3180 2259 -2.1653e-05
4458 2259 -8.19304e-05
4459 2259 -8.83672e-05
4460 2259 -8.83672e-05
4462 2259 -3.9257e-06
4463 2259 0
4464 2259 -8.83672e-05
4465 2259 -8.83672e-05
4478 2259 -8.83672e-05
4479 2259 -8.83672e-05
4506 2259 0
4509 2259 -0.00316561
2260 2260 1
2261 2261 1
2262 2262 1
2263 2263 1
2264 2264 1
2265 2265 1
2266 2266 1
2267 2267 1
2265 2268 -1
2266 2268 -1
2267 2268 -1
2268 2268 0.00612953
2269 2268 -0.0025364
3182 2268 -0.000126155
3184 2268 -0.000126148
4509 2268 -0.00334083
2262 2269 -1
2263 2269 -1
2264 2269 -1
2268 2269 -0.0025364
2269 2269 0.00612381
2270 2269 -0.00253639
2474 2269 -0.000126154
3182 2269 -0.000126154
3184 2269 0
4509 2269 -0.000798708
2260 2270 -1
2261 2270 -1
2269 2270 -0.00253639
2270 2270 0.00514756
2474 2270 -0.000159443
3182 2270 -2.7149e-05
3184 2270 -2.7149e-05
4481 2270 -0.00034672
4500 2270 -0.00121797
4509 2270 -0.00083274
2271 2271 0.00867492
2280 2271 -0.0037037
2478 2271 -2.95239e-06
3183 2271 -0.00492611
4506 2271 -1.98556e-06
4509 2271 -4.01719e-05
2272 2272 1
2273 2273 1
2274 2274 1
2275 2275 1
2274 2276 -1
2275 2276 -1
2276 2276 0.00725159
2277 2276 -0.00384615
4481 2276 -0.000160768
4500 2276 -0.000504731
4509 2276 -0.00273994
2276 2277 -0.00384615
2277 2277 0.0144213
2278 2277 -0.0105263
2474 2277 -4.2177e-06
4481 2277 0
4500 2277 -1.12061e-05
4509 2277 -3.34236e-05
2277 2278 -0.0105263
2278 2278 0.0131419
2279 2278 -3.37416e-06
2280 2278 -0.0025641
2474 2278 0
3181 2278 -5.06124e-06
4481 2278 0
4500 2278 -7.08573e-06
4509 2278 -3.59348e-05
2278 2279 -3.37416e-06
2279 2279 0.00543158
2280 2279 0
2281 2279 -0.00263158
2474 2279 0
3181 2279 0
4481 2279 -0.00273973
4500 2279 -1.98556e-06
4509 2279 -5.49144e-05
2271 2280 -0.0037037
2278 2280 -0.0025641
2279 2280 0
2280 2280 0.00634458
2281 2280 -1.0966e-05
2474 2280 0
2478 2280 0
3181 2280 0
3183 2280 0
4481 2280 0
4500 2280 0
4506 2280 -1.98556e-06
4509 2280 -6.38235e-05
2279 2281 -0.00263158
2280 2281 -1.0966e-05
2281 2281 0.00641466
2337 2281 -6.32655e-06
2474 2281 0
2478 2281 -0.0037037
3181 2281 0
3183 2281 0
4481 2281 0
4500 2281 0
4506 2281 -1.98556e-06
4509 2281 -6.00989e-05
2282 2282 1
2283 2283 1
2284 2284 1
2285 2285 1
2286 2286 1
2287 2287 1
2288 2288 1
2289 2289 1
2284 2290 -1
2285 2290 -1
2286 2290 -1
2290 2290 0.0116524
2291 2290 -0.0113636
4463 2290 -8.24722e-06
4509 2290 -0.000280488
2287 2291 -1
2288 2291 -1
2289 2291 -1
2290 2291 -0.0113636
2291 2291 0.018589
2336 2291 -2.10885e-06
2337 2291 -0.0070922
2478 2291 -3.79593e-06
4463 2291 0
4502 2291 -2.35542e-06
4506 2291 -2.99132e-06
4509 2291 -0.000121879
2292 2292 1
2293 2293 1
2294 2294 1
2295 2295 1
2296 2296 1
2297 2297 1
2298 2298 1
2299 2299 1
2294 2300 -1
2295 2300 -1
2300 2300 0.0076086
2301 2300 -1.01225e-05
2303 2300 -0.000123728
2336 2300 -0.00704225
4509 2300 -0.0004325
2296 2301 -1
2297 2301 -1
2298 2301 -1
2299 2301 -1
2300 2301 -1.01225e-05
2301 2301 0.00320246
2302 2301 -0.000892683
2303 2301 -2.14134e-06
2335 2301 -0.000532452
2336 2301 0
4463 2301 -4.82245e-05
4509 2301 -0.00171684
2301 2302 -0.00139653
2302 2302 0.0115215
2303 2302 -2.51115e-06
2335 2302 0.000349617
2336 2302 0
4462 2302 -0.0104167
4463 2302 -2.86154e-06
4509 2302 -5.25616e-05
2300 2303 -0.000123728
2301 2303 -0.000130898
2302 2303 -2.51115e-06
2303 2303 0.00531205
2335 2303 0
2336 2303 0
2477 2303 -0.0049796
4462 2303 -3.9257e-06
4463 2303 -2.86154e-06
4509 2303 -6.85316e-05
2304 2304 1
2305 2305 1
2304 2306 -1
2305 2306 -1
2306 2306 0.00220581
2334 2306 -0.00192308
2476 2306 -4.2177e-06
4463 2306 -8.24722e-06
4502 2306 -2.08938e-06
4506 2306 -2.75772e-06
4509 2306 -0.000265422
2307 2307 1
2308 2308 1
2309 2309 1
2310 2310 1
2311 2311 1
2312 2312 1
2313 2313 1
2314 2314 1
2315 2315 1
2316 2316 1
2317 2317 1
2318 2318 1
2319 2319 1
2320 2320 1
2321 2321 1
2311 2322 -1
2312 2322 -1
2313 2322 -1
2314 2322 -1
2315 2322 -1
2322 2322 0.00248977
2323 2322 -0.000445445
2324 2322 -1.45433e-05
2329 2322 -3.85926e-05
4509 2322 -0.00199119
2319 2323 -1
2320 2323 -1
2321 2323 -1
2322 2323 -0.000402323
2323 2323 0.00531063
2324 2323 0
2326 2323 -1.9661e-06
2328 2323 -0.00416863
2329 2323 -1.65548e-05
4509 2323 -0.000721151
2322 2324 0.000135272
2323 2324 0
2324 2324 0.00568123
2326 2324 0
2328 2324 0
2329 2324 0
4502 2324 -0.00552486
4509 2324 -0.00029164
2325 2325 0.00224355
2326 2325 -0.000111741
2328 2325 -0.00209205
2329 2325 -1.43432e-05
4502 2325 -8.38348e-06
4509 2325 -1.70295e-05
2307 2326 -1
2308 2326 -1
2309 2326 -1
2310 2326 -1
2323 2326 -1.9661e-06
2324 2326 0
2325 2326 -6.10825e-05
2326 2326 0.00215113
2327 2326 -3.0079e-05
2328 2326 -1.9661e-06
2329 2326 -0.000566672
4502 2326 -8.01362e-06
4509 2326 -0.00148135
2326 2327 -1.92442e-05
2327 2327 0.00444309
2328 2327 0
2329 2327 0
4502 2327 -1.9661e-06
4506 2327 -0.00436681
4509 2327 -5.50651e-05
2323 2328 -0.00416863
2324 2328 0
2325 2328 -0.00209205
2326 2328 -1.9661e-06
2327 2328 0
2328 2328 0.00994678
2329 2328 0
2330 2328 -0.00363636
4502 2328 -1.23157e-05
4506 2328 -5.56087e-06
4509 2328 -2.98872e-05
2316 2329 -1
2317 2329 -1
2318 2329 -1
2322 2329 -3.85926e-05
2323 2329 -1.65548e-05
2324 2329 0
2325 2329 -6.08682e-05
2326 2329 -0.000531614
2327 2329 0
2328 2329 0
2329 2329 0.00417156
2330 2329 0
2473 2329 -0.00229885
4502 2329 0
4506 2329 -1.98556e-06
4509 2329 -0.00122309
2328 2330 -0.00363636
2329 2330 0
2330 2330 0.00443372
2331 2330 -1.51525e-05
2334 2330 -7.82221e-05
2335 2330 -3.80242e-06
2472 2330 -6.3114e-05
2473 2330 0
4502 2330 0
4506 2330 -0.000538967
4509 2330 -9.81022e-05
2330 2331 -0.000201856
2331 2331 0.00313029
2334 2331 -0.00030878
2335 2331 -0.00139082
2337 2331 -5.82044e-05
2472 2331 0
2473 2331 0
4502 2331 -2.08938e-06
4506 2331 -0.0011138
4509 2331 -5.47457e-05
2332 2332 0.0025623
2333 2332 -0.000627181
2334 2332 -0.00214133
2337 2332 -1.95312e-06
2473 2332 0.000249491
4461 2332 -6.39792e-06
4506 2332 -2.91073e-05
4509 2332 -5.82691e-06
2332 2333 -0.000301303
2333 2333 0.00426149
2334 2333 0
2336 2333 -0.00225225
2337 2333 -5.82045e-05
2473 2333 -0.000385176
4461 2333 0
4502 2333 -3.13407e-06
4506 2333 -0.00123235
4509 2333 -2.90697e-05
2306 2334 -0.00192308
2330 2334 7.775e-05
2331 2334 -0.000482816
2332 2334 -0.00214133
2333 2334 0
2334 2334 0.00526126
2335 2334 0
2336 2334 0
2337 2334 -3.06919e-06
2472 2334 0
2473 2334 0
2476 2334 0
4461 2334 -1.1271e-05
4463 2334 0
4502 2334 -2.08938e-06
4506 2334 -0.000710121
4509 2334 -6.5238e-05
2292 2335 -1
2293 2335 -1
2301 2335 -1.22472e-05
2302 2335 -0.000123728
2303 2335 0
2330 2335 -3.80242e-06
2331 2335 -0.00139082
2334 2335 0
2335 2335 0.00201433
2336 2335 0
2337 2335 0
2472 2335 0
2473 2335 0
2476 2335 0
2477 2335 0
4461 2335 0
4462 2335 0
4463 2335 0
4502 2335 -2.08938e-06
4506 2335 -3.4066e-06
4509 2335 -0.00047824
2291 2336 -2.10885e-06
2300 2336 -0.00704225
2301 2336 0
2302 2336 0
2303 2336 0
2333 2336 -0.00225225
2334 2336 0
2335 2336 0
2336 2336 0.00936798
2337 2336 0
2472 2336 0
2473 2336 -2.08938e-06
2476 2336 0
2477 2336 0
2478 2336 0
4461 2336 0
4462 2336 0
4463 2336 0
4502 2336 -3.13407e-06
4506 2336 -6.74183e-06
4509 2336 -5.94046e-05
2281 2337 -6.32655e-06
2282 2337 -1
2283 2337 -1
2291 2337 -0.0070922
2331 2337 0.000110887
2332 2337 -1.95312e-06
2333 2337 0.000108133
2334 2337 -3.06919e-06
2335 2337 0
2336 2337 0
2337 2337 0.00919848
2472 2337 0
2473 2337 -8.83121e-06
2474 2337 0
2476 2337 0
2477 2337 0
2478 2337 0
3181 2337 0
3183 2337 0
4461 2337 -6.32655e-06
4462 2337 0
4463 2337 0
4481 2337 0
4500 2337 0
4502 2337 -2.35542e-06
4506 2337 -0.00218275
4509 2337 -0.000113693
2338 2338 1
2339 2339 1
2340 2340 1
2341 2341 1
2342 2342 1
2343 2343 1
2344 2344 1
2345 2345 1
2343 2346 -1
2344 2346 -1
2345 2346 -1
2346 2346 0.000826081
2347 2346 -7.69187e-12
2381 2346 -2.87492e-05
3177 2346 -1.59643e-05
4509 2346 -0.000781368
2340 2347 -1
2341 2347 -1
2342 2347 -1
2346 2347 -2.39085e-14
2347 2347 0.000400916
2348 2347 -1.16975e-09
2381 2347 0
3177 2347 -3.38941e-05
3178 2347 -1.94254e-05
4509 2347 -0.000347596
2338 2348 -1
2339 2348 -1
2347 2348 -1.76389e-11
2348 2348 0.004951
2381 2348 -0.000106361
3177 2348 -0.000106361
3178 2348 -6.51437e-05
4480 2348 -0.000311318
4500 2348 -0.00389481
4509 2348 -0.000467008
2349 2349 1
2350 2350 1
2351 2351 1
2352 2352 1
2353 2353 1
2354 2354 1
2355 2355 1
2356 2356 1
2354 2357 -1
2355 2357 -1
2356 2357 -1
2357 2357 0.0034781
2358 2357 -7.50016e-12
2381 2357 -1.72721e-05
3182 2357 -0.000126145
4509 2357 -0.00333468
2351 2358 -1
2352 2358 -1
2353 2358 -1
2357 2358 -2.40012e-14
2358 2358 0.000400916
2359 2358 -1.16982e-09
2381 2358 -3.38941e-05
2471 2358 -1.94254e-05
3182 2358 0
4509 2358 -0.000347596
2349 2359 -1
2350 2359 -1
2358 2359 -1.764e-11
2359 2359 0.0042815
2381 2359 -0.000106357
2471 2359 -6.51402e-05
3182 2359 -2.51915e-05
4475 2359 -0.000311319
4500 2359 -0.00330648
4509 2359 -0.000467007
2360 2360 1
2361 2361 1
2362 2362 1
2363 2363 1
2364 2364 1
2365 2365 1
2366 2366 1
2367 2367 1
2363 2368 -1
2364 2368 -1
2365 2368 -1
2368 2368 0.00603732
2369 2368 -0.000122619
2380 2368 -0.00249984
4461 2368 -0.00012227
4509 2368 -0.00329259
2366 2369 -1
2367 2369 -1
2368 2369 -0.000125483
2369 2369 0.00143398
2380 2369 -0.000134942
2472 2369 -3.86309e-05
2473 2369 -1.65548e-05
4461 2369 -3.3482e-06
4500 2369 -0.000876094
4509 2369 -0.00023893
2370 2370 1
2371 2371 1
2372 2372 1
2373 2373 1
2374 2374 1
2375 2375 1
2376 2376 1
2377 2377 1
2370 2378 -1
2371 2378 -1
2372 2378 -1
2378 2378 0.00345091
2379 2378 -7.22157e-12
2472 2378 -2.50167e-05
4461 2378 -0.000122591
4509 2378 -0.00330331
2375 2379 -1
2376 2379 -1
2377 2379 -1
2378 2379 -2.53067e-14
2379 2379 0.00688674
2380 2379 -0.000203074
2472 2379 -3.62625e-05
2474 2379 -0.00480769
4461 2379 0
4500 2379 -0.00127376
4509 2379 -0.000565952
2360 2380 -1
2361 2380 -1
2362 2380 -1
2368 2380 -0.00249696
2369 2380 -0.00013353
2379 2380 -0.000202808
2380 2380 0.0158298
2381 2380 -0.0102041
2472 2380 -1.93365e-06
2473 2380 0
2474 2380 0
4461 2380 0
4500 2380 -0.000364704
4509 2380 -0.00242578
2346 2381 -3.38941e-05
2347 2381 0
2348 2381 -0.000108417
2357 2381 -3.38941e-05
2358 2381 -3.38941e-05
2359 2381 -0.000108417
2380 2381 -0.0102041
2381 2381 0.0112318
2471 2381 -1.77792e-05
2472 2381 0
2473 2381 0
2474 2381 0
3177 2381 -5.0223e-06
3178 2381 0
3182 2381 -5.0223e-06
4461 2381 0
4475 2381 -2.50466e-06
4480 2381 0
4500 2381 -0.000272466
4509 2381 -0.000406359
2382 2382 0.00867492
2391 2382 -0.0037037
2475 2382 -2.95239e-06
2476 2382 -0.00492611
4506 2382 -1.98556e-06
4509 2382 -4.01719e-05
2383 2383 1
2384 2384 1
2385 2385 1
2386 2386 1
2385 2387 -1
2386 2387 -1
2387 2387 0.00676439
2388 2387 -0.00384615
4475 2387 -0.000231933
4500 2387 -0.00244793
4509 2387 -0.000238371
2387 2388 -0.00384615
2388 2388 0.0144207
2389 2388 -0.0105263
2471 2388 -2.53062e-06
4475 2388 -2.75772e-06
4500 2388 -1.12061e-05
4509 2388 -3.17236e-05
2388 2389 -0.0105263
2389 2389 0.0131419
2390 2389 -3.37416e-06
2391 2389 -0.0025641
2471 2389 0
2472 2389 -5.06124e-06
4475 2389 0
4500 2389 -7.08573e-06
4509 2389 -3.59348e-05
2389 2390 -3.37416e-06
2390 2390 0.00830474
2391 2390 0
2392 2390 -0.00263158
2471 2390 0
2472 2390 0
4475 2390 -0.00561798
4500 2390 -1.98556e-06
4509 2390 -4.98207e-05
2382 2391 -0.0037037
2389 2391 -0.0025641
2390 2391 0
2391 2391 0.00634458
2392 2391 -1.0966e-05
2471 2391 0
2472 2391 0
2475 2391 0
2476 2391 0
4475 2391 0
4500 2391 0
4506 2391 -1.98556e-06
4509 2391 -6.38235e-05
2390 2392 -0.00263158
2391 2392 -1.0966e-05
2392 2392 0.00641466
2470 2392 -6.32655e-06
2471 2392 0
2472 2392 0
2475 2392 -0.0037037
2476 2392 0
4475 2392 0
4500 2392 0
4506 2392 -1.98556e-06
4509 2392 -6.00989e-05
2393 2393 1
2394 2394 1
2395 2395 1
2396 2396 1
2397 2397 1
2398 2398 1
2399 2399 1
2400 2400 1
2396 2401 -1
2397 2401 -1
2398 2401 -1
2401 2401 0.0060372
2402 2401 -0.000122635
2413 2401 -0.00249959
4461 2401 -0.000122272
4509 2401 -0.0032927
2399 2402 -1
2400 2402 -1
2401 2402 -0.000125482
2402 2402 0.001434
2413 2402 -0.000134943
2469 2402 -1.65548e-05
3179 2402 -3.86311e-05
4461 2402 -3.3482e-06
4500 2402 -0.000876109
4509 2402 -0.00023893
2403 2403 1
2404 2404 1
2405 2405 1
2406 2406 1
2407 2407 1
2408 2408 1
2409 2409 1
2410 2410 1
2403 2411 -1
2404 2411 -1
2405 2411 -1
2411 2411 0.00345091
2412 2411 -7.22156e-12
3179 2411 -2.50167e-05
4461 2411 -0.000122591
4509 2411 -0.00330331
2408 2412 -1
2409 2412 -1
2410 2412 -1
2411 2412 -2.53066e-14
2412 2412 0.00720592
2413 2412 -0.000203077
2471 2412 -0.00512821
3179 2412 -3.62625e-05
4461 2412 0
4500 2412 -0.001273
4509 2412 -0.000565373
2393 2413 -1
2394 2413 -1
2395 2413 -1
2401 2413 -0.00249672
2402 2413 -0.000133531
2412 2413 -0.000202805
2413 2413 0.010077
2469 2413 0
2471 2413 0
3177 2413 -0.00444444
3179 2413 -1.93365e-06
4461 2413 0
4500 2413 -0.00036717
4509 2413 -0.00243036
2414 2414 1
2415 2415 1
2416 2416 1
2417 2417 1
2418 2418 1
2419 2419 1
2420 2420 1
2421 2421 1
2416 2422 -1
2417 2422 -1
2418 2422 -1
2422 2422 0.0116524
2423 2422 -0.0113636
4463 2422 -8.24722e-06
4509 2422 -0.000280488
2419 2423 -1
2420 2423 -1
2421 2423 -1
2422 2423 -0.0113636
2423 2423 0.018589
2468 2423 -2.10885e-06
2470 2423 -0.0070922
2475 2423 -3.79593e-06
4463 2423 0
4502 2423 -2.35542e-06
4506 2423 -2.99132e-06
4509 2423 -0.000121879
2424 2424 1
2425 2425 1
2426 2426 1
2427 2427 1
2428 2428 1
2429 2429 1
2430 2430 1
2431 2431 1
2426 2432 -1
2427 2432 -1
2432 2432 0.0076086
2433 2432 -1.01225e-05
2435 2432 -0.000123728
2468 2432 -0.00704225
4509 2432 -0.0004325
2428 2433 -1
2429 2433 -1
2430 2433 -1
2431 2433 -1
2432 2433 -1.01225e-05
2433 2433 0.00320247
2434 2433 -0.000892683
2435 2433 -1.23433e-06
2467 2433 -0.000532454
2468 2433 0
4463 2433 -4.82245e-05
4509 2433 -0.00171775
2433 2434 -0.00139654
2434 2434 0.0111056
2435 2434 -2.51115e-06
2467 2434 0.000349619
2468 2434 0
4462 2434 -0.01
4463 2434 -2.86154e-06
4509 2434 -5.32948e-05
2432 2435 -0.000123728
2433 2435 -0.000130898
2434 2435 -2.51115e-06
2435 2435 0.0059741
2467 2435 0
2468 2435 0
3180 2435 -0.00564972
4462 2435 -3.9257e-06
4463 2435 -2.86154e-06
4509 2435 -6.04631e-05
2436 2436 1
2437 2437 1
2436 2438 -1
2437 2438 -1
2438 2438 0.00220581
2466 2438 -0.00192308
3176 2438 -4.2177e-06
4463 2438 -8.24722e-06
4502 2438 -2.08938e-06
4506 2438 -2.75772e-06
4509 2438 -0.000265422
2439 2439 1
2440 2440 1
2441 2441 1
2442 2442 1
2443 2443 1
2444 2444 1
2445 2445 1
2446 2446 1
2447 2447 1
2448 2448 1
2449 2449 1
2450 2450 1
2451 2451 1
2452 2452 1
2453 2453 1
2443 2454 -1
2444 2454 -1
2445 2454 -1
2446 2454 -1
2447 2454 -1
2454 2454 0.00248977
2455 2454 -0.000445445
2456 2454 -1.45433e-05
2461 2454 -3.85926e-05
4509 2454 -0.00199119
2451 2455 -1
2452 2455 -1
2453 2455 -1
2454 2455 -0.000402323
2455 2455 0.00531063
2456 2455 0
2458 2455 -1.9661e-06
2460 2455 -0.00416863
2461 2455 -1.65548e-05
4509 2455 -0.000721151
2454 2456 0.000135272
2455 2456 0
2456 2456 0.00568123
2458 2456 0
2460 2456 0
2461 2456 0
4502 2456 -0.00552486
4509 2456 -0.00029164
2457 2457 0.00224355
2458 2457 -0.000111741
2460 2457 -0.00209205
2461 2457 -1.43432e-05
4502 2457 -8.38348e-06
4509 2457 -1.70295e-05
2439 2458 -1
2440 2458 -1
2441 2458 -1
2442 2458 -1
2455 2458 -1.9661e-06
2456 2458 0
2457 2458 -6.10824e-05
2458 2458 0.00215113
2459 2458 -3.0079e-05
2460 2458 -1.9661e-06
2461 2458 -0.000566672
4502 2458 -8.01362e-06
4509 2458 -0.00148135
2458 2459 -1.92442e-05
2459 2459 0.00444309
2460 2459 0
2461 2459 0
4502 2459 -1.9661e-06
4506 2459 -0.00436681
4509 2459 -5.50651e-05
2455 2460 -0.00416863
2456 2460 0
2457 2460 -0.00209205
2458 2460 -1.9661e-06
2459 2460 0
2460 2460 0.00994678
2461 2460 0
2462 2460 -0.00363636
4502 2460 -1.23157e-05
4506 2460 -5.56087e-06
4509 2460 -2.98872e-05
2448 2461 -1
2449 2461 -1
2450 2461 -1
2454 2461 -3.85926e-05
2455 2461 -1.65548e-05
2456 2461 0
2457 2461 -6.08682e-05
2458 2461 -0.000531614
2459 2461 0
2460 2461 0
2461 2461 0.00417156
2462 2461 0
2469 2461 -0.00229885
4502 2461 0
4506 2461 -1.98556e-06
4509 2461 -0.00122309
2460 2462 -0.00363636
2461 2462 0
2462 2462 0.00443372
2463 2462 -1.51525e-05
2466 2462 -7.82221e-05
2467 2462 -3.80242e-06
2469 2462 0
3179 2462 -6.3114e-05
4502 2462 0
4506 2462 -0.000538967
4509 2462 -9.81021e-05
2462 2463 -0.000201856
2463 2463 0.00313029
2466 2463 -0.00030878
2467 2463 -0.00139082
2469 2463 0
2470 2463 -5.82044e-05
3179 2463 0
4502 2463 -2.08938e-06
4506 2463 -0.0011138
4509 2463 -5.47457e-05
2464 2464 0.0025623
2465 2464 -0.00062718
2466 2464 -0.00214133
2469 2464 0.000249491
2470 2464 -1.95312e-06
4461 2464 -6.39792e-06
4506 2464 -2.91072e-05
4509 2464 -5.82691e-06
2464 2465 -0.000301303
2465 2465 0.00426149
2466 2465 0
2468 2465 -0.00225225
2469 2465 -0.000385176
2470 2465 -5.82045e-05
4461 2465 0
4502 2465 -3.13407e-06
4506 2465 -0.00123235
4509 2465 -2.90697e-05
2438 2466 -0.00192308
2462 2466 7.77498e-05
2463 2466 -0.000482816
2464 2466 -0.00214133
2465 2466 0
2466 2466 0.00526126
2467 2466 0
2468 2466 0
2469 2466 0
2470 2466 -3.06919e-06
3176 2466 0
3179 2466 0
4461 2466 -1.1271e-05
4463 2466 0
4502 2466 -2.08938e-06
4506 2466 -0.000710121
4509 2466 -6.5238e-05
2424 2467 -1
2425 2467 -1
2433 2467 -1.22472e-05
2434 2467 -0.000123728
2435 2467 0
2462 2467 -3.80242e-06
2463 2467 -0.00139082
2466 2467 0
2467 2467 0.00201433
2468 2467 0
2469 2467 0
2470 2467 0
3176 2467 0
3179 2467 0
3180 2467 0
4461 2467 0
4462 2467 0
4463 2467 0
4502 2467 -2.08938e-06
4506 2467 -3.4066e-06
4509 2467 -0.00047824
2423 2468 -2.10885e-06
2432 2468 -0.00704225
2433 2468 0
2434 2468 0
2435 2468 0
2465 2468 -0.00225225
2466 2468 0
2467 2468 0
2468 2468 0.00936798
2469 2468 -2.08938e-06
2470 2468 0
2475 2468 0
3176 2468 0
3179 2468 0
3180 2468 0
4461 2468 0
4462 2468 0
4463 2468 0
4502 2468 -3.13407e-06
4506 2468 -6.74183e-06
4509 2468 -5.94046e-05
2402 2469 -1.65126e-05
2413 2469 0
2461 2469 -0.00229885
2462 2469 0
2463 2469 0
2464 2469 -5.82042e-05
2465 2469 -1.41275e-05
2466 2469 0
2467 2469 0
2468 2469 -2.08938e-06
2469 2469 0.00297635
2470 2469 -8.83121e-06
2471 2469 0
2475 2469 0
3176 2469 0
3177 2469 0
3179 2469 -6.97542e-06
3180 2469 0
4461 2469 -1.13618e-05
4462 2469 0
4463 2469 0
4500 2469 0
4502 2469 0
4506 2469 -0.000447413
4509 2469 -0.000111983
2392 2470 -6.32655e-06
2414 2470 -1
2415 2470 -1
2423 2470 -0.0070922
2463 2470 0.000110887
2464 2470 -1.95312e-06
2465 2470 0.000108133
2466 2470 -3.06919e-06
2467 2470 0
2468 2470 0
2469 2470 -8.83121e-06
2470 2470 0.00919848
2471 2470 0
2472 2470 0
2475 2470 0
2476 2470 0
3176 2470 0
3177 2470 0
3179 2470 0
3180 2470 0
4461 2470 -6.32655e-06
4462 2470 0
4463 2470 0
4475 2470 0
4500 2470 0
4502 2470 -2.35542e-06
4506 2470 -0.00218275
4509 2470 -0.000113693
2358 2471 -3.38951e-05
2359 2471 -6.71803e-05
2381 2471 -1.77792e-05
2388 2471 -2.53062e-06
2389 2471 0
2390 2471 0
2391 2471 0
2392 2471 0
2412 2471 -0.00512821
2413 2471 0
2469 2471 0
2470 2471 0
2471 2471 0.00553731
2472 2471 0
2473 2471 0
2474 2471 0
2475 2471 0
2476 2471 0
3176 2471 0
3177 2471 0
3178 2471 0
3179 2471 0
3180 2471 0
3182 2471 0
4461 2471 0
4462 2471 0
4463 2471 0
4475 2471 -2.75772e-06
4480 2471 0
4500 2471 -0.000211348
4502 2471 0
4506 2471 0
4509 2471 -7.36101e-05
2330 2472 -6.17839e-05
2331 2472 0
2334 2472 0
2335 2472 0
2336 2472 0
2337 2472 0
2369 2472 -3.91267e-05
2373 2472 -1
2374 2472 -1
2378 2472 -3.44002e-05
2379 2472 -3.62625e-05
2380 2472 -1.93365e-06
2381 2472 0
2389 2472 -5.06124e-06
2390 2472 0
2391 2472 0
2392 2472 0
2470 2472 0
2471 2472 0
2472 2472 0.00188401
2473 2472 -6.97542e-06
2474 2472 0
2475 2472 0
2476 2472 0
2477 2472 0
2478 2472 0
3176 2472 0
3177 2472 0
3178 2472 0
3179 2472 0
3180 2472 0
3181 2472 0
3182 2472 0
3183 2472 0
4461 2472 -1.92651e-05
4462 2472 0
4463 2472 0
4475 2472 0
4480 2472 0
4481 2472 0
4500 2472 -0.000288833
4502 2472 0
4506 2472 0
4509 2472 -0.00139036
2329 2473 -0.00229885
2330 2473 0
2331 2473 0
2332 2473 -5.82042e-05
2333 2473 -1.41275e-05
2334 2473 0
2335 2473 0
2336 2473 -2.08938e-06
2337 2473 -8.83121e-06
2369 2473 -1.65126e-05
2380 2473 0
2381 2473 0
2471 2473 0
2472 2473 -6.97542e-06
2473 2473 0.00297635
2474 2473 0
2475 2473 0
2476 2473 0
2477 2473 0
2478 2473 0
3176 2473 0
3177 2473 0
3178 2473 0
3179 2473 0
3180 2473 0
3181 2473 0
3182 2473 0
3183 2473 0
4461 2473 -1.13618e-05
4462 2473 0
4463 2473 0
4475 2473 0
4480 2473 0
4481 2473 0
4500 2473 0
4502 2473 0
4506 2473 -0.000447413
4509 2473 -0.000111983
2269 2474 -0.000129226
2270 2474 -0.000162513
2277 2474 -4.2177e-06
2278 2474 0
2279 2474 0
2280 2474 0
2281 2474 0
2337 2474 0
2379 2474 -0.00480769
2380 2474 0
2381 2474 0
2471 2474 0
2472 2474 0
2473 2474 0
2474 2474 0.0054041
2475 2474 0
2476 2474 0
2477 2474 0
2478 2474 0
3176 2474 0
3177 2474 0
3178 2474 0
3179 2474 0
3180 2474 0
3181 2474 0
3182 2474 -1.98881e-05
3183 2474 0
3184 2474 0
4461 2474 0
4462 2474 0
4463 2474 0
4475 2474 0
4480 2474 0
4481 2474 -2.50466e-06
4500 2474 -0.000211571
4502 2474 0
4506 2474 0
4509 2474 -6.64873e-05
2235 2475 -0.00512821
2236 2475 0
2259 2475 0
2382 2475 -2.95239e-06
2391 2475 0
2392 2475 -0.0037037
2423 2475 -3.79593e-06
2468 2475 0
2469 2475 0
2470 2475 0
2471 2475 0
2472 2475 0
2473 2475 0
2474 2475 0
2475 2475 0.00887867
2476 2475 0
2477 2475 0
2478 2475 0
3176 2475 0
3177 2475 0
3178 2475 0
3179 2475 0
3180 2475 0
3181 2475 0
3182 2475 0
3183 2475 0
3184 2475 0
4458 2475 0
4459 2475 0
4460 2475 0
4461 2475 0
4462 2475 0
4463 2475 0
4464 2475 0
4465 2475 0
4475 2475 0
4478 2475 0
4479 2475 0
4480 2475 0
4481 2475 0
4500 2475 0
4502 2475 0
4506 2475 -1.98556e-06
4509 2475 -3.80242e-05
2235 2476 -5.48301e-06
2236 2476 0
2258 2476 -0.00621118
2259 2476 0
2306 2476 -4.2177e-06
2334 2476 0
2335 2476 0
2336 2476 0
2337 2476 0
2382 2476 -0.00492611
2391 2476 0
2392 2476 0
2470 2476 0
2471 2476 0
2472 2476 0
2473 2476 0
2474 2476 0
2475 2476 0
2476 2476 0.011217
2477 2476 0
2478 2476 0
3176 2476 0
3177 2476 0
3178 2476 0
3179 2476 0
3180 2476 0
3181 2476 0
3182 2476 0
3183 2476 0
3184 2476 0
4458 2476 0
4459 2476 0
4460 2476 0
4461 2476 0
4462 2476 -3.9257e-06
4463 2476 -4.56809e-06
4464 2476 0
4465 2476 0
4475 2476 0
4478 2476 0
4479 2476 0
4480 2476 0
4481 2476 0
4500 2476 0
4502 2476 0
4506 2476 0
4509 2476 -6.14746e-05
2216 2477 -0.0105425
2217 2477 0
2232 2477 0
2233 2477 -1.6741e-05
2234 2477 -2.1653e-05
2256 2477 -0.0104167
2257 2477 0
2258 2477 -1.71109e-05
2259 2477 -1.44829e-05
2303 2477 -0.0049796
2335 2477 0
2336 2477 0
2337 2477 0
2472 2477 0
2473 2477 0
2474 2477 0
2475 2477 0
2476 2477 0
2477 2477 0.103735
2478 2477 0
3176 2477 0
3177 2477 0
3178 2477 0
3179 2477 0
3180 2477 -0.0384641
3181 2477 0
3182 2477 0
3183 2477 0
3184 2477 0
3185 2477 -0.0384641
4458 2477 -3.30083e-05
4459 2477 -2.95823e-05
4460 2477 -1.40871e-05
4461 2477 0
4462 2477 -2.35088e-05
4463 2477 -2.86154e-06
4464 2477 -1.40871e-05
4465 2477 -1.40871e-05
4475 2477 0
4478 2477 -1.40871e-05
4479 2477 -1.40676e-05
4480 2477 0
4481 2477 0
4492 2477 -3.63371e-06
4500 2477 0
4502 2477 0
4506 2477 -1.71303e-05
4509 2477 -0.000618009
2210 2478 -0.00512821
2211 2478 0
2234 2478 0
2271 2478 -2.95239e-06
2280 2478 0
2281 2478 -0.0037037
2291 2478 -3.79593e-06
2336 2478 0
2337 2478 0
2472 2478 0
2473 2478 0
2474 2478 0
2475 2478 0
2476 2478 0
2477 2478 0
2478 2478 0.00887867
3176 2478 0
3177 2478 0
3178 2478 0
3179 2478 0
3180 2478 0
3181 2478 0
3182 2478 0
3183 2478 0
3184 2478 0
3185 2478 0
4458 2478 0
4459 2478 0
4460 2478 0
4461 2478 0
4462 2478 0
4463 2478 0
4464 2478 0
4465 2478 0
4475 2478 0
4478 2478 0
4479 2478 0
4480 2478 0
4481 2478 0
4492 2478 0
4500 2478 0
4502 2478 0
4506 2478 -1.98556e-06
4509 2478 -3.80242e-05
2479 2479 1
2480 2480 1
2481 2481 1
2482 2482 1
2483 2483 1
2484 2484 1
2485 2485 1
2486 2486 1
2487 2487 1
2488 2488 1
2489 2489 1
2490 2490 1
2491 2491 1
2492 2492 1
2493 2493 1
2494 2494 1
2495 2495 1
2496 2496 1
2497 2497 1
2498 2498 1
2499 2499 1
2500 2500 1
2501 2501 1
2502 2502 1
2503 2503 1
2504 2504 1
2505 2505 1
2506 2506 1
2507 2507 1
2508 2508 1
2509 2509 1
2510 2510 1
2511 2511 1
2512 2512 1
2513 2513 1
2514 2514 1
2515 2515 1
2516 2516 1
2481 2517 -1
2482 2517 -1
2517 2517 0.0221304
2518 2517 -0.0105263
2765 2517 -0.0105425
3173 2517 -8.84849e-05
3174 2517 -9.29807e-05
4458 2517 -2.85051e-05
4459 2517 -3.25736e-06
4506 2517 -0.000544037
4509 2517 -0.000304248
2479 2518 -1
2480 2518 -1
2517 2518 -0.0105263
2518 2518 0.0221216
2584 2518 -0.0105263
2765 2518 0
3173 2518 -8.90272e-05
3174 2518 -9.37399e-05
4458 2518 -3.25736e-06
4459 2518 -2.89139e-05
4464 2518 -6.20975e-06
4506 2518 -0.000543541
4509 2518 -0.000304258
2519 2519 1
2520 2520 1
2521 2521 1
2522 2522 1
2523 2523 1
2524 2524 1
2525 2525 1
2526 2526 1
2527 2527 1
2528 2528 1
2529 2529 1
2530 2530 1
2531 2531 1
2532 2532 1
2533 2533 1
2534 2534 1
2535 2535 1
2536 2536 1
2537 2537 1
2538 2538 1
2539 2539 1
2540 2540 1
2541 2541 1
2521 2542 -1
2522 2542 -1
2542 2542 0.0221151
2582 2542 -0.0105263
2583 2542 -0.0105263
3173 2542 -8.91678e-05
3174 2542 -9.37399e-05
4478 2542 -2.99392e-05
4479 2542 -6.63152e-06
4506 2542 -0.000536708
4509 2542 -0.000306301
2543 2543 1
2544 2544 1
2545 2545 1
2546 2546 1
2547 2547 1
2548 2548 1
2549 2549 1
2550 2550 1
2551 2551 1
2552 2552 1
2553 2553 1
2554 2554 1
2555 2555 1
2556 2556 1
2557 2557 1
2558 2558 1
2559 2559 1
2560 2560 1
2561 2561 1
2562 2562 1
2563 2563 1
2564 2564 1
2565 2565 1
2566 2566 1
2567 2567 1
2568 2568 1
2569 2569 1
2570 2570 1
2571 2571 1
2572 2572 1
2573 2573 1
2574 2574 1
2575 2575 1
2576 2576 1
2577 2577 1
2578 2578 1
2579 2579 1
2580 2580 1
2543 2581 -1
2544 2581 -1
2581 2581 0.0221165
2582 2581 -0.0105263
2584 2581 -0.0105263
3173 2581 -8.90983e-05
3174 2581 -9.37399e-05
4460 2581 -2.95498e-05
4465 2581 -6.20975e-06
4506 2581 -0.000539971
4509 2581 -0.000305273
2523 2582 -1
2524 2582 -1
2542 2582 -0.0105263
2581 2582 -0.0105263
2582 2582 0.0221151
2583 2582 0
2584 2582 0
3173 2582 -8.91333e-05
3174 2582 -9.37399e-05
4460 2582 0
4465 2582 -2.93033e-05
4478 2582 -6.20975e-06
4479 2582 0
4506 2582 -0.000538332
4509 2582 -0.000305785
2519 2583 -1
2520 2583 -1
2542 2583 -0.0105263
2582 2583 0
2583 2583 0.0223699
2584 2583 0
3173 2583 -8.95783e-05
3174 2583 -9.34869e-05
3175 2583 -0.0104167
4458 2583 -1.28997e-05
4459 2583 -2.10236e-05
4460 2583 -1.40871e-05
4464 2583 -1.40871e-05
4465 2583 -1.40871e-05
4478 2583 -1.40871e-05
4479 2583 -6.36742e-05
4506 2583 -0.000532694
4509 2583 -0.000557202
2518 2584 -0.0105263
2545 2584 -1
2546 2584 -1
2581 2584 -0.0105263
2582 2584 0
2583 2584 0
2584 2584 0.0221166
2765 2584 0
3173 2584 -8.9063e-05
3174 2584 -9.37399e-05
3175 2584 0
4458 2584 0
4459 2584 0
4460 2584 -6.20975e-06
4464 2584 -2.8596e-05
4465 2584 0
4478 2584 0
4479 2584 0
4506 2584 -0.000541628
4509 2584 -0.000304764
2585 2585 1
2586 2586 1
2585 2587 -1
2586 2587 -1
2587 2587 0.00841919
2636 2587 -0.00285714
2765 2587 -1.43207e-05
4461 2587 -0.000372956
4500 2587 -0.000414692
4506 2587 -2.14973e-05
4509 2587 -0.00473859
2588 2588 1
2589 2589 1
2590 2590 1
2591 2591 1
2592 2592 1
2593 2593 1
2594 2594 1
2588 2595 -1
2589 2595 -1
2595 2595 0.00220199
2596 2595 -0.00124671
2611 2595 -0.000156915
2612 2595 -6.16036e-05
4504 2595 -0.000159698
4509 2595 -0.000577065
2592 2596 -1
2593 2596 -1
2594 2596 -1
2595 2596 -0.00124671
2596 2596 0.00406321
2611 2596 0
2612 2596 -6.16063e-05
2613 2596 -9.28619e-05
4504 2596 -0.000469377
4509 2596 -0.00219266
2597 2597 1
2598 2598 1
2599 2599 1
2600 2600 1
2601 2601 1
2602 2602 1
2603 2603 1
2604 2604 1
2605 2605 1
2606 2606 1
2607 2607 1
2599 2608 -1
2600 2608 -1
2608 2608 0.00134475
2609 2608 -3.79593e-06
2610 2608 -7.9019e-06
2613 2608 -0.000319864
4504 2608 -0.000333263
4509 2608 -0.000679928
2601 2609 -1
2602 2609 -1
2603 2609 -1
2608 2609 -3.79593e-06
2609 2609 0.0025979
2610 2609 -1.65548e-05
2613 2609 0
2635 2609 -0.000150372
4504 2609 -0.00203398
4509 2609 -0.000393191
2606 2610 -1
2607 2610 -1
2608 2610 -1.65548e-05
2609 2610 -1.65548e-05
2610 2610 0.00244695
2612 2610 -9.28616e-05
2613 2610 0
2635 2610 -6.76778e-06
4504 2610 -0.000465873
4509 2610 -0.00184834
2590 2611 -1
2591 2611 -1
2595 2611 -0.000154214
2596 2611 0
2611 2611 0.00325378
2612 2611 -1.95312e-06
2613 2611 0
2635 2611 -0.00019522
4504 2611 -0.00254376
4509 2611 -0.000358632
2595 2612 -6.31176e-05
2596 2612 -6.31173e-05
2597 2612 -1
2598 2612 -1
2610 2612 -9.43807e-05
2611 2612 -1.95312e-06
2612 2612 0.00306618
2613 2612 0
2635 2612 -2.24706e-05
2636 2612 -0.000152675
4504 2612 -0.00229421
4509 2612 -0.000374259
2596 2613 -9.43807e-05
2604 2613 -1
2605 2613 -1
2608 2613 -0.000314468
2609 2613 0
2610 2613 0
2611 2613 0
2612 2613 0
2613 2613 0.00541701
2635 2613 0
2636 2613 -1.85319e-05
2764 2613 -5.8918e-06
4504 2613 -0.0043903
4509 2613 -0.000593439
2614 2614 1
2615 2615 1
2616 2616 1
2617 2617 1
2618 2618 1
2619 2619 1
2620 2620 0.00345851
2634 2620 -0.000426607
2762 2620 -5.99707e-05
2763 2620 -3.29138e-15
4504 2620 -0.00297193
2621 2621 1
2622 2622 1
2623 2623 1
2624 2624 1
2625 2625 1
2626 2626 1
2627 2627 1
2628 2628 1
2621 2629 -1
2622 2629 -1
2623 2629 -1
2629 2629 0.00164727
2634 2629 -9.53054e-15
2635 2629 -0.000130767
2636 2629 -1.45433e-05
4504 2629 -0.00112819
4509 2629 -0.000373772
2630 2630 1
2631 2631 1
2632 2632 0.00547223
2633 2632 -0.000426605
2762 2632 -0.00160418
2763 2632 -0.0004266
4504 2632 -0.00301485
2630 2633 -1
2631 2633 -1
2632 2633 -0.00043594
2633 2633 0.00168563
2635 2633 -1.98531e-12
2636 2633 -1.3803e-05
2762 2633 -5.27361e-05
2763 2633 -1.64555e-05
4504 2633 -0.000444503
4509 2633 -0.000722194
2620 2634 -0.00043594
2627 2634 -1
2628 2634 -1
2629 2634 -2.86928e-12
2634 2634 0.00168517
2635 2634 0
2636 2634 -8.733e-06
2762 2634 -1.64555e-05
2763 2634 -5.27361e-05
4504 2634 -0.000444503
4509 2634 -0.000726802
2609 2635 -0.000153074
2610 2635 -6.76778e-06
2611 2635 -0.000192171
2612 2635 -2.24706e-05
2613 2635 0
2624 2635 -1
2625 2635 -1
2626 2635 -1
2629 2635 -0.000133665
2633 2635 -1.98545e-12
2634 2635 0
2635 2635 0.00616783
2636 2635 -4.21711e-05
2762 2635 0
2763 2635 0
2764 2635 0
4504 2635 -0.00126439
4506 2635 -2.69673e-05
4509 2635 -0.00432615
2587 2636 -0.00285714
2612 2636 -0.0001553
2613 2636 -1.85319e-05
2629 2636 -1.45433e-05
2633 2636 -1.62174e-05
2634 2636 -1.62174e-05
2635 2636 -4.45992e-05
2636 2636 0.00421375
2762 2636 0
2763 2636 0
2764 2636 -5.27212e-05
2765 2636 -1.43207e-05
4461 2636 0
4500 2636 0
4504 2636 -0.000182349
4506 2636 -8.27707e-05
4509 2636 -0.000759033
2637 2637 1
2638 2638 1
2639 2639 1
2640 2640 1
2641 2641 1
2642 2642 1
2643 2643 1
2644 2644 1
2645 2645 1
2646 2646 1
2647 2647 1
2648 2648 1
2649 2649 1
2650 2650 1
2651 2651 1
2652 2652 1
2644 2653 -1
2645 2653 -1
2646 2653 -1
2653 2653 0.00392446
2660 2653 -0.000562899
2662 2653 -2.18793e-05
2760 2653 -0.00101427
4509 2653 -0.00232541
2654 2654 1
2655 2655 1
2656 2656 1
2657 2657 1
2658 2658 1
2657 2659 -1
2658 2659 -1
2659 2659 0.00848106
2660 2659 -0.000126359
2661 2659 -1.87813e-05
2760 2659 0.000101031
4506 2659 -0.00772757
4509 2659 -0.000709375
2651 2660 -1
2652 2660 -1
2653 2660 -0.00128575
2659 2660 0.00055272
2660 2660 0.00270636
2661 2660 -0.00129256
2662 2660 -0.000141298
2663 2660 -5.85157e-05
2760 2660 0.000557422
4506 2660 -0.000627303
4509 2660 -0.000411068
2654 2661 -1
2655 2661 -1
2656 2661 -1
2659 2661 -0.000869935
2660 2661 -0.000575134
2661 2661 0.003904
2662 2661 -2.20552e-05
2663 2661 0
2665 2661 -0.000134381
2760 2661 0
4506 2661 0
4509 2661 -0.0023025
2639 2662 -1
2640 2662 -1
2641 2662 -1
2642 2662 -1
2643 2662 -1
2653 2662 -0.000888796
2660 2662 -0.000166759
2661 2662 -0.000860349
2662 2662 0.00652343
2663 2662 0
2665 2662 -0.000558211
2760 2662 -0.000558585
2761 2662 -8.19295e-05
4506 2662 0
4509 2662 -0.0034088
2637 2663 -1
2638 2663 -1
2660 2663 0.000117293
2661 2663 0
2662 2663 0
2663 2663 0.0020371
2665 2663 -1.27829e-05
2760 2663 0
2761 2663 -1.02587e-05
4506 2663 -0.00191609
4509 2663 -0.000215261
2661 2664 0.00051716
2662 2664 -0.00124949
2663 2664 -1.27829e-05
2664 2664 1
2665 2664 0.00107515
2760 2664 -1.6741e-06
2761 2664 -3.3482e-06
2764 2664 -6.83916e-06
4504 2664 -1.62608e-05
4506 2664 -7.89034e-06
4509 2664 -0.000294025
2665 2665 1
4509 2665 -1
2666 2666 1
2667 2667 1
2668 2668 1
2669 2669 1
2670 2670 1
2671 2671 1
2672 2672 1
2673 2673 1
2674 2674 1
2675 2675 1
2676 2676 1
2677 2677 1
2678 2678 1
2668 2679 -1
2669 2679 -1
2679 2679 0.00490042
2680 2679 -2.18582e-05
2681 2679 -0.000106098
2682 2679 0.000280794
2758 2679 -1.23611e-05
4506 2679 -0.00458645
4509 2679 -0.000454442
2675 2680 -1
2676 2680 -1
2677 2680 -1
2678 2680 -1
2679 2680 -0.000816053
2680 2680 0.00543816
2681 2680 -0.000754817
2682 2680 -0.000910838
2758 2680 -0.000714218
2761 2680 -0.000172037
4506 2680 0
4509 2680 -0.0020702
2679 2681 0.000615095
2680 2681 -0.00150143
2681 2681 0.0303942
2682 2681 -7.50101e-06
2712 2681 -0.0294118
2758 2681 -8.16287e-06
2761 2681 -1.6741e-06
4506 2681 0
4509 2681 -7.87259e-05
2673 2682 -1
2674 2682 -1
2679 2682 -0.000142286
2680 2682 -0.000451566
2681 2682 -7.50101e-06
2682 2682 0.0113697
2711 2682 -0.000541898
2712 2682 -0.00180274
2758 2682 -0.000390751
2761 2682 0
4506 2682 -0.0074731
4509 2682 -0.000559862
2683 2683 1
2684 2684 1
2683 2685 -1
2684 2685 -1
2685 2685 0.00214181
2709 2685 -0.000197179
2757 2685 -1.35421e-05
2761 2685 -1.02587e-05
4506 2685 -0.00170621
4509 2685 -0.000214612
2686 2686 1
2687 2687 1
2688 2688 1
2689 2689 1
2690 2690 1
2691 2691 1
2692 2692 1
2693 2693 1
2694 2694 1
2695 2695 1
2696 2696 1
2697 2697 1
2698 2698 1
2691 2699 -1
2692 2699 -1
2693 2699 -1
2699 2699 0.00324266
2708 2699 -0.000182672
2709 2699 -0.000588152
2759 2699 -0.00101215
4509 2699 -0.00145969
2700 2700 1
2701 2701 1
2702 2702 1
2703 2703 1
2704 2704 1
2705 2705 1
2706 2706 1
2700 2707 -1
2701 2707 -1
2702 2707 -1
2707 2707 0.00439433
2708 2707 -0.000946851
2709 2707 -0.000577036
2710 2707 -0.000976582
2757 2707 -0.000428468
4509 2707 -0.00146539
2686 2708 -1
2687 2708 -1
2688 2708 -1
2689 2708 -1
2690 2708 -1
2699 2708 -0.000790318
2707 2708 -0.00128151
2708 2708 0.00534322
2709 2708 -0.000117765
2710 2708 0
2757 2708 -0.000517074
2759 2708 -0.000580717
2761 2708 -8.19291e-05
4509 2708 -0.00197391
2685 2709 -0.000222328
2694 2709 -1
2695 2709 -1
2699 2709 -0.0013084
2707 2709 -0.00110871
2708 2709 -0.000113555
2709 2709 0.00376865
2710 2709 0.00020127
2757 2709 0
2759 2709 0.00058017
2761 2709 0
4506 2709 -0.0015259
4509 2709 -0.000271189
2705 2710 -1
2706 2710 -1
2707 2710 -0.000421654
2708 2710 0
2709 2710 -0.000321752
2710 2710 0.00987543
2711 2710 -2.51115e-06
2757 2710 0
2759 2710 -0.00148105
2761 2710 0
4506 2710 -0.00692482
4509 2710 -0.000723645
2682 2711 -0.000541898
2710 2711 -2.51115e-06
2711 2711 0.0116608
2712 2711 0
2757 2711 0
2758 2711 -2.53062e-05
2759 2711 0
2761 2711 0
4492 2711 -0.00511899
4506 2711 -7.5659e-05
4509 2711 -0.00589648
2666 2712 -1
2667 2712 -1
2681 2712 -0.0294118
2682 2712 -0.00337666
2711 2712 0
2712 2712 0.0609494
2757 2712 0
2758 2712 0
2759 2712 0
2761 2712 -0.000747726
4484 2712 -3.03025e-06
4492 2712 -0.0125
4506 2712 -0.0128669
4507 2712 -5.90478e-06
4509 2712 -0.00203747
2713 2713 0.00216131
2755 2713 -0.00211416
2756 2713 -2.34244e-06
2758 2713 -1.40612e-05
2759 2713 -1.02587e-05
4506 2713 -2.92643e-06
4509 2713 -1.75598e-05
2714 2714 0.00166568
2755 2714 -2.34244e-06
2758 2714 -4.16529e-05
2759 2714 -4.16527e-05
2763 2714 -0.00155039
4504 2714 -9.25574e-06
4506 2714 -2.92643e-06
4509 2714 -1.74613e-05
2715 2715 0.00200183
2756 2715 -9.53848e-06
2758 2715 -9.53848e-06
2762 2715 -0.00189753
4504 2715 -8.15254e-05
4506 2715 -3.6986e-06
2716 2716 0.00227325
2757 2716 -9.53848e-06
2760 2716 -9.53848e-06
2762 2716 -0.00217391
4506 2716 -6.5258e-05
4509 2716 -1.5002e-05
2717 2717 0.000816258
2754 2717 -0.000657895
2756 2717 -1.2997e-05
2758 2717 -1.02587e-05
4506 2717 -3.77646e-05
4509 2717 -9.73425e-05
2718 2718 1
2719 2719 1
2718 2720 -1
2719 2720 -1
2720 2720 0.00221912
2754 2720 -0.000637755
2757 2720 -1.98556e-06
2762 2720 -5.58897e-05
4504 2720 -0.000294825
4506 2720 -3.02701e-05
4509 2720 -0.0011984
2721 2721 1
2722 2722 1
2723 2723 0.000861999
2753 2723 -4.10994e-05
2755 2723 -0.000733676
2760 2723 -3.91119e-05
4506 2723 -7.07924e-06
4509 2723 -4.10326e-05
2724 2724 0.00280258
2753 2724 -4.13811e-05
2760 2724 -4.13814e-05
2763 2724 -0.0027027
4506 2724 -5.02942e-06
4509 2724 -1.20886e-05
2725 2725 1
2726 2726 1
2725 2727 -1
2726 2727 -1
2727 2727 0.00203692
2752 2727 0.000117179
2753 2727 -1.26012e-05
2761 2727 -1.02587e-05
4506 2727 -0.0019162
4509 2727 -0.000215041
2728 2728 1
2729 2729 1
2730 2730 1
2731 2731 1
2732 2732 1
2733 2733 1
2734 2734 1
2735 2735 1
2736 2736 1
2737 2737 1
2738 2738 1
2739 2739 1
2740 2740 1
2733 2741 -1
2734 2741 -1
2735 2741 -1
2741 2741 0.00392039
2750 2741 -2.18916e-05
2752 2741 -0.000562934
2756 2741 -0.00101417
4509 2741 -0.0023214
2742 2742 1
2743 2743 1
2744 2744 1
2745 2745 1
2746 2746 1
2747 2747 1
2748 2748 1
2742 2749 -1
2743 2749 -1
2744 2749 -1
2749 2749 0.00390007
2750 2749 -2.20642e-05
2751 2749 -0.000869659
2752 2749 -0.000575168
2753 2749 -0.000134381
4509 2749 -0.00229879
2728 2750 -1
2729 2750 -1
2730 2750 -1
2731 2750 -1
2732 2750 -1
2741 2750 -0.000888693
2749 2750 -0.0008599
2750 2750 0.00651835
2751 2750 0
2752 2750 -0.000166689
2753 2750 -0.000559683
2756 2750 -0.000558618
2761 2750 -8.19295e-05
4509 2750 -0.00340284
2745 2751 -1
2746 2751 -1
2749 2751 -1.8792e-05
2750 2751 0
2751 2751 0.00848085
2752 2751 -0.000126359
2753 2751 0
2756 2751 0.000101008
2761 2751 0
4506 2751 -0.00772733
4509 2751 -0.000709381
2727 2752 -5.85157e-05
2739 2752 -1
2740 2752 -1
2741 2752 -0.00128597
2749 2752 -0.00129262
2750 2752 -0.000141294
2751 2752 0.000552779
2752 2752 0.00270637
2753 2752 0
2756 2752 0.000557633
2761 2752 0
4506 2752 -0.000627845
4509 2752 -0.000410538
2723 2753 -4.02016e-05
2724 2753 -4.07857e-05
2727 2753 -1.26012e-05
2747 2753 -1
2748 2753 -1
2749 2753 0.000517175
2750 2753 -0.00125095
2751 2753 0
2752 2753 0
2753 2753 0.0115112
2754 2753 -6.37197e-06
2755 2753 -1.98556e-06
2756 2753 -1.6741e-06
2757 2753 -1.37237e-05
2760 2753 -0.000513895
2761 2753 -1.14008e-05
2763 2753 0
4506 2753 -0.000308417
4509 2753 -0.00982642
2717 2754 -0.000657895
2720 2754 -0.000637755
2753 2754 -6.37197e-06
2754 2754 0.00157229
2755 2754 0
2756 2754 -2.73826e-06
2757 2754 -1.22443e-05
2758 2754 0
2760 2754 -1.36848e-05
2761 2754 0
2762 2754 0
2763 2754 0
4504 2754 0
4506 2754 -7.75602e-05
4509 2754 -0.000164042
2713 2755 -0.00211416
2714 2755 -2.34244e-06
2721 2755 -1
2722 2755 -1
2723 2755 -0.000733676
2753 2755 -1.98556e-06
2754 2755 0
2755 2755 0.00444365
2756 2755 -2.34244e-06
2757 2755 0
2758 2755 -1.98556e-06
2759 2755 0
2760 2755 0
2761 2755 0
2762 2755 0
2763 2755 -0.000121041
4504 2755 -0.00120198
4506 2755 -1.00057e-05
4509 2755 -0.00025413
2713 2756 -2.34244e-06
2715 2756 -9.53848e-06
2717 2756 -1.09582e-05
2736 2756 -1
2737 2756 -1
2738 2756 -1
2741 2756 0.000522341
2750 2756 -0.00127251
2751 2756 -0.000199854
2752 2756 -0.000127008
2753 2756 -1.6741e-06
2754 2756 -2.73826e-06
2755 2756 -2.34244e-06
2756 2756 0.0040096
2757 2756 0
2758 2756 -3.37416e-06
2759 2756 -9.40222e-06
2760 2756 0
2761 2756 0
2762 2756 0
2763 2756 0
4504 2756 -0.000298434
4506 2756 -0.00131716
4509 2756 -0.00127461
2685 2757 -1.35421e-05
2703 2757 -1
2704 2757 -1
2707 2757 -0.000108642
2708 2757 -0.000844262
2709 2757 0
2710 2757 0
2711 2757 0
2712 2757 0
2716 2757 -6.67983e-06
2720 2757 -1.98556e-06
2753 2757 -1.37237e-05
2754 2757 -1.22443e-05
2755 2757 0
2756 2757 0
2757 2757 0.0113469
2758 2757 0
2759 2757 -1.6741e-06
2760 2757 -1.53849e-05
2761 2757 -1.53265e-05
2762 2757 0
2763 2757 0
4484 2757 0
4492 2757 0
4504 2757 0
4506 2757 -0.000642604
4507 2757 0
4509 2757 -0.00967085
2670 2758 -1
2671 2758 -1
2672 2758 -1
2679 2758 -1.23611e-05
2680 2758 -0.00115761
2681 2758 -8.16287e-06
2682 2758 3.57708e-05
2711 2758 -2.53062e-05
2712 2758 0
2713 2758 -1.1966e-05
2714 2758 -4.0247e-05
2715 2758 -6.90227e-06
2717 2758 -1.02587e-05
2754 2758 0
2755 2758 -1.98556e-06
2756 2758 -3.37416e-06
2757 2758 0
2758 2758 0.0031573
2759 2758 -0.000223104
2760 2758 0
2761 2758 -1.95312e-06
2762 2758 0
2763 2758 0
4484 2758 0
4492 2758 0
4504 2758 -0.00110895
4506 2758 -4.85554e-05
4507 2758 0
4509 2758 -0.000532323
2696 2759 -1
2697 2759 -1
2698 2759 -1
2699 2759 0.000312227
2708 2759 -0.00116079
2709 2759 -0.000127008
2710 2759 -0.00139204
2711 2759 0
2712 2759 0
2713 2759 -8.14837e-06
2714 2759 -4.02572e-05
2755 2759 0
2756 2759 -9.40222e-06
2757 2759 -1.6741e-06
2758 2759 -0.000223116
2759 2759 0.00795169
2760 2759 0
2761 2759 0
2762 2759 0
2763 2759 0
4484 2759 0
4492 2759 0
4504 2759 -0.000614874
4506 2759 -0.00379012
4507 2759 0
4509 2759 -0.000896486
2647 2760 -1
2648 2760 -1
2649 2760 -1
2650 2760 -1
2653 2760 0.000522058
2659 2760 -0.000199854
2660 2760 -0.000127008
2661 2760 0
2662 2760 -0.00127222
2663 2760 0
2665 2760 -1.6741e-06
2716 2760 -9.53848e-06
2723 2760 -3.82269e-05
2724 2760 -4.0775e-05
2753 2760 -0.000513901
2754 2760 -1.16412e-05
2755 2760 0
2756 2760 0
2757 2760 -1.53849e-05
2758 2760 0
2759 2760 0
2760 2760 0.00504041
2761 2760 0
2762 2760 0
2763 2760 0
4484 2760 0
4492 2760 0
4504 2760 0
4506 2760 -0.00179638
4507 2760 0
4509 2760 -0.00153587
2662 2761 0.000506824
2663 2761 6.50891e-05
2665 2761 -3.3482e-06
2680 2761 0.0010452
2681 2761 -1.6741e-06
2682 2761 0
2685 2761 6.50891e-05
2708 2761 0.000540936
2709 2761 0
2710 2761 0
2711 2761 0
2712 2761 0.00495281
2727 2761 6.50891e-05
2750 2761 0.000506894
2751 2761 0
2752 2761 0
2753 2761 -1.14008e-05
2754 2761 0
2755 2761 0
2756 2761 0
2757 2761 -1.53265e-05
2758 2761 -1.95312e-06
2759 2761 0
2760 2761 0
2761 2761 0.0124519
2762 2761 0
2763 2761 0
2764 2761 -5.17155e-06
4484 2761 -0.000514139
4492 2761 0
4504 2761 -9.16862e-06
4506 2761 -1.72926e-05
4507 2761 -4.45129e-06
4509 2761 -0.0196159
2614 2762 -1
2615 2762 -1
2616 2762 -1
2620 2762 -8.57101e-05
2632 2762 -0.00160418
2633 2762 -5.27361e-05
2634 2762 -1.64555e-05
2635 2762 0
2636 2762 0
2715 2762 -0.00189753
2716 2762 -0.00217391
2720 2762 -5.67496e-05
2754 2762 0
2755 2762 0
2756 2762 0
2757 2762 0
2758 2762 0
2759 2762 0
2760 2762 0
2761 2762 0
2762 2762 0.00980693
2763 2762 -0.000759055
2764 2762 0
2765 2762 0
4461 2762 0
4484 2762 0
4492 2762 0
4500 2762 0
4504 2762 -0.00225756
4506 2762 -5.68416e-06
4507 2762 0
4509 2762 -0.000897351
2617 2763 -1
2618 2763 -1
2619 2763 -1
2620 2763 -1e-15
2632 2763 -0.00043594
2633 2763 -1.64555e-05
2634 2763 -4.51214e-05
2635 2763 0
2636 2763 0
2714 2763 -0.00155039
2724 2763 -0.0027027
2753 2763 0
2754 2763 0
2755 2763 -0.000123418
2756 2763 0
2757 2763 0
2758 2763 0
2759 2763 0
2760 2763 0
2761 2763 0
2762 2763 -0.000764358
2763 2763 0.0113409
2764 2763 0
2765 2763 0
4461 2763 0
4484 2763 0
4492 2763 0
4500 2763 0
4504 2763 -0.000652795
4506 2763 -4.91199e-06
4507 2763 0
4509 2763 -0.00504481
2613 2764 -5.8918e-06
2635 2764 0
2636 2764 -5.27212e-05
2665 2764 -6.83916e-06
2761 2764 -5.17155e-06
2762 2764 0
2763 2764 0
2764 2764 0.00794735
2765 2764 -1.43207e-05
4461 2764 -0.003003
4484 2764 0
4492 2764 0
4500 2764 0
4504 2764 -0.000172685
4506 2764 -7.02538e-05
4507 2764 -0.00347222
4509 2764 -0.00114424
2517 2765 -0.0105425
2518 2765 0
2584 2765 0
2587 2765 -1.43207e-05
2636 2765 -1.43207e-05
2762 2765 0
2763 2765 0
2764 2765 -1.43207e-05
2765 2765 0.0538609
3173 2765 -1.6741e-05
3174 2765 -2.1653e-05
3175 2765 -0.0384641
4458 2765 -8.75983e-07
4459 2765 0
4460 2765 0
4461 2765 -1.43207e-05
4464 2765 0
4465 2765 0
4478 2765 0
4479 2765 0
4484 2765 0
4492 2765 0
4500 2765 0
4504 2765 0
4506 2765 -0.00392843
4507 2765 0
4509 2765 -0.000829355
2766 2766 0.0329541
2767 2766 -0.0277778
3170 2766 -5.48301e-06
3172 2766 -0.00512821
4463 2766 -2.86154e-06
4509 2766 -3.97437e-05
2766 2767 -0.0277778
2767 2767 0.0459929
2790 2767 -0.0181818
3170 2767 0
3172 2767 0
4462 2767 -3.9257e-06
4463 2767 -2.86154e-06
4509 2767 -2.65066e-05
2768 2768 1
2769 2769 1
2770 2770 1
2771 2771 1
2770 2772 -1
2771 2772 -1
2772 2772 0.0221142
2773 2772 -0.0105263
2789 2772 -8.9018e-05
2790 2772 -9.29807e-05
3171 2772 -0.0105425
4458 2772 -2.85051e-05
4459 2772 -3.25736e-06
4506 2772 -0.000518863
4509 2772 -0.000312703
2768 2773 -1
2769 2773 -1
2772 2773 -0.0105263
2773 2773 0.0221061
2788 2773 -0.0105263
2789 2773 -8.95544e-05
2790 2773 -9.37399e-05
3171 2773 0
4458 2773 -3.25736e-06
4459 2773 -2.93357e-05
4464 2773 -6.20975e-06
4506 2773 -0.000518609
4509 2773 -0.000312768
2774 2774 1
2775 2775 1
2776 2776 1
2777 2777 1
2778 2778 1
2779 2779 1
2776 2780 -1
2777 2780 -1
2780 2780 0.0221008
2786 2780 -0.0105263
2787 2780 -0.0105263
2789 2780 -8.96724e-05
2790 2780 -9.37399e-05
4478 2780 -2.99392e-05
4479 2780 -7.05329e-06
4506 2780 -0.000512708
4509 2780 -0.000315037
2781 2781 1
2782 2782 1
2783 2783 1
2784 2784 1
2781 2785 -1
2782 2785 -1
2785 2785 0.0221012
2786 2785 -0.0105263
2788 2785 -0.0105263
2789 2785 -8.9614e-05
2790 2785 -9.37399e-05
4460 2785 -2.95498e-05
4465 2785 -6.20975e-06
4506 2785 -0.000515513
4509 2785 -0.000313895
2778 2786 -1
2779 2786 -1
2780 2786 -0.0105263
2785 2786 -0.0105263
2786 2786 0.0221001
2787 2786 0
2788 2786 0
2789 2786 -8.96434e-05
2790 2786 -9.37399e-05
4460 2786 0
4465 2786 -2.93033e-05
4478 2786 -6.20975e-06
4479 2786 0
4506 2786 -0.000514104
4509 2786 -0.000314464
2774 2787 -1
2775 2787 -1
2780 2787 -0.0105263
2786 2787 0
2787 2787 0.022355
2788 2787 0
2789 2787 -9.00775e-05
2790 2787 -9.34869e-05
2885 2787 -0.0104167
4458 2787 -1.28997e-05
4459 2787 -2.10236e-05
4460 2787 -1.40871e-05
4464 2787 -1.40871e-05
4465 2787 -1.40871e-05
4478 2787 -1.40871e-05
4479 2787 -6.36742e-05
4506 2787 -0.000508495
4509 2787 -0.000565996
2773 2788 -0.0105263
2783 2788 -1
2784 2788 -1
2785 2788 -0.0105263
2786 2788 0
2787 2788 0
2788 2788 0.022101
2789 2788 -8.95844e-05
2790 2788 -9.37399e-05
2885 2788 0
3171 2788 0
4458 2788 0
4459 2788 0
4460 2788 -6.20975e-06
4464 2788 -2.8596e-05
4465 2788 0
4478 2788 0
4479 2788 0
4506 2788 -0.000516934
4509 2788 -0.00031333
2772 2789 -9.76494e-05
2773 2789 -9.81555e-05
2780 2789 -9.81555e-05
2785 2789 -9.81555e-05
2786 2789 -9.81555e-05
2787 2789 -9.85319e-05
2788 2789 -9.81555e-05
2789 2789 0.0112946
2790 2789 -2.51115e-06
2885 2789 -1.71109e-05
3170 2789 -0.00606061
3171 2789 -1.6741e-05
4458 2789 -8.49898e-05
4459 2789 -9.16992e-05
4460 2789 -9.16992e-05
4462 2789 -3.9257e-06
4464 2789 -9.16992e-05
4465 2789 -9.16992e-05
4478 2789 -9.16992e-05
4479 2789 -9.16992e-05
4506 2789 -0.00383152
4509 2789 -4.00551e-05
2767 2790 -0.0181818
2772 2790 -9.29807e-05
2773 2790 -9.37399e-05
2780 2790 -9.37399e-05
2785 2790 -9.37399e-05
2786 2790 -9.37399e-05
2787 2790 -9.34869e-05
2788 2790 -9.37399e-05
2789 2790 -2.51115e-06
2790 2790 0.0226586
2885 2790 -1.44829e-05
3170 2790 0
3171 2790 -2.1653e-05
3172 2790 0
4458 2790 -8.19304e-05
4459 2790 -8.83672e-05
4460 2790 -8.83672e-05
4462 2790 -3.9257e-06
4463 2790 0
4464 2790 -8.83672e-05
4465 2790 -8.83672e-05
4478 2790 -8.83672e-05
4479 2790 -8.83672e-05
4506 2790 0
4509 2790 -0.00316694
2791 2791 0.0329541
2792 2791 -0.0277778
2884 2791 -0.00512821
3176 2791 -5.48301e-06
4463 2791 -2.86154e-06
4509 2791 -3.97437e-05
2791 2792 -0.0277778
2792 2792 0.0463325
2815 2792 -0.0185185
2884 2792 0
3176 2792 0
4462 2792 -3.9257e-06
4463 2792 -2.86154e-06
4509 2792 -2.9433e-05
2793 2793 1
2794 2794 1
2795 2795 1
2796 2796 1
2795 2797 -1
2796 2797 -1
2797 2797 0.0221077
2798 2797 -0.0105263
2814 2797 -8.9252e-05
2815 2797 -9.29807e-05
2885 2797 -0.0105425
4458 2797 -2.85051e-05
4459 2797 -3.25736e-06
4506 2797 -0.000507624
4509 2797 -0.00031728
2793 2798 -1
2794 2798 -1
2797 2798 -0.0105263
2798 2798 0.0220998
2813 2798 -0.0105263
2814 2798 -8.97861e-05
2815 2798 -9.37399e-05
2885 2798 0
4458 2798 -3.25736e-06
4459 2798 -2.93357e-05
4464 2798 -6.20975e-06
4506 2798 -0.00050747
4509 2798 -0.000317376
2799 2799 1
2800 2800 1
2801 2801 1
2802 2802 1
2803 2803 1
2804 2804 1
2801 2805 -1
2802 2805 -1
2805 2805 0.022095
2811 2805 -0.0105263
2812 2805 -0.0105263
2814 2805 -8.9895e-05
2815 2805 -9.37399e-05
4478 2805 -2.99392e-05
4479 2805 -7.05329e-06
4506 2805 -0.000501954
4509 2805 -0.000319775
2806 2806 1
2807 2807 1
2808 2808 1
2809 2809 1
2806 2810 -1
2807 2810 -1
2810 2810 0.0220951
2811 2810 -0.0105263
2813 2810 -0.0105263
2814 2810 -8.98411e-05
2815 2810 -9.37399e-05
4460 2810 -2.95498e-05
4465 2810 -6.20975e-06
4506 2810 -0.000504569
4509 2810 -0.000318567
2803 2811 -1
2804 2811 -1
2805 2811 -0.0105263
2810 2811 -0.0105263
2811 2811 0.0220942
2812 2811 0
2813 2811 0
2814 2811 -8.98681e-05
2815 2811 -9.37399e-05
4460 2811 0
4465 2811 -2.93033e-05
4478 2811 -6.20975e-06
4479 2811 0
4506 2811 -0.000503256
4509 2811 -0.000319169
2799 2812 -1
2800 2812 -1
2805 2812 -0.0105263
2811 2812 0
2812 2812 0.0223493
2813 2812 0
2814 2812 -9.02979e-05
2815 2812 -9.34869e-05
3180 2812 -0.0104167
4458 2812 -1.28997e-05
4459 2812 -2.10236e-05
4460 2812 -1.40871e-05
4464 2812 -1.40871e-05
4465 2812 -1.40871e-05
4478 2812 -1.40871e-05
4479 2812 -6.36742e-05
4506 2812 -0.000497835
4509 2812 -0.000570767
2798 2813 -0.0105263
2808 2813 -1
2809 2813 -1
2810 2813 -0.0105263
2811 2813 0
2812 2813 0
2813 2813 0.0220949
2814 2813 -8.98137e-05
2815 2813 -9.37399e-05
2885 2813 0
3180 2813 0
4458 2813 0
4459 2813 0
4460 2813 -6.20975e-06
4464 2813 -2.8596e-05
4465 2813 0
4478 2813 0
4479 2813 0
4506 2813 -0.000505894
4509 2813 -0.000317969
2797 2814 -9.76494e-05
2798 2814 -9.81555e-05
2805 2814 -9.81555e-05
2810 2814 -9.81555e-05
2811 2814 -9.81555e-05
2812 2814 -9.85319e-05
2813 2814 -9.81555e-05
2814 2814 0.0127513
2815 2814 -2.51115e-06
2885 2814 -1.6741e-05
3176 2814 -0.0075188
3180 2814 -1.71109e-05
4458 2814 -8.49898e-05
4459 2814 -9.16992e-05
4460 2814 -9.16992e-05
4462 2814 -3.9257e-06
4464 2814 -9.16992e-05
4465 2814 -9.16992e-05
4478 2814 -9.16992e-05
4479 2814 -9.16992e-05
4506 2814 -0.00383289
4509 2814 -3.71806e-05
2792 2815 -0.0185185
2797 2815 -9.29807e-05
2798 2815 -9.37399e-05
2805 2815 -9.37399e-05
2810 2815 -9.37399e-05
2811 2815 -9.37399e-05
2812 2815 -9.34869e-05
2813 2815 -9.37399e-05
2814 2815 -2.51115e-06
2815 2815 0.0229951
2884 2815 0
2885 2815 -2.1653e-05
3176 2815 0
3180 2815 -1.44829e-05
4458 2815 -8.19304e-05
4459 2815 -8.83672e-05
4460 2815 -8.83672e-05
4462 2815 -3.9257e-06
4463 2815 0
4464 2815 -8.83672e-05
4465 2815 -8.83672e-05
4478 2815 -8.83672e-05
4479 2815 -8.83672e-05
4506 2815 0
4509 2815 -0.00316672
2816 2816 0.00867492
2826 2816 -0.0037037
2884 2816 -2.95239e-06
3176 2816 -0.00492611
4506 2816 -1.98556e-06
4509 2816 -4.01719e-05
2817 2817 0.00971436
2818 2817 -0.00561798
4480 2817 -0.00408163
4500 2817 -1.98556e-06
4509 2817 -1.27634e-05
2817 2818 -0.00561798
2818 2818 0.00830474
2825 2818 -3.37416e-06
2827 2818 -0.00263158
4480 2818 0
4500 2818 -1.98556e-06
4509 2818 -4.98207e-05
2819 2819 1
2820 2820 1
2821 2821 1
2822 2822 1
2821 2823 -1
2822 2823 -1
2823 2823 0.00636753
2824 2823 -0.00344828
4480 2823 -0.000231933
4500 2823 -0.00244786
4509 2823 -0.000239461
2823 2824 -0.00344828
2824 2824 0.0140165
2825 2824 -0.0105263
3178 2824 -2.10885e-06
4480 2824 0
4500 2824 -1.12061e-05
4509 2824 -2.86414e-05
2818 2825 -3.37416e-06
2824 2825 -0.0105263
2825 2825 0.0131419
2826 2825 -0.0025641
2827 2825 0
3178 2825 0
3179 2825 -5.06124e-06
4480 2825 0
4500 2825 -7.08573e-06
4509 2825 -3.59348e-05
2816 2826 -0.0037037
2825 2826 -0.0025641
2826 2826 0.00634458
2827 2826 -1.0966e-05
2884 2826 0
3176 2826 0
3178 2826 0
3179 2826 0
4480 2826 0
4500 2826 0
4506 2826 -1.98556e-06
4509 2826 -6.38235e-05
2818 2827 -0.00263158
2825 2827 0
2826 2827 -1.0966e-05
2827 2827 0.00641466
2883 2827 -6.32655e-06
2884 2827 -0.0037037
3176 2827 0
3178 2827 0
3179 2827 0
4480 2827 0
4500 2827 0
4506 2827 -1.98556e-06
4509 2827 -6.00989e-05
2828 2828 1
2829 2829 1
2830 2830 1
2831 2831 1
2832 2832 1
2833 2833 1
2834 2834 1
2835 2835 1
2830 2836 -1
2831 2836 -1
2832 2836 -1
2836 2836 0.0116524
2837 2836 -0.0113636
4463 2836 -8.24722e-06
4509 2836 -0.000280488
2833 2837 -1
2834 2837 -1
2835 2837 -1
2836 2837 -0.0113636
2837 2837 0.018589
2882 2837 -2.10885e-06
2883 2837 -0.0070922
2884 2837 -3.79593e-06
4463 2837 0
4502 2837 -2.35542e-06
4506 2837 -2.99132e-06
4509 2837 -0.000121879
2838 2838 1
2839 2839 1
2840 2840 1
2841 2841 1
2842 2842 1
2843 2843 1
2844 2844 1
2845 2845 1
2840 2846 -1
2841 2846 -1
2846 2846 0.0076086
2847 2846 -1.01225e-05
2849 2846 -0.000123728
2882 2846 -0.00704225
4509 2846 -0.0004325
2842 2847 -1
2843 2847 -1
2844 2847 -1
2845 2847 -1
2846 2847 -1.01225e-05
2847 2847 0.00320247
2848 2847 -0.000892683
2849 2847 -4.71601e-07
2881 2847 -0.000532455
2882 2847 0
4463 2847 -4.82245e-05
4509 2847 -0.00171851
2847 2848 -0.00139654
2848 2848 0.0123412
2849 2848 -2.51115e-06
2881 2848 0.00034962
2882 2848 0
4462 2848 -0.011236
4463 2848 -2.86154e-06
4509 2848 -5.29379e-05
2846 2849 -0.000123728
2847 2849 -0.000130898
2848 2849 -2.51115e-06
2849 2849 0.00630938
2881 2849 0
2882 2849 0
2885 2849 -0.00598802
4462 2849 -3.9257e-06
4463 2849 -2.86154e-06
4509 2849 -5.74287e-05
2850 2850 1
2851 2851 1
2850 2852 -1
2851 2852 -1
2852 2852 0.00220581
2880 2852 -0.00192308
3170 2852 -4.2177e-06
4463 2852 -8.24722e-06
4502 2852 -2.08938e-06
4506 2852 -2.75772e-06
4509 2852 -0.000265422
2853 2853 1
2854 2854 1
2855 2855 1
2856 2856 1
2857 2857 1
2858 2858 1
2859 2859 1
2860 2860 1
2861 2861 1
2862 2862 1
2863 2863 1
2864 2864 1
2865 2865 1
2866 2866 1
2867 2867 1
2857 2868 -1
2858 2868 -1
2859 2868 -1
2860 2868 -1
2861 2868 -1
2868 2868 0.00248977
2869 2868 -0.000445445
2870 2868 -1.45433e-05
2875 2868 -3.85926e-05
4509 2868 -0.00199119
2865 2869 -1
2866 2869 -1
2867 2869 -1
2868 2869 -0.000402323
2869 2869 0.00531063
2870 2869 0
2872 2869 -1.9661e-06
2874 2869 -0.00416863
2875 2869 -1.65548e-05
4509 2869 -0.000721151
2868 2870 0.000135272
2869 2870 0
2870 2870 0.00568123
2872 2870 0
2874 2870 0
2875 2870 0
4502 2870 -0.00552486
4509 2870 -0.00029164
2871 2871 0.00224355
2872 2871 -0.000111741
2874 2871 -0.00209205
2875 2871 -1.43432e-05
4502 2871 -8.38348e-06
4509 2871 -1.70295e-05
2853 2872 -1
2854 2872 -1
2855 2872 -1
2856 2872 -1
2869 2872 -1.9661e-06
2870 2872 0
2871 2872 -6.10824e-05
2872 2872 0.00215113
2873 2872 -3.0079e-05
2874 2872 -1.9661e-06
2875 2872 -0.000566672
4502 2872 -8.01362e-06
4509 2872 -0.00148135
2872 2873 -1.92442e-05
2873 2873 0.00444309
2874 2873 0
2875 2873 0
4502 2873 -1.9661e-06
4506 2873 -0.00436681
4509 2873 -5.50651e-05
2869 2874 -0.00416863
2870 2874 0
2871 2874 -0.00209205
2872 2874 -1.9661e-06
2873 2874 0
2874 2874 0.00994678
2875 2874 0
2876 2874 -0.00363636
4502 2874 -1.23157e-05
4506 2874 -5.56087e-06
4509 2874 -2.98872e-05
2862 2875 -1
2863 2875 -1
2864 2875 -1
2868 2875 -3.85926e-05
2869 2875 -1.65548e-05
2870 2875 0
2871 2875 -6.08682e-05
2872 2875 -0.000531615
2873 2875 0
2874 2875 0
2875 2875 0.00417156
2876 2875 0
3168 2875 -0.00229885
4502 2875 0
4506 2875 -1.98556e-06
4509 2875 -0.00122309
2874 2876 -0.00363636
2875 2876 0
2876 2876 0.00443372
2877 2876 -1.51525e-05
2880 2876 -7.82221e-05
2881 2876 -3.80242e-06
3168 2876 0
3169 2876 -6.3114e-05
4502 2876 0
4506 2876 -0.000538967
4509 2876 -9.81021e-05
2876 2877 -0.000201856
2877 2877 0.00313029
2880 2877 -0.00030878
2881 2877 -0.00139082
2883 2877 -5.82044e-05
3168 2877 0
3169 2877 0
4502 2877 -2.08938e-06
4506 2877 -0.0011138
4509 2877 -5.47457e-05
2878 2878 0.0025623
2879 2878 -0.00062718
2880 2878 -0.00214133
2883 2878 -1.95312e-06
3168 2878 0.000249491
4461 2878 -6.39792e-06
4506 2878 -2.91072e-05
4509 2878 -5.82691e-06
2878 2879 -0.000301303
2879 2879 0.00426149
2880 2879 0
2882 2879 -0.00225225
2883 2879 -5.82045e-05
3168 2879 -0.000385175
4461 2879 0
4502 2879 -3.13407e-06
4506 2879 -0.00123235
4509 2879 -2.90697e-05
2852 2880 -0.00192308
2876 2880 7.77498e-05
2877 2880 -0.000482816
2878 2880 -0.00214133
2879 2880 0
2880 2880 0.00526126
2881 2880 0
2882 2880 0
2883 2880 -3.06919e-06
3168 2880 0
3169 2880 0
3170 2880 0
4461 2880 -1.1271e-05
4463 2880 0
4502 2880 -2.08938e-06
4506 2880 -0.000710121
4509 2880 -6.5238e-05
2838 2881 -1
2839 2881 -1
2847 2881 -1.22472e-05
2848 2881 -0.000123728
2849 2881 0
2876 2881 -3.80242e-06
2877 2881 -0.00139082
2880 2881 0
2881 2881 0.00201433
2882 2881 0
2883 2881 0
2885 2881 0
3168 2881 0
3169 2881 0
3170 2881 0
4461 2881 0
4462 2881 0
4463 2881 0
4502 2881 -2.08938e-06
4506 2881 -3.4066e-06
4509 2881 -0.00047824
2837 2882 -2.10885e-06
2846 2882 -0.00704225
2847 2882 0
2848 2882 0
2849 2882 0
2879 2882 -0.00225225
2880 2882 0
2881 2882 0
2882 2882 0.00936798
2883 2882 0
2884 2882 0
2885 2882 0
3168 2882 -2.08938e-06
3169 2882 0
3170 2882 0
4461 2882 0
4462 2882 0
4463 2882 0
4502 2882 -3.13407e-06
4506 2882 -6.74183e-06
4509 2882 -5.94046e-05
2827 2883 -6.32655e-06
2828 2883 -1
2829 2883 -1
2837 2883 -0.0070922
2877 2883 0.000110887
2878 2883 -1.95312e-06
2879 2883 0.000108133
2880 2883 -3.06919e-06
2881 2883 0
2882 2883 0
2883 2883 0.00919848
2884 2883 0
2885 2883 0
3168 2883 -8.83121e-06
3169 2883 0
3170 2883 0
3176 2883 0
3178 2883 0
3179 2883 0
4461 2883 -6.32655e-06
4462 2883 0
4463 2883 0
4480 2883 0
4500 2883 0
4502 2883 -2.35542e-06
4506 2883 -0.00218275
4509 2883 -0.000113693
2791 2884 -0.00512821
2792 2884 0
2815 2884 0
2816 2884 -2.95239e-06
2826 2884 0
2827 2884 -0.0037037
2837 2884 -3.79593e-06
2882 2884 0
2883 2884 0
2884 2884 0.00887867
2885 2884 0
3168 2884 0
3169 2884 0
3170 2884 0
3176 2884 0
3178 2884 0
3179 2884 0
3180 2884 0
4458 2884 0
4459 2884 0
4460 2884 0
4461 2884 0
4462 2884 0
4463 2884 0
4464 2884 0
4465 2884 0
4478 2884 0
4479 2884 0
4480 2884 0
4500 2884 0
4502 2884 0
4506 2884 -1.98556e-06
4509 2884 -3.80242e-05
2787 2885 -0.0104167
2788 2885 0
2789 2885 -1.71109e-05
2790 2885 -1.44829e-05
2797 2885 -0.0105425
2798 2885 0
2813 2885 0
2814 2885 -1.6741e-05
2815 2885 -2.1653e-05
2849 2885 -0.00598802
2881 2885 0
2882 2885 0
2883 2885 0
2884 2885 0
2885 2885 0.104739
3168 2885 0
3169 2885 0
3170 2885 0
3171 2885 -0.0384641
3172 2885 0
3176 2885 0
3178 2885 0
3179 2885 0
3180 2885 -0.0384641
4458 2885 -3.30083e-05
4459 2885 -2.95823e-05
4460 2885 -1.40871e-05
4461 2885 0
4462 2885 -7.29986e-06
4463 2885 -2.86154e-06
4464 2885 -1.40871e-05
4465 2885 -1.40871e-05
4478 2885 -1.40871e-05
4479 2885 -1.40676e-05
4480 2885 0
4500 2885 0
4502 2885 0
4506 2885 -1.71303e-05
4509 2885 -0.000633738
2886 2886 0.0329541
2887 2886 -0.0277778
3166 2886 -0.00512821
3167 2886 -5.48301e-06
4463 2886 -2.86154e-06
4509 2886 -3.97437e-05
2886 2887 -0.0277778
2887 2887 0.0486442
2910 2887 -0.0208333
3166 2887 0
3167 2887 0
4462 2887 -3.9257e-06
4463 2887 -2.86154e-06
4509 2887 -2.626e-05
2888 2888 1
2889 2889 1
2890 2890 1
2891 2891 1
2890 2892 -1
2891 2892 -1
2892 2892 0.0221217
2893 2892 -0.0105263
2909 2892 -8.87633e-05
2910 2892 -9.29807e-05
3175 2892 -0.0105425
4458 2892 -2.85051e-05
4459 2892 -3.25736e-06
4506 2892 -0.000530962
4509 2892 -0.000308366
2888 2893 -1
2889 2893 -1
2892 2893 -0.0105263
2893 2893 0.0221135
2908 2893 -0.0105263
2909 2893 -8.93025e-05
2910 2893 -9.37399e-05
3175 2893 0
4458 2893 -3.25736e-06
4459 2893 -2.93357e-05
4464 2893 -6.20975e-06
4506 2893 -0.000530595
4509 2893 -0.000308402
2894 2894 1
2895 2895 1
2896 2896 1
2897 2897 1
2898 2898 1
2899 2899 1
2896 2900 -1
2897 2900 -1
2900 2900 0.0221076
2906 2900 -0.0105263
2907 2900 -0.0105263
2909 2900 -8.9431e-05
2910 2900 -9.37399e-05
4478 2900 -2.99392e-05
4479 2900 -7.05329e-06
4506 2900 -0.000524257
4509 2900 -0.000310554
2901 2901 1
2902 2902 1
2903 2903 1
2904 2904 1
2901 2905 -1
2902 2905 -1
2905 2905 0.0221082
2906 2905 -0.0105263
2908 2905 -0.0105263
2909 2905 -8.93674e-05
2910 2905 -9.37399e-05
4460 2905 -2.95498e-05
4465 2905 -6.20975e-06
4506 2905 -0.000527277
4509 2905 -0.000309471
2898 2906 -1
2899 2906 -1
2900 2906 -0.0105263
2905 2906 -0.0105263
2906 2906 0.0221071
2907 2906 0
2908 2906 0
2909 2906 -8.93994e-05
2910 2906 -9.37399e-05
4460 2906 0
4465 2906 -2.93033e-05
4478 2906 -6.20975e-06
4479 2906 0
4506 2906 -0.00052576
4509 2906 -0.000310011
2894 2907 -1
2895 2907 -1
2900 2907 -0.0105263
2906 2907 0
2907 2907 0.0223617
2908 2907 0
2909 2907 -8.98386e-05
2910 2907 -9.34869e-05
3171 2907 -0.0104167
4458 2907 -1.28997e-05
4459 2907 -2.10236e-05
4460 2907 -1.40871e-05
4464 2907 -1.40871e-05
4465 2907 -1.40871e-05
4478 2907 -1.40871e-05
4479 2907 -6.36742e-05
4506 2907 -0.00051994
4509 2907 -0.000561482
2893 2908 -0.0105263
2903 2908 -1
2904 2908 -1
2905 2908 -0.0105263
2906 2908 0
2907 2908 0
2908 2908 0.0221083
2909 2908 -8.93351e-05
2910 2908 -9.37399e-05
3171 2908 0
3175 2908 0
4458 2908 0
4459 2908 0
4460 2908 -6.20975e-06
4464 2908 -2.8596e-05
4465 2908 0
4478 2908 0
4479 2908 0
4506 2908 -0.000528808
4509 2908 -0.000308935
2892 2909 -9.76494e-05
2893 2909 -9.81555e-05
2900 2909 -9.81555e-05
2905 2909 -9.81555e-05
2906 2909 -9.81555e-05
2907 2909 -9.85319e-05
2908 2909 -9.81555e-05
2909 2909 0.0102614
2910 2909 -2.23213e-06
3167 2909 -0.00502513
3171 2909 -1.71109e-05
3175 2909 -1.6741e-05
4458 2909 -8.49898e-05
4459 2909 -9.16992e-05
4460 2909 -9.16992e-05
4462 2909 -3.9257e-06
4464 2909 -9.16992e-05
4465 2909 -9.16992e-05
4478 2909 -9.16992e-05
4479 2909 -9.16992e-05
4506 2909 -0.00383003
4509 2909 -4.41171e-05
2887 2910 -0.0208333
2892 2910 -9.29807e-05
2893 2910 -9.37399e-05
2900 2910 -9.37399e-05
2905 2910 -9.37399e-05
2906 2910 -9.37399e-05
2907 2910 -9.34869e-05
2908 2910 -9.37399e-05
2909 2910 -2.23213e-06
2910 2910 0.0253135
3166 2910 0
3167 2910 0
3171 2910 -1.44829e-05
3175 2910 -2.20748e-05
4458 2910 -8.19304e-05
4459 2910 -8.83672e-05
4460 2910 -8.83672e-05
4462 2910 -3.9257e-06
4463 2910 0
4464 2910 -8.83672e-05
4465 2910 -8.83672e-05
4478 2910 -8.83672e-05
4479 2910 -8.83672e-05
4506 2910 0
4509 2910 -0.00317016
2911 2911 1
2912 2912 1
2913 2913 1
2914 2914 1
2913 2915 -1
2914 2915 -1
2915 2915 0.00601623
2916 2915 -0.00309598
4483 2915 -0.000231934
4500 2915 -0.00244777
4509 2915 -0.000240551
2915 2916 -0.00309598
2916 2916 0.0136597
2917 2916 -0.0105263
4483 2916 0
4500 2916 -1.12061e-05
4509 2916 -2.61692e-05
2916 2917 -0.0105263
2917 2917 0.0131419
2918 2917 -3.37416e-06
2919 2917 -0.0025641
3169 2917 -5.06124e-06
4483 2917 0
4500 2917 -7.08573e-06
4509 2917 -3.59348e-05
2917 2918 -3.37416e-06
2918 2918 0.00462709
2919 2918 0
2921 2918 -0.00263158
3169 2918 0
4483 2918 -0.0019305
4500 2918 -1.98556e-06
4509 2918 -5.96512e-05
2917 2919 -0.0025641
2918 2919 0
2919 2919 0.00634458
2920 2919 -0.0037037
2921 2919 -1.0966e-05
3169 2919 0
4483 2919 0
4500 2919 0
4506 2919 -1.98556e-06
4509 2919 -6.38235e-05
2919 2920 -0.0037037
2920 2920 0.00867492
2921 2920 0
3169 2920 0
3170 2920 -0.00492611
3172 2920 -2.95239e-06
4483 2920 0
4500 2920 0
4506 2920 -1.98556e-06
4509 2920 -4.01719e-05
2918 2921 -0.00263158
2919 2921 -1.0966e-05
2920 2921 0
2921 2921 0.00641466
2977 2921 -6.32655e-06
3169 2921 0
3170 2921 0
3172 2921 -0.0037037
4483 2921 0
4500 2921 0
4506 2921 -1.98556e-06
4509 2921 -6.00989e-05
2922 2922 1
2923 2923 1
2924 2924 1
2925 2925 1
2926 2926 1
2927 2927 1
2928 2928 1
2929 2929 1
2924 2930 -1
2925 2930 -1
2926 2930 -1
2930 2930 0.0116524
2931 2930 -0.0113636
4463 2930 -8.24722e-06
4509 2930 -0.000280488
2927 2931 -1
2928 2931 -1
2929 2931 -1
2930 2931 -0.0113636
2931 2931 0.018589
2976 2931 -2.10885e-06
2977 2931 -0.0070922
3172 2931 -3.79593e-06
4463 2931 0
4502 2931 -2.35542e-06
4506 2931 -2.99132e-06
4509 2931 -0.000121879
2932 2932 1
2933 2933 1
2934 2934 1
2935 2935 1
2936 2936 1
2937 2937 1
2938 2938 1
2939 2939 1
2934 2940 -1
2935 2940 -1
2940 2940 0.0076086
2941 2940 -1.01225e-05
2943 2940 -0.000123728
2976 2940 -0.00704225
4509 2940 -0.0004325
2936 2941 -1
2937 2941 -1
2938 2941 -1
2939 2941 -1
2940 2941 -1.01225e-05
2941 2941 0.00320247
2942 2941 -0.000892683
2943 2941 1.77132e-07
2975 2941 -0.000532456
2976 2941 0
4463 2941 -4.82245e-05
4509 2941 -0.00171916
2941 2942 -0.00139654
2942 2942 0.0111056
2943 2942 -2.51115e-06
2975 2942 0.000349621
2976 2942 0
4462 2942 -0.01
4463 2942 -2.86154e-06
4509 2942 -5.32948e-05
2940 2943 -0.000123728
2941 2943 -0.000130898
2942 2943 -2.51115e-06
2943 2943 0.0058733
2975 2943 0
2976 2943 0
3171 2943 -0.00555556
4462 2943 -3.9257e-06
4463 2943 -2.86154e-06
4509 2943 -5.38245e-05
2944 2944 1
2945 2945 1
2944 2946 -1
2945 2946 -1
2946 2946 0.00220603
2974 2946 -0.00192308
3167 2946 -4.2177e-06
4463 2946 -8.24722e-06
4502 2946 -2.08938e-06
4506 2946 -2.75772e-06
4509 2946 -0.000265643
2947 2947 1
2948 2948 1
2949 2949 1
2950 2950 1
2951 2951 1
2952 2952 1
2953 2953 1
2954 2954 1
2955 2955 1
2956 2956 1
2957 2957 1
2958 2958 1
2959 2959 1
2960 2960 1
2961 2961 1
2951 2962 -1
2952 2962 -1
2953 2962 -1
2954 2962 -1
2955 2962 -1
2962 2962 0.00248977
2963 2962 -0.000445445
2964 2962 -1.45433e-05
2969 2962 -3.85926e-05
4509 2962 -0.00199119
2959 2963 -1
2960 2963 -1
2961 2963 -1
2962 2963 -0.000402323
2963 2963 0.00531063
2964 2963 0
2966 2963 -1.9661e-06
2968 2963 -0.00416863
2969 2963 -1.65548e-05
4509 2963 -0.000721151
2962 2964 0.000135272
2963 2964 0
2964 2964 0.00568123
2966 2964 0
2968 2964 0
2969 2964 0
4502 2964 -0.00552486
4509 2964 -0.00029164
2965 2965 0.00224355
2966 2965 -0.000111741
2968 2965 -0.00209205
2969 2965 -1.43432e-05
4502 2965 -8.38348e-06
4509 2965 -1.70295e-05
2947 2966 -1
2948 2966 -1
2949 2966 -1
2950 2966 -1
2963 2966 -1.9661e-06
2964 2966 0
2965 2966 -6.10824e-05
2966 2966 0.00215113
2967 2966 -3.0079e-05
2968 2966 -1.9661e-06
2969 2966 -0.000566672
4502 2966 -8.01362e-06
4509 2966 -0.00148135
2966 2967 -1.92442e-05
2967 2967 0.00444309
2968 2967 0
2969 2967 0
4502 2967 -1.9661e-06
4506 2967 -0.00436681
4509 2967 -5.50651e-05
2963 2968 -0.00416863
2964 2968 0
2965 2968 -0.00209205
2966 2968 -1.9661e-06
2967 2968 0
2968 2968 0.00994678
2969 2968 0
2970 2968 -0.00363636
4502 2968 -1.23157e-05
4506 2968 -5.56087e-06
4509 2968 -2.98872e-05
2956 2969 -1
2957 2969 -1
2958 2969 -1
2962 2969 -3.85926e-05
2963 2969 -1.65548e-05
2964 2969 0
2965 2969 -6.08682e-05
2966 2969 -0.000531615
2967 2969 0
2968 2969 0
2969 2969 0.00417156
2970 2969 0
3165 2969 -0.00229885
4502 2969 0
4506 2969 -1.98556e-06
4509 2969 -0.00122309
2968 2970 -0.00363636
2969 2970 0
2970 2970 0.00443372
2971 2970 -1.51525e-05
2974 2970 -7.82221e-05
2975 2970 -3.80242e-06
3164 2970 -6.3114e-05
3165 2970 0
4502 2970 0
4506 2970 -0.000538967
4509 2970 -9.81021e-05
2970 2971 -0.000201856
2971 2971 0.00313029
2974 2971 -0.00030878
2975 2971 -0.00139082
2977 2971 -5.82044e-05
3164 2971 0
3165 2971 0
4502 2971 -2.08938e-06
4506 2971 -0.0011138
4509 2971 -5.47457e-05
2972 2972 0.0025623
2973 2972 -0.00062718
2974 2972 -0.00214133
2977 2972 -1.95312e-06
3165 2972 0.000249491
4461 2972 -6.39792e-06
4506 2972 -2.91072e-05
4509 2972 -5.82691e-06
2972 2973 -0.000301303
2973 2973 0.00426149
2974 2973 0
2976 2973 -0.00225225
2977 2973 -5.82045e-05
3165 2973 -0.000385175
4461 2973 0
4502 2973 -3.13407e-06
4506 2973 -0.00123235
4509 2973 -2.90697e-05
2946 2974 -0.00192308
2970 2974 7.775e-05
2971 2974 -0.000482816
2972 2974 -0.00214133
2973 2974 0
2974 2974 0.00526126
2975 2974 0
2976 2974 0
2977 2974 -3.06919e-06
3164 2974 0
3165 2974 0
3167 2974 0
4461 2974 -1.1271e-05
4463 2974 0
4502 2974 -2.08938e-06
4506 2974 -0.000710121
4509 2974 -6.5238e-05
2932 2975 -1
2933 2975 -1
2941 2975 -1.22472e-05
2942 2975 -0.000123728
2943 2975 0
2970 2975 -3.80242e-06
2971 2975 -0.00139082
2974 2975 0
2975 2975 0.00201433
2976 2975 0
2977 2975 0
3164 2975 0
3165 2975 0
3167 2975 0
3171 2975 0
4461 2975 0
4462 2975 0
4463 2975 0
4502 2975 -2.08938e-06
4506 2975 -3.4066e-06
4509 2975 -0.00047824
2931 2976 -2.10885e-06
2940 2976 -0.00704225
2941 2976 0
2942 2976 0
2943 2976 0
2973 2976 -0.00225225
2974 2976 0
2975 2976 0
2976 2976 0.00936798
2977 2976 0
3164 2976 0
3165 2976 -2.08938e-06
3167 2976 0
3171 2976 0
3172 2976 0
4461 2976 0
4462 2976 0
4463 2976 0
4502 2976 -3.13407e-06
4506 2976 -6.74183e-06
4509 2976 -5.94046e-05
2921 2977 -6.32655e-06
2922 2977 -1
2923 2977 -1
2931 2977 -0.0070922
2971 2977 0.000110887
2972 2977 -1.95312e-06
2973 2977 0.000108133
2974 2977 -3.06919e-06
2975 2977 0
2976 2977 0
2977 2977 0.00919848
3164 2977 0
3165 2977 -8.83121e-06
3167 2977 0
3169 2977 0
3170 2977 0
3171 2977 0
3172 2977 0
4461 2977 -6.32655e-06
4462 2977 0
4463 2977 0
4483 2977 0
4500 2977 0
4502 2977 -2.35542e-06
4506 2977 -0.00218275
4509 2977 -0.000113693
2978 2978 1
2979 2979 1
2980 2980 1
2981 2981 1
2982 2982 1
2983 2983 1
2984 2984 1
2985 2985 1
2981 2986 -1
2982 2986 -1
2983 2986 -1
2986 2986 0.0060373
2987 2986 -0.000122622
2998 2986 -0.0024998
4461 2986 -0.00012227
4509 2986 -0.00329261
2984 2987 -1
2985 2987 -1
2986 2987 -0.000125483
2987 2987 0.00143399
2998 2987 -0.000134942
3168 2987 -1.65548e-05
3169 2987 -3.86309e-05
4461 2987 -3.3482e-06
4500 2987 -0.000876096
4509 2987 -0.00023893
2988 2988 1
2989 2989 1
2990 2990 1
2991 2991 1
2992 2992 1
2993 2993 1
2994 2994 1
2995 2995 1
2988 2996 -1
2989 2996 -1
2990 2996 -1
2996 2996 0.00345091
2997 2996 -7.22156e-12
3169 2996 -2.50167e-05
4461 2996 -0.000122591
4509 2996 -0.00330331
2993 2997 -1
2994 2997 -1
2995 2997 -1
2996 2997 -2.53066e-14
2997 2997 0.00840987
2998 2997 -0.000203355
3169 2997 -3.62625e-05
3178 2997 -0.00632911
4461 2997 0
4500 2997 -0.00127479
4509 2997 -0.000566347
2978 2998 -1
2979 2998 -1
2980 2998 -1
2986 2998 -0.00249692
2987 2998 -0.00013353
2997 2998 -0.000203086
2998 2998 0.0153394
3080 2998 -0.00970874
3168 2998 0
3169 2998 -1.93365e-06
3178 2998 0
4461 2998 0
4500 2998 -0.000366793
4509 2998 -0.00242836
2999 2999 1
3000 3000 1
3001 3001 1
3002 3002 1
3003 3003 1
3004 3004 1
3005 3005 1
3006 3006 1
3004 3007 -1
3005 3007 -1
3006 3007 -1
3007 3007 0.000826081
3008 3007 -7.68883e-12
3080 3007 -1.59654e-05
3177 3007 -2.87489e-05
4509 3007 -0.000781367
3001 3008 -1
3002 3008 -1
3003 3008 -1
3007 3008 -2.38994e-14
3008 3008 0.000400916
3009 3008 -1.16979e-09
3010 3008 -1.94254e-05
3080 3008 -3.38941e-05
3177 3008 0
4509 3008 -0.000347596
2999 3009 -1
3000 3009 -1
3008 3009 -1.76396e-11
3009 3009 0.00495102
3010 3009 -6.51438e-05
3080 3009 -0.000106361
3177 3009 -0.000106361
4483 3009 -0.00031132
4500 3009 -0.00389483
4509 3009 -0.000467006
3008 3010 -3.38951e-05
3009 3010 -6.71803e-05
3010 3010 0.0058132
3031 3010 -0.00540541
3080 3010 -1.69357e-05
3177 3010 0
4483 3010 -2.75772e-06
4500 3010 -0.000211569
4509 3010 -7.54529e-05
3011 3011 1
3012 3012 1
3013 3013 1
3014 3014 1
3015 3015 1
3016 3016 1
3017 3017 1
3018 3018 1
3011 3019 -1
3012 3019 -1
3013 3019 -1
3019 3019 0.00345091
3031 3019 -7.22157e-12
3164 3019 -2.50167e-05
4461 3019 -0.000122591
4509 3019 -0.00330331
3020 3020 1
3021 3021 1
3022 3022 1
3023 3023 1
3024 3024 1
3025 3025 1
3026 3026 1
3027 3027 1
3023 3028 -1
3024 3028 -1
3025 3028 -1
3028 3028 0.00603728
3029 3028 -0.000122624
3030 3028 -0.00249977
4461 3028 -0.00012227
4509 3028 -0.00329262
3026 3029 -1
3027 3029 -1
3028 3029 -0.000125483
3029 3029 0.00143377
3030 3029 -0.000134942
3164 3029 -3.8631e-05
3165 3029 -1.65548e-05
4461 3029 -3.3482e-06
4500 3029 -0.000875878
4509 3029 -0.00023893
3020 3030 -1
3021 3030 -1
3022 3030 -1
3028 3030 -0.00249689
3029 3030 -0.000133531
3030 3030 0.0144762
3031 3030 -0.000202807
3079 3030 -0.00884956
3164 3030 -1.93365e-06
3165 3030 0
4461 3030 0
4500 3030 -0.000364704
4509 3030 -0.00242673
3010 3031 -0.00540541
3016 3031 -1
3017 3031 -1
3018 3031 -1
3019 3031 -2.53066e-14
3030 3031 -0.000203076
3031 3031 0.00748424
3079 3031 0
3080 3031 0
3164 3031 -3.62625e-05
3165 3031 0
3177 3031 0
4461 3031 0
4483 3031 0
4500 3031 -0.00127391
4509 3031 -0.000565595
3032 3032 1
3033 3033 1
3034 3034 1
3035 3035 1
3036 3036 1
3037 3037 1
3038 3038 1
3039 3039 1
3037 3040 -1
3038 3040 -1
3039 3040 -1
3040 3040 0.000826082
3041 3040 -7.68834e-12
3079 3040 -1.59699e-05
3080 3040 -2.87464e-05
4509 3040 -0.000781365
3034 3041 -1
3035 3041 -1
3036 3041 -1
3040 3041 -2.39005e-14
3041 3041 0.000400916
3042 3041 -1.16974e-09
3078 3041 -1.94254e-05
3079 3041 -3.38941e-05
3080 3041 0
4509 3041 -0.000347596
3032 3042 -1
3033 3042 -1
3041 3042 -1.76387e-11
3042 3042 0.00495109
3078 3042 -6.51441e-05
3079 3042 -0.000106361
3080 3042 -0.000106361
4485 3042 -0.000311318
4500 3042 -0.00389489
4509 3042 -0.000467008
3043 3043 1
3044 3044 1
3045 3045 1
3046 3046 1
3047 3047 1
3048 3048 1
3049 3049 1
3050 3050 1
3048 3051 -1
3049 3051 -1
3050 3051 -1
3051 3051 0.000826082
3052 3051 -7.68192e-12
3054 3051 -1.59797e-05
3079 3051 -2.87414e-05
4509 3051 -0.000781361
3045 3052 -1
3046 3052 -1
3047 3052 -1
3051 3052 -2.38859e-14
3052 3052 0.000400916
3053 3052 -1.17024e-09
3054 3052 -3.38941e-05
3079 3052 0
4500 3052 -1.94254e-05
4509 3052 -0.000347596
3043 3053 -1
3044 3053 -1
3052 3053 -1.76462e-11
3053 3053 0.0049512
3054 3053 -0.000106362
3079 3053 -0.000106362
4495 3053 -0.00031132
4500 3053 -0.00396015
4509 3053 -0.000467006
3051 3054 -3.38941e-05
3052 3054 -3.38941e-05
3053 3054 -0.000108417
3054 3054 0.0100245
3077 3054 -0.00952381
3078 3054 -2.10885e-06
3079 3054 -5.0223e-06
4495 3054 0
4500 3054 -0.000135912
4509 3054 -0.00018142
3055 3055 1
3056 3056 1
3057 3057 1
3058 3058 1
3059 3059 1
3060 3060 1
3061 3061 1
3062 3062 1
3058 3063 -1
3059 3063 -1
3060 3063 -1
3063 3063 0.00603664
3064 3063 -0.000122688
3077 3063 -0.00249866
4461 3063 -0.000122278
4509 3063 -0.00329301
3061 3064 -1
3062 3064 -1
3063 3064 -0.000125479
3064 3064 0.00143434
3077 3064 -0.000134946
3162 3064 -3.8632e-05
3163 3064 -1.65548e-05
4461 3064 -3.62722e-06
4500 3064 -0.000876175
4509 3064 -0.00023893
3065 3065 1
3066 3066 1
3067 3067 1
3068 3068 1
3069 3069 1
3070 3070 1
3071 3071 1
3072 3072 1
3073 3073 1
3074 3074 1
3065 3075 -1
3066 3075 -1
3067 3075 -1
3075 3075 0.00345092
3076 3075 -7.22125e-12
3162 3075 -2.50172e-05
4461 3075 -0.000122591
4509 3075 -0.00330331
3070 3076 -1
3071 3076 -1
3072 3076 -1
3075 3076 -2.53056e-14
3076 3076 0.00907052
3077 3076 -0.00020308
3078 3076 -0.00699301
3162 3076 -3.62625e-05
4461 3076 0
4500 3076 -0.00127404
4509 3076 -0.000564125
3054 3077 -0.00952381
3055 3077 -1
3056 3077 -1
3057 3077 -1
3063 3077 -0.00249582
3064 3077 -0.000133532
3076 3077 -0.000202798
3077 3077 0.0151493
3078 3077 0
3079 3077 0
3162 3077 -1.93365e-06
3163 3077 0
4461 3077 0
4495 3077 0
4500 3077 -0.000364704
4509 3077 -0.00242666
3041 3078 -3.38951e-05
3042 3078 -6.71803e-05
3054 3078 -2.10885e-06
3076 3078 -0.00699301
3077 3078 0
3078 3078 0.00740882
3079 3078 -1.89018e-05
3080 3078 0
3162 3078 0
3163 3078 0
4461 3078 0
4485 3078 -5.45705e-06
4495 3078 0
4500 3078 -0.000211822
4509 3078 -7.64457e-05
3030 3079 -0.00884956
3031 3079 0
3040 3079 -3.38941e-05
3041 3079 -3.38941e-05
3042 3079 -0.000108417
3051 3079 -3.38941e-05
3052 3079 0
3053 3079 -0.000108417
3054 3079 -5.0223e-06
3077 3079 0
3078 3079 -1.89018e-05
3079 3079 0.00986716
3080 3079 -5.0223e-06
3162 3079 0
3163 3079 0
3164 3079 0
3165 3079 0
3177 3079 0
4461 3079 0
4483 3079 0
4485 3079 -2.50466e-06
4495 3079 0
4500 3079 -0.000264498
4509 3079 -0.000403136
2998 3080 -0.00970874
3007 3080 -3.38941e-05
3008 3080 -3.38941e-05
3009 3080 -0.000108417
3010 3080 -1.69357e-05
3031 3080 0
3040 3080 -3.38941e-05
3041 3080 0
3042 3080 -0.000108417
3078 3080 0
3079 3080 -5.0223e-06
3080 3080 0.0107253
3162 3080 0
3163 3080 0
3164 3080 0
3165 3080 0
3168 3080 0
3169 3080 0
3177 3080 -5.0223e-06
3178 3080 -2.53062e-06
4461 3080 0
4483 3080 -2.75772e-06
4485 3080 0
4495 3080 0
4500 3080 -0.000265485
4509 3080 -0.000400301
3081 3081 1
3082 3082 1
3083 3083 1
3084 3084 1
3083 3085 -1
3084 3085 -1
3085 3085 0.00676411
3086 3085 -0.00384615
4485 3085 -0.000231936
4500 3085 -0.00244765
4509 3085 -0.000238371
3085 3086 -0.00384615
3086 3086 0.00691888
3087 3086 -0.00304878
4485 3086 0
4500 3086 -9.73964e-06
4509 3086 -1.42104e-05
3086 3087 -0.00304878
3087 3087 0.00567161
3088 3087 -3.37416e-06
3089 3087 -0.0025641
3164 3087 -5.06124e-06
4485 3087 0
4500 3087 -7.79949e-06
4509 3087 -4.24949e-05
3087 3088 -3.37416e-06
3088 3088 0.00830474
3089 3088 0
3091 3088 -0.00263158
3164 3088 0
4485 3088 -0.00561798
4500 3088 -1.98556e-06
4509 3088 -4.98207e-05
3087 3089 -0.0025641
3088 3089 0
3089 3089 0.00634458
3090 3089 -0.0037037
3091 3089 -1.0966e-05
3164 3089 0
4485 3089 0
4500 3089 0
4506 3089 -1.98556e-06
4509 3089 -6.38235e-05
3089 3090 -0.0037037
3090 3090 0.00867492
3091 3090 0
3164 3090 0
3166 3090 -2.95239e-06
3167 3090 -0.00492611
4485 3090 0
4500 3090 0
4506 3090 -1.98556e-06
4509 3090 -4.01719e-05
3088 3091 -0.00263158
3089 3091 -1.0966e-05
3090 3091 0
3091 3091 0.00641466
3161 3091 -6.32655e-06
3164 3091 0
3166 3091 -0.0037037
3167 3091 0
4485 3091 0
4500 3091 0
4506 3091 -1.98556e-06
4509 3091 -6.00989e-05
3092 3092 1
3093 3093 1
3094 3094 1
3095 3095 1
3094 3096 -1
3095 3096 -1
3096 3096 0.00439453
3097 3096 -0.00145985
4495 3096 -0.000231944
4500 3096 -0.00245162
4509 3096 -0.000251115
3096 3097 -0.00145985
3097 3097 0.00416266
3098 3097 -3.37416e-06
3108 3097 -0.00263158
4495 3097 0
4500 3097 -7.61781e-06
4509 3097 -6.02352e-05
3097 3098 -3.37416e-06
3098 3098 0.00443391
3099 3098 -0.0025641
3108 3098 0
3162 3098 -5.06124e-06
4495 3098 -0.0018018
4500 3098 -1.42947e-05
4509 3098 -4.52721e-05
3098 3099 -0.0025641
3099 3099 0.00634458
3107 3099 -0.0037037
3108 3099 -1.0966e-05
3162 3099 0
4495 3099 0
4500 3099 0
4506 3099 -1.98556e-06
4509 3099 -6.38235e-05
3100 3100 1
3101 3101 1
3100 3102 -1
3101 3102 -1
3102 3102 0.00220603
3106 3102 -4.2177e-06
3160 3102 -0.00192308
4463 3102 -8.24722e-06
4502 3102 -2.08938e-06
4506 3102 -2.75772e-06
4509 3102 -0.000265643
3103 3103 0.046695
3104 3103 -0.0277778
3106 3103 -3.25736e-06
3173 3103 -0.0188679
3174 3103 -3.25736e-06
4463 3103 -2.86154e-06
4509 3103 -3.99578e-05
3103 3104 -0.0277778
3104 3104 0.0329562
3105 3104 -0.00512821
3106 3104 -5.48301e-06
3173 3104 0
3174 3104 0
4463 3104 -2.86154e-06
4506 3104 -2.10885e-06
4509 3104 -3.97242e-05
3104 3105 -0.00512821
3105 3105 0.00887605
3106 3105 0
3107 3105 -2.95239e-06
3108 3105 -0.0037037
3173 3105 0
3174 3105 0
4463 3105 0
4506 3105 -1.98556e-06
4509 3105 -3.92051e-05
3102 3106 -4.2177e-06
3103 3106 -3.25736e-06
3104 3106 -5.48301e-06
3105 3106 0
3106 3106 0.0107539
3107 3106 -0.00492611
3108 3106 0
3160 3106 0
3173 3106 0
3174 3106 -0.00574713
4463 3106 -4.56809e-06
4502 3106 0
4506 3106 0
4509 3106 -6.31616e-05
3099 3107 -0.0037037
3105 3107 -2.95239e-06
3106 3107 -0.00492611
3107 3107 0.00867492
3108 3107 0
3160 3107 0
3162 3107 0
3173 3107 0
3174 3107 0
4463 3107 0
4495 3107 0
4500 3107 0
4502 3107 0
4506 3107 -1.98556e-06
4509 3107 -4.01719e-05
3097 3108 -0.00263158
3098 3108 0
3099 3108 -1.0966e-05
3105 3108 -0.0037037
3106 3108 0
3107 3108 0
3108 3108 0.0064162
3160 3108 0
3162 3108 0
3173 3108 0
3174 3108 0
4461 3108 -3.37416e-06
4463 3108 0
4495 3108 0
4500 3108 0
4502 3108 0
4506 3108 -1.98556e-06
4509 3108 -6.45892e-05
3109 3109 0.0025623
3110 3109 -0.000627179
3160 3109 -0.00214133
3161 3109 -1.95312e-06
3163 3109 0.00024949
4461 3109 -6.39792e-06
4506 3109 -2.91072e-05
4509 3109 -5.82691e-06
3109 3110 -0.000301303
3110 3110 0.00426148
3159 3110 -0.00225225
3160 3110 0
3161 3110 -5.82045e-05
3163 3110 -0.000385175
4461 3110 0
4502 3110 -3.13407e-06
4506 3110 -0.00123235
4509 3110 -2.90697e-05
3111 3111 1
3112 3112 1
3113 3113 1
3114 3114 1
3115 3115 1
3116 3116 1
3117 3117 1
3118 3118 1
3113 3119 -1
3114 3119 -1
3115 3119 -1
3119 3119 0.0116524
3120 3119 -0.0113636
4463 3119 -8.24722e-06
4509 3119 -0.000280488
3116 3120 -1
3117 3120 -1
3118 3120 -1
3119 3120 -0.0113636
3120 3120 0.018589
3159 3120 -2.10885e-06
3161 3120 -0.0070922
3166 3120 -3.79593e-06
4463 3120 0
4502 3120 -2.35542e-06
4506 3120 -2.99132e-06
4509 3120 -0.000121879
3121 3121 1
3122 3122 1
3123 3123 1
3124 3124 1
3125 3125 1
3126 3126 1
3127 3127 1
3128 3128 1
3123 3129 -1
3124 3129 -1
3129 3129 0.0076086
3130 3129 -1.01225e-05
3132 3129 -0.000123728
3159 3129 -0.00704225
4509 3129 -0.0004325
3125 3130 -1
3126 3130 -1
3127 3130 -1
3128 3130 -1
3129 3130 -1.01225e-05
3130 3130 0.00320247
3131 3130 -0.000892683
3132 3130 7.34542e-07
3158 3130 -0.000532458
3159 3130 0
4463 3130 -4.82245e-05
4509 3130 -0.00171972
3130 3131 -0.00139654
3131 3131 0.0114141
3132 3131 -2.51115e-06
3158 3131 0.000349622
3159 3131 0
4462 3131 -0.0103093
4463 3131 -2.86154e-06
4509 3131 -5.25616e-05
3129 3132 -0.000123728
3130 3132 -0.000130898
3131 3132 -2.51115e-06
3132 3132 0.00602867
3158 3132 0
3159 3132 0
3175 3132 -0.00571429
4462 3132 -3.9257e-06
4463 3132 -2.86154e-06
4509 3132 -5.04621e-05
3133 3133 1
3134 3134 1
3135 3135 1
3136 3136 1
3137 3137 1
3138 3138 1
3139 3139 1
3140 3140 1
3141 3141 1
3142 3142 1
3143 3143 1
3144 3144 1
3145 3145 1
3146 3146 1
3147 3147 1
3137 3148 -1
3138 3148 -1
3139 3148 -1
3140 3148 -1
3141 3148 -1
3148 3148 0.00248977
3149 3148 -0.000445445
3150 3148 -1.45433e-05
3155 3148 -3.85926e-05
4509 3148 -0.00199119
3145 3149 -1
3146 3149 -1
3147 3149 -1
3148 3149 -0.000402323
3149 3149 0.00531063
3150 3149 0
3152 3149 -1.9661e-06
3154 3149 -0.00416863
3155 3149 -1.65548e-05
4509 3149 -0.000721151
3148 3150 0.000135272
3149 3150 0
3150 3150 0.00568123
3152 3150 0
3154 3150 0
3155 3150 0
4502 3150 -0.00552486
4509 3150 -0.00029164
3151 3151 0.00224355
3152 3151 -0.000111741
3154 3151 -0.00209205
3155 3151 -1.43433e-05
4502 3151 -8.38348e-06
4509 3151 -1.70295e-05
3133 3152 -1
3134 3152 -1
3135 3152 -1
3136 3152 -1
3149 3152 -1.9661e-06
3150 3152 0
3151 3152 -6.10824e-05
3152 3152 0.00215113
3153 3152 -3.0079e-05
3154 3152 -1.9661e-06
3155 3152 -0.000566672
4502 3152 -8.01362e-06
4509 3152 -0.00148135
3152 3153 -1.92442e-05
3153 3153 0.00444309
3154 3153 0
3155 3153 0
4502 3153 -1.9661e-06
4506 3153 -0.00436681
4509 3153 -5.50651e-05
3149 3154 -0.00416863
3150 3154 0
3151 3154 -0.00209205
3152 3154 -1.9661e-06
3153 3154 0
3154 3154 0.00994678
3155 3154 0
3156 3154 -0.00363636
4502 3154 -1.23157e-05
4506 3154 -5.56087e-06
4509 3154 -2.98872e-05
3142 3155 -1
3143 3155 -1
3144 3155 -1
3148 3155 -3.85926e-05
3149 3155 -1.65548e-05
3150 3155 0
3151 3155 -6.08682e-05
3152 3155 -0.000531615
3153 3155 0
3154 3155 0
3155 3155 0.00417156
3156 3155 0
3163 3155 -0.00229885
4502 3155 0
4506 3155 -1.98556e-06
4509 3155 -0.00122309
3154 3156 -0.00363636
3155 3156 0
3156 3156 0.00443372
3157 3156 -1.51525e-05
3158 3156 -3.80242e-06
3160 3156 -7.82221e-05
3162 3156 -6.31146e-05
3163 3156 0
4502 3156 0
4506 3156 -0.000538967
4509 3156 -9.81015e-05
3156 3157 -0.000201856
3157 3157 0.00313029
3158 3157 -0.00139082
3160 3157 -0.00030878
3161 3157 -5.82044e-05
3162 3157 0
3163 3157 0
4502 3157 -2.08938e-06
4506 3157 -0.00111379
4509 3157 -5.47457e-05
3121 3158 -1
3122 3158 -1
3130 3158 -1.22472e-05
3131 3158 -0.000123728
3132 3158 0
3156 3158 -3.80242e-06
3157 3158 -0.00139082
3158 3158 0.00201433
3159 3158 0
3160 3158 0
3161 3158 0
3162 3158 0
3163 3158 0
3175 3158 0
4462 3158 0
4463 3158 0
4502 3158 -2.08938e-06
4506 3158 -3.4066e-06
4509 3158 -0.00047824
3110 3159 -0.00225225
3120 3159 -2.10885e-06
3129 3159 -0.00704225
3130 3159 0
3131 3159 0
3132 3159 0
3158 3159 0
3159 3159 0.00936798
3160 3159 0
3161 3159 0
3162 3159 0
3163 3159 -2.08938e-06
3166 3159 0
3175 3159 0
4461 3159 0
4462 3159 0
4463 3159 0
4502 3159 -3.13407e-06
4506 3159 -6.74183e-06
4509 3159 -5.94046e-05
3102 3160 -0.00192308
3106 3160 0
3107 3160 0
3108 3160 0
3109 3160 -0.00214133
3110 3160 0
3156 3160 7.77499e-05
3157 3160 -0.000482816
3158 3160 0
3159 3160 0
3160 3160 0.00526126
3161 3160 -3.06919e-06
3162 3160 0
3163 3160 0
3166 3160 0
3173 3160 0
3174 3160 0
3175 3160 0
4461 3160 -1.1271e-05
4462 3160 0
4463 3160 0
4495 3160 0
4500 3160 0
4502 3160 -2.08938e-06
4506 3160 -0.000710121
4509 3160 -6.5238e-05
3091 3161 -6.32655e-06
3109 3161 -1.95312e-06
3110 3161 0.000108134
3111 3161 -1
3112 3161 -1
3120 3161 -0.0070922
3157 3161 0.000110887
3158 3161 0
3159 3161 0
3160 3161 -3.06919e-06
3161 3161 0.00919848
3162 3161 0
3163 3161 -8.83121e-06
3164 3161 0
3166 3161 0
3167 3161 0
3173 3161 0
3174 3161 0
3175 3161 0
4461 3161 -6.32655e-06
4462 3161 0
4463 3161 0
4485 3161 0
4495 3161 0
4500 3161 0
4502 3161 -2.35542e-06
4506 3161 -0.00218275
4509 3161 -0.000113693
3064 3162 -3.91267e-05
3068 3162 -1
3069 3162 -1
3075 3162 -3.44002e-05
3076 3162 -3.62625e-05
3077 3162 -1.93365e-06
3078 3162 0
3079 3162 0
3080 3162 0
3098 3162 -5.06124e-06
3099 3162 0
3107 3162 0
3108 3162 0
3156 3162 -6.17825e-05
3157 3162 0
3158 3162 0
3159 3162 0
3160 3162 0
3161 3162 0
3162 3162 0.00188435
3163 3162 -6.97542e-06
3164 3162 0
3165 3162 0
3166 3162 0
3167 3162 0
3168 3162 0
3169 3162 0
3173 3162 0
3174 3162 0
3175 3162 0
3177 3162 0
3178 3162 0
4461 3162 -1.95442e-05
4462 3162 0
4463 3162 0
4483 3162 0
4485 3162 0
4495 3162 0
4500 3162 -0.000288833
4502 3162 0
4506 3162 0
4509 3162 -0.00139043
3064 3163 -1.65126e-05
3077 3163 0
3078 3163 0
3079 3163 0
3080 3163 0
3109 3163 -5.82042e-05
3110 3163 -1.41275e-05
3155 3163 -0.00229885
3156 3163 0
3157 3163 0
3158 3163 0
3159 3163 -2.08938e-06
3160 3163 0
3161 3163 -8.83121e-06
3162 3163 -6.97542e-06
3163 3163 0.00297635
3164 3163 0
3165 3163 0
3166 3163 0
3167 3163 0
3168 3163 0
3169 3163 0
3173 3163 0
3174 3163 0
3175 3163 0
3177 3163 0
3178 3163 0
4461 3163 -1.13618e-05
4462 3163 0
4463 3163 0
4483 3163 0
4485 3163 0
4495 3163 0
4500 3163 0
4502 3163 0
4506 3163 -0.000447413
4509 3163 -0.000111983
2970 3164 -6.17839e-05
2971 3164 0
2974 3164 0
2975 3164 0
2976 3164 0
2977 3164 0
3014 3164 -1
3015 3164 -1
3019 3164 -3.44002e-05
3029 3164 -3.91267e-05
3030 3164 -1.93365e-06
3031 3164 -3.62625e-05
3079 3164 0
3080 3164 0
3087 3164 -5.06124e-06
3088 3164 0
3089 3164 0
3090 3164 0
3091 3164 0
3161 3164 0
3162 3164 0
3163 3164 0
3164 3164 0.00188422
3165 3164 -6.97542e-06
3166 3164 0
3167 3164 0
3168 3164 0
3169 3164 0
3170 3164 0
3171 3164 0
3172 3164 0
3173 3164 0
3174 3164 0
3175 3164 0
3177 3164 0
3178 3164 0
4461 3164 -1.92651e-05
4462 3164 0
4463 3164 0
4483 3164 0
4485 3164 0
4495 3164 0
4500 3164 -0.000288833
4502 3164 0
4506 3164 0
4509 3164 -0.00139058
2969 3165 -0.00229885
2970 3165 0
2971 3165 0
2972 3165 -5.82042e-05
2973 3165 -1.41275e-05
2974 3165 0
2975 3165 0
2976 3165 -2.08938e-06
2977 3165 -8.83121e-06
3029 3165 -1.65126e-05
3030 3165 0
3031 3165 0
3079 3165 0
3080 3165 0
3162 3165 0
3163 3165 0
3164 3165 -6.97542e-06
3165 3165 0.00297635
3166 3165 0
3167 3165 0
3168 3165 0
3169 3165 0
3170 3165 0
3171 3165 0
3172 3165 0
3173 3165 0
3174 3165 0
3175 3165 0
3177 3165 0
3178 3165 0
4461 3165 -1.13618e-05
4462 3165 0
4463 3165 0
4483 3165 0
4485 3165 0
4495 3165 0
4500 3165 0
4502 3165 0
4506 3165 -0.000447413
4509 3165 -0.000111983
2886 3166 -0.00512821
2887 3166 0
2910 3166 0
3090 3166 -2.95239e-06
3091 3166 -0.0037037
3120 3166 -3.79593e-06
3159 3166 0
3160 3166 0
3161 3166 0
3162 3166 0
3163 3166 0
3164 3166 0
3165 3166 0
3166 3166 0.00887867
3167 3166 0
3168 3166 0
3169 3166 0
3170 3166 0
3171 3166 0
3172 3166 0
3173 3166 0
3174 3166 0
3175 3166 0
3177 3166 0
3178 3166 0
4458 3166 0
4459 3166 0
4460 3166 0
4461 3166 0
4462 3166 0
4463 3166 0
4464 3166 0
4465 3166 0
4478 3166 0
4479 3166 0
4483 3166 0
4485 3166 0
4495 3166 0
4500 3166 0
4502 3166 0
4506 3166 -1.98556e-06
4509 3166 -3.80242e-05
2886 3167 -5.48301e-06
2887 3167 0
2909 3167 -0.00502513
2910 3167 0
2946 3167 -4.2177e-06
2974 3167 0
2975 3167 0
2976 3167 0
2977 3167 0
3090 3167 -0.00492611
3091 3167 0
3161 3167 0
3162 3167 0
3163 3167 0
3164 3167 0
3165 3167 0
3166 3167 0
3167 3167 0.0100353
3168 3167 0
3169 3167 0
3170 3167 0
3171 3167 0
3172 3167 0
3173 3167 0
3174 3167 0
3175 3167 0
3177 3167 0
3178 3167 0
4458 3167 0
4459 3167 0
4460 3167 0
4461 3167 0
4462 3167 -3.9257e-06
4463 3167 -4.56809e-06
4464 3167 0
4465 3167 0
4478 3167 0
4479 3167 0
4483 3167 0
4485 3167 0
4495 3167 0
4500 3167 0
4502 3167 0
4506 3167 0
4509 3167 -6.58934e-05
2875 3168 -0.00229885
2876 3168 0
2877 3168 0
2878 3168 -5.82042e-05
2879 3168 -1.41275e-05
2880 3168 0
2881 3168 0
2882 3168 -2.08938e-06
2883 3168 -8.83121e-06
2884 3168 0
2885 3168 0
2987 3168 -1.65126e-05
2998 3168 0
3080 3168 0
3162 3168 0
3163 3168 0
3164 3168 0
3165 3168 0
3166 3168 0
3167 3168 0
3168 3168 0.00297635
3169 3168 -6.97542e-06
3170 3168 0
3171 3168 0
3172 3168 0
3173 3168 0
3174 3168 0
3175 3168 0
3176 3168 0
3177 3168 0
3178 3168 0
3179 3168 0
3180 3168 0
4458 3168 0
4459 3168 0
4460 3168 0
4461 3168 -1.13618e-05
4462 3168 0
4463 3168 0
4464 3168 0
4465 3168 0
4478 3168 0
4479 3168 0
4480 3168 0
4483 3168 0
4485 3168 0
4495 3168 0
4500 3168 0
4502 3168 0
4506 3168 -0.000447413
4509 3168 -0.000111983
2876 3169 -6.17839e-05
2877 3169 0
2880 3169 0
2881 3169 0
2882 3169 0
2883 3169 0
2884 3169 0
2885 3169 0
2917 3169 -5.06124e-06
2918 3169 0
2919 3169 0
2920 3169 0
2921 3169 0
2977 3169 0
2987 3169 -3.91267e-05
2991 3169 -1
2992 3169 -1
2996 3169 -3.44002e-05
2997 3169 -3.62625e-05
2998 3169 -1.93365e-06
3080 3169 0
3162 3169 0
3163 3169 0
3164 3169 0
3165 3169 0
3166 3169 0
3167 3169 0
3168 3169 -6.97542e-06
3169 3169 0.001884
3170 3169 0
3171 3169 0
3172 3169 0
3173 3169 0
3174 3169 0
3175 3169 0
3176 3169 0
3177 3169 0
3178 3169 0
3179 3169 0
3180 3169 0
4458 3169 0
4459 3169 0
4460 3169 0
4461 3169 -1.92651e-05
4462 3169 0
4463 3169 0
4464 3169 0
4465 3169 0
4478 3169 0
4479 3169 0
4480 3169 0
4483 3169 0
4485 3169 0
4495 3169 0
4500 3169 -0.000288833
4502 3169 0
4506 3169 0
4509 3169 -0.00139036
2766 3170 -5.48301e-06
2767 3170 0
2789 3170 -0.00606061
2790 3170 0
2852 3170 -4.2177e-06
2880 3170 0
2881 3170 0
2882 3170 0
2883 3170 0
2884 3170 0
2885 3170 0
2920 3170 -0.00492611
2921 3170 0
2977 3170 0
3164 3170 0
3165 3170 0
3166 3170 0
3167 3170 0
3168 3170 0
3169 3170 0
3170 3170 0.0110667
3171 3170 0
3172 3170 0
3173 3170 0
3174 3170 0
3175 3170 0
3176 3170 0
3177 3170 0
3178 3170 0
3179 3170 0
3180 3170 0
4458 3170 0
4459 3170 0
4460 3170 0
4461 3170 0
4462 3170 -3.9257e-06
4463 3170 -4.56809e-06
4464 3170 0
4465 3170 0
4478 3170 0
4479 3170 0
4480 3170 0
4483 3170 0
4485 3170 0
4495 3170 0
4500 3170 0
4502 3170 0
4506 3170 0
4509 3170 -6.18314e-05
2772 3171 -0.0105425
2773 3171 0
2788 3171 0
2789 3171 -1.6741e-05
2790 3171 -2.1653e-05
2885 3171 -0.0384641
2907 3171 -0.0104167
2908 3171 0
2909 3171 -1.71109e-05
2910 3171 -1.44829e-05
2943 3171 -0.00555556
2975 3171 0
2976 3171 0
2977 3171 0
3164 3171 0
3165 3171 0
3166 3171 0
3167 3171 0
3168 3171 0
3169 3171 0
3170 3171 0
3171 3171 0.10431
3172 3171 0
3173 3171 0
3174 3171 0
3175 3171 -0.0384641
3176 3171 0
3177 3171 0
3178 3171 0
3179 3171 0
3180 3171 0
4458 3171 -3.30083e-05
4459 3171 -2.95823e-05
4460 3171 -1.40871e-05
4461 3171 0
4462 3171 -7.29986e-06
4463 3171 -2.86154e-06
4464 3171 -1.40871e-05
4465 3171 -1.40871e-05
4478 3171 -1.40871e-05
4479 3171 -1.40676e-05
4480 3171 0
4483 3171 0
4485 3171 0
4495 3171 0
4500 3171 0
4502 3171 0
4506 3171 -1.71303e-05
4509 3171 -0.000636561
2766 3172 -0.00512821
2767 3172 0
2790 3172 0
2885 3172 0
2920 3172 -2.95239e-06
2921 3172 -0.0037037
2931 3172 -3.79593e-06
2976 3172 0
2977 3172 0
3164 3172 0
3165 3172 0
3166 3172 0
3167 3172 0
3168 3172 0
3169 3172 0
3170 3172 0
3171 3172 0
3172 3172 0.00887867
3173 3172 0
3174 3172 0
3175 3172 0
3176 3172 0
3177 3172 0
3178 3172 0
3179 3172 0
3180 3172 0
4458 3172 0
4459 3172 0
4460 3172 0
4461 3172 0
4462 3172 0
4463 3172 0
4464 3172 0
4465 3172 0
4478 3172 0
4479 3172 0
4480 3172 0
4483 3172 0
4485 3172 0
4495 3172 0
4500 3172 0
4502 3172 0
4506 3172 -1.98556e-06
4509 3172 -3.80242e-05
2517 3173 -9.76494e-05
2518 3173 -9.81555e-05
2542 3173 -9.81555e-05
2581 3173 -9.81555e-05
2582 3173 -9.81555e-05
2583 3173 -9.85319e-05
2584 3173 -9.81555e-05
2765 3173 -1.6741e-05
3103 3173 -0.0188679
3104 3173 0
3105 3173 0
3106 3173 0
3107 3173 0
3108 3173 0
3160 3173 0
3161 3173 0
3162 3173 0
3163 3173 0
3164 3173 0
3165 3173 0
3166 3173 0
3167 3173 0
3168 3173 0
3169 3173 0
3170 3173 0
3171 3173 0
3172 3173 0
3173 3173 0.0240825
3174 3173 -2.51115e-06
3175 3173 -1.71109e-05
3176 3173 0
3177 3173 0
3178 3173 0
3179 3173 0
3180 3173 0
4458 3173 -8.49898e-05
4459 3173 -9.16992e-05
4460 3173 -9.16992e-05
4461 3173 0
4462 3173 0
4463 3173 0
4464 3173 -9.16992e-05
4465 3173 -9.16992e-05
4478 3173 -9.16992e-05
4479 3173 -9.16992e-05
4480 3173 0
4483 3173 0
4484 3173 0
4485 3173 0
4492 3173 0
4495 3173 0
4500 3173 0
4502 3173 0
4504 3173 0
4506 3173 -0.00382842
4507 3173 0
4509 3173 -2.76876e-05
2517 3174 -9.29807e-05
2518 3174 -9.37399e-05
2542 3174 -9.37399e-05
2581 3174 -9.37399e-05
2582 3174 -9.37399e-05
2583 3174 -9.34869e-05
2584 3174 -9.37399e-05
2765 3174 -2.1653e-05
3103 3174 -3.25736e-06
3104 3174 0
3105 3174 0
3106 3174 -0.00574713
3107 3174 0
3108 3174 0
3160 3174 0
3161 3174 0
3162 3174 0
3163 3174 0
3164 3174 0
3165 3174 0
3166 3174 0
3167 3174 0
3168 3174 0
3169 3174 0
3170 3174 0
3171 3174 0
3172 3174 0
3173 3174 -2.51115e-06
3174 3174 0.0102362
3175 3174 -1.44829e-05
3176 3174 0
3177 3174 0
3178 3174 0
3179 3174 0
3180 3174 0
4458 3174 -8.19304e-05
4459 3174 -8.83672e-05
4460 3174 -8.83672e-05
4461 3174 0
4462 3174 0
4463 3174 0
4464 3174 -8.83672e-05
4465 3174 -8.83672e-05
4478 3174 -8.83672e-05
4479 3174 -8.83672e-05
4480 3174 0
4483 3174 0
4484 3174 0
4485 3174 0
4492 3174 0
4495 3174 0
4500 3174 0
4502 3174 0
4504 3174 0
4506 3174 0
4507 3174 0
4509 3174 -0.00317982
2583 3175 -0.0104167
2584 3175 0
2765 3175 -0.0384641
2892 3175 -0.0105425
2893 3175 0
2908 3175 0
2909 3175 -1.6741e-05
2910 3175 -2.20748e-05
3132 3175 -0.00571429
3158 3175 0
3159 3175 0
3160 3175 0
3161 3175 0
3162 3175 0
3163 3175 0
3164 3175 0
3165 3175 0
3166 3175 0
3167 3175 0
3168 3175 0
3169 3175 0
3170 3175 0
3171 3175 -0.0384641
3172 3175 0
3173 3175 -1.71109e-05
3174 3175 -1.44829e-05
3175 3175 0.104465
3176 3175 0
3177 3175 0
3178 3175 0
3179 3175 0
3180 3175 0
4458 3175 -3.30083e-05
4459 3175 -2.95823e-05
4460 3175 -1.40871e-05
4461 3175 0
4462 3175 -6.45632e-06
4463 3175 -2.86154e-06
4464 3175 -1.40871e-05
4465 3175 -1.40871e-05
4478 3175 -1.40871e-05
4479 3175 -1.40676e-05
4480 3175 0
4483 3175 0
4484 3175 0
4485 3175 0
4492 3175 0
4495 3175 0
4500 3175 0
4502 3175 0
4504 3175 0
4506 3175 -1.71303e-05
4507 3175 0
4509 3175 -0.000633479
2438 3176 -4.2177e-06
2466 3176 0
2467 3176 0
2468 3176 0
2469 3176 0
2470 3176 0
2471 3176 0
2472 3176 0
2473 3176 0
2474 3176 0
2475 3176 0
2476 3176 0
2477 3176 0
2478 3176 0
2791 3176 -5.48301e-06
2792 3176 0
2814 3176 -0.0075188
2815 3176 0
2816 3176 -0.00492611
2826 3176 0
2827 3176 0
2883 3176 0
2884 3176 0
2885 3176 0
3168 3176 0
3169 3176 0
3170 3176 0
3171 3176 0
3172 3176 0
3173 3176 0
3174 3176 0
3175 3176 0
3176 3176 0.0125216
3177 3176 0
3178 3176 0
3179 3176 0
3180 3176 0
3181 3176 0
3182 3176 0
3183 3176 0
3184 3176 0
3185 3176 0
4458 3176 0
4459 3176 0
4460 3176 0
4461 3176 0
4462 3176 -3.9257e-06
4463 3176 -4.56809e-06
4464 3176 0
4465 3176 0
4475 3176 0
4478 3176 0
4479 3176 0
4480 3176 0
4481 3176 0
4483 3176 0
4484 3176 0
4485 3176 0
4492 3176 0
4495 3176 0
4500 3176 0
4502 3176 0
4504 3176 0
4506 3176 0
4507 3176 0
4509 3176 -5.85222e-05
2346 3177 -3.38941e-05
2347 3177 -3.38941e-05
2348 3177 -0.000108417
2381 3177 -5.0223e-06
2413 3177 -0.00444444
2469 3177 0
2470 3177 0
2471 3177 0
2472 3177 0
2473 3177 0
2474 3177 0
2475 3177 0
2476 3177 0
2477 3177 0
2478 3177 0
3007 3177 -3.38941e-05
3008 3177 0
3009 3177 -0.000108417
3010 3177 0
3031 3177 0
3079 3177 0
3080 3177 -5.0223e-06
3162 3177 0
3163 3177 0
3164 3177 0
3165 3177 0
3166 3177 0
3167 3177 0
3168 3177 0
3169 3177 0
3170 3177 0
3171 3177 0
3172 3177 0
3173 3177 0
3174 3177 0
3175 3177 0
3176 3177 0
3177 3177 0.00546652
3178 3177 -1.70719e-05
3179 3177 0
3180 3177 0
3181 3177 0
3182 3177 0
3183 3177 0
3184 3177 0
3185 3177 0
4458 3177 0
4459 3177 0
4460 3177 0
4461 3177 0
4462 3177 0
4463 3177 0
4464 3177 0
4465 3177 0
4475 3177 0
4478 3177 0
4479 3177 0
4480 3177 -2.75772e-06
4481 3177 0
4483 3177 0
4484 3177 0
4485 3177 0
4492 3177 0
4495 3177 0
4500 3177 -0.000269027
4502 3177 0
4504 3177 0
4506 3177 0
4507 3177 0
4509 3177 -0.000404661
2347 3178 -3.38951e-05
2348 3178 -6.71803e-05
2381 3178 0
2471 3178 0
2472 3178 0
2473 3178 0
2474 3178 0
2475 3178 0
2476 3178 0
2477 3178 0
2478 3178 0
2824 3178 -2.10885e-06
2825 3178 0
2826 3178 0
2827 3178 0
2883 3178 0
2884 3178 0
2885 3178 0
2997 3178 -0.00632911
2998 3178 0
3080 3178 -2.53062e-06
3162 3178 0
3163 3178 0
3164 3178 0
3165 3178 0
3166 3178 0
3167 3178 0
3168 3178 0
3169 3178 0
3170 3178 0
3171 3178 0
3172 3178 0
3173 3178 0
3174 3178 0
3175 3178 0
3176 3178 0
3177 3178 -1.70719e-05
3178 3178 0.00674394
3179 3178 0
3180 3178 0
3181 3178 0
3182 3178 0
3183 3178 0
3184 3178 0
3185 3178 0
4458 3178 0
4459 3178 0
4460 3178 0
4461 3178 0
4462 3178 0
4463 3178 0
4464 3178 0
4465 3178 0
4475 3178 0
4478 3178 0
4479 3178 0
4480 3178 -2.75772e-06
4481 3178 0
4483 3178 0
4484 3178 0
4485 3178 0
4492 3178 0
4495 3178 0
4500 3178 -0.000212341
4502 3178 0
4504 3178 0
4506 3178 0
4507 3178 0
4509 3178 -7.69453e-05
2402 3179 -3.91267e-05
2406 3179 -1
2407 3179 -1
2411 3179 -3.44002e-05
2412 3179 -3.62625e-05
2413 3179 -1.93365e-06
2462 3179 -6.17839e-05
2463 3179 0
2466 3179 0
2467 3179 0
2468 3179 0
2469 3179 -6.97542e-06
2470 3179 0
2471 3179 0
2472 3179 0
2473 3179 0
2474 3179 0
2475 3179 0
2476 3179 0
2477 3179 0
2478 3179 0
2825 3179 -5.06124e-06
2826 3179 0
2827 3179 0
2883 3179 0
2884 3179 0
2885 3179 0
3168 3179 0
3169 3179 0
3170 3179 0
3171 3179 0
3172 3179 0
3173 3179 0
3174 3179 0
3175 3179 0
3176 3179 0
3177 3179 0
3178 3179 0
3179 3179 0.00188422
3180 3179 0
3181 3179 0
3182 3179 0
3183 3179 0
3184 3179 0
3185 3179 0
4458 3179 0
4459 3179 0
4460 3179 0
4461 3179 -1.92651e-05
4462 3179 0
4463 3179 0
4464 3179 0
4465 3179 0
4475 3179 0
4478 3179 0
4479 3179 0
4480 3179 0
4481 3179 0
4483 3179 0
4484 3179 0
4485 3179 0
4492 3179 0
4495 3179 0
4500 3179 -0.000288833
4502 3179 0
4504 3179 0
4506 3179 0
4507 3179 0
4509 3179 -0.00139058
2241 3180 -0.0105425
2242 3180 0
2257 3180 0
2258 3180 -1.6741e-05
2259 3180 -2.1653e-05
2435 3180 -0.00564972
2467 3180 0
2468 3180 0
2469 3180 0
2470 3180 0
2471 3180 0
2472 3180 0
2473 3180 0
2474 3180 0
2475 3180 0
2476 3180 0
2477 3180 -0.0384641
2478 3180 0
2812 3180 -0.0104167
2813 3180 0
2814 3180 -1.71109e-05
2815 3180 -1.44829e-05
2884 3180 0
2885 3180 -0.0384641
3168 3180 0
3169 3180 0
3170 3180 0
3171 3180 0
3172 3180 0
3173 3180 0
3174 3180 0
3175 3180 0
3176 3180 0
3177 3180 0
3178 3180 0
3179 3180 0
3180 3180 0.104395
3181 3180 0
3182 3180 0
3183 3180 0
3184 3180 0
3185 3180 0
4458 3180 -3.30083e-05
4459 3180 -2.95823e-05
4460 3180 -1.40871e-05
4461 3180 0
4462 3180 -7.29986e-06
4463 3180 -2.86154e-06
4464 3180 -1.40871e-05
4465 3180 -1.40871e-05
4475 3180 0
4478 3180 -1.40871e-05
4479 3180 -1.40676e-05
4480 3180 0
4481 3180 0
4483 3180 0
4484 3180 0
4485 3180 0
4492 3180 0
4495 3180 0
4500 3180 0
4502 3180 0
4504 3180 0
4506 3180 -1.71303e-05
4507 3180 0
4509 3180 -0.000628106
1970 3181 -1.65548e-05
1971 3181 0
1974 3181 0
1975 3181 0
1976 3181 0
1997 3181 -3.8614e-05
2001 3181 -1
2002 3181 -1
2006 3181 -0.000126992
2007 3181 -0.000128677
2008 3181 -1.93365e-06
2020 3181 0
2021 3181 0
2022 3181 -6.97542e-06
2204 3181 0
2205 3181 0
2206 3181 0
2207 3181 0
2208 3181 0
2209 3181 0
2278 3181 -5.06124e-06
2279 3181 0
2280 3181 0
2281 3181 0
2337 3181 0
2472 3181 0
2473 3181 0
2474 3181 0
2475 3181 0
2476 3181 0
2477 3181 0
2478 3181 0
3176 3181 0
3177 3181 0
3178 3181 0
3179 3181 0
3180 3181 0
3181 3181 0.00151886
3182 3181 0
3183 3181 0
3184 3181 0
3185 3181 0
4453 3181 0
4454 3181 0
4455 3181 0
4456 3181 0
4457 3181 0
4458 3181 0
4459 3181 0
4460 3181 0
4461 3181 -1.92651e-05
4462 3181 0
4463 3181 0
4464 3181 0
4465 3181 0
4466 3181 0
4475 3181 0
4478 3181 0
4479 3181 0
4480 3181 0
4481 3181 0
4483 3181 0
4484 3181 0
4485 3181 0
4491 3181 0
4492 3181 0
4493 3181 0
4495 3181 0
4496 3181 0
4500 3181 -0.000865908
4502 3181 0
4504 3181 0
4506 3181 0
4507 3181 0
4509 3181 -0.000308878
2008 3182 -0.00909091
2016 3182 -2.10885e-06
2017 3182 0
2018 3182 0
2019 3182 0
2020 3182 0
2021 3182 0
2022 3182 0
2204 3182 0
2205 3182 0
2206 3182 0
2207 3182 0
2208 3182 0
2209 3182 0
2268 3182 -0.000129226
2269 3182 -0.000129226
2270 3182 -2.7149e-05
2357 3182 -0.000129227
2358 3182 0
2359 3182 -2.7149e-05
2381 3182 -5.0223e-06
2471 3182 0
2472 3182 0
2473 3182 0
2474 3182 -1.98881e-05
2475 3182 0
2476 3182 0
2477 3182 0
2478 3182 0
3176 3182 0
3177 3182 0
3178 3182 0
3179 3182 0
3180 3182 0
3181 3182 0
3182 3182 0.0102069
3183 3182 0
3184 3182 -5.0223e-06
3185 3182 0
4453 3182 0
4454 3182 0
4455 3182 0
4456 3182 0
4457 3182 0
4458 3182 0
4459 3182 0
4460 3182 0
4461 3182 0
4462 3182 0
4463 3182 0
4464 3182 0
4465 3182 0
4466 3182 0
4475 3182 0
4478 3182 0
4479 3182 0
4480 3182 0
4481 3182 -2.50466e-06
4483 3182 0
4484 3182 0
4485 3182 0
4491 3182 0
4492 3182 0
4493 3182 0
4495 3182 0
4496 3182 0
4500 3182 -0.000413909
4502 3182 0
4504 3182 0
4506 3182 0
4507 3182 0
4509 3182 -0.000225577
1946 3183 -4.2177e-06
1974 3183 0
1975 3183 0
1976 3183 0
2021 3183 0
2022 3183 0
2204 3183 0
2205 3183 0
2206 3183 0
2207 3183 0
2208 3183 0
2209 3183 0
2210 3183 -5.48301e-06
2211 3183 0
2233 3183 -0.00775194
2234 3183 0
2271 3183 -0.00492611
2280 3183 0
2281 3183 0
2337 3183 0
2472 3183 0
2473 3183 0
2474 3183 0
2475 3183 0
2476 3183 0
2477 3183 0
2478 3183 0
3176 3183 0
3177 3183 0
3178 3183 0
3179 3183 0
3180 3183 0
3181 3183 0
3182 3183 0
3183 3183 0.0127544
3184 3183 0
3185 3183 0
4453 3183 0
4454 3183 0
4455 3183 0
4456 3183 0
4457 3183 0
4458 3183 0
4459 3183 0
4460 3183 0
4461 3183 0
4462 3183 -3.9257e-06
4463 3183 -4.56809e-06
4464 3183 0
4465 3183 0
4466 3183 0
4475 3183 0
4478 3183 0
4479 3183 0
4480 3183 0
4481 3183 0
4483 3183 0
4484 3183 0
4485 3183 0
4491 3183 0
4492 3183 0
4493 3183 0
4495 3183 0
4496 3183 0
4500 3183 0
4502 3183 0
4504 3183 0
4506 3183 0
4507 3183 0
4509 3183 -5.81458e-05
1985 3184 -0.000129225
1986 3184 -0.000129227
1987 3184 -2.7149e-05
2020 3184 -1.98881e-05
2021 3184 0
2022 3184 0
2054 3184 -0.00645161
2055 3184 0
2110 3184 0
2111 3184 0
2195 3184 -2.10885e-06
2196 3184 0
2197 3184 0
2198 3184 0
2199 3184 0
2200 3184 0
2201 3184 0
2202 3184 0
2203 3184 0
2204 3184 0
2205 3184 0
2206 3184 0
2207 3184 0
2208 3184 0
2209 3184 0
2268 3184 -0.000129226
2269 3184 0
2270 3184 -2.7149e-05
2474 3184 0
2475 3184 0
2476 3184 0
2477 3184 0
2478 3184 0
3176 3184 0
3177 3184 0
3178 3184 0
3179 3184 0
3180 3184 0
3181 3184 0
3182 3184 -5.0223e-06
3183 3184 0
3184 3184 0.00757039
3185 3184 0
4453 3184 0
4454 3184 0
4455 3184 0
4456 3184 0
4457 3184 -5.0223e-06
4458 3184 0
4459 3184 0
4460 3184 0
4461 3184 0
4462 3184 0
4463 3184 0
4464 3184 0
4465 3184 0
4466 3184 0
4475 3184 0
4478 3184 0
4479 3184 0
4480 3184 0
4481 3184 0
4483 3184 0
4484 3184 0
4485 3184 0
4491 3184 0
4492 3184 0
4493 3184 -2.50466e-06
4495 3184 0
4496 3184 0
4500 3184 -0.000414512
4502 3184 0
4504 3184 0
4506 3184 0
4507 3184 0
4509 3184 -0.000227738
1877 3185 -0.0105425
1878 3185 0
1893 3185 0
1894 3185 -1.6741e-05
1895 3185 -2.29702e-05
1896 3185 -1.49696e-05
1943 3185 -0.00584795
1975 3185 0
1976 3185 0
2021 3185 0
2022 3185 0
2204 3185 0
2205 3185 0
2206 3185 0
2207 3185 0
2208 3185 -0.0384641
2209 3185 0
2231 3185 -0.0104167
2232 3185 0
2233 3185 -1.87979e-05
2234 3185 -1.44829e-05
2477 3185 -0.0384641
2478 3185 0
3176 3185 0
3177 3185 0
3178 3185 0
3179 3185 0
3180 3185 0
3181 3185 0
3182 3185 0
3183 3185 0
3184 3185 0
3185 3185 0.104615
4453 3185 0
4454 3185 0
4455 3185 0
4456 3185 0
4457 3185 0
4458 3185 -3.30083e-05
4459 3185 -2.95823e-05
4460 3185 -1.40871e-05
4461 3185 0
4462 3185 -1.88369e-05
4463 3185 -2.86154e-06
4464 3185 -1.40871e-05
4465 3185 -1.40871e-05
4466 3185 0
4475 3185 0
4478 3185 -1.40871e-05
4479 3185 -1.40676e-05
4480 3185 0
4481 3185 0
4483 3185 0
4484 3185 -3.63371e-06
4485 3185 0
4491 3185 0
4492 3185 0
4493 3185 0
4495 3185 0
4496 3185 0
4500 3185 0
4502 3185 0
4504 3185 0
4506 3185 -1.66437e-05
4507 3185 0
4509 3185 -0.00061629
3186 3186 0.0329541
3187 3186 -0.0277778
3442 3186 -5.48301e-06
4453 3186 -0.00512821
4463 3186 -2.86154e-06
4509 3186 -3.97437e-05
3186 3187 -0.0277778
3187 3187 0.047838
3210 3187 -0.02
3442 3187 0
4453 3187 0
4462 3187 -9.83048e-06
4463 3187 -5.39216e-06
4509 3187 -4.50385e-05
3188 3188 1
3189 3189 1
3190 3190 1
3191 3191 1
3192 3192 1
3193 3193 1
3192 3194 -1
3193 3194 -1
3194 3194 0.0220925
3195 3194 -0.0105263
3209 3194 -8.99689e-05
3210 3194 -9.29806e-05
4456 3194 -0.0105425
4458 3194 -2.85051e-05
4459 3194 -3.25736e-06
4506 3194 -0.00047249
4509 3194 -0.000336422
3190 3195 -1
3191 3195 -1
3194 3195 -0.0105263
3195 3195 0.0220901
3208 3195 -0.0105263
3209 3195 -9.04855e-05
3210 3195 -9.37398e-05
4456 3195 0
4458 3195 -3.25736e-06
4459 3195 -3.35339e-05
4464 3195 -6.20975e-06
4482 3195 -4.19823e-06
4506 3195 -0.000471082
4509 3195 -0.000334987
3196 3196 1
3197 3197 1
3198 3198 1
3199 3199 1
3200 3200 1
3201 3201 1
3198 3202 -1
3199 3202 -1
3202 3202 0.0220877
3206 3202 -0.0105263
3207 3202 -0.0105263
3209 3202 -9.05266e-05
3210 3202 -9.37399e-05
4459 3202 -4.19823e-06
4478 3202 -2.99392e-05
4479 3202 -7.05329e-06
4482 3202 -4.19823e-06
4506 3202 -0.00046903
4509 3202 -0.000336424
3203 3203 1
3204 3204 1
3203 3205 -1
3204 3205 -1
3205 3205 0.0220868
3206 3205 -0.0105263
3208 3205 -0.0105263
3209 3205 -9.05062e-05
3210 3205 -9.37398e-05
4459 3205 -4.19823e-06
4460 3205 -2.95498e-05
4465 3205 -6.20975e-06
4482 3205 -4.19823e-06
4506 3205 -0.000470052
4509 3205 -0.000335703
3200 3206 -1
3201 3206 -1
3202 3206 -0.0105263
3205 3206 -0.0105263
3206 3206 0.0220864
3207 3206 0
3208 3206 0
3209 3206 -9.05164e-05
3210 3206 -9.37399e-05
4459 3206 -4.19823e-06
4460 3206 0
4465 3206 -2.93033e-05
4478 3206 -6.20975e-06
4479 3206 0
4482 3206 -4.19823e-06
4506 3206 -0.00046954
4509 3206 -0.000336063
3196 3207 -1
3197 3207 -1
3202 3207 -0.0105263
3206 3207 0
3207 3207 0.0223428
3208 3207 0
3209 3207 -9.09132e-05
3210 3207 -9.34868e-05
3443 3207 -0.0104167
4458 3207 -1.28997e-05
4459 3207 -2.52218e-05
4460 3207 -1.40871e-05
4464 3207 -1.40871e-05
4465 3207 -1.40871e-05
4478 3207 -1.40871e-05
4479 3207 -6.36742e-05
4482 3207 -4.19823e-06
4506 3207 -0.000465693
4509 3207 -0.000587356
3188 3208 -1
3189 3208 -1
3195 3208 -0.0105263
3205 3208 -0.0105263
3206 3208 0
3207 3208 0
3208 3208 0.022086
3209 3208 -9.04959e-05
3210 3208 -9.37398e-05
3443 3208 0
4456 3208 0
4458 3208 0
4459 3208 -4.19823e-06
4460 3208 -6.20975e-06
4464 3208 -2.8596e-05
4465 3208 0
4478 3208 0
4479 3208 0
4482 3208 -4.19823e-06
4506 3208 -0.000470566
4509 3208 -0.000335344
3194 3209 -9.76494e-05
3195 3209 -9.81555e-05
3202 3209 -9.81555e-05
3205 3209 -9.81555e-05
3206 3209 -9.81555e-05
3207 3209 -9.85319e-05
3208 3209 -9.81555e-05
3209 3209 0.0126678
3210 3209 -2.23213e-06
3442 3209 -0.00740741
3443 3209 -2.17503e-05
4456 3209 -1.6741e-05
4458 3209 -8.49898e-05
4459 3209 -9.16992e-05
4460 3209 -9.16992e-05
4462 3209 -8.56517e-06
4464 3209 -9.16992e-05
4465 3209 -9.16992e-05
4478 3209 -9.16992e-05
4479 3209 -9.16992e-05
4482 3209 0
4506 3209 -0.00383672
4509 3209 -5.2254e-05
3187 3210 -0.02
3194 3210 -9.29807e-05
3195 3210 -9.37399e-05
3202 3210 -9.37399e-05
3205 3210 -9.37399e-05
3206 3210 -9.37399e-05
3207 3210 -9.34869e-05
3208 3210 -9.37399e-05
3209 3210 -2.23213e-06
3210 3210 0.0244763
3442 3210 0
3443 3210 -1.44829e-05
4453 3210 0
4456 3210 -2.1653e-05
4458 3210 -8.19304e-05
4459 3210 -8.83672e-05
4460 3210 -8.83672e-05
4462 3210 -3.9257e-06
4463 3210 0
4464 3210 -8.83672e-05
4465 3210 -8.83672e-05
4478 3210 -8.83672e-05
4479 3210 -8.83672e-05
4482 3210 0
4506 3210 0
4509 3210 -0.00316674
3211 3211 0.0329541
3212 3211 -0.0277778
3440 3211 -5.48301e-06
3441 3211 -0.00512821
4463 3211 -2.86154e-06
4509 3211 -3.97437e-05
3211 3212 -0.0277778
3212 3212 0.0401885
3235 3212 -0.0123457
3440 3212 0
3441 3212 0
4462 3212 -9.83048e-06
4463 3212 -5.39216e-06
4509 3212 -4.98337e-05
3213 3213 1
3214 3214 1
3215 3215 1
3216 3216 1
3217 3217 1
3218 3218 1
3215 3219 -1
3216 3219 -1
3219 3219 0.0220867
3232 3219 -0.0105263
3233 3219 -0.0105263
3234 3219 -9.06074e-05
3235 3219 -9.37397e-05
4464 3219 -4.19823e-06
4476 3219 -4.19823e-06
4478 3219 -2.99392e-05
4479 3219 -7.05329e-06
4506 3219 -0.000464331
4509 3219 -0.000340047
3220 3220 1
3221 3221 1
3222 3222 1
3223 3223 1
3224 3224 1
3225 3225 1
3224 3226 -1
3225 3226 -1
3226 3226 0.0220913
3227 3226 -0.0105263
3234 3226 -9.00515e-05
3235 3226 -9.29803e-05
3443 3226 -0.0105425
4458 3226 -2.85051e-05
4459 3226 -3.25736e-06
4506 3226 -0.000468393
4509 3226 -0.000339311
3222 3227 -1
3223 3227 -1
3226 3227 -0.0105263
3227 3227 0.0220886
3231 3227 -0.0105263
3234 3227 -9.05677e-05
3235 3227 -9.37395e-05
3443 3227 0
4458 3227 -3.25736e-06
4459 3227 -2.93357e-05
4464 3227 -1.42234e-05
4506 3227 -0.000466326
4509 3227 -0.000338563
3228 3228 1
3229 3229 1
3228 3230 -1
3229 3230 -1
3230 3230 0.0220857
3231 3230 -0.0105263
3232 3230 -0.0105263
3234 3230 -9.05876e-05
3235 3230 -9.37396e-05
4460 3230 -2.95498e-05
4464 3230 -4.19823e-06
4465 3230 -6.20975e-06
4476 3230 -4.19823e-06
4506 3230 -0.000465325
4509 3230 -0.000339302
3220 3231 -1
3221 3231 -1
3227 3231 -0.0105263
3230 3231 -0.0105263
3231 3231 0.0220849
3232 3231 0
3234 3231 -9.05777e-05
3235 3231 -9.37396e-05
3443 3231 0
4458 3231 0
4459 3231 0
4460 3231 -6.20975e-06
4464 3231 -3.27942e-05
4465 3231 0
4476 3231 -4.19823e-06
4506 3231 -0.000465824
4509 3231 -0.000338932
3217 3232 -1
3218 3232 -1
3219 3232 -0.0105263
3230 3232 -0.0105263
3231 3232 0
3232 3232 0.0220854
3233 3232 0
3234 3232 -9.05975e-05
3235 3232 -9.37396e-05
3443 3232 0
4458 3232 0
4459 3232 0
4460 3232 0
4464 3232 -4.19823e-06
4465 3232 -2.93033e-05
4476 3232 -4.19823e-06
4478 3232 -6.20975e-06
4479 3232 0
4506 3232 -0.000464827
4509 3232 -0.000339674
3213 3233 -1
3214 3233 -1
3219 3233 -0.0105263
3232 3233 0
3233 3233 0.0223416
3234 3233 -9.09936e-05
3235 3233 -9.34866e-05
3443 3233 0
4452 3233 -0.0104167
4458 3233 -1.28997e-05
4459 3233 -2.10236e-05
4460 3233 -1.40871e-05
4464 3233 -1.82853e-05
4465 3233 -1.40871e-05
4476 3233 -4.19823e-06
4478 3233 -1.40871e-05
4479 3233 -6.36742e-05
4506 3233 -0.000461009
4509 3233 -0.000590803
3219 3234 -9.81555e-05
3226 3234 -9.76494e-05
3227 3234 -9.81555e-05
3230 3234 -9.81555e-05
3231 3234 -9.81555e-05
3232 3234 -9.81555e-05
3233 3234 -9.85319e-05
3234 3234 0.0126741
3235 3234 -1.95312e-06
3440 3234 -0.00740741
3443 3234 -1.6741e-05
4452 3234 -2.38592e-05
4458 3234 -8.49898e-05
4459 3234 -9.16992e-05
4460 3234 -9.16992e-05
4462 3234 -8.98694e-06
4464 3234 -9.33733e-05
4465 3234 -9.16992e-05
4476 3234 0
4478 3234 -9.16992e-05
4479 3234 -9.16992e-05
4506 3234 -0.003837
4509 3234 -5.42915e-05
3212 3235 -0.0123457
3219 3235 -9.37399e-05
3226 3235 -9.29807e-05
3227 3235 -9.37399e-05
3230 3235 -9.37399e-05
3231 3235 -9.37399e-05
3232 3235 -9.37399e-05
3233 3235 -9.34869e-05
3234 3235 -1.95312e-06
3235 3235 0.0168265
3440 3235 0
3441 3235 0
3443 3235 -2.1653e-05
4452 3235 -1.44829e-05
4458 3235 -8.19304e-05
4459 3235 -8.83672e-05
4460 3235 -8.83672e-05
4462 3235 -3.9257e-06
4463 3235 0
4464 3235 -8.83672e-05
4465 3235 -8.83672e-05
4476 3235 0
4478 3235 -8.83672e-05
4479 3235 -8.83672e-05
4506 3235 0
4509 3235 -0.00317154
3236 3236 1
3237 3237 1
3238 3238 1
3239 3239 1
3240 3240 1
3241 3241 1
3242 3242 1
3243 3243 1
3241 3244 -1
3242 3244 -1
3243 3244 -1
3244 3244 0.00612996
3245 3244 -0.00253667
4450 3244 -0.000126145
4451 3244 -0.00012617
4509 3244 -0.00334097
3238 3245 -1
3239 3245 -1
3240 3245 -1
3244 3245 -0.00253668
3245 3245 0.00347242
3246 3245 -8.099e-12
3439 3245 -1.72939e-05
4450 3245 0
4451 3245 -0.000126156
4509 3245 -0.000792291
3236 3246 -1
3237 3246 -1
3245 3246 -2.57204e-14
3246 3246 0.00428488
3439 3246 -0.000149293
4450 3246 -2.51933e-05
4451 3246 -2.51933e-05
4489 3246 -0.000311597
4500 3246 -0.00330682
4509 3246 -0.000466788
3247 3247 1
3248 3248 1
3249 3249 1
3250 3250 1
3251 3251 1
3252 3252 1
3253 3253 1
3254 3254 1
3252 3255 -1
3253 3255 -1
3254 3255 -1
3255 3255 0.00612996
3256 3255 -0.00253667
4451 3255 -0.000126145
4455 3255 -0.000126171
4509 3255 -0.00334097
3249 3256 -1
3250 3256 -1
3251 3256 -1
3255 3256 -0.00253668
3256 3256 0.00347242
3257 3256 -8.09875e-12
4451 3256 0
4454 3256 -1.72943e-05
4455 3256 -0.000126156
4509 3256 -0.000792289
3247 3257 -1
3248 3257 -1
3256 3257 -2.57198e-14
3257 3257 0.00428484
4451 3257 -2.51935e-05
4454 3257 -0.000149293
4455 3257 -2.51935e-05
4473 3257 -0.000311319
4500 3257 -0.00330683
4509 3257 -0.000467007
3258 3258 1
3259 3259 1
3260 3260 1
3261 3261 1
3262 3262 1
3263 3263 1
3264 3264 1
3265 3265 1
3260 3266 -1
3261 3266 -1
3262 3266 -1
3266 3266 0.0116524
3267 3266 -0.0113636
4463 3266 -8.24722e-06
4509 3266 -0.000280487
3263 3267 -1
3264 3267 -1
3265 3267 -1
3266 3267 -0.0113636
3267 3267 0.018589
3311 3267 -2.10885e-06
3438 3267 -0.0070922
3441 3267 -3.79593e-06
4463 3267 0
4502 3267 -2.35542e-06
4506 3267 -2.99132e-06
4509 3267 -0.000121879
3268 3268 1
3269 3269 1
3270 3270 1
3271 3271 1
3272 3272 1
3273 3273 1
3274 3274 1
3275 3275 1
3276 3276 1
3277 3277 1
3278 3278 1
3279 3279 1
3280 3280 1
3281 3281 1
3282 3282 1
3272 3283 -1
3273 3283 -1
3274 3283 -1
3275 3283 -1
3276 3283 -1
3283 3283 0.00262854
3284 3283 -4.94093e-05
3285 3283 -1.45433e-05
3290 3283 -0.00060722
4509 3283 -0.00195736
3280 3284 -1
3281 3284 -1
3282 3284 -1
3283 3284 -4.94093e-05
3284 3284 0.00649126
3285 3284 0
3287 3284 -0.000842224
3289 3284 -0.00416863
3290 3284 -6.28709e-05
4509 3284 -0.00136812
3283 3285 0.000136255
3284 3285 0
3285 3285 0.00568123
3287 3285 0
3289 3285 0
3290 3285 0
4502 3285 -0.00552486
4509 3285 -0.000292623
3286 3286 0.00220827
3287 3286 -1.65548e-05
3289 3286 -0.00209205
3290 3286 -1.65548e-05
4502 3286 -8.38348e-06
4509 3286 -7.47309e-05
3268 3287 -1
3269 3287 -1
3270 3287 -1
3271 3287 -1
3284 3287 -0.000845217
3285 3287 0
3286 3287 -2.76001e-06
3287 3287 0.00255572
3288 3287 -3.06427e-05
3289 3287 -1.9661e-06
3290 3287 -5.81735e-05
4502 3287 -8.01362e-06
4509 3287 -0.00160894
3287 3288 -2.7459e-05
3288 3288 0.00444311
3289 3288 0
3290 3288 0
4502 3288 -1.9661e-06
4506 3288 -0.00436681
4509 3288 -4.68748e-05
3284 3289 -0.00416863
3285 3289 0
3286 3289 -0.00209205
3287 3289 -1.9661e-06
3288 3289 0
3289 3289 0.00994678
3290 3289 0
3346 3289 -0.00363636
4502 3289 -1.23157e-05
4506 3289 -5.56087e-06
4509 3289 -2.98872e-05
3277 3290 -1
3278 3290 -1
3279 3290 -1
3283 3290 -0.00053828
3284 3290 -5.57429e-05
3285 3290 0
3286 3290 -1.65548e-05
3287 3290 -7.04901e-05
3288 3290 0
3289 3290 0
3290 3290 0.00366855
3346 3290 0
3347 3290 -0.00229885
4502 3290 0
4506 3290 -1.98556e-06
4509 3290 -0.000686644
3291 3291 1
3292 3292 1
3291 3293 -1
3292 3293 -1
3293 3293 0.00220604
3310 3293 -0.00192308
3442 3293 -4.2177e-06
4463 3293 -8.24722e-06
4502 3293 -2.08938e-06
4506 3293 -2.75772e-06
4509 3293 -0.000265647
3294 3294 0.00256246
3295 3294 -0.000596607
3310 3294 -0.00214133
3347 3294 0.000218917
3438 3294 -1.95312e-06
4461 3294 -6.39792e-06
4506 3294 -2.92646e-05
4509 3294 -5.82691e-06
3294 3295 -0.000301312
3295 3295 0.00438229
3310 3295 0
3311 3295 -0.00225225
3347 3295 -0.000350591
3438 3295 -0.000123576
4461 3295 0
4502 3295 -3.13407e-06
4506 3295 -0.00132235
4509 3295 -2.90697e-05
3296 3296 1
3297 3297 1
3298 3298 1
3299 3299 1
3300 3300 1
3301 3301 1
3302 3302 1
3303 3303 1
3298 3304 -1
3299 3304 -1
3304 3304 0.00760699
3305 3304 -1.01225e-05
3307 3304 -0.000123728
3311 3304 -0.00704225
4509 3304 -0.000430886
3300 3305 -1
3301 3305 -1
3302 3305 -1
3303 3305 -1
3304 3305 -1.01225e-05
3305 3305 0.00320236
3306 3305 -0.000892683
3307 3305 -4.86626e-06
3308 3305 -0.000532333
3311 3305 0
4463 3305 -4.82245e-05
4509 3305 -0.00171413
3305 3306 -0.00139642
3306 3306 0.0117435
3307 3306 -2.51115e-06
3308 3306 0.000349504
3311 3306 0
4462 3306 -0.0106383
4463 3306 -2.86154e-06
4509 3306 -5.29381e-05
3304 3307 -0.000123728
3305 3307 -0.000130898
3306 3307 -2.51115e-06
3307 3307 0.00527331
3308 3307 0
3311 3307 0
3443 3307 -0.00492611
4462 3307 -3.9257e-06
4463 3307 -2.86154e-06
4509 3307 -8.32756e-05
3296 3308 -1
3297 3308 -1
3305 3308 -1.2247e-05
3306 3308 -0.000123728
3307 3308 0
3308 3308 0.00201534
3309 3308 -0.00139082
3311 3308 0
3346 3308 -3.80242e-06
3443 3308 0
4462 3308 0
4463 3308 0
4502 3308 -2.08938e-06
4506 3308 -3.4066e-06
4509 3308 -0.000479242
3308 3309 -0.00139082
3309 3309 0.00313731
3310 3309 -0.000308816
3311 3309 0
3346 3309 -0.000218028
3438 3309 -5.82044e-05
3443 3309 0
4462 3309 0
4463 3309 0
4502 3309 -2.08938e-06
4506 3309 -0.0011046
4509 3309 -5.47457e-05
3293 3310 -0.00192308
3294 3310 -0.00214133
3295 3310 0
3309 3310 -0.00049719
3310 3310 0.00526119
3311 3310 0
3346 3310 9.21277e-05
3347 3310 0
3438 3310 -3.06919e-06
3442 3310 0
3443 3310 0
4461 3310 -1.1271e-05
4462 3310 0
4463 3310 0
4502 3310 -2.08938e-06
4506 3310 -0.000710053
4509 3310 -6.5238e-05
3267 3311 -2.10885e-06
3295 3311 -0.00225225
3304 3311 -0.00704225
3305 3311 0
3306 3311 0
3307 3311 0
3308 3311 0
3309 3311 0
3310 3311 0
3311 3311 0.00936798
3346 3311 0
3347 3311 -2.08938e-06
3438 3311 0
3441 3311 0
3442 3311 0
3443 3311 0
4461 3311 0
4462 3311 0
4463 3311 0
4502 3311 -3.13407e-06
4506 3311 -6.74183e-06
4509 3311 -5.94046e-05
3312 3312 1
3313 3313 1
3314 3314 1
3315 3315 1
3316 3316 1
3317 3317 1
3318 3318 1
3319 3319 1
3315 3320 -1
3316 3320 -1
3317 3320 -1
3320 3320 0.00344935
3321 3320 -2.34999e-05
3332 3320 -7.19096e-12
4461 3320 -0.000122589
4509 3320 -0.00330326
3318 3321 -1
3319 3321 -1
3320 3321 -3.28883e-05
3321 3321 0.00197634
3332 3321 -4.25306e-05
3333 3321 -3.91281e-05
3347 3321 -6.16133e-05
4461 3321 -3.3482e-06
4500 3321 -0.000297639
4509 3321 -0.0014992
3322 3322 1
3323 3323 1
3324 3324 1
3325 3325 1
3326 3326 1
3327 3327 1
3328 3328 1
3329 3329 1
3322 3330 -1
3323 3330 -1
3324 3330 -1
3330 3330 0.00603875
3331 3330 -0.00249899
3333 3330 -0.000124208
4461 3330 -0.000122282
4509 3330 -0.00329327
3327 3331 -1
3328 3331 -1
3329 3331 -1
3330 3331 -0.00249611
3331 3331 0.0105767
3332 3331 -0.000202798
3333 3331 -0.000127276
3439 3331 -0.00492611
4461 3331 0
4500 3331 -0.000382093
4509 3331 -0.00244231
3312 3332 -1
3313 3332 -1
3314 3332 -1
3320 3332 -2.52009e-14
3321 3332 -4.25306e-05
3331 3332 -0.00020308
3332 3332 0.0059063
3333 3332 -1.93365e-06
3347 3332 0
3439 3332 0
4455 3332 -0.00384615
4461 3332 0
4500 3332 -0.00125711
4509 3332 -0.000555495
3321 3333 -3.8614e-05
3325 3333 -1
3326 3333 -1
3330 3333 -0.000126992
3331 3333 -0.000128677
3332 3333 -1.93365e-06
3333 3333 0.00151864
3345 3333 -5.06124e-06
3346 3333 -1.65548e-05
3347 3333 -6.97542e-06
3439 3333 0
4455 3333 0
4461 3333 -1.92651e-05
4500 3333 -0.000865906
4509 3333 -0.000308657
3334 3334 0.00634458
3335 3334 -0.0037037
3344 3334 -1.0966e-05
3345 3334 -0.0025641
4506 3334 -1.98556e-06
4509 3334 -6.38235e-05
3334 3335 -0.0037037
3335 3335 0.00867492
3344 3335 0
3345 3335 0
3442 3335 -0.00492611
4453 3335 -2.95239e-06
4506 3335 -1.98556e-06
4509 3335 -4.01719e-05
3336 3336 1
3337 3337 1
3338 3338 1
3339 3339 1
3338 3340 -1
3339 3340 -1
3340 3340 0.0066226
3341 3340 -0.0037037
4473 3340 -0.000231929
4500 3340 -0.00244824
4509 3340 -0.000238728
3340 3341 -0.0037037
3341 3341 0.0142885
3342 3341 -4.2177e-06
3345 3341 -0.0105263
4454 3341 -5.06124e-06
4457 3341 -2.10885e-06
4473 3341 0
4500 3341 -9.02587e-06
4509 3341 -3.80566e-05
3341 3342 -4.2177e-06
3342 3342 0.00965816
3343 3342 -0.00561798
3345 3342 0
4454 3342 0
4457 3342 0
4473 3342 -0.004
4500 3342 -4.51618e-06
4509 3342 -3.1451e-05
3342 3343 -0.00561798
3343 3343 0.00830474
3344 3343 -0.00263158
3345 3343 -3.37416e-06
4454 3343 0
4457 3343 0
4473 3343 0
4500 3343 -1.98556e-06
4509 3343 -4.98207e-05
3334 3344 -1.0966e-05
3335 3344 0
3343 3344 -0.00263158
3344 3344 0.00641466
3345 3344 0
3442 3344 0
4453 3344 -0.0037037
4454 3344 0
4457 3344 0
4466 3344 -6.32655e-06
4473 3344 0
4500 3344 0
4506 3344 -1.98556e-06
4509 3344 -6.00989e-05
3333 3345 -5.06124e-06
3334 3345 -0.0025641
3335 3345 0
3341 3345 -0.0105263
3342 3345 0
3343 3345 -3.37416e-06
3344 3345 0
3345 3345 0.0131417
3346 3345 0
3347 3345 0
3439 3345 0
3442 3345 0
4453 3345 0
4454 3345 0
4455 3345 0
4457 3345 0
4461 3345 0
4466 3345 0
4473 3345 0
4500 3345 -7.08573e-06
4506 3345 0
4509 3345 -3.57142e-05
3289 3346 -0.00363636
3290 3346 0
3308 3346 -3.80242e-06
3309 3346 -1.51284e-05
3310 3346 -7.82221e-05
3311 3346 0
3333 3346 -1.65547e-05
3345 3346 0
3346 3346 0.0042839
3347 3346 0
3438 3346 0
3439 3346 0
3441 3346 0
3442 3346 0
3443 3346 0
4453 3346 0
4454 3346 0
4455 3346 0
4457 3346 0
4461 3346 0
4462 3346 0
4463 3346 0
4466 3346 0
4473 3346 0
4500 3346 0
4502 3346 0
4506 3346 -0.000429105
4509 3346 -0.000104723
3290 3347 -0.00229885
3294 3347 -5.82042e-05
3295 3347 -1.44073e-05
3310 3347 0
3311 3347 -2.08938e-06
3321 3347 -6.3167e-05
3332 3347 0
3333 3347 -6.97542e-06
3345 3347 0
3346 3347 0
3347 3347 0.00320127
3438 3347 -8.83121e-06
3439 3347 0
3441 3347 0
3442 3347 0
3443 3347 0
4453 3347 0
4454 3347 0
4455 3347 0
4457 3347 0
4461 3347 -1.13618e-05
4462 3347 0
4463 3347 0
4466 3347 0
4473 3347 0
4500 3347 0
4502 3347 0
4506 3347 -0.000594971
4509 3347 -0.000142412
3348 3348 1
3349 3349 1
3350 3350 1
3351 3351 1
3352 3352 1
3353 3353 1
3354 3354 1
3355 3355 1
3350 3356 -1
3351 3356 -1
3352 3356 -1
3356 3356 0.0116524
3357 3356 -0.0113636
4463 3356 -8.24722e-06
4509 3356 -0.000280487
3353 3357 -1
3354 3357 -1
3355 3357 -1
3356 3357 -0.0113636
3357 3357 0.018589
3401 3357 -2.10885e-06
4448 3357 -0.0070922
4449 3357 -3.79593e-06
4463 3357 0
4502 3357 -2.35542e-06
4506 3357 -2.99132e-06
4509 3357 -0.000121879
3358 3358 1
3359 3359 1
3360 3360 1
3361 3361 1
3362 3362 1
3363 3363 1
3364 3364 1
3365 3365 1
3366 3366 1
3367 3367 1
3368 3368 1
3369 3369 1
3370 3370 1
3371 3371 1
3372 3372 1
3362 3373 -1
3363 3373 -1
3364 3373 -1
3365 3373 -1
3366 3373 -1
3373 3373 0.00262854
3374 3373 -4.94093e-05
3375 3373 -1.45433e-05
3380 3373 -0.00060722
4509 3373 -0.00195736
3370 3374 -1
3371 3374 -1
3372 3374 -1
3373 3374 -4.94093e-05
3374 3374 0.00649126
3375 3374 0
3377 3374 -0.000842224
3379 3374 -0.00416863
3380 3374 -6.28709e-05
4509 3374 -0.00136812
3373 3375 0.000136255
3374 3375 0
3375 3375 0.00568123
3377 3375 0
3379 3375 0
3380 3375 0
4502 3375 -0.00552486
4509 3375 -0.000292623
3376 3376 0.00220827
3377 3376 -1.65548e-05
3379 3376 -0.00209205
3380 3376 -1.65548e-05
4502 3376 -8.38348e-06
4509 3376 -7.47309e-05
3358 3377 -1
3359 3377 -1
3360 3377 -1
3361 3377 -1
3374 3377 -0.000845218
3375 3377 0
3376 3377 -2.76001e-06
3377 3377 0.00255572
3378 3377 -3.06427e-05
3379 3377 -1.9661e-06
3380 3377 -5.81735e-05
4502 3377 -8.01362e-06
4509 3377 -0.00160894
3377 3378 -2.7459e-05
3378 3378 0.00444311
3379 3378 0
3380 3378 0
4502 3378 -1.9661e-06
4506 3378 -0.00436681
4509 3378 -4.68748e-05
3374 3379 -0.00416863
3375 3379 0
3376 3379 -0.00209205
3377 3379 -1.9661e-06
3378 3379 0
3379 3379 0.00994678
3380 3379 0
3436 3379 -0.00363636
4502 3379 -1.23157e-05
4506 3379 -5.56087e-06
4509 3379 -2.98872e-05
3367 3380 -1
3368 3380 -1
3369 3380 -1
3373 3380 -0.00053828
3374 3380 -5.57429e-05
3375 3380 0
3376 3380 -1.65548e-05
3377 3380 -7.04901e-05
3378 3380 0
3379 3380 0
3380 3380 0.00366855
3436 3380 0
3437 3380 -0.00229885
4502 3380 0
4506 3380 -1.98556e-06
4509 3380 -0.000686644
3381 3381 1
3382 3382 1
3381 3383 -1
3382 3383 -1
3383 3383 0.00220604
3400 3383 -0.00192308
3440 3383 -4.2177e-06
4463 3383 -8.24722e-06
4502 3383 -2.08938e-06
4506 3383 -2.75772e-06
4509 3383 -0.000265647
3384 3384 0.00256246
3385 3384 -0.000596607
3400 3384 -0.00214133
3437 3384 0.000218917
4448 3384 -1.95312e-06
4461 3384 -6.39792e-06
4506 3384 -2.92646e-05
4509 3384 -5.82691e-06
3384 3385 -0.000301312
3385 3385 0.00438229
3400 3385 0
3401 3385 -0.00225225
3437 3385 -0.000350592
4448 3385 -0.000123578
4461 3385 0
4502 3385 -3.13407e-06
4506 3385 -0.00132236
4509 3385 -2.90697e-05
3386 3386 1
3387 3387 1
3388 3388 1
3389 3389 1
3390 3390 1
3391 3391 1
3392 3392 1
3393 3393 1
3388 3394 -1
3389 3394 -1
3394 3394 0.00760699
3395 3394 -1.01225e-05
3397 3394 -0.000123728
3401 3394 -0.00704225
4509 3394 -0.000430886
3390 3395 -1
3391 3395 -1
3392 3395 -1
3393 3395 -1
3394 3395 -1.01225e-05
3395 3395 0.00320236
3396 3395 -0.000892683
3397 3395 -5.65776e-06
3398 3395 -0.000532332
3401 3395 0
4463 3395 -4.82245e-05
4509 3395 -0.00171334
3395 3396 -0.00139642
3396 3396 0.00744134
3397 3396 -2.51115e-06
3398 3396 0.000349504
3401 3396 0
4462 3396 -0.00632911
4463 3396 -2.86154e-06
4509 3396 -5.9933e-05
3394 3397 -0.000123728
3395 3397 -0.000130898
3396 3397 -2.51115e-06
3397 3397 0.00497056
3398 3397 0
3401 3397 0
4452 3397 -0.00460829
4462 3397 -3.9257e-06
4463 3397 -9.77857e-06
4509 3397 -9.14214e-05
3386 3398 -1
3387 3398 -1
3395 3398 -1.2247e-05
3396 3398 -0.000123728
3397 3398 0
3398 3398 0.00201534
3399 3398 -0.00139082
3401 3398 0
3436 3398 -3.80242e-06
4452 3398 0
4462 3398 0
4463 3398 0
4502 3398 -2.08938e-06
4506 3398 -3.4066e-06
4509 3398 -0.000479242
3398 3399 -0.00139082
3399 3399 0.00313731
3400 3399 -0.000308816
3401 3399 0
3436 3399 -0.000218028
4448 3399 -5.82044e-05
4452 3399 0
4462 3399 0
4463 3399 0
4502 3399 -2.08938e-06
4506 3399 -0.0011046
4509 3399 -5.47457e-05
3383 3400 -0.00192308
3384 3400 -0.00214133
3385 3400 0
3399 3400 -0.00049719
3400 3400 0.00526119
3401 3400 0
3436 3400 9.21276e-05
3437 3400 0
3440 3400 0
4448 3400 -3.06919e-06
4452 3400 0
4461 3400 -1.1271e-05
4462 3400 0
4463 3400 0
4502 3400 -2.08938e-06
4506 3400 -0.000710053
4509 3400 -6.5238e-05
3357 3401 -2.10885e-06
3385 3401 -0.00225225
3394 3401 -0.00704225
3395 3401 0
3396 3401 0
3397 3401 0
3398 3401 0
3399 3401 0
3400 3401 0
3401 3401 0.00936798
3436 3401 0
3437 3401 -2.08938e-06
3440 3401 0
4448 3401 0
4449 3401 0
4452 3401 0
4461 3401 0
4462 3401 0
4463 3401 0
4502 3401 -3.13407e-06
4506 3401 -6.74183e-06
4509 3401 -5.94046e-05
3402 3402 1
3403 3403 1
3404 3404 1
3405 3405 1
3406 3406 1
3407 3407 1
3408 3408 1
3409 3409 1
3405 3410 -1
3406 3410 -1
3407 3410 -1
3410 3410 0.00344935
3411 3410 -2.34999e-05
3422 3410 -7.19096e-12
4461 3410 -0.000122589
4509 3410 -0.00330326
3408 3411 -1
3409 3411 -1
3410 3411 -3.28883e-05
3411 3411 0.00197612
3422 3411 -4.25306e-05
3423 3411 -3.91281e-05
3437 3411 -6.16133e-05
4461 3411 -3.3482e-06
4500 3411 -0.000297418
4509 3411 -0.0014992
3412 3412 1
3413 3413 1
3414 3414 1
3415 3415 1
3416 3416 1
3417 3417 1
3418 3418 1
3419 3419 1
3412 3420 -1
3413 3420 -1
3414 3420 -1
3420 3420 0.00603877
3421 3420 -0.00249902
3423 3420 -0.000124206
4461 3420 -0.000122282
4509 3420 -0.00329326
3417 3421 -1
3418 3421 -1
3419 3421 -1
3420 3421 -0.00249614
3421 3421 0.0112703
3422 3421 -0.000203077
3423 3421 -0.000127275
4447 3421 -0.00561798
4461 3421 0
4500 3421 -0.000383365
4509 3421 -0.00244245
3402 3422 -1
3403 3422 -1
3404 3422 -1
3410 3422 -2.52009e-14
3411 3422 -4.25306e-05
3421 3422 -0.000203358
3422 3422 0.00577042
3423 3422 -1.93365e-06
3437 3422 0
4447 3422 0
4451 3422 -0.0037037
4461 3422 0
4500 3422 -0.00126013
4509 3422 -0.000558765
3411 3423 -3.8614e-05
3415 3423 -1
3416 3423 -1
3420 3423 -0.000126992
3421 3423 -0.000128677
3422 3423 -1.93365e-06
3423 3423 0.00151864
3435 3423 -5.06124e-06
3436 3423 -1.65548e-05
3437 3423 -6.97542e-06
4447 3423 0
4451 3423 0
4461 3423 -1.92651e-05
4500 3423 -0.000865908
4509 3423 -0.000308657
3424 3424 0.00634458
3425 3424 -0.0037037
3434 3424 -1.0966e-05
3435 3424 -0.0025641
4506 3424 -1.98556e-06
4509 3424 -6.38235e-05
3424 3425 -0.0037037
3425 3425 0.00867492
3434 3425 0
3435 3425 0
3440 3425 -0.00492611
3441 3425 -2.95239e-06
4506 3425 -1.98556e-06
4509 3425 -4.01719e-05
3426 3426 1
3427 3427 1
3428 3428 1
3429 3429 1
3428 3430 -1
3429 3430 -1
3430 3430 0.00662276
3431 3430 -0.0037037
4489 3430 -0.000231927
4500 3430 -0.0024484
4509 3430 -0.000238728
3430 3431 -0.0037037
3431 3431 0.0142925
3432 3431 -5.48301e-06
3435 3431 -0.0105263
3439 3431 -5.48301e-06
4455 3431 -2.10885e-06
4489 3431 0
4500 3431 -9.02587e-06
4509 3431 -4.03731e-05
3431 3432 -5.48301e-06
3432 3432 0.00966221
3433 3432 -0.00561798
3435 3432 0
3439 3432 0
4455 3432 0
4489 3432 -0.004
4500 3432 -5.35972e-06
4509 3432 -3.33912e-05
3432 3433 -0.00561798
3433 3433 0.00830474
3434 3433 -0.00263158
3435 3433 -3.37416e-06
3439 3433 0
4455 3433 0
4489 3433 0
4500 3433 -1.98556e-06
4509 3433 -4.98207e-05
3424 3434 -1.0966e-05
3425 3434 0
3433 3434 -0.00263158
3434 3434 0.00641466
3435 3434 0
3438 3434 -6.32655e-06
3439 3434 0
3440 3434 0
3441 3434 -0.0037037
4455 3434 0
4489 3434 0
4500 3434 0
4506 3434 -1.98556e-06
4509 3434 -6.00989e-05
3423 3435 -5.06124e-06
3424 3435 -0.0025641
3425 3435 0
3431 3435 -0.0105263
3432 3435 0
3433 3435 -3.37416e-06
3434 3435 0
3435 3435 0.0131417
3436 3435 0
3437 3435 0
3438 3435 0
3439 3435 0
3440 3435 0
3441 3435 0
4447 3435 0
4451 3435 0
4455 3435 0
4461 3435 0
4489 3435 0
4500 3435 -7.08573e-06
4506 3435 0
4509 3435 -3.57142e-05
3379 3436 -0.00363636
3380 3436 0
3398 3436 -3.80242e-06
3399 3436 -1.51284e-05
3400 3436 -7.82221e-05
3401 3436 0
3423 3436 -1.65547e-05
3435 3436 0
3436 3436 0.0042839
3437 3436 0
3438 3436 0
3439 3436 0
3440 3436 0
3441 3436 0
4447 3436 0
4448 3436 0
4449 3436 0
4451 3436 0
4452 3436 0
4455 3436 0
4461 3436 0
4462 3436 0
4463 3436 0
4489 3436 0
4500 3436 0
4502 3436 0
4506 3436 -0.000429105
4509 3436 -0.000104723
3380 3437 -0.00229885
3384 3437 -5.82042e-05
3385 3437 -1.44074e-05
3400 3437 0
3401 3437 -2.08938e-06
3411 3437 -6.3167e-05
3422 3437 0
3423 3437 -6.97542e-06
3435 3437 0
3436 3437 0
3437 3437 0.00320127
3438 3437 0
3439 3437 0
3440 3437 0
3441 3437 0
4447 3437 0
4448 3437 -8.83121e-06
4449 3437 0
4451 3437 0
4452 3437 0
4455 3437 0
4461 3437 -1.13618e-05
4462 3437 0
4463 3437 0
4489 3437 0
4500 3437 0
4502 3437 0
4506 3437 -0.000594971
4509 3437 -0.000142412
3258 3438 -1
3259 3438 -1
3267 3438 -0.0070922
3294 3438 -1.95312e-06
3295 3438 4.66959e-07
3309 3438 0.000111095
3310 3438 -3.06919e-06
3311 3438 0
3346 3438 0
3347 3438 -8.83121e-06
3434 3438 -6.32655e-06
3435 3438 0
3436 3438 0
3437 3438 0
3438 3438 0.00924999
3439 3438 0
3440 3438 0
3441 3438 0
3442 3438 0
3443 3438 0
4447 3438 0
4448 3438 0
4449 3438 0
4451 3438 0
4452 3438 0
4453 3438 0
4454 3438 0
4455 3438 0
4457 3438 0
4461 3438 -6.32655e-06
4462 3438 0
4463 3438 0
4466 3438 0
4473 3438 0
4489 3438 0
4500 3438 0
4502 3438 -2.35542e-06
4506 3438 -0.0021268
4509 3438 -0.000113693
3245 3439 -3.38941e-05
3246 3439 -0.000151439
3331 3439 -0.00492611
3332 3439 0
3333 3439 0
3345 3439 0
3346 3439 0
3347 3439 0
3431 3439 -5.48301e-06
3432 3439 0
3433 3439 0
3434 3439 0
3435 3439 0
3436 3439 0
3437 3439 0
3438 3439 0
3439 3439 0.00547644
3440 3439 0
3441 3439 0
3442 3439 0
3443 3439 0
4447 3439 0
4448 3439 0
4449 3439 0
4450 3439 0
4451 3439 -1.98881e-05
4452 3439 0
4453 3439 0
4454 3439 0
4455 3439 0
4457 3439 0
4461 3439 0
4462 3439 0
4463 3439 0
4466 3439 0
4473 3439 0
4489 3439 0
4500 3439 -0.00013666
4502 3439 0
4506 3439 0
4509 3439 -0.00020297
3211 3440 -5.48301e-06
3212 3440 0
3234 3440 -0.00740741
3235 3440 0
3383 3440 -4.2177e-06
3400 3440 0
3401 3440 0
3425 3440 -0.00492611
3434 3440 0
3435 3440 0
3436 3440 0
3437 3440 0
3438 3440 0
3439 3440 0
3440 3440 0.0124102
3441 3440 0
3442 3440 0
3443 3440 0
4447 3440 0
4448 3440 0
4449 3440 0
4450 3440 0
4451 3440 0
4452 3440 0
4453 3440 0
4454 3440 0
4455 3440 0
4457 3440 0
4458 3440 0
4459 3440 0
4460 3440 0
4461 3440 0
4462 3440 -3.9257e-06
4463 3440 -4.56809e-06
4464 3440 0
4465 3440 0
4466 3440 0
4473 3440 0
4476 3440 0
4478 3440 0
4479 3440 0
4489 3440 0
4500 3440 0
4502 3440 0
4506 3440 0
4509 3440 -5.85222e-05
3211 3441 -0.00512821
3212 3441 0
3235 3441 0
3267 3441 -3.79593e-06
3311 3441 0
3346 3441 0
3347 3441 0
3425 3441 -2.95239e-06
3434 3441 -0.0037037
3435 3441 0
3436 3441 0
3437 3441 0
3438 3441 0
3439 3441 0
3440 3441 0
3441 3441 0.00887867
3442 3441 0
3443 3441 0
4447 3441 0
4448 3441 0
4449 3441 0
4450 3441 0
4451 3441 0
4452 3441 0
4453 3441 0
4454 3441 0
4455 3441 0
4457 3441 0
4458 3441 0
4459 3441 0
4460 3441 0
4461 3441 0
4462 3441 0
4463 3441 0
4464 3441 0
4465 3441 0
4466 3441 0
4473 3441 0
4476 3441 0
4478 3441 0
4479 3441 0
4489 3441 0
4500 3441 0
4502 3441 0
4506 3441 -1.98556e-06
4509 3441 -3.80242e-05
3186 3442 -5.48301e-06
3187 3442 0
3209 3442 -0.00740741
3210 3442 0
3293 3442 -4.2177e-06
3310 3442 0
3311 3442 0
3335 3442 -0.00492611
3344 3442 0
3345 3442 0
3346 3442 0
3347 3442 0
3438 3442 0
3439 3442 0
3440 3442 0
3441 3442 0
3442 3442 0.0124102
3443 3442 0
4447 3442 0
4448 3442 0
4449 3442 0
4450 3442 0
4451 3442 0
4452 3442 0
4453 3442 0
4454 3442 0
4455 3442 0
4456 3442 0
4457 3442 0
4458 3442 0
4459 3442 0
4460 3442 0
4461 3442 0
4462 3442 -3.9257e-06
4463 3442 -4.56809e-06
4464 3442 0
4465 3442 0
4466 3442 0
4473 3442 0
4476 3442 0
4478 3442 0
4479 3442 0
4482 3442 0
4489 3442 0
4500 3442 0
4502 3442 0
4506 3442 0
4509 3442 -5.85222e-05
3207 3443 -0.0104167
3208 3443 0
3209 3443 -2.17503e-05
3210 3443 -1.44829e-05
3226 3443 -0.0105425
3227 3443 0
3231 3443 0
3232 3443 0
3233 3443 0
3234 3443 -1.6741e-05
3235 3443 -2.1653e-05
3307 3443 -0.00492611
3308 3443 0
3309 3443 0
3310 3443 0
3311 3443 0
3346 3443 0
3347 3443 0
3438 3443 0
3439 3443 0
3440 3443 0
3441 3443 0
3442 3443 0
3443 3443 0.103669
4447 3443 0
4448 3443 0
4449 3443 0
4450 3443 0
4451 3443 0
4452 3443 -0.0384641
4453 3443 0
4454 3443 0
4455 3443 0
4456 3443 -0.0384641
4457 3443 0
4458 3443 -3.30083e-05
4459 3443 -2.95823e-05
4460 3443 -1.40871e-05
4461 3443 0
4462 3443 -3.9257e-06
4463 3443 -2.86154e-06
4464 3443 -1.40871e-05
4465 3443 -1.40871e-05
4466 3443 0
4473 3443 0
4476 3443 0
4478 3443 -1.40871e-05
4479 3443 -1.40676e-05
4482 3443 0
4489 3443 0
4500 3443 0
4502 3443 0
4506 3443 -1.71303e-05
4509 3443 -0.000623512
3444 3444 0.0329541
3445 3444 -0.0277778
4446 3444 -5.48301e-06
4449 3444 -0.00512821
4463 3444 -2.86154e-06
4509 3444 -3.97437e-05
3444 3445 -0.0277778
3445 3445 0.0474572
3485 3445 -0.0196078
4446 3445 0
4449 3445 0
4462 3445 -1.23611e-05
4463 3445 -6.2357e-06
4509 3445 -5.29872e-05
3446 3446 1
3447 3447 1
3446 3448 -1
3447 3448 -1
3448 3448 0.0220904
3473 3448 -0.0105263
3484 3448 -9.76167e-05
3485 3448 -8.67404e-05
4452 3448 -0.0105425
4458 3448 -2.85051e-05
4459 3448 -3.25736e-06
4506 3448 -0.000456927
4509 3448 -0.000348535
3449 3449 1
3450 3450 1
3451 3451 1
3452 3452 1
3453 3453 1
3454 3454 1
3455 3455 1
3456 3456 1
3457 3457 1
3458 3458 1
3459 3459 1
3460 3460 1
3461 3461 1
3462 3462 1
3463 3463 1
3464 3464 1
3465 3465 1
3466 3466 1
3467 3467 1
3468 3468 1
3469 3469 1
3470 3470 1
3471 3471 1
3451 3472 -1
3452 3472 -1
3472 3472 0.0220834
3473 3472 -0.0105263
3482 3472 -0.0105263
3484 3472 -9.79822e-05
3485 3472 -8.74498e-05
4460 3472 -1.42234e-05
4464 3472 -2.8596e-05
4506 3472 -0.000455221
4509 3472 -0.000347257
3448 3473 -0.0105263
3453 3473 -1
3454 3473 -1
3472 3473 -0.0105263
3473 3473 0.0220875
3482 3473 0
3484 3473 -9.81117e-05
3485 3473 -8.74241e-05
4452 3473 0
4458 3473 -3.25736e-06
4459 3473 -2.93357e-05
4460 3473 -8.01362e-06
4464 3473 -6.20975e-06
4506 3473 -0.000455569
4509 3473 -0.000346901
3474 3474 1
3475 3475 1
3476 3476 1
3477 3477 1
3478 3478 1
3479 3479 1
3476 3480 -1
3477 3480 -1
3480 3480 0.0220857
3481 3480 -0.0105263
3483 3480 -0.0105263
3484 3480 -9.06995e-05
3485 3480 -9.37268e-05
4460 3480 -4.19823e-06
4478 3480 -2.99392e-05
4479 3480 -7.05329e-06
4488 3480 -4.19823e-06
4506 3480 -0.000461081
4509 3480 -0.000342132
3478 3481 -1
3479 3481 -1
3480 3481 -0.0105263
3481 3481 0.0220843
3482 3481 -0.0105263
3483 3481 0
3484 3481 -9.07301e-05
3485 3481 -9.36913e-05
4460 3481 -4.19823e-06
4465 3481 -2.93033e-05
4478 3481 -6.20975e-06
4479 3481 0
4488 3481 -4.19823e-06
4506 3481 -0.000461522
4509 3481 -0.000341782
3449 3482 -1
3450 3482 -1
3472 3482 -0.0105263
3473 3482 0
3481 3482 -0.0105263
3482 3482 0.0220846
3483 3482 0
3484 3482 -9.17172e-05
3485 3482 -9.28223e-05
4452 3482 0
4458 3482 0
4459 3482 0
4460 3482 -3.37481e-05
4464 3482 0
4465 3482 -6.20975e-06
4478 3482 0
4479 3482 0
4488 3482 -4.19823e-06
4506 3482 -0.00046101
4509 3482 -0.000342267
3474 3483 -1
3475 3483 -1
3480 3483 -0.0105263
3481 3483 0
3482 3483 0
3483 3483 0.0223406
3484 3483 -9.10762e-05
3485 3483 -9.3482e-05
4445 3483 -0.0104167
4452 3483 0
4458 3483 -1.28997e-05
4459 3483 -2.10236e-05
4460 3483 -1.82853e-05
4464 3483 -1.40871e-05
4465 3483 -1.40871e-05
4478 3483 -1.40871e-05
4479 3483 -6.36742e-05
4488 3483 -4.19823e-06
4506 3483 -0.000457541
4509 3483 -0.000593191
3448 3484 -9.76494e-05
3472 3484 -9.81555e-05
3473 3484 -9.81555e-05
3480 3484 -9.81555e-05
3481 3484 -9.81555e-05
3482 3484 -9.81555e-05
3483 3484 -9.85319e-05
3484 3484 0.0128486
3485 3484 -1.6741e-06
4445 3484 -2.4281e-05
4446 3484 -0.00757576
4452 3484 -1.6741e-05
4458 3484 -8.49898e-05
4459 3484 -9.16992e-05
4460 3484 -9.42104e-05
4462 3484 -9.83048e-06
4464 3484 -9.16992e-05
4465 3484 -9.16992e-05
4478 3484 -9.16992e-05
4479 3484 -9.16992e-05
4488 3484 0
4506 3484 -0.00383747
4509 3484 -5.82042e-05
3445 3485 -0.0196078
3448 3485 -9.29807e-05
3472 3485 -9.37399e-05
3473 3485 -9.37399e-05
3480 3485 -9.37399e-05
3481 3485 -9.37399e-05
3482 3485 -9.37399e-05
3483 3485 -9.34869e-05
3484 3485 -1.6741e-06
3485 3485 0.0240851
4445 3485 -1.44829e-05
4446 3485 0
4449 3485 0
4452 3485 -2.1653e-05
4458 3485 -8.19304e-05
4459 3485 -8.83672e-05
4460 3485 -9.00413e-05
4462 3485 -3.9257e-06
4463 3485 0
4464 3485 -8.83672e-05
4465 3485 -8.83672e-05
4478 3485 -8.83672e-05
4479 3485 -8.83672e-05
4488 3485 0
4506 3485 0
4509 3485 -0.00316651
3486 3486 1
3487 3487 1
3488 3488 1
3489 3489 1
3490 3490 1
3491 3491 1
3492 3492 1
3493 3493 1
3491 3494 -1
3492 3494 -1
3493 3494 -1
3494 3494 0.00612995
3495 3494 -0.00253667
3550 3494 -0.000126145
4450 3494 -0.00012617
4509 3494 -0.00334097
3488 3495 -1
3489 3495 -1
3490 3495 -1
3494 3495 -0.00253668
3495 3495 0.00347242
3496 3495 -8.09859e-12
3550 3495 0
4447 3495 -1.72938e-05
4450 3495 -0.000126156
4509 3495 -0.000792291
3486 3496 -1
3487 3496 -1
3495 3496 -2.57191e-14
3496 3496 0.00428485
3550 3496 -2.51935e-05
4447 3496 -0.000149293
4450 3496 -2.51935e-05
4499 3496 -0.000311319
4500 3496 -0.00330684
4509 3496 -0.000467007
3497 3497 1
3498 3498 1
3499 3499 1
3500 3500 1
3501 3501 1
3502 3502 1
3503 3503 1
3504 3504 1
3502 3505 -1
3503 3505 -1
3504 3505 -1
3505 3505 0.00612995
3506 3505 -0.00253667
3550 3505 -0.00012617
4443 3505 -0.000126145
4509 3505 -0.00334097
3499 3506 -1
3500 3506 -1
3501 3506 -1
3505 3506 -0.00253668
3506 3506 0.00347242
3507 3506 -8.09828e-12
3550 3506 -0.000126156
3654 3506 -1.72938e-05
4443 3506 0
4509 3506 -0.000792291
3497 3507 -1
3498 3507 -1
3506 3507 -2.57181e-14
3507 3507 0.00428484
3550 3507 -2.51934e-05
3654 3507 -0.000149293
4443 3507 -2.51934e-05
4477 3507 -0.000311318
4500 3507 -0.00330683
4509 3507 -0.000467009
3508 3508 1
3509 3509 1
3510 3510 1
3511 3511 1
3510 3512 -1
3511 3512 -1
3512 3512 0.00662366
3513 3512 -0.0037037
4497 3512 -0.000231918
4500 3512 -0.00244931
4509 3512 -0.000238728
3512 3513 -0.0037037
3513 3513 0.0143021
3514 3513 -8.01362e-06
3549 3513 -6.32655e-06
3550 3513 -2.10885e-06
4437 3513 -0.0105263
4497 3513 0
4500 3513 -9.02587e-06
4509 3513 -4.66283e-05
3513 3514 -8.01362e-06
3514 3514 0.0096723
3515 3514 -0.00561798
3549 3514 0
3550 3514 0
4437 3514 0
4497 3514 -0.004
4500 3514 -6.62503e-06
4509 3514 -3.96788e-05
3514 3515 -0.00561798
3515 3515 0.00830474
3549 3515 0
3550 3515 0
4437 3515 -3.37416e-06
4438 3515 -0.00263158
4497 3515 0
4500 3515 -1.98556e-06
4509 3515 -4.98207e-05
3516 3516 1
3517 3517 1
3518 3518 1
3519 3519 1
3520 3520 1
3521 3521 1
3522 3522 1
3523 3523 1
3521 3524 -1
3522 3524 -1
3523 3524 -1
3524 3524 0.00613022
3525 3524 -0.00253667
4440 3524 -0.000126145
4443 3524 -0.000126171
4509 3524 -0.00334123
3518 3525 -1
3519 3525 -1
3520 3525 -1
3524 3525 -0.00253668
3525 3525 0.00347267
3526 3525 -8.09848e-12
3549 3525 -1.7295e-05
4440 3525 0
4443 3525 -0.000126156
4509 3525 -0.000792533
3516 3526 -1
3517 3526 -1
3525 3526 -2.57194e-14
3526 3526 0.00428508
3549 3526 -0.000149293
4440 3526 -2.51934e-05
4443 3526 -2.51934e-05
4497 3526 -0.000311318
4500 3526 -0.00330683
4509 3526 -0.000467255
3527 3527 1
3528 3528 1
3529 3529 1
3530 3530 1
3531 3531 1
3532 3532 1
3533 3533 1
3534 3534 1
3530 3535 -1
3531 3535 -1
3532 3535 -1
3535 3535 0.00344935
3536 3535 -2.34999e-05
3547 3535 -7.19096e-12
4461 3535 -0.000122589
4509 3535 -0.00330326
3533 3536 -1
3534 3536 -1
3535 3536 -3.28883e-05
3536 3536 0.00197634
3547 3536 -4.25306e-05
3548 3536 -3.91281e-05
4439 3536 -6.16133e-05
4461 3536 -3.3482e-06
4500 3536 -0.000297639
4509 3536 -0.0014992
3537 3537 1
3538 3538 1
3539 3539 1
3540 3540 1
3541 3541 1
3542 3542 1
3543 3543 1
3544 3544 1
3537 3545 -1
3538 3545 -1
3539 3545 -1
3545 3545 0.00603876
3546 3545 -0.002499
3548 3545 -0.000124208
4461 3545 -0.000122282
4509 3545 -0.00329326
3542 3546 -1
3543 3546 -1
3544 3546 -1
3545 3546 -0.00249612
3546 3546 0.0110559
3547 3546 -0.000203077
3548 3546 -0.000127276
3549 3546 -0.00540541
4461 3546 0
4500 3546 -0.000382489
4509 3546 -0.00244157
3527 3547 -1
3528 3547 -1
3529 3547 -1
3535 3547 -2.52009e-14
3536 3547 -4.25306e-05
3546 3547 -0.000203359
3547 3547 0.00442716
3548 3547 -1.93365e-06
3549 3547 0
3550 3547 -0.00235294
4439 3547 0
4461 3547 0
4500 3547 -0.00126325
4509 3547 -0.000563145
3536 3548 -3.8614e-05
3540 3548 -1
3541 3548 -1
3545 3548 -0.000126992
3546 3548 -0.000128677
3547 3548 -1.93365e-06
3548 3548 0.00151886
3549 3548 0
3550 3548 0
3653 3548 -5.06124e-06
4439 3548 -6.97542e-06
4444 3548 -1.65548e-05
4461 3548 -1.92651e-05
4500 3548 -0.000865907
4509 3548 -0.000308878
3513 3549 -6.32655e-06
3514 3549 0
3515 3549 0
3525 3549 -3.38941e-05
3526 3549 -0.000151439
3546 3549 -0.00540541
3547 3549 0
3548 3549 0
3549 3549 0.00595394
3550 3549 0
3653 3549 0
4437 3549 0
4438 3549 0
4439 3549 0
4440 3549 0
4443 3549 -1.90445e-05
4444 3549 0
4461 3549 0
4497 3549 0
4500 3549 -0.00013666
4509 3549 -0.000201173
3494 3550 -0.000129227
3495 3550 0
3496 3550 -2.7149e-05
3505 3550 -0.000129225
3506 3550 -0.000129227
3507 3550 -2.7149e-05
3513 3550 -2.10885e-06
3514 3550 0
3515 3550 0
3547 3550 -0.00235294
3548 3550 0
3549 3550 0
3550 3550 0.00348045
3653 3550 0
3654 3550 -1.86228e-05
4437 3550 0
4438 3550 0
4439 3550 0
4440 3550 0
4443 3550 -5.0223e-06
4444 3550 0
4447 3550 0
4450 3550 -5.0223e-06
4461 3550 0
4477 3550 0
4497 3550 0
4499 3550 0
4500 3550 -0.000423407
4509 3550 -0.000231345
3551 3551 1
3552 3552 1
3553 3553 1
3554 3554 1
3555 3555 1
3556 3556 1
3557 3557 1
3558 3558 1
3554 3559 -1
3555 3559 -1
3556 3559 -1
3559 3559 0.00344935
3560 3559 -2.34999e-05
3571 3559 -7.19096e-12
4461 3559 -0.000122589
4509 3559 -0.00330326
3557 3560 -1
3558 3560 -1
3559 3560 -3.28883e-05
3560 3560 0.00197634
3571 3560 -4.25306e-05
3572 3560 -3.91281e-05
3652 3560 -6.16133e-05
4461 3560 -3.3482e-06
4500 3560 -0.000297639
4509 3560 -0.0014992
3561 3561 1
3562 3562 1
3563 3563 1
3564 3564 1
3565 3565 1
3566 3566 1
3567 3567 1
3568 3568 1
3561 3569 -1
3562 3569 -1
3563 3569 -1
3569 3569 0.00603877
3570 3569 -0.00249902
3572 3569 -0.000124206
4461 3569 -0.000122282
4509 3569 -0.00329326
3566 3570 -1
3567 3570 -1
3568 3570 -1
3569 3570 -0.00249614
3570 3570 0.0117859
3571 3570 -0.000203077
3572 3570 -0.000127275
3654 3570 -0.00613497
4461 3570 0
4500 3570 -0.000381736
4509 3570 -0.00244267
3551 3571 -1
3552 3571 -1
3553 3571 -1
3559 3571 -2.52009e-14
3560 3571 -4.25306e-05
3570 3571 -0.000203359
3571 3571 0.00525574
3572 3571 -1.93365e-06
3652 3571 0
3654 3571 0
4450 3571 -0.00318471
4461 3571 0
4500 3571 -0.00126188
4509 3571 -0.000561322
3560 3572 -3.8614e-05
3564 3572 -1
3565 3572 -1
3569 3572 -0.000126992
3570 3572 -0.000128677
3571 3572 -1.93365e-06
3572 3572 0.00151864
3584 3572 -5.06124e-06
3651 3572 -1.65548e-05
3652 3572 -6.97542e-06
3654 3572 0
4450 3572 0
4461 3572 -1.92651e-05
4500 3572 -0.000865908
4509 3572 -0.000308657
3573 3573 0.00634458
3574 3573 -0.0037037
3583 3573 -1.0966e-05
3584 3573 -0.0025641
4506 3573 -1.98556e-06
4509 3573 -6.38235e-05
3573 3574 -0.0037037
3574 3574 0.00867492
3583 3574 0
3584 3574 0
4446 3574 -0.00492611
4449 3574 -2.95239e-06
4506 3574 -1.98556e-06
4509 3574 -4.01719e-05
3575 3575 1
3576 3576 1
3577 3577 1
3578 3578 1
3577 3579 -1
3578 3579 -1
3579 3579 0.00662296
3580 3579 -0.0037037
4499 3579 -0.000231925
4500 3579 -0.0024486
4509 3579 -0.000238728
3579 3580 -0.0037037
3580 3580 0.0142964
3581 3580 -6.32655e-06
3584 3580 -0.0105263
4447 3580 -6.32655e-06
4451 3580 -2.53062e-06
4499 3580 0
4500 3580 -9.02587e-06
4509 3580 -4.21705e-05
3580 3581 -6.32655e-06
3581 3581 0.00966533
3582 3581 -0.00561798
3584 3581 0
4447 3581 0
4451 3581 0
4499 3581 -0.004
4500 3581 -5.78149e-06
4509 3581 -3.52405e-05
3581 3582 -0.00561798
3582 3582 0.00830474
3583 3582 -0.00263158
3584 3582 -3.37416e-06
4447 3582 0
4451 3582 0
4499 3582 0
4500 3582 -1.98556e-06
4509 3582 -4.98207e-05
3573 3583 -1.0966e-05
3574 3583 0
3582 3583 -0.00263158
3583 3583 0.00641466
3584 3583 0
4446 3583 0
4447 3583 0
4448 3583 -6.32655e-06
4449 3583 -0.0037037
4451 3583 0
4499 3583 0
4500 3583 0
4506 3583 -1.98556e-06
4509 3583 -6.00989e-05
3572 3584 -5.06124e-06
3573 3584 -0.0025641
3574 3584 0
3580 3584 -0.0105263
3581 3584 0
3582 3584 -3.37416e-06
3583 3584 0
3584 3584 0.0131417
3651 3584 0
3652 3584 0
3654 3584 0
4446 3584 0
4447 3584 0
4448 3584 0
4449 3584 0
4450 3584 0
4451 3584 0
4461 3584 0
4499 3584 0
4500 3584 -7.08573e-06
4506 3584 0
4509 3584 -3.57142e-05
3585 3585 0.00634458
3586 3585 -0.0037037
3595 3585 -1.0966e-05
3653 3585 -0.0025641
4506 3585 -1.98556e-06
4509 3585 -6.38235e-05
3585 3586 -0.0037037
3586 3586 0.00867492
3595 3586 0
3653 3586 0
4441 3586 -2.95239e-06
4442 3586 -0.00492611
4506 3586 -1.98556e-06
4509 3586 -4.01719e-05
3587 3587 1
3588 3588 1
3589 3589 1
3590 3590 1
3589 3591 -1
3590 3591 -1
3591 3591 0.00662326
3592 3591 -0.0037037
4477 3591 -0.000231922
4500 3591 -0.00244891
4509 3591 -0.000238728
3591 3592 -0.0037037
3592 3592 0.0142994
3593 3592 -7.17008e-06
3653 3592 -0.0105263
3654 3592 -7.17008e-06
4450 3592 -2.10885e-06
4477 3592 0
4500 3592 -9.02587e-06
4509 3592 -4.39484e-05
3592 3593 -7.17008e-06
3593 3593 0.00966885
3594 3593 -0.00561798
3653 3593 0
3654 3593 0
4450 3593 0
4477 3593 -0.004
4500 3593 -6.20326e-06
4509 3593 -3.74986e-05
3593 3594 -0.00561798
3594 3594 0.00830474
3595 3594 -0.00263158
3653 3594 -3.37416e-06
3654 3594 0
4450 3594 0
4477 3594 0
4500 3594 -1.98556e-06
4509 3594 -4.98207e-05
3585 3595 -1.0966e-05
3586 3595 0
3594 3595 -0.00263158
3595 3595 0.00641466
3650 3595 -6.32655e-06
3653 3595 0
3654 3595 0
4441 3595 -0.0037037
4442 3595 0
4450 3595 0
4477 3595 0
4500 3595 0
4506 3595 -1.98556e-06
4509 3595 -6.00989e-05
3596 3596 1
3597 3597 1
3598 3598 1
3599 3599 1
3600 3600 1
3601 3601 1
3602 3602 1
3603 3603 1
3598 3604 -1
3599 3604 -1
3600 3604 -1
3604 3604 0.0116524
3605 3604 -0.0113636
4463 3604 -8.24722e-06
4509 3604 -0.000280487
3601 3605 -1
3602 3605 -1
3603 3605 -1
3604 3605 -0.0113636
3605 3605 0.018589
3649 3605 -2.10885e-06
3650 3605 -0.0070922
4441 3605 -3.79593e-06
4463 3605 0
4502 3605 -2.35542e-06
4506 3605 -2.99132e-06
4509 3605 -0.000121879
3606 3606 1
3607 3607 1
3608 3608 1
3609 3609 1
3610 3610 1
3611 3611 1
3612 3612 1
3613 3613 1
3614 3614 1
3615 3615 1
3616 3616 1
3617 3617 1
3618 3618 1
3619 3619 1
3620 3620 1
3610 3621 -1
3611 3621 -1
3612 3621 -1
3613 3621 -1
3614 3621 -1
3621 3621 0.00262854
3622 3621 -4.94093e-05
3623 3621 -1.45433e-05
3628 3621 -0.000607221
4509 3621 -0.00195736
3618 3622 -1
3619 3622 -1
3620 3622 -1
3621 3622 -4.94093e-05
3622 3622 0.00649126
3623 3622 0
3625 3622 -0.000842224
3627 3622 -0.00416863
3628 3622 -6.28709e-05
4509 3622 -0.00136812
3621 3623 0.000136255
3622 3623 0
3623 3623 0.00568123
3625 3623 0
3627 3623 0
3628 3623 0
4502 3623 -0.00552486
4509 3623 -0.000292623
3624 3624 0.00220827
3625 3624 -1.65548e-05
3627 3624 -0.00209205
3628 3624 -1.65548e-05
4502 3624 -8.38348e-06
4509 3624 -7.47309e-05
3606 3625 -1
3607 3625 -1
3608 3625 -1
3609 3625 -1
3622 3625 -0.000845218
3623 3625 0
3624 3625 -2.76e-06
3625 3625 0.00255572
3626 3625 -3.06427e-05
3627 3625 -1.9661e-06
3628 3625 -5.81735e-05
4502 3625 -8.01362e-06
4509 3625 -0.00160894
3625 3626 -2.7459e-05
3626 3626 0.00444311
3627 3626 0
3628 3626 0
4502 3626 -1.9661e-06
4506 3626 -0.00436681
4509 3626 -4.68748e-05
3622 3627 -0.00416863
3623 3627 0
3624 3627 -0.00209205
3625 3627 -1.9661e-06
3626 3627 0
3627 3627 0.00994678
3628 3627 0
3651 3627 -0.00363636
4502 3627 -1.23157e-05
4506 3627 -5.56087e-06
4509 3627 -2.98872e-05
3615 3628 -1
3616 3628 -1
3617 3628 -1
3621 3628 -0.000538281
3622 3628 -5.57428e-05
3623 3628 0
3624 3628 -1.65548e-05
3625 3628 -7.04901e-05
3626 3628 0
3627 3628 0
3628 3628 0.00366855
3651 3628 0
3652 3628 -0.00229885
4502 3628 0
4506 3628 -1.98556e-06
4509 3628 -0.000686644
3629 3629 1
3630 3630 1
3629 3631 -1
3630 3631 -1
3631 3631 0.00220604
3648 3631 -0.00192308
4446 3631 -4.2177e-06
4463 3631 -8.24722e-06
4502 3631 -2.08938e-06
4506 3631 -2.75772e-06
4509 3631 -0.000265647
3632 3632 0.00256246
3633 3632 -0.000596608
3648 3632 -0.00214133
3650 3632 -1.95312e-06
3652 3632 0.000218918
4461 3632 -6.39792e-06
4506 3632 -2.92646e-05
4509 3632 -5.82691e-06
3632 3633 -0.000301312
3633 3633 0.0043823
3648 3633 0
3649 3633 -0.00225225
3650 3633 -0.00012358
3652 3633 -0.000350593
4461 3633 0
4502 3633 -3.13407e-06
4506 3633 -0.00132236
4509 3633 -2.90697e-05
3634 3634 1
3635 3635 1
3636 3636 1
3637 3637 1
3638 3638 1
3639 3639 1
3640 3640 1
3641 3641 1
3636 3642 -1
3637 3642 -1
3642 3642 0.00760699
3643 3642 -1.01225e-05
3645 3642 -0.000123728
3649 3642 -0.00704225
4509 3642 -0.000430886
3638 3643 -1
3639 3643 -1
3640 3643 -1
3641 3643 -1
3642 3643 -1.01225e-05
3643 3643 0.00320342
3644 3643 -0.000894662
3645 3643 -6.54159e-06
3646 3643 -0.000532328
3649 3643 0
4463 3643 -4.82245e-05
4509 3643 -0.00171154
3643 3644 -0.0013984
3644 3644 0.00874739
3645 3644 -2.51115e-06
3646 3644 0.000349499
3649 3644 0
4462 3644 -0.00763359
4463 3644 -2.86154e-06
4509 3644 -5.95372e-05
3642 3645 -0.000123728
3643 3645 -0.000130898
3644 3645 -2.51115e-06
3645 3645 0.00474047
3646 3645 0
3649 3645 0
4445 3645 -0.00436681
4462 3645 -5.61927e-06
4463 3645 -1.06805e-05
4509 3645 -0.000100225
3634 3646 -1
3635 3646 -1
3643 3646 -1.22469e-05
3644 3646 -0.000123728
3645 3646 0
3646 3646 0.00201534
3647 3646 -0.00139082
3649 3646 0
3651 3646 -3.80242e-06
4445 3646 0
4462 3646 0
4463 3646 0
4502 3646 -2.08938e-06
4506 3646 -3.4066e-06
4509 3646 -0.000479242
3646 3647 -0.00139082
3647 3647 0.00313731
3648 3647 -0.000308816
3649 3647 0
3650 3647 -5.82044e-05
3651 3647 -0.000218029
4445 3647 0
4462 3647 0
4463 3647 0
4502 3647 -2.08938e-06
4506 3647 -0.0011046
4509 3647 -5.47457e-05
3631 3648 -0.00192308
3632 3648 -0.00214133
3633 3648 0
3647 3648 -0.000497191
3648 3648 0.00526119
3649 3648 0
3650 3648 -3.06919e-06
3651 3648 9.21283e-05
3652 3648 0
4445 3648 0
4446 3648 0
4461 3648 -1.1271e-05
4462 3648 0
4463 3648 0
4502 3648 -2.08938e-06
4506 3648 -0.000710053
4509 3648 -6.5238e-05
3605 3649 -2.10885e-06
3633 3649 -0.00225225
3642 3649 -0.00704225
3643 3649 0
3644 3649 0
3645 3649 0
3646 3649 0
3647 3649 0
3648 3649 0
3649 3649 0.00936798
3650 3649 0
3651 3649 0
3652 3649 -2.08938e-06
4441 3649 0
4445 3649 0
4446 3649 0
4461 3649 0
4462 3649 0
4463 3649 0
4502 3649 -3.13407e-06
4506 3649 -6.74183e-06
4509 3649 -5.94046e-05
3595 3650 -6.32655e-06
3596 3650 -1
3597 3650 -1
3605 3650 -0.0070922
3632 3650 -1.95312e-06
3633 3650 4.60643e-07
3647 3650 0.000111095
3648 3650 -3.06919e-06
3649 3650 0
3650 3650 0.00925
3651 3650 0
3652 3650 -8.83121e-06
3653 3650 0
3654 3650 0
4441 3650 0
4442 3650 0
4445 3650 0
4446 3650 0
4450 3650 0
4461 3650 -6.32655e-06
4462 3650 0
4463 3650 0
4477 3650 0
4500 3650 0
4502 3650 -2.35542e-06
4506 3650 -0.0021268
4509 3650 -0.000113693
3572 3651 -1.65547e-05
3584 3651 0
3627 3651 -0.00363636
3628 3651 0
3646 3651 -3.80242e-06
3647 3651 -1.51284e-05
3648 3651 -7.82221e-05
3649 3651 0
3650 3651 0
3651 3651 0.0042839
3652 3651 0
3653 3651 0
3654 3651 0
4441 3651 0
4442 3651 0
4445 3651 0
4446 3651 0
4447 3651 0
4448 3651 0
4449 3651 0
4450 3651 0
4451 3651 0
4461 3651 0
4462 3651 0
4463 3651 0
4477 3651 0
4499 3651 0
4500 3651 0
4502 3651 0
4506 3651 -0.000429105
4509 3651 -0.000104723
3560 3652 -6.3167e-05
3571 3652 0
3572 3652 -6.97542e-06
3584 3652 0
3628 3652 -0.00229885
3632 3652 -5.82042e-05
3633 3652 -1.44074e-05
3648 3652 0
3649 3652 -2.08938e-06
3650 3652 -8.83121e-06
3651 3652 0
3652 3652 0.00320127
3653 3652 0
3654 3652 0
4441 3652 0
4442 3652 0
4445 3652 0
4446 3652 0
4447 3652 0
4448 3652 0
4449 3652 0
4450 3652 0
4451 3652 0
4461 3652 -1.13618e-05
4462 3652 0
4463 3652 0
4477 3652 0
4499 3652 0
4500 3652 0
4502 3652 0
4506 3652 -0.000594971
4509 3652 -0.000142412
3548 3653 -5.06124e-06
3549 3653 0
3550 3653 0
3585 3653 -0.0025641
3586 3653 0
3592 3653 -0.0105263
3593 3653 0
3594 3653 -3.37416e-06
3595 3653 0
3650 3653 0
3651 3653 0
3652 3653 0
3653 3653 0.0131417
3654 3653 0
4437 3653 0
4438 3653 0
4439 3653 0
4440 3653 0
4441 3653 0
4442 3653 0
4443 3653 0
4444 3653 0
4445 3653 0
4446 3653 0
4447 3653 0
4448 3653 0
4449 3653 0
4450 3653 0
4451 3653 0
4461 3653 0
4462 3653 0
4463 3653 0
4477 3653 0
4497 3653 0
4499 3653 0
4500 3653 -7.08573e-06
4502 3653 0
4506 3653 0
4509 3653 -3.57142e-05
3506 3654 -3.38941e-05
3507 3654 -0.000151439
3550 3654 -1.86228e-05
3570 3654 -0.00613497
3571 3654 0
3572 3654 0
3584 3654 0
3592 3654 -7.17008e-06
3593 3654 0
3594 3654 0
3595 3654 0
3650 3654 0
3651 3654 0
3652 3654 0
3653 3654 0
3654 3654 0.00668557
4437 3654 0
4438 3654 0
4439 3654 0
4440 3654 0
4441 3654 0
4442 3654 0
4443 3654 0
4444 3654 0
4445 3654 0
4446 3654 0
4447 3654 0
4448 3654 0
4449 3654 0
4450 3654 0
4451 3654 0
4461 3654 0
4462 3654 0
4463 3654 0
4477 3654 0
4497 3654 0
4499 3654 0
4500 3654 -0.00013666
4502 3654 0
4506 3654 0
4509 3654 -0.000202816
3655 3655 0.0329541
3656 3655 -0.0277778
4441 3655 -0.00512821
4442 3655 -5.48301e-06
4463 3655 -2.86154e-06
4509 3655 -3.97437e-05
3655 3656 -0.0277778
3656 3656 0.0405101
3679 3656 -0.0126582
4441 3656 0
4442 3656 0
4462 3656 -1.15176e-05
4463 3656 -5.81393e-06
4509 3656 -5.68026e-05
3657 3657 1
3658 3658 1
3659 3659 1
3660 3660 1
3659 3661 -1
3660 3661 -1
3661 3661 0.0220849
3676 3661 -0.0105263
3677 3661 -0.0105263
3678 3661 -9.8155e-05
3679 3661 -8.63271e-05
4465 3661 -4.19823e-06
4478 3661 -2.99392e-05
4479 3661 -7.05329e-06
4487 3661 -4.19823e-06
4506 3661 -0.000449221
4509 3661 -0.000353168
3662 3662 1
3663 3663 1
3664 3664 1
3665 3665 1
3664 3666 -1
3665 3666 -1
3666 3666 0.0220897
3675 3666 -0.0105263
3678 3666 -9.76491e-05
3679 3666 -8.60186e-05
4445 3666 -0.0105425
4458 3666 -2.85051e-05
4459 3666 -3.25736e-06
4506 3666 -0.000453101
4509 3666 -0.000352341
3667 3667 1
3668 3668 1
3669 3669 1
3670 3670 1
3671 3671 1
3672 3672 1
3669 3673 -1
3670 3673 -1
3673 3673 0.0220834
3674 3673 -0.0105263
3676 3673 -0.0105263
3678 3673 -9.81551e-05
3679 3673 -8.65087e-05
4460 3673 -2.95498e-05
4465 3673 -1.42234e-05
4506 3673 -0.000450142
4509 3673 -0.000352191
3671 3674 -1
3672 3674 -1
3673 3674 -0.0105263
3674 3674 0.0220825
3675 3674 -0.0105263
3676 3674 0
3678 3674 -9.81552e-05
3679 3674 -8.65989e-05
4460 3674 -6.20975e-06
4464 3674 -2.8596e-05
4465 3674 -8.01362e-06
4506 3674 -0.000450605
4509 3674 -0.000351705
3662 3675 -1
3663 3675 -1
3666 3675 -0.0105263
3674 3675 -0.0105263
3675 3675 0.0220866
3676 3675 0
3678 3675 -9.81552e-05
3679 3675 -8.66885e-05
4445 3675 0
4458 3675 -3.25736e-06
4459 3675 -2.93357e-05
4460 3675 0
4464 3675 -6.20975e-06
4465 3675 -8.01362e-06
4506 3675 -0.00045107
4509 3675 -0.000351221
3661 3676 -0.0105263
3667 3676 -1
3668 3676 -1
3673 3676 -0.0105263
3674 3676 0
3675 3676 0
3676 3676 0.0220835
3677 3676 0
3678 3676 -9.81551e-05
3679 3676 -8.64182e-05
4445 3676 0
4458 3676 0
4459 3676 0
4460 3676 0
4464 3676 0
4465 3676 -3.35015e-05
4478 3676 -6.20975e-06
4479 3676 0
4487 3676 -4.19823e-06
4506 3676 -0.000449681
4509 3676 -0.000352678
3657 3677 -1
3658 3677 -1
3661 3677 -0.0105263
3676 3677 0
3677 3677 0.0223403
3678 3677 -9.85311e-05
3679 3677 -8.59827e-05
3763 3677 -0.0104167
4445 3677 0
4458 3677 -1.28997e-05
4459 3677 -2.10236e-05
4460 3677 -1.40871e-05
4464 3677 -1.40871e-05
4465 3677 -1.82853e-05
4478 3677 -1.40871e-05
4479 3677 -6.36742e-05
4487 3677 -4.19823e-06
4506 3677 -0.000445935
4509 3677 -0.000604528
3661 3678 -9.81555e-05
3666 3678 -9.76494e-05
3673 3678 -9.81555e-05
3674 3678 -9.81555e-05
3675 3678 -9.81555e-05
3676 3678 -9.81555e-05
3677 3678 -9.85319e-05
3678 3678 0.0126844
3679 3678 0
3763 3678 -2.51245e-05
4442 3678 -0.00740741
4445 3678 -1.6741e-05
4458 3678 -8.49898e-05
4459 3678 -9.16992e-05
4460 3678 -9.16992e-05
4462 3678 -1.0674e-05
4464 3678 -9.16992e-05
4465 3678 -9.56055e-05
4478 3678 -9.16992e-05
4479 3678 -9.16992e-05
4487 3678 0
4506 3678 -0.00383729
4509 3678 -6.10852e-05
3656 3679 -0.0126582
3661 3679 -9.37399e-05
3666 3679 -9.29807e-05
3673 3679 -9.37399e-05
3674 3679 -9.37399e-05
3675 3679 -9.37399e-05
3676 3679 -9.37399e-05
3677 3679 -9.34869e-05
3678 3679 0
3679 3679 0.0171353
3763 3679 -1.44829e-05
4441 3679 0
4442 3679 0
4445 3679 -2.1653e-05
4458 3679 -8.19304e-05
4459 3679 -8.83672e-05
4460 3679 -8.83672e-05
4462 3679 -3.9257e-06
4463 3679 0
4464 3679 -8.83672e-05
4465 3679 -9.03204e-05
4478 3679 -8.83672e-05
4479 3679 -8.83672e-05
4487 3679 0
4506 3679 0
4509 3679 -0.0031678
3680 3680 1
3681 3681 1
3682 3682 1
3683 3683 1
3682 3684 -1
3683 3684 -1
3684 3684 0.0220892
3696 3684 -0.0105263
3697 3684 -8.52896e-05
3761 3684 -9.76493e-05
3763 3684 -0.0105425
4458 3684 -2.85051e-05
4459 3684 -3.25736e-06
4506 3684 -0.00044941
4509 3684 -0.00035626
3685 3685 1
3686 3686 1
3687 3687 1
3688 3688 1
3689 3689 1
3690 3690 1
3691 3691 1
3692 3692 1
3689 3693 -1
3690 3693 -1
3693 3693 0.0220827
3694 3693 -0.0105263
3697 3693 -8.56711e-05
3761 3693 -9.81554e-05
4465 3693 -2.93033e-05
4467 3693 -0.0105263
4478 3693 -1.42234e-05
4506 3693 -0.000446039
4509 3693 -0.000356671
3691 3694 -1
3692 3694 -1
3693 3694 -0.0105263
3694 3694 0.022083
3695 3694 -0.0105263
3697 3694 -8.57663e-05
3761 3694 -9.81554e-05
4460 3694 -2.95498e-05
4465 3694 -6.20975e-06
4467 3694 0
4478 3694 -8.01362e-06
4506 3694 -0.000446488
4509 3694 -0.000356165
3685 3695 -1
3686 3695 -1
3694 3695 -0.0105263
3695 3695 0.0220821
3696 3695 -0.0105263
3697 3695 -8.5861e-05
3761 3695 -9.81554e-05
4460 3695 -6.20975e-06
4464 3695 -2.8596e-05
4465 3695 0
4467 3695 0
4478 3695 -8.01362e-06
4506 3695 -0.000446939
4509 3695 -0.00035566
3680 3696 -1
3681 3696 -1
3684 3696 -0.0105263
3695 3696 -0.0105263
3696 3696 0.0220861
3697 3696 -8.59551e-05
3761 3696 -9.81554e-05
3763 3696 0
4458 3696 -3.25736e-06
4459 3696 -2.93357e-05
4460 3696 0
4464 3696 -6.20975e-06
4465 3696 0
4467 3696 0
4478 3696 -8.01362e-06
4506 3696 -0.000447392
4509 3696 -0.000355158
3684 3697 -9.29807e-05
3693 3697 -9.37399e-05
3694 3697 -9.37399e-05
3695 3697 -9.37399e-05
3696 3697 -9.37399e-05
3697 3697 0.0166731
3761 3697 0
3762 3697 -0.0121951
3763 3697 -2.1653e-05
4435 3697 -1.44829e-05
4458 3697 -8.19304e-05
4459 3697 -8.83672e-05
4460 3697 -8.83672e-05
4462 3697 -3.52989e-06
4464 3697 -8.83672e-05
4465 3697 -8.83672e-05
4467 3697 -9.37399e-05
4468 3697 -9.34869e-05
4478 3697 -9.11574e-05
4479 3697 -8.83672e-05
4506 3697 0
4509 3697 -0.00316822
3698 3698 1
3699 3699 1
3698 3700 -1
3699 3700 -1
3700 3700 0.00220604
3712 3700 -4.2177e-06
4436 3700 -0.00192308
4463 3700 -8.24722e-06
4502 3700 -2.08938e-06
4506 3700 -2.75772e-06
4509 3700 -0.000265647
3701 3701 1
3702 3702 1
3703 3703 1
3704 3704 1
3705 3705 1
3706 3706 1
3701 3707 -1
3702 3707 -1
3703 3707 -1
3707 3707 0.0116524
3760 3707 -0.0113636
4463 3707 -8.24722e-06
4509 3707 -0.000280487
3708 3708 0.0329541
3709 3708 -0.00512821
3712 3708 -5.48301e-06
3762 3708 -0.0277778
4463 3708 -2.86154e-06
4509 3708 -3.97437e-05
3708 3709 -0.00512821
3709 3709 0.00887867
3710 3709 -2.95239e-06
3712 3709 0
3760 3709 -3.79593e-06
3762 3709 0
4438 3709 -0.0037037
4463 3709 0
4506 3709 -1.98556e-06
4509 3709 -3.80242e-05
3709 3710 -2.95239e-06
3710 3710 0.00867492
3711 3710 -0.0037037
3712 3710 -0.00492611
3760 3710 0
3762 3710 0
4438 3710 0
4463 3710 0
4506 3710 -1.98556e-06
4509 3710 -4.01719e-05
3710 3711 -0.0037037
3711 3711 0.00634458
3712 3711 0
3760 3711 0
3762 3711 0
4437 3711 -0.0025641
4438 3711 -1.0966e-05
4463 3711 0
4506 3711 -1.98556e-06
4509 3711 -6.38235e-05
3700 3712 -4.2177e-06
3708 3712 -5.48301e-06
3709 3712 0
3710 3712 -0.00492611
3711 3712 0
3712 3712 0.0125786
3760 3712 0
3761 3712 -0.00757576
3762 3712 0
4436 3712 0
4437 3712 0
4438 3712 0
4462 3712 -3.9257e-06
4463 3712 -4.56809e-06
4502 3712 0
4506 3712 0
4509 3712 -5.85222e-05
3713 3713 1
3714 3714 1
3715 3715 1
3716 3716 1
3717 3717 1
3718 3718 1
3719 3719 1
3720 3720 1
3715 3721 -1
3716 3721 -1
3721 3721 0.00760699
3722 3721 -1.01225e-05
3724 3721 -0.000123728
3758 3721 -0.00704225
4509 3721 -0.000430886
3717 3722 -1
3718 3722 -1
3719 3722 -1
3720 3722 -1
3721 3722 -1.01225e-05
3722 3722 0.00320235
3723 3722 -0.000892683
3724 3722 -7.53264e-06
3758 3722 0
3759 3722 -0.000532323
4463 3722 -4.82245e-05
4509 3722 -0.00171147
3722 3723 -0.00139641
3723 3723 0.00905545
3724 3723 -2.51115e-06
3758 3723 0
3759 3723 0.000349495
4462 3723 -0.00793651
4463 3723 -5.34025e-06
4509 3723 -6.41701e-05
3721 3724 -0.000123728
3722 3724 -0.000130898
3723 3724 -2.51115e-06
3724 3724 0.00314381
3758 3724 0
3759 3724 0
3761 3724 -3.25736e-06
3762 3724 -3.25736e-06
3763 3724 -0.0027248
4435 3724 -1.47165e-05
4462 3724 -3.9257e-06
4463 3724 -5.34025e-06
4509 3724 -0.000131379
3725 3725 1
3726 3726 1
3725 3727 -1
3726 3727 -1
3727 3727 0.00220604
3757 3727 -0.00192308
4442 3727 -4.2177e-06
4463 3727 -8.24722e-06
4502 3727 -2.08938e-06
4506 3727 -2.75772e-06
4509 3727 -0.000265647
3728 3728 1
3729 3729 1
3730 3730 1
3731 3731 1
3732 3732 1
3733 3733 1
3734 3734 1
3735 3735 1
3736 3736 1
3737 3737 1
3738 3738 1
3739 3739 1
3740 3740 1
3741 3741 1
3742 3742 1
3732 3743 -1
3733 3743 -1
3734 3743 -1
3735 3743 -1
3736 3743 -1
3743 3743 0.00262854
3744 3743 -4.94093e-05
3745 3743 -1.45433e-05
3750 3743 -0.000607221
4509 3743 -0.00195736
3740 3744 -1
3741 3744 -1
3742 3744 -1
3743 3744 -4.94093e-05
3744 3744 0.00649126
3745 3744 0
3747 3744 -0.000842225
3749 3744 -0.00416863
3750 3744 -6.28709e-05
4509 3744 -0.00136812
3743 3745 0.000136255
3744 3745 0
3745 3745 0.00568123
3747 3745 0
3749 3745 0
3750 3745 0
4502 3745 -0.00552486
4509 3745 -0.000292623
3746 3746 0.00220827
3747 3746 -1.65548e-05
3749 3746 -0.00209205
3750 3746 -1.65548e-05
4502 3746 -8.38348e-06
4509 3746 -7.47309e-05
3728 3747 -1
3729 3747 -1
3730 3747 -1
3731 3747 -1
3744 3747 -0.000845218
3745 3747 0
3746 3747 -2.76e-06
3747 3747 0.00255572
3748 3747 -3.06427e-05
3749 3747 -1.9661e-06
3750 3747 -5.81735e-05
4502 3747 -8.01362e-06
4509 3747 -0.00160894
3747 3748 -2.7459e-05
3748 3748 0.00444311
3749 3748 0
3750 3748 0
4502 3748 -1.9661e-06
4506 3748 -0.00436681
4509 3748 -4.68748e-05
3744 3749 -0.00416863
3745 3749 0
3746 3749 -0.00209205
3747 3749 -1.9661e-06
3748 3749 0
3749 3749 0.00994678
3750 3749 0
4444 3749 -0.00363636
4502 3749 -1.23157e-05
4506 3749 -5.56087e-06
4509 3749 -2.98872e-05
3737 3750 -1
3738 3750 -1
3739 3750 -1
3743 3750 -0.000538281
3744 3750 -5.57428e-05
3745 3750 0
3746 3750 -1.65548e-05
3747 3750 -7.04901e-05
3748 3750 0
3749 3750 0
3750 3750 0.00366855
4439 3750 -0.00229885
4444 3750 0
4502 3750 0
4506 3750 -1.98556e-06
4509 3750 -0.000686644
3751 3751 1
3752 3752 1
3753 3753 0.00256246
3754 3753 -0.000596609
3755 3753 -1.95312e-06
3757 3753 -0.00214133
4439 3753 0.000218919
4461 3753 -6.39792e-06
4506 3753 -2.92646e-05
4509 3753 -5.82691e-06
3753 3754 -0.000301312
3754 3754 0.00438231
3755 3754 -0.000123584
3757 3754 0
3758 3754 -0.00225225
4439 3754 -0.000350594
4461 3754 0
4502 3754 -3.13407e-06
4506 3754 -0.00132236
4509 3754 -2.90697e-05
3751 3755 -1
3752 3755 -1
3753 3755 -1.95312e-06
3754 3755 4.55629e-07
3755 3755 0.00925
3756 3755 0.000111095
3757 3755 -3.06919e-06
3758 3755 0
3760 3755 -0.0070922
4438 3755 -6.32655e-06
4439 3755 -8.83121e-06
4461 3755 -6.32655e-06
4502 3755 -2.35542e-06
4506 3755 -0.0021268
4509 3755 -0.000113693
3755 3756 -5.82044e-05
3756 3756 0.00313731
3757 3756 -0.000308816
3758 3756 0
3759 3756 -0.00139082
3760 3756 0
4438 3756 0
4439 3756 0
4444 3756 -0.00021803
4461 3756 0
4502 3756 -2.08938e-06
4506 3756 -0.0011046
4509 3756 -5.47457e-05
3727 3757 -0.00192308
3753 3757 -0.00214133
3754 3757 0
3755 3757 -3.06919e-06
3756 3757 -0.000497191
3757 3757 0.00526119
3758 3757 0
3759 3757 0
3760 3757 0
4438 3757 0
4439 3757 0
4442 3757 0
4444 3757 9.21291e-05
4461 3757 -1.1271e-05
4463 3757 0
4502 3757 -2.08938e-06
4506 3757 -0.000710053
4509 3757 -6.5238e-05
3721 3758 -0.00704225
3722 3758 0
3723 3758 0
3724 3758 0
3754 3758 -0.00225225
3755 3758 0
3756 3758 0
3757 3758 0
3758 3758 0.00936798
3759 3758 0
3760 3758 -2.10885e-06
3761 3758 0
3762 3758 0
3763 3758 0
4435 3758 0
4438 3758 0
4439 3758 -2.08938e-06
4442 3758 0
4444 3758 0
4461 3758 0
4462 3758 0
4463 3758 0
4502 3758 -3.13407e-06
4506 3758 -6.74183e-06
4509 3758 -5.94046e-05
3713 3759 -1
3714 3759 -1
3722 3759 -1.22469e-05
3723 3759 -0.000123728
3724 3759 0
3756 3759 -0.00139082
3757 3759 0
3758 3759 0
3759 3759 0.00201534
3760 3759 0
3761 3759 0
3762 3759 0
3763 3759 0
4435 3759 0
4438 3759 0
4439 3759 0
4442 3759 0
4444 3759 -3.80242e-06
4461 3759 0
4462 3759 0
4463 3759 0
4502 3759 -2.08938e-06
4506 3759 -3.4066e-06
4509 3759 -0.000479242
3704 3760 -1
3705 3760 -1
3706 3760 -1
3707 3760 -0.0113636
3709 3760 -3.79593e-06
3710 3760 0
3711 3760 0
3712 3760 0
3755 3760 -0.0070922
3756 3760 0
3757 3760 0
3758 3760 -2.10885e-06
3759 3760 0
3760 3760 0.018589
3761 3760 0
3762 3760 0
3763 3760 0
4435 3760 0
4436 3760 0
4437 3760 0
4438 3760 0
4439 3760 0
4442 3760 0
4444 3760 0
4461 3760 0
4462 3760 0
4463 3760 0
4502 3760 -2.35542e-06
4506 3760 -2.99132e-06
4509 3760 -0.000121879
3684 3761 -9.76494e-05
3693 3761 -9.81555e-05
3694 3761 -9.81555e-05
3695 3761 -9.81555e-05
3696 3761 -9.81555e-05
3697 3761 0
3712 3761 -0.00757576
3724 3761 -3.25736e-06
3758 3761 0
3759 3761 0
3760 3761 0
3761 3761 0.012863
3762 3761 0
3763 3761 -1.99984e-05
4435 3761 -2.72333e-05
4436 3761 0
4437 3761 0
4438 3761 0
4439 3761 0
4442 3761 0
4444 3761 0
4458 3761 -8.49898e-05
4459 3761 -9.16992e-05
4460 3761 -9.16992e-05
4461 3761 0
4462 3761 -1.10958e-05
4463 3761 0
4464 3761 -9.16992e-05
4465 3761 -9.16992e-05
4467 3761 -9.81555e-05
4468 3761 -9.85319e-05
4478 3761 -9.67215e-05
4479 3761 -9.16992e-05
4502 3761 0
4506 3761 -0.00383707
4509 3761 -6.14681e-05
3697 3762 -0.0121951
3708 3762 -0.0277778
3709 3762 0
3710 3762 0
3711 3762 0
3712 3762 0
3724 3762 -3.25736e-06
3758 3762 0
3759 3762 0
3760 3762 0
3761 3762 0
3762 3762 0.0400544
3763 3762 -3.25736e-06
4435 3762 0
4436 3762 0
4437 3762 0
4438 3762 0
4439 3762 0
4442 3762 0
4444 3762 0
4458 3762 0
4459 3762 0
4460 3762 0
4461 3762 0
4462 3762 -1.32306e-05
4463 3762 -5.81393e-06
4464 3762 0
4465 3762 0
4467 3762 0
4468 3762 0
4478 3762 0
4479 3762 0
4502 3762 0
4506 3762 0
4509 3762 -5.58942e-05
3677 3763 -0.0104167
3678 3763 -2.51245e-05
3679 3763 -1.44829e-05
3684 3763 -0.0105425
3696 3763 0
3697 3763 -2.1653e-05
3724 3763 -0.0027248
3758 3763 0
3759 3763 0
3760 3763 0
3761 3763 -1.99984e-05
3762 3763 -3.25736e-06
3763 3763 0.10151
4435 3763 -0.0384788
4436 3763 0
4437 3763 0
4438 3763 0
4439 3763 0
4441 3763 0
4442 3763 0
4444 3763 0
4445 3763 -0.0384641
4458 3763 -3.30083e-05
4459 3763 -2.95823e-05
4460 3763 -1.40871e-05
4461 3763 0
4462 3763 -3.9257e-06
4463 3763 0
4464 3763 -1.40871e-05
4465 3763 -1.40871e-05
4467 3763 0
4468 3763 0
4478 3763 -1.40871e-05
4479 3763 -1.40676e-05
4487 3763 0
4502 3763 0
4506 3763 -1.71303e-05
4509 3763 -0.000644496
3764 3764 1
3765 3765 1
3766 3766 1
3767 3767 1
3768 3768 1
3769 3769 1
3766 3770 -1
3767 3770 -1
3770 3770 0.0220837
3771 3770 -0.0105263
4432 3770 -9.81555e-05
4434 3770 -8.47847e-05
4474 3770 -0.0105263
4478 3770 -2.99392e-05
4479 3770 -1.50669e-05
4506 3770 -0.000444089
4509 3770 -0.000359075
3768 3771 -1
3769 3771 -1
3770 3771 -0.0105263
3771 3771 0.0220823
3781 3771 -0.0105263
4432 3771 -9.81555e-05
4434 3771 -8.48856e-05
4465 3771 -2.93033e-05
4474 3771 0
4478 3771 -6.20975e-06
4479 3771 -8.01362e-06
4506 3771 -0.000444524
4509 3771 -0.000358547
3772 3772 1
3773 3773 1
3774 3774 1
3775 3775 1
3774 3776 -1
3775 3776 -1
3776 3776 0.0220889
3780 3776 -0.0105263
4432 3776 -9.76494e-05
4434 3776 -8.4524e-05
4435 3776 -0.0105425
4458 3776 -2.85051e-05
4459 3776 -3.25736e-06
4506 3776 -0.000445817
4509 3776 -0.000360328
3777 3777 1
3778 3778 1
3777 3779 -1
3778 3779 -1
3779 3779 0.0220818
3780 3779 -0.0105263
3781 3779 -0.0105263
4432 3779 -9.81555e-05
4434 3779 -8.50855e-05
4460 3779 -6.20975e-06
4464 3779 -2.8596e-05
4479 3779 -8.01362e-06
4506 3779 -0.000445641
4509 3779 -0.000357497
3772 3780 -1
3773 3780 -1
3776 3780 -0.0105263
3779 3780 -0.0105263
3780 3780 0.0220858
3781 3780 0
4432 3780 -9.81555e-05
4434 3780 -8.51846e-05
4435 3780 0
4458 3780 -3.25736e-06
4459 3780 -2.93357e-05
4460 3780 0
4464 3780 -6.20975e-06
4479 3780 -8.01362e-06
4506 3780 -0.000446082
4509 3780 -0.000356975
3764 3781 -1
3765 3781 -1
3771 3781 -0.0105263
3779 3781 -0.0105263
3780 3781 0
3781 3781 0.0220828
4432 3781 -9.81555e-05
4434 3781 -8.49858e-05
4435 3781 0
4458 3781 0
4459 3781 0
4460 3781 -2.95498e-05
4464 3781 0
4465 3781 -6.20975e-06
4474 3781 0
4478 3781 0
4479 3781 -8.01362e-06
4506 3781 -0.000445202
4509 3781 -0.000358021
3782 3782 1
3783 3783 1
3784 3784 1
3785 3785 1
3784 3786 -1
3785 3786 -1
3786 3786 0.0254954
3787 3786 -0.0105263
3803 3786 -0.000259062
4429 3786 -0.000277309
4430 3786 -0.0105425
4458 3786 -0.00303537
4459 3786 -3.25736e-06
4506 3786 -0.000459272
4509 3786 -0.000392247
3782 3787 -1
3783 3787 -1
3786 3787 -0.0105263
3787 3787 0.0255084
3802 3787 -0.0105263
3803 3787 -0.000257921
4429 3787 -0.000289541
4430 3787 0
4458 3787 -3.25736e-06
4459 3787 -0.00304788
4464 3787 -6.20975e-06
4506 3787 -0.00046477
4509 3787 -0.000386215
3788 3788 1
3789 3789 1
3790 3790 1
3791 3791 1
3792 3792 1
3793 3793 1
3790 3794 -1
3791 3794 -1
3794 3794 0.0255353
3800 3794 -0.0105263
3801 3794 -0.0105263
3803 3794 -0.000257255
4429 3794 -0.000287814
4478 3794 -0.00307721
4479 3794 -7.05329e-06
4506 3794 -0.000461605
4509 3794 -0.000391686
3795 3795 1
3796 3796 1
3797 3797 1
3798 3798 1
3795 3799 -1
3796 3799 -1
3799 3799 0.0255277
3800 3799 -0.0105263
3802 3799 -0.0105263
3803 3799 -0.00025636
4429 3799 -0.000296221
4460 3799 -0.00306528
4465 3799 -6.20975e-06
4506 3799 -0.000466411
4509 3799 -0.000384552
3792 3800 -1
3793 3800 -1
3794 3800 -0.0105263
3799 3800 -0.0105263
3800 3800 0.0255335
3801 3800 0
3802 3800 0
3803 3800 -0.000256501
4429 3800 -0.000294273
4460 3800 0
4465 3800 -0.00307206
4478 3800 -6.20975e-06
4479 3800 0
4506 3800 -0.000464898
4509 3800 -0.000386886
3788 3801 -1
3789 3801 -1
3794 3801 -0.0105263
3800 3801 0
3801 3801 0.0257764
3802 3801 0
3803 3801 -0.000258455
4429 3801 -0.00027298
4458 3801 -1.28997e-05
4459 3801 -2.10236e-05
4460 3801 -1.40871e-05
4464 3801 -1.40871e-05
4465 3801 -1.40871e-05
4478 3801 -1.40871e-05
4479 3801 -0.00310848
4490 3801 -0.0104167
4506 3801 -0.000452934
4509 3801 -0.000650316
3787 3802 -0.0105263
3797 3802 -1
3798 3802 -1
3799 3802 -0.0105263
3800 3802 0
3801 3802 0
3802 3802 0.0255173
3803 3802 -0.000256812
4429 3802 -0.000294808
4430 3802 0
4458 3802 0
4459 3802 0
4460 3802 -6.20975e-06
4464 3802 -0.00305622
4465 3802 0
4478 3802 0
4479 3802 0
4490 3802 0
4506 3802 -0.000466359
4509 3802 -0.000384309
3786 3803 -0.000485448
3787 3803 -0.00041066
3794 3803 -0.000406709
3799 3803 -0.000356625
3800 3803 -0.000368217
3801 3803 -0.000478396
3802 3803 -0.000369863
3803 3803 0.0264338
4429 3803 -2.23213e-06
4430 3803 -2.1653e-05
4431 3803 -0.0217391
4458 3803 -2.10434e-05
4459 3803 -0.000103324
4460 3803 -0.000157496
4464 3803 -0.00014423
4465 3803 -0.000145881
4478 3803 -0.000107291
4479 3803 -3.50859e-05
4490 3803 -1.44829e-05
4506 3803 0
4509 3803 -0.00106605
3804 3804 1
3805 3805 1
3806 3806 1
3807 3807 1
3806 3808 -1
3807 3808 -1
3808 3808 0.0220888
3809 3808 -0.0105263
3825 3808 -8.37177e-05
4428 3808 -9.76494e-05
4433 3808 -0.0105425
4458 3808 -2.85051e-05
4459 3808 -3.25736e-06
4506 3808 -0.000442318
4509 3808 -0.000364557
3804 3809 -1
3805 3809 -1
3808 3809 -0.0105263
3809 3809 0.0220816
3824 3809 -0.0105263
3825 3809 -8.4373e-05
4428 3809 -9.81555e-05
4433 3809 0
4458 3809 -3.25736e-06
4459 3809 -2.93357e-05
4464 3809 -6.20975e-06
4506 3809 -0.000443081
4509 3809 -0.000364604
3810 3810 1
3811 3811 1
3812 3812 1
3813 3813 1
3814 3814 1
3815 3815 1
3812 3816 -1
3813 3816 -1
3816 3816 0.0220797
3822 3816 -0.0105263
3823 3816 -0.0105263
3825 3816 -8.39509e-05
4428 3816 -9.81555e-05
4478 3816 -2.99392e-05
4479 3816 -7.05329e-06
4506 3816 -0.000441133
4509 3816 -0.00036679
3817 3817 1
3818 3818 1
3819 3819 1
3820 3820 1
3817 3821 -1
3818 3821 -1
3821 3821 0.0220784
3822 3821 -0.0105263
3824 3821 -0.0105263
3825 3821 -8.41632e-05
4428 3821 -9.81555e-05
4460 3821 -2.95498e-05
4465 3821 -6.20975e-06
4506 3821 -0.000441983
4509 3821 -0.000365693
3814 3822 -1
3815 3822 -1
3816 3822 -0.0105263
3821 3822 -0.0105263
3822 3822 0.0220782
3823 3822 0
3824 3822 0
3825 3822 -8.40574e-05
4428 3822 -9.81555e-05
4460 3822 0
4465 3822 -2.93033e-05
4478 3822 -6.20975e-06
4479 3822 0
4506 3822 -0.000441557
4509 3822 -0.00036624
3810 3823 -1
3811 3823 -1
3816 3823 -0.0105263
3822 3823 0
3823 3823 0.0223347
3824 3823 0
3825 3823 -8.35907e-05
4428 3823 -9.85319e-05
4430 3823 -0.0104167
4458 3823 -1.28997e-05
4459 3823 -2.10236e-05
4460 3823 -1.40871e-05
4464 3823 -1.40871e-05
4465 3823 -1.40871e-05
4478 3823 -1.40871e-05
4479 3823 -6.36742e-05
4506 3823 -0.000437881
4509 3823 -0.000617724
3809 3824 -0.0105263
3819 3824 -1
3820 3824 -1
3821 3824 -0.0105263
3822 3824 0
3823 3824 0
3824 3824 0.0220774
3825 3824 -8.42684e-05
4428 3824 -9.81555e-05
4430 3824 0
4433 3824 0
4458 3824 0
4459 3824 0
4460 3824 -6.20975e-06
4464 3824 -2.8596e-05
4465 3824 0
4478 3824 0
4479 3824 0
4506 3824 -0.000442411
4509 3824 -0.000365147
3808 3825 -9.29807e-05
3809 3825 -9.37399e-05
3816 3825 -9.37399e-05
3821 3825 -9.37399e-05
3822 3825 -9.37399e-05
3823 3825 -9.34869e-05
3824 3825 -9.37399e-05
3825 3825 0.0253002
4427 3825 -0.0208333
4428 3825 -2.23213e-06
4430 3825 -1.44829e-05
4433 3825 -2.1653e-05
4458 3825 -8.19304e-05
4459 3825 -8.83672e-05
4460 3825 -8.83672e-05
4462 3825 -3.9257e-06
4464 3825 -8.83672e-05
4465 3825 -8.83672e-05
4478 3825 -8.83672e-05
4479 3825 -8.83672e-05
4506 3825 0
4509 3825 -0.00315727
3826 3826 1
3827 3827 1
3828 3828 1
3829 3829 1
3830 3830 1
3831 3831 1
3832 3832 1
3833 3833 1
3826 3834 -1
3827 3834 -1
3828 3834 -1
3834 3834 0.00603866
3846 3834 -0.00012422
3867 3834 -0.00249881
4461 3834 -0.000122284
4509 3834 -0.00329335
3835 3835 1
3836 3836 1
3837 3837 1
3838 3838 1
3839 3839 1
3840 3840 1
3841 3841 1
3842 3842 1
3838 3843 -1
3839 3843 -1
3840 3843 -1
3843 3843 0.00344935
3844 3843 -2.34999e-05
3845 3843 -7.19097e-12
4461 3843 -0.000122589
4509 3843 -0.00330326
3841 3844 -1
3842 3844 -1
3843 3844 -3.28883e-05
3844 3844 0.00197634
3845 3844 -4.25306e-05
3846 3844 -3.91281e-05
3925 3844 -6.16133e-05
4461 3844 -3.3482e-06
4500 3844 -0.000297639
4509 3844 -0.00149919
3835 3845 -1
3836 3845 -1
3837 3845 -1
3843 3845 -2.52009e-14
3844 3845 -4.25306e-05
3845 3845 0.00650003
3846 3845 -1.93365e-06
3867 3845 -0.00020308
3925 3845 0
4443 3845 -0.00444444
4461 3845 0
4500 3845 -0.00125364
4509 3845 -0.000554404
3829 3846 -1
3830 3846 -1
3834 3846 -0.000126991
3844 3846 -3.86141e-05
3845 3846 -1.93365e-06
3846 3846 0.00151863
3867 3846 -0.000128677
3925 3846 -6.97542e-06
3926 3846 -1.65548e-05
4437 3846 -5.06124e-06
4443 3846 0
4461 3846 -1.92651e-05
4500 3846 -0.000865897
4509 3846 -0.000308657
3847 3847 0.00830474
3866 3847 -0.00561798
3924 3847 -0.00263158
3927 3847 -3.37416e-06
4500 3847 -1.98556e-06
4509 3847 -4.98207e-05
3848 3848 1
3849 3849 1
3850 3850 1
3851 3851 1
3850 3852 -1
3851 3852 -1
3852 3852 0.00662416
3853 3852 -0.0037037
4486 3852 -0.000231913
4500 3852 -0.00244982
4509 3852 -0.000238728
3852 3853 -0.0037037
3853 3853 0.0143052
3866 3853 -8.85716e-06
3927 3853 -0.0105263
4443 3853 -8.85716e-06
4486 3853 0
4500 3853 -9.02587e-06
4509 3853 -4.84581e-05
3854 3854 1
3855 3855 1
3856 3856 1
3857 3857 1
3858 3858 1
3859 3859 1
3860 3860 1
3861 3861 1
3859 3862 -1
3860 3862 -1
3861 3862 -1
3862 3862 0.00347887
3863 3862 -0.00253541
4426 3862 -2.8441e-05
4440 3862 -0.000125865
4509 3862 -0.000789149
3856 3863 -1
3857 3863 -1
3858 3863 -1
3862 3863 -0.00253541
3863 3863 0.0034733
3864 3863 -8.21928e-12
3865 3863 -1.65259e-05
4426 3863 0
4440 3863 -0.000125864
4509 3863 -0.000795494
3854 3864 -1
3855 3864 -1
3863 3864 -2.56745e-14
3864 3864 0.00495453
3865 3864 -0.000149295
4426 3864 -0.000106362
4440 3864 -2.51955e-05
4486 3864 -0.000311316
4500 3864 -0.0038951
4509 3864 -0.000467257
3863 3865 -3.38941e-05
3864 3865 -0.000151439
3865 3865 0.00242532
3866 3865 -2.08938e-06
3867 3865 -0.00191205
4426 3865 0
4440 3865 -1.29451e-05
4486 3865 0
4500 3865 -0.000141021
4509 3865 -0.000171882
3847 3866 -0.00561798
3853 3866 -8.85716e-06
3865 3866 -2.08938e-06
3866 3866 0.00968015
3867 3866 -2.08938e-06
3924 3866 0
3927 3866 0
4426 3866 0
4440 3866 0
4443 3866 0
4486 3866 -0.004
4500 3866 -8.73388e-06
4509 3866 -4.0399e-05
3831 3867 -1
3832 3867 -1
3833 3867 -1
3834 3867 -0.00249593
3845 3867 -0.000202796
3846 3867 -0.000127276
3865 3867 -0.00191205
3866 3867 -2.08938e-06
3867 3867 0.00759053
3924 3867 0
3925 3867 0
3926 3867 0
3927 3867 0
4426 3867 0
4437 3867 0
4440 3867 -7.08573e-06
4443 3867 0
4461 3867 0
4486 3867 0
4500 3867 -0.00039047
4509 3867 -0.00245283
3868 3868 1
3869 3869 1
3870 3870 1
3871 3871 1
3872 3872 1
3873 3873 1
3874 3874 1
3875 3875 1
3876 3876 1
3877 3877 1
3878 3878 1
3879 3879 1
3880 3880 1
3881 3881 1
3882 3882 1
3872 3883 -1
3873 3883 -1
3874 3883 -1
3875 3883 -1
3876 3883 -1
3883 3883 0.00262854
3884 3883 -4.94093e-05
3885 3883 -1.45433e-05
3890 3883 -0.000607222
4509 3883 -0.00195736
3880 3884 -1
3881 3884 -1
3882 3884 -1
3883 3884 -4.94093e-05
3884 3884 0.00649126
3885 3884 0
3887 3884 -0.000842225
3889 3884 -0.00416863
3890 3884 -6.28709e-05
4509 3884 -0.00136812
3883 3885 0.000136255
3884 3885 0
3885 3885 0.00568123
3887 3885 0
3889 3885 0
3890 3885 0
4502 3885 -0.00552486
4509 3885 -0.000292623
3886 3886 0.00220827
3887 3886 -1.65548e-05
3889 3886 -0.00209205
3890 3886 -1.65548e-05
4502 3886 -8.38348e-06
4509 3886 -7.47309e-05
3868 3887 -1
3869 3887 -1
3870 3887 -1
3871 3887 -1
3884 3887 -0.000845218
3885 3887 0
3886 3887 -2.75999e-06
3887 3887 0.00255572
3888 3887 -3.06427e-05
3889 3887 -1.9661e-06
3890 3887 -5.81735e-05
4502 3887 -8.01362e-06
4509 3887 -0.00160894
3887 3888 -2.7459e-05
3888 3888 0.00444311
3889 3888 0
3890 3888 0
4502 3888 -1.9661e-06
4506 3888 -0.00436681
4509 3888 -4.68748e-05
3884 3889 -0.00416863
3885 3889 0
3886 3889 -0.00209205
3887 3889 -1.9661e-06
3888 3889 0
3889 3889 0.00994678
3890 3889 0
3926 3889 -0.00363636
4502 3889 -1.23157e-05
4506 3889 -5.56087e-06
4509 3889 -2.98872e-05
3877 3890 -1
3878 3890 -1
3879 3890 -1
3883 3890 -0.000538282
3884 3890 -5.57428e-05
3885 3890 0
3886 3890 -1.65548e-05
3887 3890 -7.04902e-05
3888 3890 0
3889 3890 0
3890 3890 0.00366855
3925 3890 -0.00229885
3926 3890 0
4502 3890 0
4506 3890 -1.98556e-06
4509 3890 -0.000686644
3891 3891 1
3892 3892 1
3893 3893 0.00256246
3894 3893 -0.00059661
3895 3893 -1.95312e-06
3925 3893 0.00021892
4436 3893 -0.00214133
4461 3893 -6.39792e-06
4506 3893 -2.92646e-05
4509 3893 -5.82691e-06
3893 3894 -0.000301312
3894 3894 0.00438232
3895 3894 -0.000123587
3922 3894 -0.00225225
3925 3894 -0.000350596
4436 3894 0
4461 3894 0
4502 3894 -3.13407e-06
4506 3894 -0.00132237
4509 3894 -2.90697e-05
3891 3895 -1
3892 3895 -1
3893 3895 -1.95312e-06
3894 3895 4.50798e-07
3895 3895 0.00925
3896 3895 0.000111095
3922 3895 0
3923 3895 -0.0070922
3924 3895 -6.32655e-06
3925 3895 -8.83121e-06
4436 3895 -3.06919e-06
4461 3895 -6.32655e-06
4502 3895 -2.35542e-06
4506 3895 -0.00212679
4509 3895 -0.000113693
3895 3896 -5.82044e-05
3896 3896 0.00313731
3921 3896 -0.00139082
3922 3896 0
3923 3896 0
3924 3896 0
3925 3896 0
3926 3896 -0.000218031
4436 3896 -0.000308816
4461 3896 0
4502 3896 -2.08938e-06
4506 3896 -0.0011046
4509 3896 -5.47457e-05
3897 3897 1
3898 3898 1
3899 3899 1
3900 3900 1
3901 3901 1
3902 3902 1
3897 3903 -1
3898 3903 -1
3899 3903 -1
3903 3903 0.0116524
3923 3903 -0.0113636
4463 3903 -8.24722e-06
4509 3903 -0.000280487
3904 3904 0.0329541
3905 3904 -0.00512821
3920 3904 -0.0277778
4424 3904 -5.48301e-06
4463 3904 -2.86154e-06
4509 3904 -3.97437e-05
3904 3905 -0.00512821
3905 3905 0.00887867
3906 3905 -2.95239e-06
3920 3905 0
3923 3905 -3.79593e-06
3924 3905 -0.0037037
4424 3905 0
4463 3905 0
4506 3905 -1.98556e-06
4509 3905 -3.80242e-05
3905 3906 -2.95239e-06
3906 3906 0.00867492
3907 3906 -0.0037037
3920 3906 0
3923 3906 0
3924 3906 0
4424 3906 -0.00492611
4463 3906 0
4506 3906 -1.98556e-06
4509 3906 -4.01719e-05
3906 3907 -0.0037037
3907 3907 0.00634458
3920 3907 0
3923 3907 0
3924 3907 -1.0966e-05
3927 3907 -0.0025641
4424 3907 0
4463 3907 0
4506 3907 -1.98556e-06
4509 3907 -6.38235e-05
3908 3908 1
3909 3909 1
3910 3910 1
3911 3911 1
3912 3912 1
3913 3913 1
3914 3914 1
3915 3915 1
3910 3916 -1
3911 3916 -1
3916 3916 0.00760699
3917 3916 -1.01225e-05
3919 3916 -0.000123728
3922 3916 -0.00704225
4509 3916 -0.000430886
3912 3917 -1
3913 3917 -1
3914 3917 -1
3915 3917 -1
3916 3917 -1.01225e-05
3917 3917 0.00320235
3918 3917 -0.000892683
3919 3917 -8.64929e-06
3921 3917 -0.000532319
3922 3917 0
4463 3917 -4.82245e-05
4509 3917 -0.00171035
3917 3918 -0.00139641
3918 3918 0.00847261
3919 3918 -2.51115e-06
3921 3918 0.000349491
3922 3918 0
4462 3918 -0.00735294
4463 3918 -5.34025e-06
4509 3918 -6.49034e-05
3916 3919 -0.000123728
3917 3919 -0.000130898
3918 3919 -2.51115e-06
3919 3919 0.0033446
3920 3919 -3.25736e-06
3921 3919 0
3922 3919 0
4432 3919 -3.25736e-06
4433 3919 -1.47165e-05
4435 3919 -0.00292398
4462 3919 -3.9257e-06
4463 3919 -5.34025e-06
4509 3919 -0.000132986
3904 3920 -0.0277778
3905 3920 0
3906 3920 0
3907 3920 0
3919 3920 -3.25736e-06
3920 3920 0.0365587
3921 3920 0
3922 3920 0
3923 3920 0
3924 3920 0
3927 3920 0
4424 3920 0
4432 3920 0
4433 3920 0
4434 3920 -0.00869565
4435 3920 -3.25736e-06
4462 3920 -1.36524e-05
4463 3920 -6.2357e-06
4506 3920 0
4509 3920 -5.8879e-05
3896 3921 -0.00139082
3908 3921 -1
3909 3921 -1
3917 3921 -1.22469e-05
3918 3921 -0.000123728
3919 3921 0
3920 3921 0
3921 3921 0.00201534
3922 3921 0
3923 3921 0
3924 3921 0
3925 3921 0
3926 3921 -3.80242e-06
3927 3921 0
4424 3921 0
4432 3921 0
4433 3921 0
4434 3921 0
4435 3921 0
4436 3921 0
4461 3921 0
4462 3921 0
4463 3921 0
4502 3921 -2.08938e-06
4506 3921 -3.4066e-06
4509 3921 -0.000479242
3894 3922 -0.00225225
3895 3922 0
3896 3922 0
3916 3922 -0.00704225
3917 3922 0
3918 3922 0
3919 3922 0
3920 3922 0
3921 3922 0
3922 3922 0.00936798
3923 3922 -2.10885e-06
3924 3922 0
3925 3922 -2.08938e-06
3926 3922 0
3927 3922 0
4424 3922 0
4432 3922 0
4433 3922 0
4434 3922 0
4435 3922 0
4436 3922 0
4461 3922 0
4462 3922 0
4463 3922 0
4502 3922 -3.13407e-06
4506 3922 -6.74183e-06
4509 3922 -5.94046e-05
3895 3923 -0.0070922
3896 3923 0
3900 3923 -1
3901 3923 -1
3902 3923 -1
3903 3923 -0.0113636
3905 3923 -3.79593e-06
3906 3923 0
3907 3923 0
3920 3923 0
3921 3923 0
3922 3923 -2.10885e-06
3923 3923 0.018589
3924 3923 0
3925 3923 0
3926 3923 0
3927 3923 0
4424 3923 0
4432 3923 0
4433 3923 0
4434 3923 0
4435 3923 0
4436 3923 0
4461 3923 0
4462 3923 0
4463 3923 0
4502 3923 -2.35542e-06
4506 3923 -2.99132e-06
4509 3923 -0.000121879
3847 3924 -0.00263158
3866 3924 0
3867 3924 0
3895 3924 -6.32655e-06
3896 3924 0
3905 3924 -0.0037037
3906 3924 0
3907 3924 -1.0966e-05
3920 3924 0
3921 3924 0
3922 3924 0
3923 3924 0
3924 3924 0.00641466
3925 3924 0
3926 3924 0
3927 3924 0
4424 3924 0
4426 3924 0
4432 3924 0
4433 3924 0
4434 3924 0
4435 3924 0
4436 3924 0
4437 3924 0
4440 3924 0
4443 3924 0
4461 3924 0
4462 3924 0
4463 3924 0
4486 3924 0
4500 3924 0
4502 3924 0
4506 3924 -1.98556e-06
4509 3924 -6.00989e-05
3844 3925 -6.3167e-05
3845 3925 0
3846 3925 -6.97542e-06
3867 3925 0
3890 3925 -0.00229885
3893 3925 -5.82042e-05
3894 3925 -1.44075e-05
3895 3925 -8.83121e-06
3896 3925 0
3921 3925 0
3922 3925 -2.08938e-06
3923 3925 0
3924 3925 0
3925 3925 0.00320127
3926 3925 0
3927 3925 0
4424 3925 0
4426 3925 0
4432 3925 0
4433 3925 0
4434 3925 0
4435 3925 0
4436 3925 0
4437 3925 0
4440 3925 0
4443 3925 0
4461 3925 -1.13618e-05
4462 3925 0
4463 3925 0
4486 3925 0
4500 3925 0
4502 3925 0
4506 3925 -0.000594971
4509 3925 -0.000142412
3846 3926 -1.65547e-05
3867 3926 0
3889 3926 -0.00363636
3890 3926 0
3896 3926 -1.51284e-05
3921 3926 -3.80242e-06
3922 3926 0
3923 3926 0
3924 3926 0
3925 3926 0
3926 3926 0.0042839
3927 3926 0
4424 3926 0
4426 3926 0
4432 3926 0
4433 3926 0
4434 3926 0
4435 3926 0
4436 3926 -7.82221e-05
4437 3926 0
4440 3926 0
4443 3926 0
4461 3926 0
4462 3926 0
4463 3926 0
4486 3926 0
4500 3926 0
4502 3926 0
4506 3926 -0.000429105
4509 3926 -0.000104723
3847 3927 -3.37416e-06
3853 3927 -0.0105263
3866 3927 0
3867 3927 0
3907 3927 -0.0025641
3920 3927 0
3921 3927 0
3922 3927 0
3923 3927 0
3924 3927 0
3925 3927 0
3926 3927 0
3927 3927 0.0131417
4424 3927 0
4425 3927 -5.06124e-06
4426 3927 0
4432 3927 0
4433 3927 0
4434 3927 0
4435 3927 0
4436 3927 0
4437 3927 0
4440 3927 0
4443 3927 0
4461 3927 0
4462 3927 0
4463 3927 0
4486 3927 0
4500 3927 -7.08573e-06
4502 3927 0
4506 3927 0
4509 3927 -3.57142e-05
3928 3928 1
3929 3929 1
3930 3930 1
3931 3931 1
3932 3932 1
3933 3933 1
3934 3934 1
3935 3935 1
3930 3936 -1
3931 3936 -1
3936 3936 0.0076086
3937 3936 -1.01225e-05
3939 3936 -0.000123728
4318 3936 -0.00704225
4509 3936 -0.000432499
3932 3937 -1
3933 3937 -1
3934 3937 -1
3935 3937 -1
3936 3937 -1.01225e-05
3937 3937 0.00320274
3938 3937 -0.000892683
3939 3937 -1.21435e-05
4317 3937 -0.000532424
4318 3937 0
4463 3937 -4.82245e-05
4509 3937 -0.00170714
3937 3938 -0.00139651
3938 3938 0.00571293
3939 3938 -2.79017e-06
4317 3938 0.000349591
4318 3938 0
4462 3938 -0.00458716
4463 3938 -4.56809e-06
4509 3938 -7.15022e-05
3936 3939 -0.000123728
3937 3939 -0.000131689
3938 3939 -2.79017e-06
3939 3939 0.00392539
4317 3939 0
4318 3939 0
4429 3939 -3.25736e-06
4430 3939 -0.0034965
4431 3939 -3.25736e-06
4462 3939 0
4463 3939 -5.34025e-06
4490 3939 -1.47165e-05
4509 3939 -0.000144108
3940 3940 1
3941 3941 1
3942 3942 1
3943 3943 1
3944 3944 1
3945 3945 1
3940 3946 -1
3941 3946 -1
3942 3946 -1
3946 3946 0.0116544
3961 3946 -0.0113636
4431 3946 -2.53062e-06
4463 3946 -8.24722e-06
4509 3946 -0.000280008
3947 3947 0.00956724
3960 3947 -0.00512821
4429 3947 -0.00436967
4431 3947 -3.79593e-06
4509 3947 -6.5569e-05
3948 3948 1
3949 3949 1
3948 3950 -1
3949 3950 -1
3950 3950 0.00713651
3959 3950 -0.0037037
4498 3950 -0.000161235
4500 3950 -0.000504742
4509 3950 -0.00276683
3951 3951 0.0131536
3958 3951 -0.00909091
3959 3951 -1.05442e-05
4498 3951 -0.004
4500 3951 -8.31211e-06
4509 3951 -4.38835e-05
3952 3952 1
3953 3953 1
3954 3954 0.00625958
3955 3954 -0.00263158
3958 3954 -3.37416e-06
3959 3954 -0.00357143
4509 3954 -5.31949e-05
3954 3955 -0.00263158
3955 3955 0.0064143
3956 3955 -9.7007e-06
3958 3955 0
3959 3955 0
3960 3955 -0.0037037
4509 3955 -6.9313e-05
3955 3956 -9.7007e-06
3956 3956 0.00635043
3957 3956 -0.0037037
3958 3956 -0.0025641
3959 3956 0
3960 3956 0
4316 3956 -5.06124e-06
4506 3956 -1.98556e-06
4509 3956 -6.58739e-05
3956 3957 -0.0037037
3957 3957 0.0086771
3958 3957 0
3959 3957 0
3960 3957 -2.95239e-06
3961 3957 -3.37416e-06
4316 3957 0
4431 3957 -0.00492611
4506 3957 -1.98556e-06
4509 3957 -3.89715e-05
3951 3958 -0.00909091
3954 3958 -3.37416e-06
3955 3958 0
3956 3958 -0.0025641
3957 3958 0
3958 3958 0.0117071
3959 3958 0
3960 3958 0
3961 3958 0
4316 3958 0
4431 3958 0
4498 3958 0
4500 3958 -1.98556e-06
4506 3958 0
4509 3958 -4.67126e-05
3950 3959 -0.0037037
3951 3959 -1.05442e-05
3954 3959 -0.00357143
3955 3959 0
3956 3959 0
3957 3959 0
3958 3959 0
3959 3959 0.00735682
3960 3959 0
3961 3959 0
4316 3959 0
4426 3959 -7.17008e-06
4431 3959 0
4498 3959 0
4500 3959 -5.2559e-06
4506 3959 0
4509 3959 -5.87168e-05
3947 3960 -0.00512821
3955 3960 -0.0037037
3956 3960 0
3957 3960 -2.95239e-06
3958 3960 0
3959 3960 0
3960 3960 0.0088769
3961 3960 0
4316 3960 0
4426 3960 0
4429 3960 0
4431 3960 0
4498 3960 0
4500 3960 0
4502 3960 -3.79593e-06
4506 3960 0
4509 3960 -3.82448e-05
3943 3961 -1
3944 3961 -1
3945 3961 -1
3946 3961 -0.0113636
3957 3961 -3.37416e-06
3958 3961 0
3959 3961 0
3960 3961 0
3961 3961 0.018589
4316 3961 -0.0070922
4318 3961 -2.10885e-06
4426 3961 0
4429 3961 0
4431 3961 0
4463 3961 0
4498 3961 0
4500 3961 0
4502 3961 -2.35542e-06
4506 3961 -2.99132e-06
4509 3961 -0.000122359
3962 3962 1
3963 3963 1
3964 3964 1
3965 3965 1
3966 3966 1
3967 3967 1
3968 3968 1
3969 3969 1
3965 3970 -1
3966 3970 -1
3967 3970 -1
3970 3970 0.00603719
3971 3970 -0.000122637
4282 3970 -0.00249956
4461 3970 -0.000122272
4509 3970 -0.00329271
3968 3971 -1
3969 3971 -1
3970 3971 -0.000125482
3971 3971 0.001434
4282 3971 -0.000134943
4283 3971 -3.86311e-05
4315 3971 -1.65548e-05
4461 3971 -3.3482e-06
4500 3971 -0.000876107
4509 3971 -0.00023893
3972 3972 1
3973 3973 1
3974 3974 1
3975 3975 1
3976 3976 1
3977 3977 1
3978 3978 1
3979 3979 1
3972 3980 -1
3973 3980 -1
3974 3980 -1
3980 3980 0.00345091
4281 3980 -7.22159e-12
4283 3980 -2.50167e-05
4461 3980 -0.000122591
4509 3980 -0.00330331
3981 3981 1
3982 3982 1
3983 3983 1
3984 3984 1
3985 3985 1
3986 3986 1
3987 3987 1
3988 3988 1
3989 3989 1
3990 3990 1
3991 3991 1
3992 3992 1
3993 3993 1
3994 3994 1
3995 3995 1
3996 3996 1
3997 3997 1
3998 3998 1
3999 3999 1
4000 4000 1
4001 4001 1
4002 4002 1
4003 4003 1
4004 4004 1
4005 4005 1
4006 4006 1
4007 4007 1
4008 4008 1
4009 4009 1
4010 4010 1
4011 4011 1
4012 4012 1
4013 4013 1
4014 4014 1
4015 4015 1
4016 4016 1
4017 4017 1
4018 4018 1
4019 4019 1
4020 4020 1
4021 4021 1
4022 4022 1
4023 4023 1
4024 4024 1
4025 4025 1
4026 4026 1
4027 4027 1
4028 4028 1
4029 4029 1
4030 4030 1
4031 4031 1
4032 4032 1
4033 4033 1
4034 4034 1
4035 4035 1
4036 4036 1
4037 4037 1
4038 4038 1
4039 4039 1
4040 4040 1
4041 4041 1
4042 4042 1
4043 4043 1
4044 4044 1
4045 4045 1
4046 4046 1
4047 4047 1
4048 4048 1
4049 4049 1
4050 4050 1
4051 4051 1
4052 4052 1
4053 4053 1
4054 4054 1
4055 4055 1
4056 4056 1
4057 4057 1
4058 4058 1
4059 4059 1
4060 4060 1
4061 4061 1
4062 4062 1
4063 4063 1
4064 4064 1
4065 4065 1
4066 4066 1
4067 4067 1
4068 4068 1
4069 4069 1
4070 4070 1
4071 4071 1
4072 4072 1
4073 4073 1
4074 4074 1
4075 4075 1
4076 4076 1
4077 4077 1
4078 4078 1
4079 4079 1
4080 4080 1
4081 4081 1
4082 4082 1
4083 4083 1
4084 4084 1
4085 4085 1
4086 4086 1
4087 4087 1
4088 4088 1
4089 4089 1
4090 4090 1
4091 4091 1
4092 4092 1
4093 4093 1
4094 4094 1
4095 4095 1
4096 4096 1
4097 4097 1
4098 4098 1
4099 4099 1
4100 4100 1
4101 4101 1
4102 4102 1
4103 4103 1
4104 4104 1
4105 4105 1
4106 4106 1
4107 4107 1
4108 4108 1
4109 4109 1
4110 4110 1
4111 4111 1
4112 4112 1
4113 4113 1
4114 4114 1
4115 4115 1
4116 4116 1
4117 4117 1
4118 4118 1
4119 4119 1
4120 4120 1
4121 4121 1
4122 4122 1
4123 4123 1
4124 4124 1
4125 4125 1
4126 4126 1
4127 4127 1
4128 4128 1
4129 4129 1
4130 4130 1
4131 4131 1
4132 4132 1
4133 4133 1
4134 4134 1
4135 4135 1
4136 4136 1
4137 4137 1
4138 4138 1
4139 4139 1
4140 4140 1
4141 4141 1
4142 4142 1
4143 4143 1
4144 4144 1
4145 4145 1
4146 4146 1
4147 4147 1
4148 4148 1
4149 4149 1
4150 4150 1
4151 4151 1
4152 4152 1
4153 4153 1
4154 4154 1
4155 4155 1
4156 4156 1
4157 4157 1
4158 4158 1
4159 4159 1
4160 4160 1
4161 4161 1
4162 4162 1
4163 4163 1
4164 4164 1
4165 4165 1
4166 4166 1
4167 4167 1
4168 4168 1
4169 4169 1
4170 4170 1
4171 4171 1
4172 4172 1
4173 4173 1
4174 4174 1
4175 4175 1
4176 4176 1
4177 4177 1
4178 4178 1
4179 4179 1
4180 4180 1
4181 4181 1
4182 4182 1
4183 4183 1
4184 4184 1
4185 4185 1
4186 4186 1
4187 4187 1
4188 4188 1
4189 4189 1
4190 4190 1
4191 4191 1
4192 4192 1
4193 4193 1
4194 4194 1
4195 4195 1
4196 4196 1
4197 4197 1
4198 4198 1
4199 4199 1
4200 4200 1
4201 4201 1
4202 4202 1
4203 4203 1
4204 4204 1
4205 4205 1
4206 4206 1
4207 4207 1
4208 4208 1
4209 4209 1
4210 4210 1
4211 4211 1
4212 4212 1
4213 4213 1
4214 4214 1
4215 4215 1
4216 4216 1
4217 4217 1
4218 4218 1
4219 4219 1
4220 4220 1
4221 4221 1
4222 4222 1
4223 4223 1
4224 4224 1
4225 4225 1
4226 4226 1
4227 4227 1
4228 4228 1
4229 4229 1
4230 4230 1
4231 4231 1
4232 4232 1
4233 4233 1
4234 4234 1
4235 4235 1
4236 4236 1
4237 4237 1
4238 4238 1
4239 4239 1
4240 4240 1
4241 4241 1
4242 4242 1
4243 4243 1
4244 4244 1
4245 4245 1
4246 4246 1
4247 4247 1
4248 4248 1
4249 4249 1
4250 4250 1
4251 4251 1
4252 4252 1
4253 4253 1
4254 4254 1
4255 4255 1
4256 4256 1
4257 4257 1
4258 4258 1
4259 4259 1
4260 4260 1
4261 4261 1
4262 4262 1
4263 4263 1
4264 4264 1
4265 4265 1
4266 4266 1
4267 4267 1
4268 4268 1
4269 4269 1
4270 4270 1
4271 4271 1
4272 4272 1
4273 4273 1
4274 4274 1
4272 4275 -1
4273 4275 -1
4274 4275 -1
4275 4275 0.00612975
4276 4275 -0.00253639
4277 4275 -0.000126151
4278 4275 -0.000126146
4509 4275 -0.00334106
4269 4276 -1
4270 4276 -1
4271 4276 -1
4275 4276 -0.00253638
4276 4276 0.00612415
4277 4276 0
4278 4276 -0.000126148
4279 4276 -0.0025364
4280 4276 -0.000126144
4509 4276 -0.000799077
4275 4277 -0.000129226
4276 4277 0
4277 4277 0.0110174
4278 4277 -4.74329e-06
4279 4277 -2.7149e-05
4280 4277 0
4500 4277 -0.010714
4509 4277 -0.00014222
4275 4278 -0.000129226
4276 4278 -0.000129226
4277 4278 -4.74329e-06
4278 4278 0.011253
4279 4278 -2.7149e-05
4280 4278 -5.58034e-06
4500 4278 -0.0109453
4509 4278 -1.17545e-05
4267 4279 -1
4268 4279 -1
4276 4279 -0.00253639
4277 4279 -2.7149e-05
4278 4279 -2.7149e-05
4279 4279 0.00514787
4280 4279 -0.000159435
4498 4279 -0.000346727
4500 4279 -0.00121796
4509 4279 -0.000833052
4276 4280 -0.000129226
4277 4280 0
4278 4280 -5.58034e-06
4279 4280 -0.000162513
4280 4280 0.00257314
4281 4280 -0.0020284
4498 4280 0
4500 4280 -0.000214439
4509 4280 -3.29793e-05
3977 4281 -1
3978 4281 -1
3979 4281 -1
3980 4281 -2.53067e-14
4280 4281 -0.0020284
4281 4281 0.00411864
4282 4281 -0.000203076
4283 4281 -3.62625e-05
4461 4281 0
4498 4281 0
4500 4281 -0.00127736
4509 4281 -0.000573543
3962 4282 -1
3963 4282 -1
3964 4282 -1
3970 4282 -0.00249669
3971 4282 -0.000133531
4281 4282 -0.000202805
4282 4282 0.0092422
4283 4282 -1.93365e-06
4315 4282 0
4426 4282 -0.00361011
4461 4282 0
4498 4282 0
4500 4282 -0.000364704
4509 4282 -0.00243243
3971 4283 -3.91267e-05
3975 4283 -1
3976 4283 -1
3980 4283 -3.44002e-05
4281 4283 -3.62625e-05
4282 4283 -1.93365e-06
4283 4283 0.00188423
4314 4283 -6.1784e-05
4315 4283 -6.97542e-06
4423 4283 -5.06124e-06
4426 4283 0
4461 4283 -1.92651e-05
4498 4283 0
4500 4283 -0.000288833
4509 4283 -0.00139059
4284 4284 1
4285 4285 1
4286 4286 1
4287 4287 1
4288 4288 1
4289 4289 1
4290 4290 1
4291 4291 1
4292 4292 1
4293 4293 1
4294 4294 1
4295 4295 1
4296 4296 1
4297 4297 1
4298 4298 1
4288 4299 -1
4289 4299 -1
4290 4299 -1
4291 4299 -1
4292 4299 -1
4299 4299 0.00248977
4300 4299 -0.000445446
4301 4299 -1.45433e-05
4306 4299 -3.85926e-05
4509 4299 -0.00199119
4296 4300 -1
4297 4300 -1
4298 4300 -1
4299 4300 -0.000402324
4300 4300 0.00531063
4301 4300 0
4303 4300 -1.9661e-06
4305 4300 -0.00416863
4306 4300 -1.65548e-05
4509 4300 -0.000721151
4299 4301 0.000135272
4300 4301 0
4301 4301 0.00568123
4303 4301 0
4305 4301 0
4306 4301 0
4502 4301 -0.00552486
4509 4301 -0.00029164
4302 4302 0.00224355
4303 4302 -0.000111743
4305 4302 -0.00209205
4306 4302 -1.43412e-05
4502 4302 -8.38348e-06
4509 4302 -1.70295e-05
4284 4303 -1
4285 4303 -1
4286 4303 -1
4287 4303 -1
4300 4303 -1.9661e-06
4301 4303 0
4302 4303 -6.10825e-05
4303 4303 0.00215113
4304 4303 -3.0079e-05
4305 4303 -1.9661e-06
4306 4303 -0.000566672
4502 4303 -8.01362e-06
4509 4303 -0.00148135
4303 4304 -1.92442e-05
4304 4304 0.00444309
4305 4304 0
4306 4304 0
4502 4304 -1.9661e-06
4506 4304 -0.00436681
4509 4304 -5.50651e-05
4300 4305 -0.00416863
4301 4305 0
4302 4305 -0.00209205
4303 4305 -1.9661e-06
4304 4305 0
4305 4305 0.00994678
4306 4305 0
4314 4305 -0.00363636
4502 4305 -1.23157e-05
4506 4305 -5.56087e-06
4509 4305 -2.98872e-05
4293 4306 -1
4294 4306 -1
4295 4306 -1
4299 4306 -3.85926e-05
4300 4306 -1.65548e-05
4301 4306 0
4302 4306 -6.08681e-05
4303 4306 -0.000531611
4304 4306 0
4305 4306 0
4306 4306 0.00417155
4314 4306 0
4315 4306 -0.00229885
4502 4306 0
4506 4306 -1.98556e-06
4509 4306 -0.00122309
4307 4307 1
4308 4308 1
4307 4309 -1
4308 4309 -1
4309 4309 0.00220581
4313 4309 -0.00192308
4422 4309 -4.2177e-06
4463 4309 -8.24722e-06
4502 4309 -2.08938e-06
4506 4309 -2.75772e-06
4509 4309 -0.000265422
4310 4310 0.0031303
4313 4310 -0.00030878
4314 4310 -0.000201861
4316 4310 -5.82044e-05
4317 4310 -0.00139082
4502 4310 -2.08938e-06
4506 4310 -0.0011138
4509 4310 -5.47457e-05
4311 4311 0.0025623
4312 4311 -0.00062719
4313 4311 -0.00214133
4315 4311 0.000249501
4316 4311 -1.95312e-06
4461 4311 -6.39792e-06
4506 4311 -2.91073e-05
4509 4311 -5.82691e-06
4311 4312 -0.000301303
4312 4312 0.00426151
4313 4312 0
4315 4312 -0.000385189
4316 4312 -5.82045e-05
4318 4312 -0.00225225
4461 4312 0
4502 4312 -3.13407e-06
4506 4312 -0.00123236
4509 4312 -2.90697e-05
4309 4313 -0.00192308
4310 4313 -0.00048282
4311 4313 -0.00214133
4312 4313 0
4313 4313 0.00526126
4314 4313 7.77543e-05
4315 4313 0
4316 4313 -3.06919e-06
4317 4313 0
4318 4313 0
4422 4313 0
4461 4313 -1.1271e-05
4463 4313 0
4502 4313 -2.08938e-06
4506 4313 -0.000710121
4509 4313 -6.5238e-05
4283 4314 -6.3114e-05
4305 4314 -0.00363636
4306 4314 0
4310 4314 -1.51526e-05
4313 4314 -7.82221e-05
4314 4314 0.00443372
4315 4314 0
4316 4314 0
4317 4314 -3.80242e-06
4318 4314 0
4422 4314 0
4423 4314 0
4426 4314 0
4461 4314 0
4463 4314 0
4498 4314 0
4500 4314 0
4502 4314 0
4506 4314 -0.000538967
4509 4314 -9.81022e-05
3971 4315 -1.65126e-05
4282 4315 0
4283 4315 -6.97542e-06
4306 4315 -0.00229885
4311 4315 -5.82042e-05
4312 4315 -1.41279e-05
4313 4315 0
4314 4315 0
4315 4315 0.00297551
4316 4315 -8.83121e-06
4317 4315 0
4318 4315 -2.08938e-06
4422 4315 0
4423 4315 0
4426 4315 0
4461 4315 -1.05183e-05
4463 4315 0
4498 4315 0
4500 4315 0
4502 4315 0
4506 4315 -0.000447414
4509 4315 -0.000111982
3952 4316 -1
3953 4316 -1
3956 4316 -5.06124e-06
3957 4316 0
3958 4316 0
3959 4316 0
3960 4316 0
3961 4316 -0.0070922
4310 4316 0.000110887
4311 4316 -1.95312e-06
4312 4316 0.000108128
4313 4316 -3.06919e-06
4314 4316 0
4315 4316 -8.83121e-06
4316 4316 0.00919751
4317 4316 0
4318 4316 0
4422 4316 0
4423 4316 0
4426 4316 0
4429 4316 0
4431 4316 0
4461 4316 -5.90478e-06
4463 4316 0
4498 4316 0
4500 4316 0
4502 4316 -2.35542e-06
4506 4316 -0.00218274
4509 4316 -0.000114413
3928 4317 -1
3929 4317 -1
3937 4317 -1.2247e-05
3938 4317 -0.000123728
3939 4317 0
4310 4317 -0.00139082
4313 4317 0
4314 4317 -3.80242e-06
4315 4317 0
4316 4317 0
4317 4317 0.00201433
4318 4317 0
4422 4317 0
4423 4317 0
4426 4317 0
4429 4317 0
4430 4317 0
4431 4317 0
4461 4317 0
4462 4317 0
4463 4317 0
4490 4317 0
4498 4317 0
4500 4317 0
4502 4317 -2.08938e-06
4506 4317 -3.4066e-06
4509 4317 -0.00047824
3936 4318 -0.00704225
3937 4318 0
3938 4318 0
3939 4318 0
3961 4318 -2.10885e-06
4312 4318 -0.00225225
4313 4318 0
4314 4318 0
4315 4318 -2.08938e-06
4316 4318 0
4317 4318 0
4318 4318 0.00936821
4422 4318 0
4423 4318 0
4426 4318 0
4429 4318 0
4430 4318 0
4431 4318 0
4461 4318 0
4462 4318 0
4463 4318 0
4490 4318 0
4498 4318 0
4500 4318 0
4502 4318 -3.13407e-06
4506 4318 -6.74183e-06
4509 4318 -5.96253e-05
4319 4319 1
4320 4320 1
4321 4321 1
4322 4322 1
4321 4323 -1
4322 4323 -1
4323 4323 0.00662464
4324 4323 -0.0037037
4494 4323 -0.000231908
4500 4323 -0.0024503
4509 4323 -0.000238727
4323 4324 -0.0037037
4324 4324 0.0143088
4325 4324 -1.01225e-05
4423 4324 -0.0105263
4426 4324 -2.53062e-06
4440 4324 -8.85716e-06
4494 4324 0
4500 4324 -9.02587e-06
4509 4324 -4.8231e-05
4324 4325 -1.01225e-05
4325 4325 0.00967864
4326 4325 -0.00561798
4423 4325 0
4426 4325 0
4440 4325 0
4494 4325 -0.004
4500 4325 -7.89034e-06
4509 4325 -4.26506e-05
4325 4326 -0.00561798
4326 4326 0.00830474
4421 4326 -0.00263158
4423 4326 -3.37416e-06
4426 4326 0
4440 4326 0
4494 4326 0
4500 4326 -1.98556e-06
4509 4326 -4.98207e-05
4327 4327 1
4328 4328 1
4329 4329 1
4330 4330 1
4331 4331 1
4332 4332 1
4333 4333 1
4334 4334 1
4329 4335 -1
4330 4335 -1
4331 4335 -1
4335 4335 0.00082075
4336 4335 -5.70641e-12
4337 4335 -8.3272e-12
4338 4335 -1.587e-05
4426 4335 -2.88244e-05
4509 4335 -0.000776056
4332 4336 -1
4333 4336 -1
4334 4336 -1
4335 4336 -5.7345e-12
4336 4336 0.00347823
4337 4336 0
4338 4336 0
4426 4336 -2.64846e-05
4500 4336 -0.000126147
4509 4336 -0.00332559
4327 4337 -1
4328 4337 -1
4335 4337 -2.56145e-14
4336 4337 0
4337 4337 0.00495453
4338 4337 -0.000149295
4426 4337 -0.000106362
4494 4337 -0.000311317
4500 4337 -0.0039203
4509 4337 -0.000467256
4335 4338 -3.38941e-05
4336 4338 0
4337 4338 -0.000151439
4338 4338 0.00238116
4359 4338 -0.00186916
4426 4338 -1.34058e-05
4494 4338 0
4500 4338 -0.000140644
4509 4338 -0.000172621
4339 4339 1
4340 4340 1
4341 4341 1
4342 4342 1
4343 4343 1
4344 4344 1
4345 4345 1
4346 4346 1
4339 4347 -1
4340 4347 -1
4341 4347 -1
4347 4347 0.00603863
4359 4347 -0.00249875
4425 4347 -0.000124223
4461 4347 -0.000122284
4509 4347 -0.00329336
4348 4348 1
4349 4349 1
4350 4350 1
4351 4351 1
4352 4352 1
4353 4353 1
4354 4354 1
4355 4355 1
4351 4356 -1
4352 4356 -1
4353 4356 -1
4356 4356 0.00344935
4357 4356 -2.34999e-05
4358 4356 -7.19096e-12
4461 4356 -0.000122589
4509 4356 -0.00330326
4354 4357 -1
4355 4357 -1
4356 4357 -3.28883e-05
4357 4357 0.00197612
4358 4357 -4.25306e-05
4420 4357 -6.16133e-05
4425 4357 -3.91281e-05
4461 4357 -3.3482e-06
4500 4357 -0.000297418
4509 4357 -0.0014992
4348 4358 -1
4349 4358 -1
4350 4358 -1
4356 4358 -2.52009e-14
4357 4358 -4.25306e-05
4358 4358 0.0058584
4359 4358 -0.000203081
4420 4358 0
4425 4358 -1.93365e-06
4440 4358 -0.00380228
4461 4358 0
4500 4358 -0.00125368
4509 4358 -0.000554897
4338 4359 -0.00186916
4344 4359 -1
4345 4359 -1
4346 4359 -1
4347 4359 -0.00249588
4358 4359 -0.000202796
4359 4359 0.00754341
4420 4359 0
4425 4359 -0.000127276
4426 4359 -5.45056e-06
4440 4359 0
4461 4359 0
4494 4359 0
4500 4359 -0.000389821
4509 4359 -0.00245302
4360 4360 1
4361 4361 1
4362 4362 1
4363 4363 1
4364 4364 1
4365 4365 1
4366 4366 1
4367 4367 1
4362 4368 -1
4363 4368 -1
4368 4368 0.00760699
4369 4368 -1.01225e-05
4371 4368 -0.000123728
4418 4368 -0.00704225
4509 4368 -0.000430886
4364 4369 -1
4365 4369 -1
4366 4369 -1
4367 4369 -1
4368 4369 -1.01225e-05
4369 4369 0.00320234
4370 4369 -0.000892683
4371 4369 -9.91295e-06
4418 4369 0
4419 4369 -0.000532316
4463 4369 -4.82245e-05
4509 4369 -0.00170909
4369 4370 -0.00139641
4370 4370 0.00607178
4371 4370 -2.51115e-06
4418 4370 0
4419 4370 0.000349489
4462 4370 -0.00495049
4463 4370 -4.56809e-06
4509 4370 -6.72847e-05
4368 4371 -0.000123728
4369 4371 -0.000130898
4370 4371 -2.51115e-06
4371 4371 0.00340879
4418 4371 0
4419 4371 0
4427 4371 -2.86154e-06
4428 4371 -2.86154e-06
4430 4371 -1.35291e-05
4433 4371 -0.00299401
4462 4371 -3.52989e-06
4463 4371 -4.56809e-06
4509 4371 -0.000130289
4372 4372 1
4373 4373 1
4374 4374 1
4375 4375 1
4376 4376 1
4377 4377 1
4372 4378 -1
4373 4378 -1
4374 4378 -1
4378 4378 0.0116524
4383 4378 -0.0113636
4463 4378 -8.24722e-06
4509 4378 -0.000280487
4379 4379 0.0329541
4380 4379 -0.00512821
4422 4379 -5.48301e-06
4427 4379 -0.0277778
4463 4379 -2.86154e-06
4509 4379 -3.97437e-05
4379 4380 -0.00512821
4380 4380 0.00887867
4381 4380 -2.95239e-06
4383 4380 -3.79593e-06
4421 4380 -0.0037037
4422 4380 0
4427 4380 0
4463 4380 0
4506 4380 -1.98556e-06
4509 4380 -3.80242e-05
4380 4381 -2.95239e-06
4381 4381 0.00867492
4382 4381 -0.0037037
4383 4381 0
4421 4381 0
4422 4381 -0.00492611
4427 4381 0
4463 4381 0
4506 4381 -1.98556e-06
4509 4381 -4.01719e-05
4381 4382 -0.0037037
4382 4382 0.00634458
4383 4382 0
4421 4382 -1.0966e-05
4422 4382 0
4423 4382 -0.0025641
4427 4382 0
4463 4382 0
4506 4382 -1.98556e-06
4509 4382 -6.38235e-05
4375 4383 -1
4376 4383 -1
4377 4383 -1
4378 4383 -0.0113636
4380 4383 -3.79593e-06
4381 4383 0
4382 4383 0
4383 4383 0.018589
4417 4383 -0.0070922
4418 4383 -2.10885e-06
4421 4383 0
4422 4383 0
4423 4383 0
4427 4383 0
4463 4383 0
4502 4383 -2.35542e-06
4506 4383 -2.99132e-06
4509 4383 -0.000121879
4384 4384 1
4385 4385 1
4384 4386 -1
4385 4386 -1
4386 4386 0.00220581
4416 4386 -0.00192308
4424 4386 -4.2177e-06
4463 4386 -8.24722e-06
4502 4386 -2.08938e-06
4506 4386 -2.75772e-06
4509 4386 -0.000265426
4387 4387 1
4388 4388 1
4389 4389 1
4390 4390 1
4391 4391 1
4392 4392 1
4393 4393 1
4394 4394 1
4395 4395 1
4396 4396 1
4397 4397 1
4398 4398 1
4399 4399 1
4400 4400 1
4401 4401 1
4402 4402 1
4403 4403 1
4393 4404 -1
4394 4404 -1
4395 4404 -1
4396 4404 -1
4397 4404 -1
4404 4404 0.00262854
4405 4404 -4.94093e-05
4406 4404 -1.45433e-05
4411 4404 -0.000607222
4509 4404 -0.00195736
4401 4405 -1
4402 4405 -1
4403 4405 -1
4404 4405 -4.94093e-05
4405 4405 0.00649126
4406 4405 0
4408 4405 -0.000842225
4410 4405 -0.00416863
4411 4405 -6.28709e-05
4509 4405 -0.00136812
4404 4406 0.000136255
4405 4406 0
4406 4406 0.00568123
4408 4406 0
4410 4406 0
4411 4406 0
4502 4406 -0.00552486
4509 4406 -0.000292623
4407 4407 0.00220827
4408 4407 -1.65548e-05
4410 4407 -0.00209205
4411 4407 -1.65548e-05
4502 4407 -8.38348e-06
4509 4407 -7.47308e-05
4389 4408 -1
4390 4408 -1
4391 4408 -1
4392 4408 -1
4405 4408 -0.000845218
4406 4408 0
4407 4408 -2.75999e-06
4408 4408 0.00255572
4409 4408 -3.06427e-05
4410 4408 -1.9661e-06
4411 4408 -5.81735e-05
4502 4408 -8.01362e-06
4509 4408 -0.00160894
4408 4409 -2.7459e-05
4409 4409 0.00444311
4410 4409 0
4411 4409 0
4502 4409 -1.9661e-06
4506 4409 -0.00436681
4509 4409 -4.68748e-05
4405 4410 -0.00416863
4406 4410 0
4407 4410 -0.00209205
4408 4410 -1.9661e-06
4409 4410 0
4410 4410 0.00994678
4411 4410 0
4412 4410 -0.00363636
4502 4410 -1.23157e-05
4506 4410 -5.56087e-06
4509 4410 -2.98872e-05
4398 4411 -1
4399 4411 -1
4400 4411 -1
4404 4411 -0.000538282
4405 4411 -5.57428e-05
4406 4411 0
4407 4411 -1.65548e-05
4408 4411 -7.04902e-05
4409 4411 0
4410 4411 0
4411 4411 0.00366855
4412 4411 0
4420 4411 -0.00229885
4502 4411 0
4506 4411 -1.98556e-06
4509 4411 -0.000686644
4410 4412 -0.00363636
4411 4412 0
4412 4412 0.0042839
4413 4412 -1.51284e-05
4416 4412 -7.82221e-05
4419 4412 -3.80242e-06
4420 4412 0
4425 4412 -1.65547e-05
4502 4412 0
4506 4412 -0.000429105
4509 4412 -0.000104723
4412 4413 -0.000218031
4413 4413 0.00313731
4416 4413 -0.000308816
4417 4413 -5.82044e-05
4419 4413 -0.00139082
4420 4413 0
4425 4413 0
4502 4413 -2.08938e-06
4506 4413 -0.0011046
4509 4413 -5.47457e-05
4414 4414 0.00256246
4415 4414 -0.000596612
4416 4414 -0.00214133
4417 4414 -1.95312e-06
4420 4414 0.000218922
4461 4414 -6.39792e-06
4506 4414 -2.92647e-05
4509 4414 -5.82691e-06
4414 4415 -0.000301312
4415 4415 0.00438233
4416 4415 0
4417 4415 -0.00012359
4418 4415 -0.00225225
4420 4415 -0.000350597
4461 4415 0
4502 4415 -3.13407e-06
4506 4415 -0.00132237
4509 4415 -2.90697e-05
4386 4416 -0.00192308
4412 4416 9.21301e-05
4413 4416 -0.000497192
4414 4416 -0.00214133
4415 4416 0
4416 4416 0.00526119
4417 4416 -3.06919e-06
4418 4416 0
4419 4416 0
4420 4416 0
4424 4416 0
4425 4416 0
4461 4416 -1.1271e-05
4463 4416 0
4502 4416 -2.08938e-06
4506 4416 -0.000710053
4509 4416 -6.5238e-05
4383 4417 -0.0070922
4387 4417 -1
4388 4417 -1
4413 4417 0.000111095
4414 4417 -1.95312e-06
4415 4417 4.44617e-07
4416 4417 -3.06919e-06
4417 4417 0.00925
4418 4417 0
4419 4417 0
4420 4417 -8.83121e-06
4421 4417 -6.32655e-06
4422 4417 0
4423 4417 0
4424 4417 0
4425 4417 0
4427 4417 0
4461 4417 -6.32655e-06
4463 4417 0
4502 4417 -2.35542e-06
4506 4417 -0.00212679
4509 4417 -0.000113693
4368 4418 -0.00704225
4369 4418 0
4370 4418 0
4371 4418 0
4383 4418 -2.10885e-06
4415 4418 -0.00225225
4416 4418 0
4417 4418 0
4418 4418 0.00936798
4419 4418 0
4420 4418 -2.08938e-06
4421 4418 0
4422 4418 0
4423 4418 0
4424 4418 0
4425 4418 0
4427 4418 0
4428 4418 0
4430 4418 0
4433 4418 0
4461 4418 0
4462 4418 0
4463 4418 0
4502 4418 -3.13407e-06
4506 4418 -6.74183e-06
4509 4418 -5.94046e-05
4360 4419 -1
4361 4419 -1
4369 4419 -1.22469e-05
4370 4419 -0.000123728
4371 4419 0
4412 4419 -3.80242e-06
4413 4419 -0.00139082
4416 4419 0
4417 4419 0
4418 4419 0
4419 4419 0.00201534
4420 4419 0
4421 4419 0
4422 4419 0
4423 4419 0
4424 4419 0
4425 4419 0
4427 4419 0
4428 4419 0
4430 4419 0
4433 4419 0
4461 4419 0
4462 4419 0
4463 4419 0
4502 4419 -2.08938e-06
4506 4419 -3.4066e-06
4509 4419 -0.000479242
4357 4420 -6.3167e-05
4358 4420 0
4359 4420 0
4411 4420 -0.00229885
4412 4420 0
4413 4420 0
4414 4420 -5.82042e-05
4415 4420 -1.44076e-05
4416 4420 0
4417 4420 -8.83121e-06
4418 4420 -2.08938e-06
4419 4420 0
4420 4420 0.00320127
4421 4420 0
4422 4420 0
4423 4420 0
4424 4420 0
4425 4420 -6.97542e-06
4426 4420 0
4427 4420 0
4428 4420 0
4430 4420 0
4433 4420 0
4440 4420 0
4461 4420 -1.13618e-05
4462 4420 0
4463 4420 0
4494 4420 0
4500 4420 0
4502 4420 0
4506 4420 -0.000594971
4509 4420 -0.000142412
4326 4421 -0.00263158
4380 4421 -0.0037037
4381 4421 0
4382 4421 -1.0966e-05
4383 4421 0
4417 4421 -6.32655e-06
4418 4421 0
4419 4421 0
4420 4421 0
4421 4421 0.00641466
4422 4421 0
4423 4421 0
4424 4421 0
4425 4421 0
4426 4421 0
4427 4421 0
4428 4421 0
4430 4421 0
4433 4421 0
4440 4421 0
4461 4421 0
4462 4421 0
4463 4421 0
4494 4421 0
4500 4421 0
4502 4421 0
4506 4421 -1.98556e-06
4509 4421 -6.00989e-05
4309 4422 -4.2177e-06
4313 4422 0
4314 4422 0
4315 4422 0
4316 4422 0
4317 4422 0
4318 4422 0
4379 4422 -5.48301e-06
4380 4422 0
4381 4422 -0.00492611
4382 4422 0
4383 4422 0
4417 4422 0
4418 4422 0
4419 4422 0
4420 4422 0
4421 4422 0
4422 4422 0.0113769
4423 4422 0
4424 4422 0
4425 4422 0
4426 4422 0
4427 4422 -2.08938e-06
4428 4422 -0.00636943
4429 4422 0
4430 4422 0
4431 4422 0
4433 4422 0
4440 4422 0
4461 4422 0
4462 4422 -3.9257e-06
4463 4422 -4.56809e-06
4490 4422 0
4494 4422 0
4498 4422 0
4500 4422 0
4502 4422 0
4506 4422 0
4509 4422 -6.10982e-05
4283 4423 -5.06124e-06
4314 4423 0
4315 4423 0
4316 4423 0
4317 4423 0
4318 4423 0
4324 4423 -0.0105263
4325 4423 0
4326 4423 -3.37416e-06
4382 4423 -0.0025641
4383 4423 0
4417 4423 0
4418 4423 0
4419 4423 0
4420 4423 0
4421 4423 0
4422 4423 0
4423 4423 0.0131417
4424 4423 0
4425 4423 0
4426 4423 0
4427 4423 0
4428 4423 0
4429 4423 0
4430 4423 0
4431 4423 0
4433 4423 0
4440 4423 0
4461 4423 0
4462 4423 0
4463 4423 0
4490 4423 0
4494 4423 0
4498 4423 0
4500 4423 -7.08573e-06
4502 4423 0
4506 4423 0
4509 4423 -3.57142e-05
3904 4424 -5.48301e-06
3905 4424 0
3906 4424 -0.00492611
3907 4424 0
3920 4424 0
3921 4424 0
3922 4424 0
3923 4424 0
3924 4424 0
3925 4424 0
3926 4424 0
3927 4424 0
4386 4424 -4.2177e-06
4416 4424 0
4417 4424 0
4418 4424 0
4419 4424 0
4420 4424 0
4421 4424 0
4422 4424 0
4423 4424 0
4424 4424 0.0125216
4425 4424 0
4426 4424 0
4427 4424 0
4428 4424 0
4429 4424 0
4430 4424 0
4431 4424 0
4432 4424 -0.0075188
4433 4424 0
4434 4424 0
4435 4424 0
4436 4424 0
4437 4424 0
4440 4424 0
4443 4424 0
4461 4424 0
4462 4424 -3.9257e-06
4463 4424 -4.56809e-06
4486 4424 0
4490 4424 0
4494 4424 0
4498 4424 0
4500 4424 0
4502 4424 0
4506 4424 0
4509 4424 -5.85222e-05
3927 4425 -5.06124e-06
4342 4425 -1
4343 4425 -1
4347 4425 -0.000126991
4357 4425 -3.86142e-05
4358 4425 -1.93365e-06
4359 4425 -0.000128677
4412 4425 -1.65548e-05
4413 4425 0
4416 4425 0
4417 4425 0
4418 4425 0
4419 4425 0
4420 4425 -6.97542e-06
4421 4425 0
4422 4425 0
4423 4425 0
4424 4425 0
4425 4425 0.00151863
4426 4425 0
4427 4425 0
4428 4425 0
4429 4425 0
4430 4425 0
4431 4425 0
4432 4425 0
4433 4425 0
4434 4425 0
4435 4425 0
4436 4425 0
4437 4425 0
4440 4425 0
4443 4425 0
4461 4425 -1.92651e-05
4462 4425 0
4463 4425 0
4486 4425 0
4490 4425 0
4494 4425 0
4498 4425 0
4500 4425 -0.000865895
4502 4425 0
4506 4425 0
4509 4425 -0.000308657
3862 4426 -3.38941e-05
3863 4426 0
3864 4426 -0.000108417
3865 4426 0
3866 4426 0
3867 4426 0
3924 4426 0
3925 4426 0
3926 4426 0
3927 4426 0
3959 4426 -7.17008e-06
3960 4426 0
3961 4426 0
4282 4426 -0.00361011
4283 4426 0
4314 4426 0
4315 4426 0
4316 4426 0
4317 4426 0
4318 4426 0
4324 4426 -2.53062e-06
4325 4426 0
4326 4426 0
4335 4426 -3.38941e-05
4336 4426 -3.38941e-05
4337 4426 -0.000108417
4338 4426 -1.34058e-05
4359 4426 -5.45056e-06
4420 4426 0
4421 4426 0
4422 4426 0
4423 4426 0
4424 4426 0
4425 4426 0
4426 4426 0.00467273
4427 4426 0
4428 4426 0
4429 4426 0
4430 4426 0
4431 4426 0
4432 4426 0
4433 4426 0
4434 4426 0
4435 4426 0
4436 4426 0
4437 4426 0
4440 4426 -1.28932e-05
4443 4426 0
4461 4426 0
4462 4426 0
4463 4426 0
4486 4426 0
4490 4426 0
4494 4426 0
4498 4426 0
4500 4426 -0.000271487
4502 4426 0
4506 4426 0
4509 4426 -0.000431173
3825 4427 -0.0208333
4371 4427 -2.86154e-06
4379 4427 -0.0277778
4380 4427 0
4381 4427 0
4382 4427 0
4383 4427 0
4417 4427 0
4418 4427 0
4419 4427 0
4420 4427 0
4421 4427 0
4422 4427 -2.08938e-06
4423 4427 0
4424 4427 0
4425 4427 0
4426 4427 0
4427 4427 0.0487038
4428 4427 -2.08938e-06
4429 4427 0
4430 4427 0
4431 4427 0
4432 4427 0
4433 4427 -2.86154e-06
4434 4427 0
4435 4427 0
4436 4427 0
4437 4427 0
4440 4427 0
4443 4427 0
4458 4427 0
4459 4427 0
4460 4427 0
4461 4427 0
4462 4427 -1.23611e-05
4463 4427 -7.92278e-06
4464 4427 0
4465 4427 0
4478 4427 0
4479 4427 0
4486 4427 0
4490 4427 0
4494 4427 0
4498 4427 0
4500 4427 0
4502 4427 0
4506 4427 0
4509 4427 -6.24868e-05
3808 4428 -9.76494e-05
3809 4428 -9.81555e-05
3816 4428 -9.81555e-05
3821 4428 -9.81555e-05
3822 4428 -9.81555e-05
3823 4428 -9.85319e-05
3824 4428 -9.81555e-05
3825 4428 -2.23213e-06
4371 4428 -2.86154e-06
4418 4428 0
4419 4428 0
4420 4428 0
4421 4428 0
4422 4428 -0.00636943
4423 4428 0
4424 4428 0
4425 4428 0
4426 4428 0
4427 4428 -2.08938e-06
4428 4428 0.0116652
4429 4428 0
4430 4428 -2.76551e-05
4431 4428 0
4432 4428 0
4433 4428 -1.96026e-05
4434 4428 0
4435 4428 0
4436 4428 0
4437 4428 0
4440 4428 0
4443 4428 0
4458 4428 -8.49898e-05
4459 4428 -9.16992e-05
4460 4428 -9.16992e-05
4461 4428 0
4462 4428 -1.23611e-05
4463 4428 0
4464 4428 -9.16992e-05
4465 4428 -9.16992e-05
4478 4428 -9.16992e-05
4479 4428 -9.16992e-05
4486 4428 0
4490 4428 0
4494 4428 0
4498 4428 0
4500 4428 0
4502 4428 0
4506 4428 -0.00383795
4509 4428 -6.88782e-05
3786 4429 -0.000187931
3787 4429 -0.000232053
3794 4429 -0.000230779
3799 4429 -0.000259893
3800 4429 -0.000253182
3801 4429 -0.00018386
3802 4429 -0.00025347
3803 4429 -2.23213e-06
3939 4429 -3.25736e-06
3947 4429 -0.00436967
3960 4429 0
3961 4429 0
4316 4429 0
4317 4429 0
4318 4429 0
4422 4429 0
4423 4429 0
4424 4429 0
4425 4429 0
4426 4429 0
4427 4429 0
4428 4429 0
4429 4429 0.00981083
4430 4429 -1.99984e-05
4431 4429 -2.95239e-06
4432 4429 0
4433 4429 0
4434 4429 0
4435 4429 0
4436 4429 0
4437 4429 0
4440 4429 0
4443 4429 0
4458 4429 -0.000407685
4459 4429 -0.000373945
4460 4429 -0.000347295
4461 4429 0
4462 4429 0
4463 4429 0
4464 4429 -0.000353508
4465 4429 -0.00035371
4478 4429 -0.000374834
4479 4429 -0.000417553
4486 4429 0
4490 4429 -2.63898e-05
4494 4429 0
4498 4429 0
4500 4429 0
4502 4429 0
4506 4429 -0.00104351
4509 4429 -0.000113112
3786 4430 -0.0105425
3787 4430 0
3802 4430 0
3803 4430 -2.1653e-05
3823 4430 -0.0104167
3824 4430 0
3825 4430 -1.44829e-05
3939 4430 -0.0034965
4317 4430 0
4318 4430 0
4371 4430 -1.35291e-05
4418 4430 0
4419 4430 0
4420 4430 0
4421 4430 0
4422 4430 0
4423 4430 0
4424 4430 0
4425 4430 0
4426 4430 0
4427 4430 0
4428 4430 -2.76551e-05
4429 4430 -1.99984e-05
4430 4430 0.10229
4431 4430 -3.25736e-06
4432 4430 0
4433 4430 -0.0384776
4434 4430 0
4435 4430 0
4436 4430 0
4437 4430 0
4440 4430 0
4443 4430 0
4458 4430 -3.30083e-05
4459 4430 -2.95823e-05
4460 4430 -1.40871e-05
4461 4430 0
4462 4430 0
4463 4430 0
4464 4430 -1.40871e-05
4465 4430 -1.40871e-05
4478 4430 -1.40871e-05
4479 4430 -1.40676e-05
4486 4430 0
4490 4430 -0.0384788
4494 4430 0
4498 4430 0
4500 4430 0
4502 4430 0
4506 4430 -1.71303e-05
4509 4430 -0.000627327
3803 4431 -0.0217391
3939 4431 -3.25736e-06
3946 4431 -2.53062e-06
3947 4431 -3.79593e-06
3957 4431 -0.00492611
3958 4431 0
3959 4431 0
3960 4431 0
3961 4431 0
4316 4431 0
4317 4431 0
4318 4431 0
4422 4431 0
4423 4431 0
4424 4431 0
4425 4431 0
4426 4431 0
4427 4431 0
4428 4431 0
4429 4431 -2.95239e-06
4430 4431 -3.25736e-06
4431 4431 0.0268377
4432 4431 0
4433 4431 0
4434 4431 0
4435 4431 0
4436 4431 0
4437 4431 0
4440 4431 0
4443 4431 0
4458 4431 0
4459 4431 0
4460 4431 0
4461 4431 0
4462 4431 0
4463 4431 -9.24649e-06
4464 4431 0
4465 4431 0
4478 4431 0
4479 4431 0
4486 4431 0
4490 4431 0
4494 4431 0
4498 4431 0
4500 4431 0
4502 4431 0
4506 4431 0
4509 4431 -0.000147464
3770 4432 -9.81555e-05
3771 4432 -9.81555e-05
3776 4432 -9.76494e-05
3779 4432 -9.81555e-05
3780 4432 -9.81555e-05
3781 4432 -9.81555e-05
3919 4432 -3.25736e-06
3920 4432 0
3921 4432 0
3922 4432 0
3923 4432 0
3924 4432 0
3925 4432 0
3926 4432 0
3927 4432 0
4424 4432 -0.0075188
4425 4432 0
4426 4432 0
4427 4432 0
4428 4432 0
4429 4432 0
4430 4432 0
4431 4432 0
4432 4432 0.0128097
4433 4432 -2.5968e-05
4434 4432 0
4435 4432 -1.99984e-05
4436 4432 0
4437 4432 0
4440 4432 0
4443 4432 0
4458 4432 -8.49898e-05
4459 4432 -9.16992e-05
4460 4432 -9.16992e-05
4461 4432 0
4462 4432 -1.32046e-05
4463 4432 0
4464 4432 -9.16992e-05
4465 4432 -9.16992e-05
4474 4432 -9.85319e-05
4478 4432 -9.16992e-05
4479 4432 -9.56055e-05
4486 4432 0
4490 4432 0
4494 4432 0
4498 4432 0
4500 4432 0
4502 4432 0
4506 4432 -0.00383751
4509 4432 -6.48876e-05
3808 4433 -0.0105425
3809 4433 0
3824 4433 0
3825 4433 -2.1653e-05
3919 4433 -1.47165e-05
3920 4433 0
3921 4433 0
3922 4433 0
3923 4433 0
3924 4433 0
3925 4433 0
3926 4433 0
3927 4433 0
4371 4433 -0.00299401
4418 4433 0
4419 4433 0
4420 4433 0
4421 4433 0
4422 4433 0
4423 4433 0
4424 4433 0
4425 4433 0
4426 4433 0
4427 4433 -2.86154e-06
4428 4433 -1.96026e-05
4429 4433 0
4430 4433 -0.0384776
4431 4433 0
4432 4433 -2.5968e-05
4433 4433 0.101787
4434 4433 -1.44829e-05
4435 4433 -0.0384788
4436 4433 0
4437 4433 0
4440 4433 0
4443 4433 0
4458 4433 -3.30083e-05
4459 4433 -2.95823e-05
4460 4433 -1.40871e-05
4461 4433 0
4462 4433 -3.52989e-06
4463 4433 0
4464 4433 -1.40871e-05
4465 4433 -1.40871e-05
4474 4433 -0.0104167
4478 4433 -1.40871e-05
4479 4433 -1.40676e-05
4486 4433 0
4490 4433 0
4494 4433 0
4498 4433 0
4500 4433 0
4502 4433 0
4506 4433 -1.71303e-05
4509 4433 -0.000623998
3770 4434 -9.37399e-05
3771 4434 -9.37399e-05
3776 4434 -9.29807e-05
3779 4434 -9.37399e-05
3780 4434 -9.37399e-05
3781 4434 -9.37399e-05
3920 4434 -0.00869565
3921 4434 0
3922 4434 0
3923 4434 0
3924 4434 0
3925 4434 0
3926 4434 0
3927 4434 0
4424 4434 0
4425 4434 0
4426 4434 0
4427 4434 0
4428 4434 0
4429 4434 0
4430 4434 0
4431 4434 0
4432 4434 0
4433 4434 -1.44829e-05
4434 4434 0.0131728
4435 4434 -2.1653e-05
4436 4434 0
4437 4434 0
4440 4434 0
4443 4434 0
4458 4434 -8.19304e-05
4459 4434 -8.83672e-05
4460 4434 -8.83672e-05
4461 4434 0
4462 4434 -3.52989e-06
4463 4434 0
4464 4434 -8.83672e-05
4465 4434 -8.83672e-05
4474 4434 -9.34869e-05
4478 4434 -8.83672e-05
4479 4434 -9.31105e-05
4486 4434 0
4490 4434 0
4494 4434 0
4498 4434 0
4500 4434 0
4502 4434 0
4506 4434 0
4509 4434 -0.00316539
3697 4435 -1.44829e-05
3724 4435 -1.47165e-05
3758 4435 0
3759 4435 0
3760 4435 0
3761 4435 -2.72333e-05
3762 4435 0
3763 4435 -0.0384788
3776 4435 -0.0105425
3780 4435 0
3781 4435 0
3919 4435 -0.00292398
3920 4435 -3.25736e-06
3921 4435 0
3922 4435 0
3923 4435 0
3924 4435 0
3925 4435 0
3926 4435 0
3927 4435 0
4424 4435 0
4425 4435 0
4426 4435 0
4427 4435 0
4428 4435 0
4429 4435 0
4430 4435 0
4431 4435 0
4432 4435 -1.99984e-05
4433 4435 -0.0384788
4434 4435 -2.1653e-05
4435 4435 0.101728
4436 4435 0
4437 4435 0
4438 4435 0
4439 4435 0
4440 4435 0
4441 4435 0
4442 4435 0
4443 4435 0
4444 4435 0
4445 4435 0
4458 4435 -3.30083e-05
4459 4435 -2.95823e-05
4460 4435 -1.40871e-05
4461 4435 0
4462 4435 -3.9257e-06
4463 4435 0
4464 4435 -1.40871e-05
4465 4435 -1.40871e-05
4467 4435 0
4468 4435 -0.0104167
4474 4435 0
4478 4435 -1.40871e-05
4479 4435 -1.40676e-05
4486 4435 0
4487 4435 0
4490 4435 0
4494 4435 0
4498 4435 0
4500 4435 0
4502 4435 0
4506 4435 -1.71303e-05
4509 4435 -0.000631824
3700 4436 -0.00192308
3712 4436 0
3760 4436 0
3761 4436 0
3762 4436 0
3763 4436 0
3893 4436 -0.00214133
3894 4436 0
3895 4436 -3.06919e-06
3896 4436 -0.000497192
3921 4436 0
3922 4436 0
3923 4436 0
3924 4436 0
3925 4436 0
3926 4436 9.21298e-05
3927 4436 0
4424 4436 0
4425 4436 0
4426 4436 0
4427 4436 0
4428 4436 0
4429 4436 0
4430 4436 0
4431 4436 0
4432 4436 0
4433 4436 0
4434 4436 0
4435 4436 0
4436 4436 0.00526119
4437 4436 0
4438 4436 0
4439 4436 0
4440 4436 0
4441 4436 0
4442 4436 0
4443 4436 0
4444 4436 0
4445 4436 0
4458 4436 0
4459 4436 0
4460 4436 0
4461 4436 -1.1271e-05
4462 4436 0
4463 4436 0
4464 4436 0
4465 4436 0
4467 4436 0
4468 4436 0
4474 4436 0
4478 4436 0
4479 4436 0
4486 4436 0
4487 4436 0
4490 4436 0
4494 4436 0
4498 4436 0
4500 4436 0
4502 4436 -2.08938e-06
4506 4436 -0.000710053
4509 4436 -6.5238e-05
3513 4437 -0.0105263
3514 4437 0
3515 4437 -3.37416e-06
3549 4437 0
3550 4437 0
3653 4437 0
3654 4437 0
3711 4437 -0.0025641
3712 4437 0
3760 4437 0
3761 4437 0
3762 4437 0
3763 4437 0
3846 4437 -5.06124e-06
3867 4437 0
3924 4437 0
3925 4437 0
3926 4437 0
3927 4437 0
4424 4437 0
4425 4437 0
4426 4437 0
4427 4437 0
4428 4437 0
4429 4437 0
4430 4437 0
4431 4437 0
4432 4437 0
4433 4437 0
4434 4437 0
4435 4437 0
4436 4437 0
4437 4437 0.0131417
4438 4437 0
4439 4437 0
4440 4437 0
4441 4437 0
4442 4437 0
4443 4437 0
4444 4437 0
4445 4437 0
4446 4437 0
4447 4437 0
4448 4437 0
4449 4437 0
4450 4437 0
4451 4437 0
4458 4437 0
4459 4437 0
4460 4437 0
4461 4437 0
4462 4437 0
4463 4437 0
4464 4437 0
4465 4437 0
4467 4437 0
4468 4437 0
4474 4437 0
4477 4437 0
4478 4437 0
4479 4437 0
4486 4437 0
4487 4437 0
4490 4437 0
4494 4437 0
4497 4437 0
4498 4437 0
4499 4437 0
4500 4437 -7.08573e-06
4502 4437 0
4506 4437 0
4509 4437 -3.57142e-05
3515 4438 -0.00263158
3549 4438 0
3550 4438 0
3653 4438 0
3654 4438 0
3709 4438 -0.0037037
3710 4438 0
3711 4438 -1.0966e-05
3712 4438 0
3755 4438 -6.32655e-06
3756 4438 0
3757 4438 0
3758 4438 0
3759 4438 0
3760 4438 0
3761 4438 0
3762 4438 0
3763 4438 0
4435 4438 0
4436 4438 0
4437 4438 0
4438 4438 0.00641466
4439 4438 0
4440 4438 0
4441 4438 0
4442 4438 0
4443 4438 0
4444 4438 0
4445 4438 0
4446 4438 0
4447 4438 0
4448 4438 0
4449 4438 0
4450 4438 0
4451 4438 0
4458 4438 0
4459 4438 0
4460 4438 0
4461 4438 0
4462 4438 0
4463 4438 0
4464 4438 0
4465 4438 0
4467 4438 0
4468 4438 0
4474 4438 0
4477 4438 0
4478 4438 0
4479 4438 0
4486 4438 0
4487 4438 0
4490 4438 0
4494 4438 0
4497 4438 0
4498 4438 0
4499 4438 0
4500 4438 0
4502 4438 0
4506 4438 -1.98556e-06
4509 4438 -6.00989e-05
3536 4439 -6.3167e-05
3547 4439 0
3548 4439 -6.97542e-06
3549 4439 0
3550 4439 0
3653 4439 0
3654 4439 0
3750 4439 -0.00229885
3753 4439 -5.82042e-05
3754 4439 -1.44075e-05
3755 4439 -8.83121e-06
3756 4439 0
3757 4439 0
3758 4439 -2.08938e-06
3759 4439 0
3760 4439 0
3761 4439 0
3762 4439 0
3763 4439 0
4435 4439 0
4436 4439 0
4437 4439 0
4438 4439 0
4439 4439 0.00320127
4440 4439 0
4441 4439 0
4442 4439 0
4443 4439 0
4444 4439 0
4445 4439 0
4446 4439 0
4447 4439 0
4448 4439 0
4449 4439 0
4450 4439 0
4451 4439 0
4458 4439 0
4459 4439 0
4460 4439 0
4461 4439 -1.13618e-05
4462 4439 0
4463 4439 0
4464 4439 0
4465 4439 0
4467 4439 0
4468 4439 0
4474 4439 0
4477 4439 0
4478 4439 0
4479 4439 0
4486 4439 0
4487 4439 0
4490 4439 0
4494 4439 0
4497 4439 0
4498 4439 0
4499 4439 0
4500 4439 0
4502 4439 0
4506 4439 -0.000594971
4509 4439 -0.000142412
3524 4440 -0.000129227
3525 4440 0
3526 4440 -2.7149e-05
3549 4440 0
3550 4440 0
3653 4440 0
3654 4440 0
3862 4440 -0.000129226
3863 4440 -0.000129226
3864 4440 -2.7149e-05
3865 4440 -1.29451e-05
3866 4440 0
3867 4440 -7.08573e-06
3924 4440 0
3925 4440 0
3926 4440 0
3927 4440 0
4324 4440 -8.85716e-06
4325 4440 0
4326 4440 0
4358 4440 -0.00380228
4359 4440 0
4420 4440 0
4421 4440 0
4422 4440 0
4423 4440 0
4424 4440 0
4425 4440 0
4426 4440 -1.28932e-05
4427 4440 0
4428 4440 0
4429 4440 0
4430 4440 0
4431 4440 0
4432 4440 0
4433 4440 0
4434 4440 0
4435 4440 0
4436 4440 0
4437 4440 0
4438 4440 0
4439 4440 0
4440 4440 0.00494936
4441 4440 0
4442 4440 0
4443 4440 -1.43012e-05
4444 4440 0
4445 4440 0
4446 4440 0
4447 4440 0
4448 4440 0
4449 4440 0
4450 4440 0
4451 4440 0
4458 4440 0
4459 4440 0
4460 4440 0
4461 4440 0
4462 4440 0
4463 4440 0
4464 4440 0
4465 4440 0
4467 4440 0
4468 4440 0
4474 4440 0
4477 4440 0
4478 4440 0
4479 4440 0
4486 4440 0
4487 4440 0
4490 4440 0
4494 4440 0
4497 4440 0
4498 4440 0
4499 4440 0
4500 4440 -0.000405043
4502 4440 0
4506 4440 0
4509 4440 -0.000243972
3586 4441 -2.95239e-06
3595 4441 -0.0037037
3605 4441 -3.79593e-06
3649 4441 0
3650 4441 0
3651 4441 0
3652 4441 0
3653 4441 0
3654 4441 0
3655 4441 -0.00512821
3656 4441 0
3679 4441 0
3763 4441 0
4435 4441 0
4436 4441 0
4437 4441 0
4438 4441 0
4439 4441 0
4440 4441 0
4441 4441 0.00887867
4442 4441 0
4443 4441 0
4444 4441 0
4445 4441 0
4446 4441 0
4447 4441 0
4448 4441 0
4449 4441 0
4450 4441 0
4451 4441 0
4458 4441 0
4459 4441 0
4460 4441 0
4461 4441 0
4462 4441 0
4463 4441 0
4464 4441 0
4465 4441 0
4467 4441 0
4468 4441 0
4474 4441 0
4477 4441 0
4478 4441 0
4479 4441 0
4486 4441 0
4487 4441 0
4490 4441 0
4494 4441 0
4497 4441 0
4498 4441 0
4499 4441 0
4500 4441 0
4502 4441 0
4506 4441 -1.98556e-06
4509 4441 -3.80242e-05
3586 4442 -0.00492611
3595 4442 0
3650 4442 0
3651 4442 0
3652 4442 0
3653 4442 0
3654 4442 0
3655 4442 -5.48301e-06
3656 4442 0
3678 4442 -0.00740741
3679 4442 0
3727 4442 -4.2177e-06
3757 4442 0
3758 4442 0
3759 4442 0
3760 4442 0
3761 4442 0
3762 4442 0
3763 4442 0
4435 4442 0
4436 4442 0
4437 4442 0
4438 4442 0
4439 4442 0
4440 4442 0
4441 4442 0
4442 4442 0.0124102
4443 4442 0
4444 4442 0
4445 4442 0
4446 4442 0
4447 4442 0
4448 4442 0
4449 4442 0
4450 4442 0
4451 4442 0
4458 4442 0
4459 4442 0
4460 4442 0
4461 4442 0
4462 4442 -3.9257e-06
4463 4442 -4.56809e-06
4464 4442 0
4465 4442 0
4467 4442 0
4468 4442 0
4474 4442 0
4477 4442 0
4478 4442 0
4479 4442 0
4486 4442 0
4487 4442 0
4490 4442 0
4494 4442 0
4497 4442 0
4498 4442 0
4499 4442 0
4500 4442 0
4502 4442 0
4506 4442 0
4509 4442 -5.85222e-05
3505 4443 -0.000129227
3506 4443 0
3507 4443 -2.7149e-05
3524 4443 -0.000129225
3525 4443 -0.000129227
3526 4443 -2.7149e-05
3549 4443 -1.90445e-05
3550 4443 -5.0223e-06
3653 4443 0
3654 4443 0
3845 4443 -0.00444444
3846 4443 0
3853 4443 -8.85716e-06
3866 4443 0
3867 4443 0
3924 4443 0
3925 4443 0
3926 4443 0
3927 4443 0
4424 4443 0
4425 4443 0
4426 4443 0
4427 4443 0
4428 4443 0
4429 4443 0
4430 4443 0
4431 4443 0
4432 4443 0
4433 4443 0
4434 4443 0
4435 4443 0
4436 4443 0
4437 4443 0
4438 4443 0
4439 4443 0
4440 4443 -1.43012e-05
4441 4443 0
4442 4443 0
4443 4443 0.00557808
4444 4443 0
4445 4443 0
4446 4443 0
4447 4443 0
4448 4443 0
4449 4443 0
4450 4443 0
4451 4443 0
4458 4443 0
4459 4443 0
4460 4443 0
4461 4443 0
4462 4443 0
4463 4443 0
4464 4443 0
4465 4443 0
4467 4443 0
4468 4443 0
4474 4443 0
4477 4443 0
4478 4443 0
4479 4443 0
4486 4443 0
4487 4443 0
4490 4443 0
4494 4443 0
4497 4443 0
4498 4443 0
4499 4443 0
4500 4443 -0.000406737
4502 4443 0
4506 4443 0
4509 4443 -0.000237698
3548 4444 -1.65547e-05
3549 4444 0
3550 4444 0
3653 4444 0
3654 4444 0
3749 4444 -0.00363636
3750 4444 0
3756 4444 -1.51284e-05
3757 4444 -7.82221e-05
3758 4444 0
3759 4444 -3.80242e-06
3760 4444 0
3761 4444 0
3762 4444 0
3763 4444 0
4435 4444 0
4436 4444 0
4437 4444 0
4438 4444 0
4439 4444 0
4440 4444 0
4441 4444 0
4442 4444 0
4443 4444 0
4444 4444 0.0042839
4445 4444 0
4446 4444 0
4447 4444 0
4448 4444 0
4449 4444 0
4450 4444 0
4451 4444 0
4458 4444 0
4459 4444 0
4460 4444 0
4461 4444 0
4462 4444 0
4463 4444 0
4464 4444 0
4465 4444 0
4467 4444 0
4468 4444 0
4474 4444 0
4477 4444 0
4478 4444 0
4479 4444 0
4486 4444 0
4487 4444 0
4490 4444 0
4494 4444 0
4497 4444 0
4498 4444 0
4499 4444 0
4500 4444 0
4502 4444 0
4506 4444 -0.000429105
4509 4444 -0.000104723
3483 4445 -0.0104167
3484 4445 -2.4281e-05
3485 4445 -1.44829e-05
3645 4445 -0.00436681
3646 4445 0
3647 4445 0
3648 4445 0
3649 4445 0
3650 4445 0
3651 4445 0
3652 4445 0
3653 4445 0
3654 4445 0
3666 4445 -0.0105425
3675 4445 0
3676 4445 0
3677 4445 0
3678 4445 -1.6741e-05
3679 4445 -2.1653e-05
3763 4445 -0.0384641
4435 4445 0
4436 4445 0
4437 4445 0
4438 4445 0
4439 4445 0
4440 4445 0
4441 4445 0
4442 4445 0
4443 4445 0
4444 4445 0
4445 4445 0.103123
4446 4445 0
4447 4445 0
4448 4445 0
4449 4445 0
4450 4445 0
4451 4445 0
4452 4445 -0.0384641
4458 4445 -3.30083e-05
4459 4445 -2.95823e-05
4460 4445 -1.40871e-05
4461 4445 0
4462 4445 -5.61927e-06
4463 4445 -5.71011e-06
4464 4445 -1.40871e-05
4465 4445 -1.40871e-05
4467 4445 0
4468 4445 0
4474 4445 0
4477 4445 0
4478 4445 -1.40871e-05
4479 4445 -1.40676e-05
4486 4445 0
4487 4445 0
4488 4445 0
4490 4445 0
4494 4445 0
4497 4445 0
4498 4445 0
4499 4445 0
4500 4445 0
4502 4445 0
4506 4445 -1.71303e-05
4509 4445 -0.000630176
3444 4446 -5.48301e-06
3445 4446 0
3484 4446 -0.00757576
3485 4446 0
3574 4446 -0.00492611
3583 4446 0
3584 4446 0
3631 4446 -4.2177e-06
3648 4446 0
3649 4446 0
3650 4446 0
3651 4446 0
3652 4446 0
3653 4446 0
3654 4446 0
4437 4446 0
4438 4446 0
4439 4446 0
4440 4446 0
4441 4446 0
4442 4446 0
4443 4446 0
4444 4446 0
4445 4446 0
4446 4446 0.0125786
4447 4446 0
4448 4446 0
4449 4446 0
4450 4446 0
4451 4446 0
4452 4446 0
4458 4446 0
4459 4446 0
4460 4446 0
4461 4446 0
4462 4446 -3.9257e-06
4463 4446 -4.56809e-06
4464 4446 0
4465 4446 0
4467 4446 0
4468 4446 0
4474 4446 0
4477 4446 0
4478 4446 0
4479 4446 0
4486 4446 0
4487 4446 0
4488 4446 0
4490 4446 0
4494 4446 0
4497 4446 0
4498 4446 0
4499 4446 0
4500 4446 0
4502 4446 0
4506 4446 0
4509 4446 -5.85222e-05
3421 4447 -0.00561798
3422 4447 0
3423 4447 0
3435 4447 0
3436 4447 0
3437 4447 0
3438 4447 0
3439 4447 0
3440 4447 0
3441 4447 0
3442 4447 0
3443 4447 0
3495 4447 -3.38941e-05
3496 4447 -0.000151439
3550 4447 0
3580 4447 -6.32655e-06
3581 4447 0
3582 4447 0
3583 4447 0
3584 4447 0
3651 4447 0
3652 4447 0
3653 4447 0
3654 4447 0
4437 4447 0
4438 4447 0
4439 4447 0
4440 4447 0
4441 4447 0
4442 4447 0
4443 4447 0
4444 4447 0
4445 4447 0
4446 4447 0
4447 4447 0.00617076
4448 4447 0
4449 4447 0
4450 4447 -2.07316e-05
4451 4447 0
4452 4447 0
4453 4447 0
4454 4447 0
4455 4447 0
4456 4447 0
4457 4447 0
4458 4447 0
4459 4447 0
4460 4447 0
4461 4447 0
4462 4447 0
4463 4447 0
4464 4447 0
4465 4447 0
4466 4447 0
4467 4447 0
4468 4447 0
4473 4447 0
4474 4447 0
4476 4447 0
4477 4447 0
4478 4447 0
4479 4447 0
4482 4447 0
4486 4447 0
4487 4447 0
4488 4447 0
4489 4447 0
4490 4447 0
4494 4447 0
4497 4447 0
4498 4447 0
4499 4447 0
4500 4447 -0.00013666
4502 4447 0
4506 4447 0
4509 4447 -0.00020373
3348 4448 -1
3349 4448 -1
3357 4448 -0.0070922
3384 4448 -1.95312e-06
3385 4448 4.64145e-07
3399 4448 0.000111095
3400 4448 -3.06919e-06
3401 4448 0
3436 4448 0
3437 4448 -8.83121e-06
3438 4448 0
3439 4448 0
3440 4448 0
3441 4448 0
3442 4448 0
3443 4448 0
3583 4448 -6.32655e-06
3584 4448 0
3651 4448 0
3652 4448 0
3653 4448 0
3654 4448 0
4437 4448 0
4438 4448 0
4439 4448 0
4440 4448 0
4441 4448 0
4442 4448 0
4443 4448 0
4444 4448 0
4445 4448 0
4446 4448 0
4447 4448 0
4448 4448 0.00924999
4449 4448 0
4450 4448 0
4451 4448 0
4452 4448 0
4453 4448 0
4454 4448 0
4455 4448 0
4456 4448 0
4457 4448 0
4458 4448 0
4459 4448 0
4460 4448 0
4461 4448 -6.32655e-06
4462 4448 0
4463 4448 0
4464 4448 0
4465 4448 0
4466 4448 0
4467 4448 0
4468 4448 0
4473 4448 0
4474 4448 0
4476 4448 0
4477 4448 0
4478 4448 0
4479 4448 0
4482 4448 0
4486 4448 0
4487 4448 0
4488 4448 0
4489 4448 0
4490 4448 0
4494 4448 0
4497 4448 0
4498 4448 0
4499 4448 0
4500 4448 0
4502 4448 -2.35542e-06
4506 4448 -0.0021268
4509 4448 -0.000113693
3357 4449 -3.79593e-06
3401 4449 0
3436 4449 0
3437 4449 0
3438 4449 0
3439 4449 0
3440 4449 0
3441 4449 0
3442 4449 0
3443 4449 0
3444 4449 -0.00512821
3445 4449 0
3485 4449 0
3574 4449 -2.95239e-06
3583 4449 -0.0037037
3584 4449 0
3651 4449 0
3652 4449 0
3653 4449 0
3654 4449 0
4437 4449 0
4438 4449 0
4439 4449 0
4440 4449 0
4441 4449 0
4442 4449 0
4443 4449 0
4444 4449 0
4445 4449 0
4446 4449 0
4447 4449 0
4448 4449 0
4449 4449 0.00887867
4450 4449 0
4451 4449 0
4452 4449 0
4453 4449 0
4454 4449 0
4455 4449 0
4456 4449 0
4457 4449 0
4458 4449 0
4459 4449 0
4460 4449 0
4461 4449 0
4462 4449 0
4463 4449 0
4464 4449 0
4465 4449 0
4466 4449 0
4467 4449 0
4468 4449 0
4473 4449 0
4474 4449 0
4476 4449 0
4477 4449 0
4478 4449 0
4479 4449 0
4482 4449 0
4486 4449 0
4487 4449 0
4488 4449 0
4489 4449 0
4490 4449 0
4494 4449 0
4497 4449 0
4498 4449 0
4499 4449 0
4500 4449 0
4502 4449 0
4506 4449 -1.98556e-06
4509 4449 -3.80242e-05
3244 4450 -0.000129227
3245 4450 0
3246 4450 -2.7149e-05
3439 4450 0
3440 4450 0
3441 4450 0
3442 4450 0
3443 4450 0
3494 4450 -0.000129225
3495 4450 -0.000129227
3496 4450 -2.7149e-05
3550 4450 -5.0223e-06
3571 4450 -0.00318471
3572 4450 0
3584 4450 0
3592 4450 -2.10885e-06
3593 4450 0
3594 4450 0
3595 4450 0
3650 4450 0
3651 4450 0
3652 4450 0
3653 4450 0
3654 4450 0
4437 4450 0
4438 4450 0
4439 4450 0
4440 4450 0
4441 4450 0
4442 4450 0
4443 4450 0
4444 4450 0
4445 4450 0
4446 4450 0
4447 4450 -2.07316e-05
4448 4450 0
4449 4450 0
4450 4450 0.00431045
4451 4450 -5.0223e-06
4452 4450 0
4453 4450 0
4454 4450 0
4455 4450 0
4456 4450 0
4457 4450 0
4458 4450 0
4459 4450 0
4460 4450 0
4461 4450 0
4462 4450 0
4463 4450 0
4464 4450 0
4465 4450 0
4466 4450 0
4467 4450 0
4468 4450 0
4473 4450 0
4474 4450 0
4476 4450 0
4477 4450 0
4478 4450 0
4479 4450 0
4482 4450 0
4486 4450 0
4487 4450 0
4488 4450 0
4489 4450 0
4490 4450 0
4494 4450 0
4497 4450 0
4498 4450 0
4499 4450 0
4500 4450 -0.000423277
4502 4450 0
4506 4450 0
4509 4450 -0.000227595
3244 4451 -0.000129225
3245 4451 -0.000129227
3246 4451 -2.7149e-05
3255 4451 -0.000129227
3256 4451 0
3257 4451 -2.7149e-05
3422 4451 -0.0037037
3423 4451 0
3435 4451 0
3436 4451 0
3437 4451 0
3438 4451 0
3439 4451 -1.98881e-05
3440 4451 0
3441 4451 0
3442 4451 0
3443 4451 0
3580 4451 -2.53062e-06
3581 4451 0
3582 4451 0
3583 4451 0
3584 4451 0
3651 4451 0
3652 4451 0
3653 4451 0
3654 4451 0
4437 4451 0
4438 4451 0
4439 4451 0
4440 4451 0
4441 4451 0
4442 4451 0
4443 4451 0
4444 4451 0
4445 4451 0
4446 4451 0
4447 4451 0
4448 4451 0
4449 4451 0
4450 4451 -5.0223e-06
4451 4451 0.00482686
4452 4451 0
4453 4451 0
4454 4451 0
4455 4451 -5.0223e-06
4456 4451 0
4457 4451 0
4458 4451 0
4459 4451 0
4460 4451 0
4461 4451 0
4462 4451 0
4463 4451 0
4464 4451 0
4465 4451 0
4466 4451 0
4467 4451 0
4468 4451 0
4473 4451 0
4474 4451 0
4476 4451 0
4477 4451 0
4478 4451 0
4479 4451 0
4482 4451 0
4486 4451 0
4487 4451 0
4488 4451 0
4489 4451 0
4490 4451 0
4494 4451 0
4497 4451 0
4498 4451 0
4499 4451 0
4500 4451 -0.00041989
4502 4451 0
4506 4451 0
4509 4451 -0.000228828
3233 4452 -0.0104167
3234 4452 -2.38592e-05
3235 4452 -1.44829e-05
3397 4452 -0.00460829
3398 4452 0
3399 4452 0
3400 4452 0
3401 4452 0
3436 4452 0
3437 4452 0
3438 4452 0
3439 4452 0
3440 4452 0
3441 4452 0
3442 4452 0
3443 4452 -0.0384641
3448 4452 -0.0105425
3473 4452 0
3482 4452 0
3483 4452 0
3484 4452 -1.6741e-05
3485 4452 -2.1653e-05
4445 4452 -0.0384641
4446 4452 0
4447 4452 0
4448 4452 0
4449 4452 0
4450 4452 0
4451 4452 0
4452 4452 0.103358
4453 4452 0
4454 4452 0
4455 4452 0
4456 4452 0
4457 4452 0
4458 4452 -3.30083e-05
4459 4452 -2.95823e-05
4460 4452 -1.40871e-05
4461 4452 0
4462 4452 -3.9257e-06
4463 4452 -5.47652e-06
4464 4452 -1.40871e-05
4465 4452 -1.40871e-05
4466 4452 0
4467 4452 0
4468 4452 0
4473 4452 0
4474 4452 0
4476 4452 0
4477 4452 0
4478 4452 -1.40871e-05
4479 4452 -1.40676e-05
4482 4452 0
4486 4452 0
4487 4452 0
4488 4452 0
4489 4452 0
4490 4452 0
4494 4452 0
4497 4452 0
4498 4452 0
4499 4452 0
4500 4452 0
4502 4452 0
4506 4452 -1.71303e-05
4509 4452 -0.000626237
2121 4453 -3.79593e-06
2165 4453 0
2200 4453 0
2201 4453 0
2202 4453 0
2203 4453 0
2204 4453 0
2205 4453 0
2206 4453 0
2207 4453 0
2208 4453 0
2209 4453 0
3181 4453 0
3182 4453 0
3183 4453 0
3184 4453 0
3185 4453 0
3186 4453 -0.00512821
3187 4453 0
3210 4453 0
3335 4453 -2.95239e-06
3344 4453 -0.0037037
3345 4453 0
3346 4453 0
3347 4453 0
3438 4453 0
3439 4453 0
3440 4453 0
3441 4453 0
3442 4453 0
3443 4453 0
4447 4453 0
4448 4453 0
4449 4453 0
4450 4453 0
4451 4453 0
4452 4453 0
4453 4453 0.00887867
4454 4453 0
4455 4453 0
4456 4453 0
4457 4453 0
4458 4453 0
4459 4453 0
4460 4453 0
4461 4453 0
4462 4453 0
4463 4453 0
4464 4453 0
4465 4453 0
4466 4453 0
4467 4453 0
4468 4453 0
4473 4453 0
4474 4453 0
4475 4453 0
4476 4453 0
4477 4453 0
4478 4453 0
4479 4453 0
4480 4453 0
4481 4453 0
4482 4453 0
4483 4453 0
4484 4453 0
4485 4453 0
4486 4453 0
4487 4453 0
4488 4453 0
4489 4453 0
4490 4453 0
4491 4453 0
4492 4453 0
4493 4453 0
4494 4453 0
4495 4453 0
4496 4453 0
4497 4453 0
4498 4453 0
4499 4453 0
4500 4453 0
4502 4453 0
4504 4453 0
4506 4453 -1.98556e-06
4507 4453 0
4509 4453 -3.80242e-05
2185 4454 -0.00526316
2186 4454 0
2187 4454 0
2199 4454 0
2200 4454 0
2201 4454 0
2202 4454 0
2203 4454 0
2204 4454 0
2205 4454 0
2206 4454 0
2207 4454 0
2208 4454 0
2209 4454 0
3181 4454 0
3182 4454 0
3183 4454 0
3184 4454 0
3185 4454 0
3256 4454 -3.38941e-05
3257 4454 -0.000151439
3341 4454 -5.06124e-06
3342 4454 0
3343 4454 0
3344 4454 0
3345 4454 0
3346 4454 0
3347 4454 0
3438 4454 0
3439 4454 0
3440 4454 0
3441 4454 0
3442 4454 0
3443 4454 0
4447 4454 0
4448 4454 0
4449 4454 0
4450 4454 0
4451 4454 0
4452 4454 0
4453 4454 0
4454 4454 0.00581742
4455 4454 -2.01411e-05
4456 4454 0
4457 4454 0
4458 4454 0
4459 4454 0
4460 4454 0
4461 4454 0
4462 4454 0
4463 4454 0
4464 4454 0
4465 4454 0
4466 4454 0
4467 4454 0
4468 4454 0
4473 4454 0
4474 4454 0
4475 4454 0
4476 4454 0
4477 4454 0
4478 4454 0
4479 4454 0
4480 4454 0
4481 4454 0
4482 4454 0
4483 4454 0
4484 4454 0
4485 4454 0
4486 4454 0
4487 4454 0
4488 4454 0
4489 4454 0
4490 4454 0
4491 4454 0
4492 4454 0
4493 4454 0
4494 4454 0
4495 4454 0
4496 4454 0
4497 4454 0
4498 4454 0
4499 4454 0
4500 4454 -0.00013666
4502 4454 0
4504 4454 0
4506 4454 0
4507 4454 0
4509 4454 -0.000207065
2031 4455 -0.000129227
2032 4455 0
2033 4455 -2.7149e-05
2203 4455 0
2204 4455 0
2205 4455 0
2206 4455 0
2207 4455 0
2208 4455 0
2209 4455 0
3181 4455 0
3182 4455 0
3183 4455 0
3184 4455 0
3185 4455 0
3255 4455 -0.000129225
3256 4455 -0.000129227
3257 4455 -2.7149e-05
3332 4455 -0.00384615
3333 4455 0
3345 4455 0
3346 4455 0
3347 4455 0
3431 4455 -2.10885e-06
3432 4455 0
3433 4455 0
3434 4455 0
3435 4455 0
3436 4455 0
3437 4455 0
3438 4455 0
3439 4455 0
3440 4455 0
3441 4455 0
3442 4455 0
3443 4455 0
4447 4455 0
4448 4455 0
4449 4455 0
4450 4455 0
4451 4455 -5.0223e-06
4452 4455 0
4453 4455 0
4454 4455 -2.01411e-05
4455 4455 0.00496708
4456 4455 0
4457 4455 -5.0223e-06
4458 4455 0
4459 4455 0
4460 4455 0
4461 4455 0
4462 4455 0
4463 4455 0
4464 4455 0
4465 4455 0
4466 4455 0
4467 4455 0
4468 4455 0
4473 4455 0
4474 4455 0
4475 4455 0
4476 4455 0
4477 4455 0
4478 4455 0
4479 4455 0
4480 4455 0
4481 4455 0
4482 4455 0
4483 4455 0
4484 4455 0
4485 4455 0
4486 4455 0
4487 4455 0
4488 4455 0
4489 4455 0
4490 4455 0
4491 4455 0
4492 4455 0
4493 4455 0
4494 4455 0
4495 4455 0
4496 4455 0
4497 4455 0
4498 4455 0
4499 4455 0
4500 4455 -0.000418216
4502 4455 0
4504 4455 0
4506 4455 0
4507 4455 0
4509 4455 -0.000228438
1918 4456 -0.0104167
1919 4456 0
1920 4456 -2.0485e-05
1921 4456 -1.44829e-05
2161 4456 -0.00495049
2162 4456 0
2163 4456 0
2164 4456 0
2165 4456 0
2200 4456 0
2201 4456 0
2202 4456 0
2203 4456 0
2204 4456 0
2205 4456 0
2206 4456 0
2207 4456 0
2208 4456 -0.0384641
2209 4456 0
3181 4456 0
3182 4456 0
3183 4456 0
3184 4456 0
3185 4456 0
3194 4456 -0.0105425
3195 4456 0
3208 4456 0
3209 4456 -1.6741e-05
3210 4456 -2.1653e-05
3442 4456 0
3443 4456 -0.0384641
4447 4456 0
4448 4456 0
4449 4456 0
4450 4456 0
4451 4456 0
4452 4456 0
4453 4456 0
4454 4456 0
4455 4456 0
4456 4456 0.103691
4457 4456 0
4458 4456 -3.30083e-05
4459 4456 -2.95823e-05
4460 4456 -1.40871e-05
4461 4456 0
4462 4456 -6.03455e-06
4463 4456 -2.86154e-06
4464 4456 -1.40871e-05
4465 4456 -1.40871e-05
4466 4456 0
4467 4456 0
4468 4456 0
4473 4456 0
4474 4456 0
4475 4456 0
4476 4456 0
4477 4456 0
4478 4456 -1.40871e-05
4479 4456 -1.40676e-05
4480 4456 0
4481 4456 0
4482 4456 0
4483 4456 0
4484 4456 0
4485 4456 0
4486 4456 0
4487 4456 0
4488 4456 0
4489 4456 0
4490 4456 0
4491 4456 0
4492 4456 0
4493 4456 0
4494 4456 0
4495 4456 0
4496 4456 0
4497 4456 0
4498 4456 0
4499 4456 0
4500 4456 0
4502 4456 0
4504 4456 0
4506 4456 -1.71303e-05
4507 4456 0
4509 4456 -0.000620287
1985 4457 -0.000129227
1986 4457 0
1987 4457 -2.7149e-05
2020 4457 0
2021 4457 0
2022 4457 0
2031 4457 -0.000129225
2032 4457 -0.000129227
2033 4457 -2.7149e-05
2186 4457 -0.00438596
2187 4457 0
2199 4457 0
2200 4457 0
2201 4457 0
2202 4457 0
2203 4457 -1.8201e-05
2204 4457 0
2205 4457 0
2206 4457 0
2207 4457 0
2208 4457 0
2209 4457 0
3181 4457 0
3182 4457 0
3183 4457 0
3184 4457 -5.0223e-06
3185 4457 0
3341 4457 -2.10885e-06
3342 4457 0
3343 4457 0
3344 4457 0
3345 4457 0
3346 4457 0
3347 4457 0
3438 4457 0
3439 4457 0
3440 4457 0
3441 4457 0
3442 4457 0
3443 4457 0
4447 4457 0
4448 4457 0
4449 4457 0
4450 4457 0
4451 4457 0
4452 4457 0
4453 4457 0
4454 4457 0
4455 4457 -5.0223e-06
4456 4457 0
4457 4457 0.00550148
4458 4457 0
4459 4457 0
4460 4457 0
4461 4457 0
4462 4457 0
4463 4457 0
4464 4457 0
4465 4457 0
4466 4457 0
4467 4457 0
4468 4457 0
4473 4457 0
4474 4457 0
4475 4457 0
4476 4457 0
4477 4457 0
4478 4457 0
4479 4457 0
4480 4457 0
4481 4457 0
4482 4457 0
4483 4457 0
4484 4457 0
4485 4457 0
4486 4457 0
4487 4457 0
4488 4457 0
4489 4457 0
4490 4457 0
4491 4457 0
4492 4457 0
4493 4457 0
4494 4457 0
4495 4457 0
4496 4457 0
4497 4457 0
4498 4457 0
4499 4457 0
4500 4457 -0.000413998
4502 4457 0
4504 4457 0
4506 4457 0
4507 4457 0
4509 4457 -0.000229191
1877 4458 -2.85051e-05
1878 4458 -3.25736e-06
1892 4458 -1.28997e-05
1893 4458 0
1894 4458 -8.49898e-05
1895 4458 -7.57384e-05
1896 4458 -6.82618e-06
1905 4458 -2.85051e-05
1906 4458 -7.45559e-06
1913 4458 -4.19823e-06
1916 4458 -4.19823e-06
1917 4458 -4.19823e-06
1918 4458 -1.70979e-05
1919 4458 -4.19823e-06
1920 4458 -8.49898e-05
1921 4458 -7.57384e-05
2205 4458 0
2206 4458 0
2207 4458 0
2208 4458 -3.30083e-05
2209 4458 0
2216 4458 -0.00290692
2217 4458 -3.25736e-06
2231 4458 -1.28997e-05
2232 4458 0
2233 4458 -0.00027259
2234 4458 -0.000251519
2241 4458 -2.85051e-05
2242 4458 -3.25736e-06
2256 4458 -1.28997e-05
2257 4458 0
2258 4458 -8.49898e-05
2259 4458 -7.57384e-05
2475 4458 0
2476 4458 0
2477 4458 -3.30083e-05
2478 4458 0
2500 4458 -1
2501 4458 -1
2502 4458 -1
2503 4458 -1
2504 4458 -1
2505 4458 -1
2506 4458 -1
2507 4458 -1
2508 4458 -1
2509 4458 -1
2510 4458 -1
2511 4458 -1
2512 4458 -1
2513 4458 -1
2514 4458 -1
2515 4458 -1
2516 4458 -1
2517 4458 -2.85051e-05
2518 4458 -3.25736e-06
2583 4458 -1.28997e-05
2584 4458 0
2765 4458 -8.75983e-07
2772 4458 -2.85051e-05
2773 4458 -3.25736e-06
2787 4458 -1.28997e-05
2788 4458 0
2789 4458 -8.49898e-05
2790 4458 -7.57384e-05
2797 4458 -2.85051e-05
2798 4458 -3.25736e-06
2812 4458 -1.28997e-05
2813 4458 0
2814 4458 -8.49898e-05
2815 4458 -7.57384e-05
2884 4458 0
2885 4458 -3.30083e-05
2892 4458 -2.85051e-05
2893 4458 -3.25736e-06
2907 4458 -1.28997e-05
2908 4458 0
2909 4458 -8.49898e-05
2910 4458 -7.57384e-05
3166 4458 0
3167 4458 0
3168 4458 0
3169 4458 0
3170 4458 0
3171 4458 -3.30083e-05
3172 4458 0
3173 4458 -8.49898e-05
3174 4458 -7.57384e-05
3175 4458 -3.30083e-05
3176 4458 0
3177 4458 0
3178 4458 0
3179 4458 0
3180 4458 -3.30083e-05
3181 4458 0
3182 4458 0
3183 4458 0
3184 4458 0
3185 4458 -3.30083e-05
3194 4458 -2.85051e-05
3195 4458 -3.25736e-06
3207 4458 -1.28997e-05
3208 4458 0
3209 4458 -8.49897e-05
3210 4458 -7.57384e-05
3226 4458 -2.85051e-05
3227 4458 -3.25736e-06
3231 4458 0
3232 4458 0
3233 4458 -1.28997e-05
3234 4458 -8.49893e-05
3235 4458 -7.57387e-05
3440 4458 0
3441 4458 0
3442 4458 0
3443 4458 -3.30083e-05
3448 4458 -2.85051e-05
3473 4458 -3.25736e-06
3482 4458 0
3483 4458 -1.28997e-05
3484 4458 -7.74949e-05
3485 4458 -8.19032e-05
3666 4458 -2.85051e-05
3675 4458 -3.25736e-06
3676 4458 0
3677 4458 -1.28997e-05
3678 4458 -7.74626e-05
3679 4458 -8.19301e-05
3684 4458 -2.85051e-05
3696 4458 -3.25736e-06
3697 4458 -8.19303e-05
3761 4458 -7.74624e-05
3762 4458 0
3763 4458 -3.30083e-05
3776 4458 -2.85051e-05
3780 4458 -3.25736e-06
3781 4458 0
3786 4458 -0.0028837
3787 4458 -3.25736e-06
3801 4458 -1.28997e-05
3802 4458 0
3803 4458 -0.000240012
3808 4458 -2.85051e-05
3809 4458 -3.25736e-06
3823 4458 -1.28997e-05
3824 4458 0
3825 4458 -8.19304e-05
4427 4458 0
4428 4458 -7.74624e-05
4429 4458 -0.000310287
4430 4458 -3.30083e-05
4431 4458 0
4432 4458 -7.74624e-05
4433 4458 -3.30083e-05
4434 4458 -8.19303e-05
4435 4458 -3.30083e-05
4436 4458 0
4437 4458 0
4438 4458 0
4439 4458 0
4440 4458 0
4441 4458 0
4442 4458 0
4443 4458 0
4444 4458 0
4445 4458 -3.30083e-05
4446 4458 0
4447 4458 0
4448 4458 0
4449 4458 0
4450 4458 0
4451 4458 0
4452 4458 -3.30083e-05
4453 4458 0
4454 4458 0
4455 4458 0
4456 4458 -3.30083e-05
4457 4458 0
4458 4458 0.023425
4459 4458 -0.000321985
4460 4458 -8.83121e-06
4461 4458 0
4462 4458 -6.82618e-06
4463 4458 0
4464 4458 -7.09871e-06
4465 4458 -8.16287e-06
4466 4458 0
4467 4458 0
4468 4458 -1.28997e-05
4473 4458 0
4474 4458 -1.28997e-05
4475 4458 0
4476 4458 0
4477 4458 0
4478 4458 -8.83121e-06
4479 4458 -8.83121e-06
4480 4458 0
4481 4458 0
4482 4458 0
4483 4458 0
4484 4458 -9.68772e-06
4485 4458 0
4486 4458 0
4487 4458 0
4488 4458 0
4489 4458 0
4490 4458 -3.21324e-05
4491 4458 0
4492 4458 -2.59421e-05
4493 4458 0
4494 4458 0
4495 4458 0
4496 4458 -0.00099108
4497 4458 0
4498 4458 0
4499 4458 0
4500 4458 0
4502 4458 0
4504 4458 0
4506 4458 -0.00654973
4507 4458 0
4509 4458 -0.00515173
1877 4459 -3.25736e-06
1878 4459 -2.93357e-05
1892 4459 -2.10236e-05
1893 4459 0
1894 4459 -9.16992e-05
1895 4459 -8.208e-05
1896 4459 -4.69787e-06
1905 4459 -3.25736e-06
1906 4459 -2.93357e-05
1918 4459 -2.10236e-05
1919 4459 0
1920 4459 -9.16992e-05
1921 4459 -8.208e-05
2205 4459 0
2206 4459 0
2207 4459 0
2208 4459 -2.95823e-05
2209 4459 0
2216 4459 -3.25736e-06
2217 4459 -0.00296081
2231 4459 -2.10236e-05
2232 4459 0
2233 4459 -0.000286328
2234 4459 -0.000254466
2241 4459 -3.25736e-06
2242 4459 -2.93357e-05
2256 4459 -2.10236e-05
2257 4459 0
2258 4459 -9.16992e-05
2259 4459 -8.208e-05
2475 4459 0
2476 4459 0
2477 4459 -2.95823e-05
2478 4459 0
2483 4459 -1
2484 4459 -1
2485 4459 -1
2486 4459 -1
2487 4459 -1
2488 4459 -1
2489 4459 -1
2490 4459 -1
2491 4459 -1
2492 4459 -1
2493 4459 -1
2494 4459 -1
2495 4459 -1
2496 4459 -1
2497 4459 -1
2498 4459 -1
2499 4459 -1
2517 4459 -3.25736e-06
2518 4459 -2.89139e-05
2583 4459 -2.10236e-05
2584 4459 0
2765 4459 0
2772 4459 -3.25736e-06
2773 4459 -2.93357e-05
2787 4459 -2.10236e-05
2788 4459 0
2789 4459 -9.16992e-05
2790 4459 -8.208e-05
2797 4459 -3.25736e-06
2798 4459 -2.93357e-05
2812 4459 -2.10236e-05
2813 4459 0
2814 4459 -9.16992e-05
2815 4459 -8.208e-05
2884 4459 0
2885 4459 -2.95823e-05
2892 4459 -3.25736e-06
2893 4459 -2.93357e-05
2907 4459 -2.10236e-05
2908 4459 0
2909 4459 -9.16992e-05
2910 4459 -8.208e-05
3166 4459 0
3167 4459 0
3168 4459 0
3169 4459 0
3170 4459 0
3171 4459 -2.95823e-05
3172 4459 0
3173 4459 -9.16992e-05
3174 4459 -8.208e-05
3175 4459 -2.95823e-05
3176 4459 0
3177 4459 0
3178 4459 0
3179 4459 0
3180 4459 -2.95823e-05
3181 4459 0
3182 4459 0
3183 4459 0
3184 4459 0
3185 4459 -2.95823e-05
3194 4459 -3.25736e-06
3195 4459 -3.35339e-05
3202 4459 -4.19823e-06
3205 4459 -4.19823e-06
3206 4459 -4.19823e-06
3207 4459 -2.52218e-05
3208 4459 -4.19823e-06
3209 4459 -9.16991e-05
3210 4459 -8.208e-05
3226 4459 -3.25736e-06
3227 4459 -2.93357e-05
3231 4459 0
3232 4459 0
3233 4459 -2.10236e-05
3234 4459 -9.16987e-05
3235 4459 -8.20803e-05
3440 4459 0
3441 4459 0
3442 4459 0
3443 4459 -2.95823e-05
3448 4459 -3.25736e-06
3473 4459 -2.93357e-05
3482 4459 0
3483 4459 -2.10236e-05
3484 4459 -8.42264e-05
3485 4459 -8.83302e-05
3666 4459 -3.25736e-06
3675 4459 -2.93357e-05
3676 4459 0
3677 4459 -2.10236e-05
3678 4459 -8.4183e-05
3679 4459 -8.83669e-05
3684 4459 -3.25736e-06
3696 4459 -2.93357e-05
3697 4459 -8.83671e-05
3761 4459 -8.41828e-05
3762 4459 0
3763 4459 -2.95823e-05
3776 4459 -3.25736e-06
3780 4459 -2.93357e-05
3781 4459 0
3786 4459 -3.25736e-06
3787 4459 -0.0029446
3801 4459 -2.10236e-05
3802 4459 0
3803 4459 -0.00024924
3808 4459 -3.25736e-06
3809 4459 -2.93357e-05
3823 4459 -2.10236e-05
3824 4459 0
3825 4459 -8.83672e-05
4427 4459 0
4428 4459 -8.41827e-05
4429 4459 -0.000308577
4430 4459 -2.95823e-05
4431 4459 0
4432 4459 -8.41828e-05
4433 4459 -2.95823e-05
4434 4459 -8.83672e-05
4435 4459 -2.95823e-05
4436 4459 0
4437 4459 0
4438 4459 0
4439 4459 0
4440 4459 0
4441 4459 0
4442 4459 0
4443 4459 0
4444 4459 0
4445 4459 -2.95823e-05
4446 4459 0
4447 4459 0
4448 4459 0
4449 4459 0
4450 4459 0
4451 4459 0
4452 4459 -2.95823e-05
4453 4459 0
4454 4459 0
4455 4459 0
4456 4459 -2.95823e-05
4457 4459 0
4458 4459 -0.000321985
4459 4459 0.0237011
4460 4459 -1.10374e-05
4461 4459 0
4462 4459 -4.69787e-06
4463 4459 0
4464 4459 -9.70784e-05
4465 4459 -1.10374e-05
4466 4459 0
4467 4459 0
4468 4459 -2.10236e-05
4473 4459 0
4474 4459 -2.10236e-05
4475 4459 0
4476 4459 0
4477 4459 0
4478 4459 -1.10374e-05
4479 4459 -1.10374e-05
4480 4459 0
4481 4459 0
4482 4459 -0.00104932
4483 4459 0
4484 4459 -7.55941e-06
4485 4459 0
4486 4459 0
4487 4459 0
4488 4459 0
4489 4459 0
4490 4459 -2.95823e-05
4491 4459 0
4492 4459 -2.05434e-05
4493 4459 0
4494 4459 0
4495 4459 0
4496 4459 -3.9257e-06
4497 4459 0
4498 4459 0
4499 4459 0
4500 4459 0
4502 4459 0
4504 4459 0
4506 4459 -0.00643658
4507 4459 0
4509 4459 -0.0049825
1890 4460 -2.95498e-05
1891 4460 0
1892 4460 -1.40871e-05
1893 4460 -6.20975e-06
1894 4460 -9.16992e-05
1895 4460 -8.18327e-05
1896 4460 -4.69787e-06
1916 4460 -2.95498e-05
1917 4460 0
1918 4460 -1.40871e-05
1919 4460 -6.20975e-06
1920 4460 -9.16992e-05
1921 4460 -8.18327e-05
2205 4460 0
2206 4460 0
2207 4460 0
2208 4460 -1.40871e-05
2209 4460 0
2229 4460 -0.00300923
2230 4460 0
2231 4460 -1.40871e-05
2232 4460 -6.20975e-06
2233 4460 -0.000291129
2234 4460 -0.000252057
2254 4460 -2.95498e-05
2255 4460 0
2256 4460 -1.40871e-05
2257 4460 -6.20975e-06
2258 4460 -9.16992e-05
2259 4460 -8.18327e-05
2475 4460 0
2476 4460 0
2477 4460 -1.40871e-05
2478 4460 0
2564 4460 -1
2565 4460 -1
2566 4460 -1
2567 4460 -1
2568 4460 -1
2569 4460 -1
2570 4460 -1
2571 4460 -1
2572 4460 -1
2573 4460 -1
2574 4460 -1
2575 4460 -1
2576 4460 -1
2577 4460 -1
2578 4460 -1
2579 4460 -1
2580 4460 -1
2581 4460 -2.95498e-05
2582 4460 0
2583 4460 -1.40871e-05
2584 4460 -6.20975e-06
2765 4460 0
2785 4460 -2.95498e-05
2786 4460 0
2787 4460 -1.40871e-05
2788 4460 -6.20975e-06
2789 4460 -9.16992e-05
2790 4460 -8.18327e-05
2810 4460 -2.95498e-05
2811 4460 0
2812 4460 -1.40871e-05
2813 4460 -6.20975e-06
2814 4460 -9.16992e-05
2815 4460 -8.18327e-05
2884 4460 0
2885 4460 -1.40871e-05
2905 4460 -2.95498e-05
2906 4460 0
2907 4460 -1.40871e-05
2908 4460 -6.20975e-06
2909 4460 -9.16992e-05
2910 4460 -8.18327e-05
3166 4460 0
3167 4460 0
3168 4460 0
3169 4460 0
3170 4460 0
3171 4460 -1.40871e-05
3172 4460 0
3173 4460 -9.16992e-05
3174 4460 -8.18327e-05
3175 4460 -1.40871e-05
3176 4460 0
3177 4460 0
3178 4460 0
3179 4460 0
3180 4460 -1.40871e-05
3181 4460 0
3182 4460 0
3183 4460 0
3184 4460 0
3185 4460 -1.40871e-05
3205 4460 -2.95498e-05
3206 4460 0
3207 4460 -1.40871e-05
3208 4460 -6.20975e-06
3209 4460 -9.16991e-05
3210 4460 -8.18327e-05
3230 4460 -2.95498e-05
3231 4460 -6.20975e-06
3232 4460 0
3233 4460 -1.40871e-05
3234 4460 -9.16988e-05
3235 4460 -8.18329e-05
3440 4460 0
3441 4460 0
3442 4460 0
3443 4460 -1.40871e-05
3472 4460 -1.42234e-05
3473 4460 -8.01362e-06
3480 4460 -4.19823e-06
3481 4460 -4.19823e-06
3482 4460 -3.37481e-05
3483 4460 -1.82853e-05
3484 4460 -9.31589e-05
3485 4460 -8.44223e-05
3673 4460 -2.95498e-05
3674 4460 -6.20975e-06
3675 4460 0
3676 4460 0
3677 4460 -1.40871e-05
3678 4460 -8.42112e-05
3679 4460 -8.83668e-05
3694 4460 -2.95498e-05
3695 4460 -6.20975e-06
3696 4460 0
3697 4460 -8.83671e-05
3761 4460 -8.42109e-05
3762 4460 0
3763 4460 -1.40871e-05
3779 4460 -6.20975e-06
3780 4460 0
3781 4460 -2.95498e-05
3799 4460 -0.00299772
3800 4460 0
3801 4460 -1.40871e-05
3802 4460 -6.20975e-06
3803 4460 -0.000251172
3821 4460 -2.95498e-05
3822 4460 0
3823 4460 -1.40871e-05
3824 4460 -6.20975e-06
3825 4460 -8.83672e-05
4427 4460 0
4428 4460 -8.42108e-05
4429 4460 -0.000303168
4430 4460 -1.40871e-05
4431 4460 0
4432 4460 -8.42108e-05
4433 4460 -1.40871e-05
4434 4460 -8.83672e-05
4435 4460 -1.40871e-05
4436 4460 0
4437 4460 0
4438 4460 0
4439 4460 0
4440 4460 0
4441 4460 0
4442 4460 0
4443 4460 0
4444 4460 0
4445 4460 -1.40871e-05
4446 4460 0
4447 4460 0
4448 4460 0
4449 4460 0
4450 4460 0
4451 4460 0
4452 4460 -1.40871e-05
4453 4460 0
4454 4460 0
4455 4460 0
4456 4460 -1.40871e-05
4457 4460 0
4458 4460 -8.83121e-06
4459 4460 -1.10374e-05
4460 4460 0.0234495
4461 4460 0
4462 4460 -4.69787e-06
4463 4460 0
4464 4460 -2.41966e-05
4465 4460 -2.41966e-05
4466 4460 0
4467 4460 0
4468 4460 -1.40871e-05
4473 4460 0
4474 4460 -1.40871e-05
4475 4460 0
4476 4460 -3.9257e-06
4477 4460 0
4478 4460 -1.15435e-05
4479 4460 -1.15435e-05
4480 4460 0
4481 4460 0
4482 4460 -3.9257e-06
4483 4460 0
4484 4460 -7.55941e-06
4485 4460 0
4486 4460 0
4487 4460 0
4488 4460 -0.00152207
4489 4460 0
4490 4460 -1.40871e-05
4491 4460 0
4492 4460 -1.80128e-05
4493 4460 0
4494 4460 0
4495 4460 0
4496 4460 -3.9257e-06
4497 4460 0
4498 4460 0
4499 4460 0
4500 4460 0
4502 4460 0
4504 4460 0
4506 4460 -0.00642136
4507 4460 0
4509 4460 -0.00483712
1972 4461 -6.39792e-06
1973 4461 0
1974 4461 -1.1271e-05
1975 4461 0
1976 4461 0
1996 4461 -0.000125586
1997 4461 -3.3482e-06
2006 4461 -0.000125522
2007 4461 0
2008 4461 0
2020 4461 0
2021 4461 -6.32655e-06
2022 4461 -1.13618e-05
2042 4461 -0.000125586
2043 4461 -3.3482e-06
2052 4461 -0.000125522
2053 4461 0
2054 4461 0
2055 4461 -1.92651e-05
2092 4461 -6.39792e-06
2093 4461 0
2108 4461 -1.1271e-05
2109 4461 0
2110 4461 0
2111 4461 -1.13618e-05
2148 4461 -6.39792e-06
2149 4461 0
2164 4461 -1.1271e-05
2165 4461 0
2174 4461 -0.000125586
2175 4461 -3.3482e-06
2184 4461 -0.000125522
2185 4461 0
2186 4461 0
2187 4461 -1.92651e-05
2199 4461 0
2200 4461 0
2201 4461 -1.13618e-05
2202 4461 -6.32655e-06
2203 4461 0
2204 4461 0
2205 4461 0
2206 4461 0
2207 4461 0
2208 4461 0
2209 4461 0
2332 4461 -6.39792e-06
2333 4461 0
2334 4461 -1.1271e-05
2335 4461 0
2336 4461 0
2337 4461 -6.32655e-06
2368 4461 -0.000125518
2369 4461 -3.3482e-06
2378 4461 -0.000125587
2379 4461 0
2380 4461 0
2381 4461 0
2401 4461 -0.000125518
2402 4461 -3.3482e-06
2411 4461 -0.000125587
2412 4461 0
2413 4461 0
2464 4461 -6.39792e-06
2465 4461 0
2466 4461 -1.1271e-05
2467 4461 0
2468 4461 0
2469 4461 -1.13618e-05
2470 4461 -6.32655e-06
2471 4461 0
2472 4461 -1.92651e-05
2473 4461 -1.13618e-05
2474 4461 0
2475 4461 0
2476 4461 0
2477 4461 0
2478 4461 0
2587 4461 -0.000376828
2636 4461 0
2762 4461 0
2763 4461 0
2764 4461 -0.003003
2765 4461 -1.43207e-05
2878 4461 -6.39792e-06
2879 4461 0
2880 4461 -1.1271e-05
2881 4461 0
2882 4461 0
2883 4461 -6.32655e-06
2884 4461 0
2885 4461 0
2972 4461 -6.39792e-06
2973 4461 0
2974 4461 -1.1271e-05
2975 4461 0
2976 4461 0
2977 4461 -6.32655e-06
2986 4461 -0.000125518
2987 4461 -3.3482e-06
2996 4461 -0.000125587
2997 4461 0
2998 4461 0
3019 4461 -0.000125587
3028 4461 -0.000125518
3029 4461 -3.3482e-06
3030 4461 0
3031 4461 0
3063 4461 -0.00012552
3064 4461 -3.62722e-06
3073 4461 -1
3074 4461 -1
3075 4461 -0.000125587
3076 4461 0
3077 4461 0
3078 4461 0
3079 4461 0
3080 4461 0
3108 4461 -3.37416e-06
3109 4461 -6.39792e-06
3110 4461 0
3159 4461 0
3160 4461 -1.1271e-05
3161 4461 -6.32655e-06
3162 4461 -1.95442e-05
3163 4461 -1.13618e-05
3164 4461 -1.92651e-05
3165 4461 -1.13618e-05
3166 4461 0
3167 4461 0
3168 4461 -1.13618e-05
3169 4461 -1.92651e-05
3170 4461 0
3171 4461 0
3172 4461 0
3173 4461 0
3174 4461 0
3175 4461 0
3176 4461 0
3177 4461 0
3178 4461 0
3179 4461 -1.92651e-05
3180 4461 0
3181 4461 -1.92651e-05
3182 4461 0
3183 4461 0
3184 4461 0
3185 4461 0
3294 4461 -6.39792e-06
3295 4461 0
3310 4461 -1.1271e-05
3311 4461 0
3320 4461 -0.000125586
3321 4461 -3.3482e-06
3330 4461 -0.000125522
3331 4461 0
3332 4461 0
3333 4461 -1.92651e-05
3345 4461 0
3346 4461 0
3347 4461 -1.13618e-05
3384 4461 -6.39792e-06
3385 4461 0
3400 4461 -1.1271e-05
3401 4461 0
3410 4461 -0.000125586
3411 4461 -3.3482e-06
3420 4461 -0.000125522
3421 4461 0
3422 4461 0
3423 4461 -1.92651e-05
3435 4461 0
3436 4461 0
3437 4461 -1.13618e-05
3438 4461 -6.32655e-06
3439 4461 0
3440 4461 0
3441 4461 0
3442 4461 0
3443 4461 0
3535 4461 -0.000125586
3536 4461 -3.3482e-06
3545 4461 -0.000125522
3546 4461 0
3547 4461 0
3548 4461 -1.92651e-05
3549 4461 0
3550 4461 0
3559 4461 -0.000125586
3560 4461 -3.3482e-06
3569 4461 -0.000125522
3570 4461 0
3571 4461 0
3572 4461 -1.92651e-05
3584 4461 0
3632 4461 -6.39792e-06
3633 4461 0
3648 4461 -1.1271e-05
3649 4461 0
3650 4461 -6.32655e-06
3651 4461 0
3652 4461 -1.13618e-05
3653 4461 0
3654 4461 0
3753 4461 -6.39792e-06
3754 4461 0
3755 4461 -6.32655e-06
3756 4461 0
3757 4461 -1.1271e-05
3758 4461 0
3759 4461 0
3760 4461 0
3761 4461 0
3762 4461 0
3763 4461 0
3834 4461 -0.000125522
3843 4461 -0.000125586
3844 4461 -3.3482e-06
3845 4461 0
3846 4461 -1.92651e-05
3867 4461 0
3893 4461 -6.39792e-06
3894 4461 0
3895 4461 -6.32655e-06
3896 4461 0
3921 4461 0
3922 4461 0
3923 4461 0
3924 4461 0
3925 4461 -1.13618e-05
3926 4461 0
3927 4461 0
3970 4461 -0.000125518
3971 4461 -3.3482e-06
3980 4461 -0.000125587
4281 4461 0
4282 4461 0
4283 4461 -1.92651e-05
4311 4461 -6.39792e-06
4312 4461 0
4313 4461 -1.1271e-05
4314 4461 0
4315 4461 -1.05183e-05
4316 4461 -5.90478e-06
4317 4461 0
4318 4461 0
4347 4461 -0.000125522
4356 4461 -0.000125586
4357 4461 -3.3482e-06
4358 4461 0
4359 4461 0
4414 4461 -6.39792e-06
4415 4461 0
4416 4461 -1.1271e-05
4417 4461 -6.32655e-06
4418 4461 0
4419 4461 0
4420 4461 -1.13618e-05
4421 4461 0
4422 4461 0
4423 4461 0
4424 4461 0
4425 4461 -1.92651e-05
4426 4461 0
4427 4461 0
4428 4461 0
4429 4461 0
4430 4461 0
4431 4461 0
4432 4461 0
4433 4461 0
4434 4461 0
4435 4461 0
4436 4461 -1.1271e-05
4437 4461 0
4438 4461 0
4439 4461 -1.13618e-05
4440 4461 0
4441 4461 0
4442 4461 0
4443 4461 0
4444 4461 0
4445 4461 0
4446 4461 0
4447 4461 0
4448 4461 -6.32655e-06
4449 4461 0
4450 4461 0
4451 4461 0
4452 4461 0
4453 4461 0
4454 4461 0
4455 4461 0
4456 4461 0
4457 4461 0
4458 4461 0
4459 4461 0
4460 4461 0
4461 4461 0.0185776
4462 4461 0
4463 4461 0
4464 4461 0
4465 4461 0
4466 4461 -6.32655e-06
4467 4461 0
4468 4461 0
4473 4461 0
4474 4461 0
4475 4461 0
4476 4461 0
4477 4461 0
4478 4461 0
4479 4461 0
4480 4461 0
4481 4461 0
4482 4461 0
4483 4461 0
4484 4461 0
4485 4461 0
4486 4461 0
4487 4461 0
4488 4461 0
4489 4461 0
4490 4461 0
4491 4461 0
4492 4461 0
4493 4461 0
4494 4461 0
4495 4461 0
4496 4461 0
4497 4461 0
4498 4461 0
4499 4461 0
4500 4461 -0.000960542
4502 4461 -0.000553858
4504 4461 0
4506 4461 -0.0034654
4507 4461 0
4509 4461 -0.00556479
1872 4462 -7.72163e-06
1894 4462 -6.87809e-06
1895 4462 -3.9257e-06
1896 4462 -4.57458e-06
1898 4462 -9.83048e-06
1920 4462 -8.1434e-06
1921 4462 -3.9257e-06
1942 4462 -0.0106383
1943 4462 -4.57458e-06
1975 4462 0
1976 4462 0
2021 4462 0
2022 4462 0
2104 4462 -0.0103093
2105 4462 -3.9257e-06
2106 4462 0
2107 4462 0
2108 4462 0
2109 4462 0
2110 4462 0
2111 4462 0
2160 4462 -0.00970874
2161 4462 -3.9257e-06
2162 4462 0
2163 4462 0
2164 4462 0
2165 4462 0
2200 4462 0
2201 4462 0
2202 4462 0
2203 4462 0
2204 4462 0
2205 4462 -3.9257e-06
2206 4462 0
2207 4462 -3.9257e-06
2208 4462 -6.45632e-06
2209 4462 0
2211 4462 -7.29986e-06
2216 4462 -5.36621e-06
2217 4462 -5.36621e-06
2224 4462 -5.36621e-06
2229 4462 -5.36621e-06
2230 4462 -5.36621e-06
2231 4462 -5.36621e-06
2232 4462 -5.36621e-06
2233 4462 -1.27829e-05
2234 4462 -1.10958e-05
2236 4462 -6.03455e-06
2258 4462 -3.9257e-06
2259 4462 -3.9257e-06
2302 4462 -0.0104167
2303 4462 -3.9257e-06
2335 4462 0
2336 4462 0
2337 4462 0
2434 4462 -0.01
2435 4462 -3.9257e-06
2467 4462 0
2468 4462 0
2469 4462 0
2470 4462 0
2471 4462 0
2472 4462 0
2473 4462 0
2474 4462 0
2475 4462 0
2476 4462 -3.9257e-06
2477 4462 -2.35088e-05
2478 4462 0
2767 4462 -3.9257e-06
2789 4462 -3.9257e-06
2790 4462 -3.9257e-06
2792 4462 -3.9257e-06
2814 4462 -3.9257e-06
2815 4462 -3.9257e-06
2848 4462 -0.011236
2849 4462 -3.9257e-06
2881 4462 0
2882 4462 0
2883 4462 0
2884 4462 0
2885 4462 -7.29986e-06
2887 4462 -3.9257e-06
2909 4462 -3.9257e-06
2910 4462 -3.9257e-06
2942 4462 -0.01
2943 4462 -3.9257e-06
2975 4462 0
2976 4462 0
2977 4462 0
3131 4462 -0.0103093
3132 4462 -3.9257e-06
3158 4462 0
3159 4462 0
3160 4462 0
3161 4462 0
3162 4462 0
3163 4462 0
3164 4462 0
3165 4462 0
3166 4462 0
3167 4462 -3.9257e-06
3168 4462 0
3169 4462 0
3170 4462 -3.9257e-06
3171 4462 -7.29986e-06
3172 4462 0
3173 4462 0
3174 4462 0
3175 4462 -6.45632e-06
3176 4462 -3.9257e-06
3177 4462 0
3178 4462 0
3179 4462 0
3180 4462 -7.29986e-06
3181 4462 0
3182 4462 0
3183 4462 -3.9257e-06
3184 4462 0
3185 4462 -1.88369e-05
3187 4462 -9.83048e-06
3209 4462 -8.56517e-06
3210 4462 -3.9257e-06
3212 4462 -9.83048e-06
3234 4462 -8.98694e-06
3235 4462 -3.9257e-06
3306 4462 -0.0106383
3307 4462 -3.9257e-06
3308 4462 0
3309 4462 0
3310 4462 0
3311 4462 0
3346 4462 0
3347 4462 0
3396 4462 -0.00632911
3397 4462 -3.9257e-06
3398 4462 0
3399 4462 0
3400 4462 0
3401 4462 0
3436 4462 0
3437 4462 0
3438 4462 0
3439 4462 0
3440 4462 -3.9257e-06
3441 4462 0
3442 4462 -3.9257e-06
3443 4462 -3.9257e-06
3445 4462 -1.23611e-05
3484 4462 -9.83048e-06
3485 4462 -3.9257e-06
3644 4462 -0.00763359
3645 4462 -5.61927e-06
3646 4462 0
3647 4462 0
3648 4462 0
3649 4462 0
3650 4462 0
3651 4462 0
3652 4462 0
3653 4462 0
3654 4462 0
3656 4462 -1.15176e-05
3678 4462 -1.0674e-05
3679 4462 -3.9257e-06
3697 4462 -3.52989e-06
3712 4462 -3.9257e-06
3723 4462 -0.00793651
3724 4462 -3.9257e-06
3758 4462 0
3759 4462 0
3760 4462 0
3761 4462 -1.10958e-05
3762 4462 -1.32306e-05
3763 4462 -3.9257e-06
3825 4462 -3.9257e-06
3918 4462 -0.00735294
3919 4462 -3.9257e-06
3920 4462 -1.36524e-05
3921 4462 0
3922 4462 0
3923 4462 0
3924 4462 0
3925 4462 0
3926 4462 0
3927 4462 0
3938 4462 -0.00458716
3939 4462 0
4317 4462 0
4318 4462 0
4370 4462 -0.00495049
4371 4462 -3.52989e-06
4418 4462 0
4419 4462 0
4420 4462 0
4421 4462 0
4422 4462 -3.9257e-06
4423 4462 0
4424 4462 -3.9257e-06
4425 4462 0
4426 4462 0
4427 4462 -1.23611e-05
4428 4462 -1.23611e-05
4429 4462 0
4430 4462 0
4431 4462 0
4432 4462 -1.32046e-05
4433 4462 -3.52989e-06
4434 4462 -3.52989e-06
4435 4462 -3.9257e-06
4436 4462 0
4437 4462 0
4438 4462 0
4439 4462 0
4440 4462 0
4441 4462 0
4442 4462 -3.9257e-06
4443 4462 0
4444 4462 0
4445 4462 -5.61927e-06
4446 4462 -3.9257e-06
4447 4462 0
4448 4462 0
4449 4462 0
4450 4462 0
4451 4462 0
4452 4462 -3.9257e-06
4453 4462 0
4454 4462 0
4455 4462 0
4456 4462 -6.03455e-06
4457 4462 0
4458 4462 -6.82618e-06
4459 4462 -4.69787e-06
4460 4462 -4.69787e-06
4461 4462 0
4462 4462 0.135249
4463 4462 -6.0936e-05
4464 4462 -4.69787e-06
4465 4462 -4.69787e-06
4466 4462 0
4467 4462 0
4468 4462 0
4473 4462 0
4474 4462 0
4475 4462 0
4476 4462 0
4477 4462 0
4478 4462 -4.69787e-06
4479 4462 -4.69787e-06
4480 4462 0
4481 4462 0
4482 4462 0
4483 4462 0
4484 4462 0
4485 4462 0
4486 4462 0
4487 4462 0
4488 4462 0
4489 4462 0
4490 4462 0
4491 4462 0
4492 4462 -0.00131752
4493 4462 0
4494 4462 0
4495 4462 0
4496 4462 0
4497 4462 0
4498 4462 0
4499 4462 0
4500 4462 0
4502 4462 0
4504 4462 0
4506 4462 -3.63371e-06
4507 4462 0
4509 4462 -0.00121817
1871 4463 -2.86154e-06
1872 4463 -9.07129e-06
1894 4463 -3.52989e-06
1895 4463 0
1896 4463 -0.00581395
1897 4463 -2.86154e-06
1898 4463 -2.86154e-06
1921 4463 0
1930 4463 4.01192e-05
1931 4463 0
1941 4463 0.000201076
1942 4463 -2.86154e-06
1943 4463 -2.86154e-06
1946 4463 3.96538e-05
1974 4463 0
1975 4463 0
1976 4463 0
2021 4463 0
2022 4463 0
2064 4463 4.01192e-05
2065 4463 0
2091 4463 3.96538e-05
2103 4463 0.000201076
2104 4463 -2.86154e-06
2105 4463 -2.86154e-06
2106 4463 0
2107 4463 0
2108 4463 0
2109 4463 0
2110 4463 0
2111 4463 0
2120 4463 4.01192e-05
2121 4463 0
2147 4463 3.96538e-05
2159 4463 0.000201076
2160 4463 -2.86154e-06
2161 4463 -2.86154e-06
2162 4463 0
2163 4463 0
2164 4463 0
2165 4463 0
2200 4463 0
2201 4463 0
2202 4463 0
2203 4463 0
2204 4463 0
2205 4463 -4.56809e-06
2206 4463 0
2207 4463 -4.56809e-06
2208 4463 -2.86154e-06
2209 4463 0
2210 4463 -2.86154e-06
2211 4463 -2.86154e-06
2234 4463 0
2235 4463 -2.86154e-06
2236 4463 -2.86154e-06
2259 4463 0
2290 4463 4.01191e-05
2291 4463 0
2301 4463 0.000201076
2302 4463 -2.86154e-06
2303 4463 -2.86154e-06
2306 4463 3.9654e-05
2334 4463 0
2335 4463 0
2336 4463 0
2337 4463 0
2422 4463 4.01191e-05
2423 4463 0
2433 4463 0.000201076
2434 4463 -2.86154e-06
2435 4463 -2.86154e-06
2438 4463 3.9654e-05
2466 4463 0
2467 4463 0
2468 4463 0
2469 4463 0
2470 4463 0
2471 4463 0
2472 4463 0
2473 4463 0
2474 4463 0
2475 4463 0
2476 4463 -4.56809e-06
2477 4463 -2.86154e-06
2478 4463 0
2766 4463 -2.86154e-06
2767 4463 -2.86154e-06
2790 4463 0
2791 4463 -2.86154e-06
2792 4463 -2.86154e-06
2815 4463 0
2836 4463 4.01191e-05
2837 4463 0
2847 4463 0.000201076
2848 4463 -2.86154e-06
2849 4463 -2.86154e-06
2852 4463 3.9654e-05
2880 4463 0
2881 4463 0
2882 4463 0
2883 4463 0
2884 4463 0
2885 4463 -2.86154e-06
2886 4463 -2.86154e-06
2887 4463 -2.86154e-06
2910 4463 0
2930 4463 4.01191e-05
2931 4463 0
2941 4463 0.000201076
2942 4463 -2.86154e-06
2943 4463 -2.86154e-06
2946 4463 3.9654e-05
2974 4463 0
2975 4463 0
2976 4463 0
2977 4463 0
3102 4463 3.9654e-05
3103 4463 -2.86154e-06
3104 4463 -2.86154e-06
3105 4463 0
3106 4463 -4.56809e-06
3107 4463 0
3108 4463 0
3119 4463 4.01191e-05
3120 4463 0
3130 4463 0.000201076
3131 4463 -2.86154e-06
3132 4463 -2.86154e-06
3158 4463 0
3159 4463 0
3160 4463 0
3161 4463 0
3162 4463 0
3163 4463 0
3164 4463 0
3165 4463 0
3166 4463 0
3167 4463 -4.56809e-06
3168 4463 0
3169 4463 0
3170 4463 -4.56809e-06
3171 4463 -2.86154e-06
3172 4463 0
3173 4463 0
3174 4463 0
3175 4463 -2.86154e-06
3176 4463 -4.56809e-06
3177 4463 0
3178 4463 0
3179 4463 0
3180 4463 -2.86154e-06
3181 4463 0
3182 4463 0
3183 4463 -4.56809e-06
3184 4463 0
3185 4463 -2.86154e-06
3186 4463 -2.86154e-06
3187 4463 -5.39216e-06
3210 4463 0
3211 4463 -2.86154e-06
3212 4463 -5.39216e-06
3235 4463 0
3266 4463 4.01192e-05
3267 4463 0
3293 4463 3.96538e-05
3305 4463 0.000201076
3306 4463 -2.86154e-06
3307 4463 -2.86154e-06
3308 4463 0
3309 4463 0
3310 4463 0
3311 4463 0
3346 4463 0
3347 4463 0
3356 4463 4.01192e-05
3357 4463 0
3383 4463 3.96538e-05
3395 4463 0.000201076
3396 4463 -2.86154e-06
3397 4463 -9.77857e-06
3398 4463 0
3399 4463 0
3400 4463 0
3401 4463 0
3436 4463 0
3437 4463 0
3438 4463 0
3439 4463 0
3440 4463 -4.56809e-06
3441 4463 0
3442 4463 -4.56809e-06
3443 4463 -2.86154e-06
3444 4463 -2.86154e-06
3445 4463 -6.2357e-06
3485 4463 0
3604 4463 4.01192e-05
3605 4463 0
3631 4463 3.96538e-05
3643 4463 0.000201076
3644 4463 -2.86154e-06
3645 4463 -1.06805e-05
3646 4463 0
3647 4463 0
3648 4463 0
3649 4463 0
3650 4463 0
3651 4463 0
3652 4463 0
3653 4463 0
3654 4463 0
3655 4463 -2.86154e-06
3656 4463 -5.81393e-06
3679 4463 0
3700 4463 3.96538e-05
3707 4463 4.01192e-05
3708 4463 -2.86154e-06
3709 4463 0
3710 4463 0
3711 4463 0
3712 4463 -4.56809e-06
3722 4463 0.000201076
3723 4463 -5.34025e-06
3724 4463 -5.34025e-06
3727 4463 3.96538e-05
3757 4463 0
3758 4463 0
3759 4463 0
3760 4463 0
3761 4463 0
3762 4463 -5.81393e-06
3763 4463 0
3903 4463 4.01192e-05
3904 4463 -2.86154e-06
3905 4463 0
3906 4463 0
3907 4463 0
3917 4463 0.000201076
3918 4463 -5.34025e-06
3919 4463 -5.34025e-06
3920 4463 -6.2357e-06
3921 4463 0
3922 4463 0
3923 4463 0
3924 4463 0
3925 4463 0
3926 4463 0
3927 4463 0
3937 4463 0.000201076
3938 4463 -4.56809e-06
3939 4463 -5.34025e-06
3946 4463 4.01191e-05
3961 4463 0
4309 4463 3.9654e-05
4313 4463 0
4314 4463 0
4315 4463 0
4316 4463 0
4317 4463 0
4318 4463 0
4369 4463 0.000201076
4370 4463 -4.56809e-06
4371 4463 -4.56809e-06
4378 4463 4.01192e-05
4379 4463 -2.86154e-06
4380 4463 0
4381 4463 0
4382 4463 0
4383 4463 0
4386 4463 3.96538e-05
4416 4463 0
4417 4463 0
4418 4463 0
4419 4463 0
4420 4463 0
4421 4463 0
4422 4463 -4.56809e-06
4423 4463 0
4424 4463 -4.56809e-06
4425 4463 0
4426 4463 0
4427 4463 -7.92278e-06
4428 4463 0
4429 4463 0
4430 4463 0
4431 4463 -9.24649e-06
4432 4463 0
4433 4463 0
4434 4463 0
4435 4463 0
4436 4463 0
4437 4463 0
4438 4463 0
4439 4463 0
4440 4463 0
4441 4463 0
4442 4463 -4.56809e-06
4443 4463 0
4444 4463 0
4445 4463 -5.71011e-06
4446 4463 -4.56809e-06
4447 4463 0
4448 4463 0
4449 4463 0
4450 4463 0
4451 4463 0
4452 4463 -5.47652e-06
4453 4463 0
4454 4463 0
4455 4463 0
4456 4463 -2.86154e-06
4457 4463 0
4458 4463 0
4459 4463 0
4460 4463 0
4461 4463 0
4462 4463 -6.0936e-05
4463 4463 0.0163382
4464 4463 0
4465 4463 0
4466 4463 0
4467 4463 0
4468 4463 0
4473 4463 0
4474 4463 0
4475 4463 0
4476 4463 0
4477 4463 0
4478 4463 0
4479 4463 0
4480 4463 0
4481 4463 0
4482 4463 0
4483 4463 0
4484 4463 0
4485 4463 0
4486 4463 0
4487 4463 0
4488 4463 0
4489 4463 0
4490 4463 0
4491 4463 0
4492 4463 0
4493 4463 0
4494 4463 0
4495 4463 0
4496 4463 0
4497 4463 0
4498 4463 0
4499 4463 0
4500 4463 0
4502 4463 0
4504 4463 0
4506 4463 0
4507 4463 0
4509 4463 -0.0143249
1878 4464 -6.20975e-06
1892 4464 -1.40871e-05
1893 4464 -2.8596e-05
1894 4464 -9.16992e-05
1895 4464 -8.19613e-05
1896 4464 -4.69787e-06
1906 4464 -6.20975e-06
1918 4464 -1.40871e-05
1919 4464 -2.8596e-05
1920 4464 -9.16992e-05
1921 4464 -8.19613e-05
2205 4464 0
2206 4464 0
2207 4464 0
2208 4464 -1.40871e-05
2209 4464 0
2217 4464 -6.20975e-06
2231 4464 -1.40871e-05
2232 4464 -0.00299239
2233 4464 -0.000290054
2234 4464 -0.000252693
2242 4464 -6.20975e-06
2256 4464 -1.40871e-05
2257 4464 -2.8596e-05
2258 4464 -9.16992e-05
2259 4464 -8.19613e-05
2475 4464 0
2476 4464 0
2477 4464 -1.40871e-05
2478 4464 0
2518 4464 -6.20975e-06
2583 4464 -1.40871e-05
2584 4464 -2.8596e-05
2765 4464 0
2773 4464 -6.20975e-06
2787 4464 -1.40871e-05
2788 4464 -2.8596e-05
2789 4464 -9.16992e-05
2790 4464 -8.19613e-05
2798 4464 -6.20975e-06
2812 4464 -1.40871e-05
2813 4464 -2.8596e-05
2814 4464 -9.16992e-05
2815 4464 -8.19613e-05
2884 4464 0
2885 4464 -1.40871e-05
2893 4464 -6.20975e-06
2907 4464 -1.40871e-05
2908 4464 -2.8596e-05
2909 4464 -9.16992e-05
2910 4464 -8.19613e-05
3166 4464 0
3167 4464 0
3168 4464 0
3169 4464 0
3170 4464 0
3171 4464 -1.40871e-05
3172 4464 0
3173 4464 -9.16992e-05
3174 4464 -8.19613e-05
3175 4464 -1.40871e-05
3176 4464 0
3177 4464 0
3178 4464 0
3179 4464 0
3180 4464 -1.40871e-05
3181 4464 0
3182 4464 0
3183 4464 0
3184 4464 0
3185 4464 -1.40871e-05
3195 4464 -6.20975e-06
3207 4464 -1.40871e-05
3208 4464 -2.8596e-05
3209 4464 -9.16991e-05
3210 4464 -8.19613e-05
3219 4464 -4.19823e-06
3227 4464 -1.42234e-05
3230 4464 -4.19823e-06
3231 4464 -3.27942e-05
3232 4464 -4.19823e-06
3233 4464 -1.82853e-05
3234 4464 -9.33729e-05
3235 4464 -8.19616e-05
3440 4464 0
3441 4464 0
3442 4464 0
3443 4464 -1.40871e-05
3455 4464 -1
3456 4464 -1
3457 4464 -1
3458 4464 -1
3459 4464 -1
3460 4464 -1
3461 4464 -1
3462 4464 -1
3463 4464 -1
3464 4464 -1
3465 4464 -1
3466 4464 -1
3467 4464 -1
3468 4464 -1
3469 4464 -1
3470 4464 -1
3471 4464 -1
3472 4464 -2.8596e-05
3473 4464 -6.20975e-06
3482 4464 0
3483 4464 -1.40871e-05
3484 4464 -8.43695e-05
3485 4464 -8.82185e-05
3674 4464 -2.8596e-05
3675 4464 -6.20975e-06
3676 4464 0
3677 4464 -1.40871e-05
3678 4464 -8.41966e-05
3679 4464 -8.83669e-05
3695 4464 -2.8596e-05
3696 4464 -6.20975e-06
3697 4464 -8.83671e-05
3761 4464 -8.41964e-05
3762 4464 0
3763 4464 -1.40871e-05
3779 4464 -2.8596e-05
3780 4464 -6.20975e-06
3781 4464 0
3787 4464 -6.20975e-06
3801 4464 -1.40871e-05
3802 4464 -0.00297979
3803 4464 -0.0002507
3809 4464 -6.20975e-06
3823 4464 -1.40871e-05
3824 4464 -2.8596e-05
3825 4464 -8.83672e-05
4427 4464 0
4428 4464 -8.41963e-05
4429 4464 -0.000304345
4430 4464 -1.40871e-05
4431 4464 0
4432 4464 -8.41963e-05
4433 4464 -1.40871e-05
4434 4464 -8.83672e-05
4435 4464 -1.40871e-05
4436 4464 0
4437 4464 0
4438 4464 0
4439 4464 0
4440 4464 0
4441 4464 0
4442 4464 0
4443 4464 0
4444 4464 0
4445 4464 -1.40871e-05
4446 4464 0
4447 4464 0
4448 4464 0
4449 4464 0
4450 4464 0
4451 4464 0
4452 4464 -1.40871e-05
4453 4464 0
4454 4464 0
4455 4464 0
4456 4464 -1.40871e-05
4457 4464 0
4458 4464 -7.09871e-06
4459 4464 -9.70784e-05
4460 4464 -2.41966e-05
4461 4464 0
4462 4464 -4.69787e-06
4463 4464 0
4464 4464 0.0231727
4465 4464 -1.15435e-05
4466 4464 0
4467 4464 0
4468 4464 -1.40871e-05
4473 4464 0
4474 4464 -1.40871e-05
4475 4464 0
4476 4464 -0.00124378
4477 4464 0
4478 4464 -1.15435e-05
4479 4464 -1.15435e-05
4480 4464 0
4481 4464 0
4482 4464 -3.9257e-06
4483 4464 0
4484 4464 -7.55941e-06
4485 4464 0
4486 4464 0
4487 4464 0
4488 4464 0
4489 4464 0
4490 4464 -1.40871e-05
4491 4464 0
4492 4464 -1.69227e-05
4493 4464 0
4494 4464 0
4495 4464 0
4496 4464 -3.9257e-06
4497 4464 0
4498 4464 0
4499 4464 0
4500 4464 0
4502 4464 0
4504 4464 0
4506 4464 -0.00644721
4507 4464 0
4509 4464 -0.00480008
1890 4465 -6.20975e-06
1891 4465 -2.93033e-05
1892 4465 -1.40871e-05
1893 4465 0
1894 4465 -9.16992e-05
1895 4465 -8.16974e-05
1896 4465 -4.69787e-06
1916 4465 -6.20975e-06
1917 4465 -2.93033e-05
1918 4465 -1.40871e-05
1919 4465 0
1920 4465 -9.16992e-05
1921 4465 -8.16974e-05
2205 4465 0
2206 4465 0
2207 4465 0
2208 4465 -1.40871e-05
2209 4465 0
2229 4465 -6.20975e-06
2230 4465 -0.00300978
2231 4465 -1.40871e-05
2232 4465 0
2233 4465 -0.000289675
2234 4465 -0.000252377
2254 4465 -6.20975e-06
2255 4465 -2.93033e-05
2256 4465 -1.40871e-05
2257 4465 0
2258 4465 -9.16992e-05
2259 4465 -8.16974e-05
2475 4465 0
2476 4465 0
2477 4465 -1.40871e-05
2478 4465 0
2547 4465 -1
2548 4465 -1
2549 4465 -1
2550 4465 -1
2551 4465 -1
2552 4465 -1
2553 4465 -1
2554 4465 -1
2555 4465 -1
2556 4465 -1
2557 4465 -1
2558 4465 -1
2559 4465 -1
2560 4465 -1
2561 4465 -1
2562 4465 -1
2563 4465 -1
2581 4465 -6.20975e-06
2582 4465 -2.93033e-05
2583 4465 -1.40871e-05
2584 4465 0
2765 4465 0
2785 4465 -6.20975e-06
2786 4465 -2.93033e-05
2787 4465 -1.40871e-05
2788 4465 0
2789 4465 -9.16992e-05
2790 4465 -8.16974e-05
2810 4465 -6.20975e-06
2811 4465 -2.93033e-05
2812 4465 -1.40871e-05
2813 4465 0
2814 4465 -9.16992e-05
2815 4465 -8.16974e-05
2884 4465 0
2885 4465 -1.40871e-05
2905 4465 -6.20975e-06
2906 4465 -2.93033e-05
2907 4465 -1.40871e-05
2908 4465 0
2909 4465 -9.16992e-05
2910 4465 -8.16974e-05
3166 4465 0
3167 4465 0
3168 4465 0
3169 4465 0
3170 4465 0
3171 4465 -1.40871e-05
3172 4465 0
3173 4465 -9.16992e-05
3174 4465 -8.16974e-05
3175 4465 -1.40871e-05
3176 4465 0
3177 4465 0
3178 4465 0
3179 4465 0
3180 4465 -1.40871e-05
3181 4465 0
3182 4465 0
3183 4465 0
3184 4465 0
3185 4465 -1.40871e-05
3205 4465 -6.20975e-06
3206 4465 -2.93033e-05
3207 4465 -1.40871e-05
3208 4465 0
3209 4465 -9.16991e-05
3210 4465 -8.16974e-05
3230 4465 -6.20975e-06
3231 4465 0
3232 4465 -2.93033e-05
3233 4465 -1.40871e-05
3234 4465 -9.16989e-05
3235 4465 -8.16976e-05
3440 4465 0
3441 4465 0
3442 4465 0
3443 4465 -1.40871e-05
3481 4465 -2.93033e-05
3482 4465 -6.20975e-06
3483 4465 -1.40871e-05
3484 4465 -9.16446e-05
3485 4465 -8.17455e-05
3661 4465 -4.19823e-06
3673 4465 -1.42234e-05
3674 4465 -8.01362e-06
3675 4465 -8.01362e-06
3676 4465 -3.35015e-05
3677 4465 -1.82853e-05
3678 4465 -8.81325e-05
3679 4465 -9.03199e-05
3693 4465 -2.93033e-05
3694 4465 -6.20975e-06
3695 4465 0
3696 4465 0
3697 4465 -8.83671e-05
3761 4465 -8.42259e-05
3762 4465 0
3763 4465 -1.40871e-05
3771 4465 -2.93033e-05
3781 4465 -6.20975e-06
3799 4465 -6.20975e-06
3800 4465 -0.00299693
3801 4465 -1.40871e-05
3802 4465 0
3803 4465 -0.000250776
3821 4465 -6.20975e-06
3822 4465 -2.93033e-05
3823 4465 -1.40871e-05
3824 4465 0
3825 4465 -8.83672e-05
4427 4465 0
4428 4465 -8.42258e-05
4429 4465 -0.000304824
4430 4465 -1.40871e-05
4431 4465 0
4432 4465 -8.42259e-05
4433 4465 -1.40871e-05
4434 4465 -8.83672e-05
4435 4465 -1.40871e-05
4436 4465 0
4437 4465 0
4438 4465 0
4439 4465 0
4440 4465 0
4441 4465 0
4442 4465 0
4443 4465 0
4444 4465 0
4445 4465 -1.40871e-05
4446 4465 0
4447 4465 0
4448 4465 0
4449 4465 0
4450 4465 0
4451 4465 0
4452 4465 -1.40871e-05
4453 4465 0
4454 4465 0
4455 4465 0
4456 4465 -1.40871e-05
4457 4465 0
4458 4465 -8.16287e-06
4459 4465 -1.10374e-05
4460 4465 -2.41966e-05
4461 4465 0
4462 4465 -4.69787e-06
4463 4465 0
4464 4465 -1.15435e-05
4465 4465 0.0238561
4466 4465 0
4467 4465 0
4468 4465 -1.40871e-05
4473 4465 0
4474 4465 -1.40871e-05
4475 4465 0
4476 4465 -3.9257e-06
4477 4465 0
4478 4465 -2.41966e-05
4479 4465 -1.15435e-05
4480 4465 0
4481 4465 0
4482 4465 -3.9257e-06
4483 4465 0
4484 4465 -7.55941e-06
4485 4465 0
4486 4465 0
4487 4465 -0.00192678
4488 4465 -3.9257e-06
4489 4465 0
4490 4465 -1.40871e-05
4491 4465 0
4492 4465 -1.39703e-05
4493 4465 0
4494 4465 0
4495 4465 0
4496 4465 -3.9257e-06
4497 4465 0
4498 4465 0
4499 4465 0
4500 4465 0
4502 4465 0
4504 4465 0
4506 4465 -0.00642547
4507 4465 0
4509 4465 -0.00483493
2112 4466 -1
2113 4466 -1
2121 4466 -0.0070922
2148 4466 -1.95312e-06
2149 4466 4.69122e-07
2163 4466 0.000111095
2164 4466 -3.06919e-06
2165 4466 0
2200 4466 0
2201 4466 -8.83121e-06
2202 4466 0
2203 4466 0
2204 4466 0
2205 4466 0
2206 4466 0
2207 4466 0
2208 4466 0
2209 4466 0
3181 4466 0
3182 4466 0
3183 4466 0
3184 4466 0
3185 4466 0
3344 4466 -6.32655e-06
3345 4466 0
3346 4466 0
3347 4466 0
3438 4466 0
3439 4466 0
3440 4466 0
3441 4466 0
3442 4466 0
3443 4466 0
4447 4466 0
4448 4466 0
4449 4466 0
4450 4466 0
4451 4466 0
4452 4466 0
4453 4466 0
4454 4466 0
4455 4466 0
4456 4466 0
4457 4466 0
4458 4466 0
4459 4466 0
4460 4466 0
4461 4466 -6.32655e-06
4462 4466 0
4463 4466 0
4464 4466 0
4465 4466 0
4466 4466 0.00924999
4467 4466 0
4468 4466 0
4473 4466 0
4474 4466 0
4475 4466 0
4476 4466 0
4477 4466 0
4478 4466 0
4479 4466 0
4480 4466 0
4481 4466 0
4482 4466 0
4483 4466 0
4484 4466 0
4485 4466 0
4486 4466 0
4487 4466 0
4488 4466 0
4489 4466 0
4490 4466 0
4491 4466 0
4492 4466 0
4493 4466 0
4494 4466 0
4495 4466 0
4496 4466 0
4497 4466 0
4498 4466 0
4499 4466 0
4500 4466 0
4502 4466 -2.35542e-06
4504 4466 0
4506 4466 -0.0021268
4507 4466 0
4509 4466 -0.000113693
1203 4467 -4.19823e-06
1204 4467 0
1205 4467 0
1206 4467 0
1865 4467 0
1866 4467 0
1867 4467 0
1868 4467 0
1869 4467 0
1870 4467 0
3687 4467 -1
3688 4467 -1
3693 4467 -0.0105263
3694 4467 0
3695 4467 0
3696 4467 0
3697 4467 -8.55753e-05
3761 4467 -9.81554e-05
3762 4467 0
3763 4467 0
4435 4467 0
4436 4467 0
4437 4467 0
4438 4467 0
4439 4467 0
4440 4467 0
4441 4467 0
4442 4467 0
4443 4467 0
4444 4467 0
4445 4467 0
4446 4467 0
4447 4467 0
4448 4467 0
4449 4467 0
4450 4467 0
4451 4467 0
4452 4467 0
4453 4467 0
4454 4467 0
4455 4467 0
4456 4467 0
4457 4467 0
4458 4467 0
4459 4467 0
4460 4467 0
4461 4467 0
4462 4467 0
4463 4467 0
4464 4467 0
4465 4467 0
4466 4467 0
4467 4467 0.0220845
4468 4467 -0.0105263
4469 4467 0
4470 4467 0
4471 4467 0
4472 4467 0
4473 4467 0
4474 4467 0
4475 4467 0
4476 4467 0
4477 4467 0
4478 4467 -3.41374e-05
4479 4467 -7.05329e-06
4480 4467 0
4481 4467 0
4482 4467 0
4483 4467 0
4484 4467 0
4485 4467 0
4486 4467 0
4487 4467 0
4488 4467 0
4489 4467 0
4490 4467 0
4491 4467 0
4492 4467 0
4493 4467 0
4494 4467 0
4495 4467 0
4496 4467 0
4497 4467 0
4498 4467 0
4499 4467 0
4500 4467 0
4502 4467 0
4504 4467 0
4506 4467 -0.000445592
4507 4467 0
4509 4467 -0.00035718
1148 4468 -1
1149 4468 -1
1203 4468 -4.19823e-06
1204 4468 0
1205 4468 0
1206 4468 0
1865 4468 0
1866 4468 0
1867 4468 0
1868 4468 0
1869 4468 0
1870 4468 0
3697 4468 -8.5226e-05
3761 4468 -9.85317e-05
3762 4468 0
3763 4468 0
4435 4468 -0.0104167
4436 4468 0
4437 4468 0
4438 4468 0
4439 4468 0
4440 4468 0
4441 4468 0
4442 4468 0
4443 4468 0
4444 4468 0
4445 4468 0
4446 4468 0
4447 4468 0
4448 4468 0
4449 4468 0
4450 4468 0
4451 4468 0
4452 4468 0
4453 4468 0
4454 4468 0
4455 4468 0
4456 4468 0
4457 4468 0
4458 4468 -1.28997e-05
4459 4468 -2.10236e-05
4460 4468 -1.40871e-05
4461 4468 0
4462 4468 0
4463 4468 0
4464 4468 -1.40871e-05
4465 4468 -1.40871e-05
4466 4468 0
4467 4468 -0.0105263
4468 4468 0.02234
4469 4468 0
4470 4468 0
4471 4468 0
4472 4468 0
4473 4468 0
4474 4468 0
4475 4468 0
4476 4468 0
4477 4468 0
4478 4468 -1.82853e-05
4479 4468 -6.36742e-05
4480 4468 0
4481 4468 0
4482 4468 0
4483 4468 0
4484 4468 0
4485 4468 0
4486 4468 0
4487 4468 0
4488 4468 0
4489 4468 0
4490 4468 0
4491 4468 0
4492 4468 0
4493 4468 0
4494 4468 0
4495 4468 0
4496 4468 0
4497 4468 0
4498 4468 0
4499 4468 0
4500 4468 0
4502 4468 0
4504 4468 0
4506 4468 -0.000442317
4507 4468 0
4509 4468 -0.000608559
1601 4469 -1
1602 4469 -1
1603 4469 -1
1604 4469 -1
1605 4469 -1
1606 4469 -1
1607 4469 -1
1608 4469 -1
1609 4469 -1
1610 4469 -1
1611 4469 -1
1612 4469 -1
1613 4469 -1
1614 4469 -1
1615 4469 -1
1616 4469 -1
1617 4469 -1
1678 4469 -0.00714286
1853 4469 0
1854 4469 0
1855 4469 0
1856 4469 0
1857 4469 0
1858 4469 0
1859 4469 0
1860 4469 0
1861 4469 0
1862 4469 0
1863 4469 0
1864 4469 0
1865 4469 0
1866 4469 0
1867 4469 0
1868 4469 0
1869 4469 0
1870 4469 0
4467 4469 0
4468 4469 0
4469 4469 0.0148772
4470 4469 -0.000101225
4471 4469 -0.000120626
4472 4469 0
4473 4469 -2.05901e-05
4474 4469 0
4475 4469 -2.05901e-05
4476 4469 0
4477 4469 -2.33336e-05
4478 4469 0
4479 4469 0
4480 4469 -2.60913e-05
4481 4469 -0.000113871
4482 4469 0
4483 4469 -2.60913e-05
4484 4469 0
4485 4469 -2.05901e-05
4486 4469 -2.05901e-05
4487 4469 0
4488 4469 0
4489 4469 -2.05901e-05
4490 4469 0
4491 4469 -2.60913e-05
4492 4469 0
4493 4469 -2.60913e-05
4494 4469 -2.60913e-05
4495 4469 -2.05901e-05
4496 4469 0
4497 4469 -2.05901e-05
4498 4469 -8.13187e-05
4499 4469 -2.60913e-05
4500 4469 -0.00106222
4502 4469 0
4504 4469 0
4506 4469 0
4507 4469 0
4509 4469 -0.00593103
1620 4470 -1
1621 4470 -1
1622 4470 -1
1623 4470 -1
1624 4470 -1
1625 4470 -1
1626 4470 -1
1627 4470 -1
1628 4470 -1
1629 4470 -1
1630 4470 -1
1631 4470 -1
1632 4470 -1
1633 4470 -1
1634 4470 -1
1635 4470 -1
1636 4470 -1
1637 4470 -0.00900901
1678 4470 0
1853 4470 0
1854 4470 0
1855 4470 0
1856 4470 0
1857 4470 0
1858 4470 0
1859 4470 0
1860 4470 0
1861 4470 0
1862 4470 0
1863 4470 0
1864 4470 0
1865 4470 0
1866 4470 0
1867 4470 0
1868 4470 0
1869 4470 0
1870 4470 0
4467 4470 0
4468 4470 0
4469 4470 -0.000101225
4470 4470 0.0203615
4471 4470 0
4472 4470 0
4473 4470 -1.06213e-05
4474 4470 0
4475 4470 -1.06213e-05
4476 4470 0
4477 4470 -2.31575e-05
4478 4470 0
4479 4470 0
4480 4470 -2.59152e-05
4481 4470 -9.1607e-05
4482 4470 0
4483 4470 -1.06214e-05
4484 4470 0
4485 4470 -2.59152e-05
4486 4470 -2.59152e-05
4487 4470 0
4488 4470 0
4489 4470 -2.59152e-05
4490 4470 0
4491 4470 -2.59152e-05
4492 4470 0
4493 4470 -1.06213e-05
4494 4470 -1.06211e-05
4495 4470 -1.06214e-05
4496 4470 0
4497 4470 -1.06212e-05
4498 4470 -9.1607e-05
4499 4470 -1.06213e-05
4500 4470 -6.05597e-05
4502 4470 0
4504 4470 0
4506 4470 0
4507 4470 0
4509 4470 -0.0107698
1640 4471 -1
1641 4471 -1
1642 4471 -1
1643 4471 -1
1644 4471 -1
1645 4471 -1
1646 4471 -1
1647 4471 -1
1648 4471 -1
1649 4471 -1
1650 4471 -1
1651 4471 -1
1652 4471 -1
1653 4471 -1
1654 4471 -1
1655 4471 -1
1656 4471 -1
1677 4471 -0.00574713
1678 4471 0
1853 4471 0
1854 4471 0
1855 4471 0
1856 4471 0
1857 4471 0
1858 4471 0
1859 4471 0
1860 4471 0
1861 4471 0
1862 4471 0
1863 4471 0
1864 4471 0
1865 4471 0
1866 4471 0
1867 4471 0
1868 4471 0
1869 4471 0
1870 4471 0
4467 4471 0
4468 4471 0
4469 4471 -0.000120626
4470 4471 0
4471 4471 0.0172633
4472 4471 -0.000143823
4473 4471 -1.19639e-05
4474 4471 0
4475 4471 -2.1481e-05
4476 4471 0
4477 4471 -1.19638e-05
4478 4471 0
4479 4471 0
4480 4471 -1.19638e-05
4481 4471 -9.07213e-05
4482 4471 0
4483 4471 -1.1964e-05
4484 4471 0
4485 4471 -1.19638e-05
4486 4471 -2.42387e-05
4487 4471 0
4488 4471 0
4489 4471 -1.19638e-05
4490 4471 0
4491 4471 -2.42387e-05
4492 4471 0
4493 4471 -2.42387e-05
4494 4471 -2.42387e-05
4495 4471 -1.1964e-05
4496 4471 0
4497 4471 -2.42387e-05
4498 4471 -9.07213e-05
4499 4471 -1.19639e-05
4500 4471 -6.09814e-05
4502 4471 0
4504 4471 0
4506 4471 0
4507 4471 0
4509 4471 -0.010771
1659 4472 -1
1660 4472 -1
1661 4472 -1
1662 4472 -1
1663 4472 -1
1664 4472 -1
1665 4472 -1
1666 4472 -1
1667 4472 -1
1668 4472 -1
1669 4472 -1
1670 4472 -1
1671 4472 -1
1672 4472 -1
1673 4472 -1
1674 4472 -1
1675 4472 -1
1676 4472 -0.0047619
1677 4472 0
1678 4472 0
1853 4472 0
1854 4472 0
1855 4472 0
1856 4472 0
1857 4472 0
1858 4472 0
1859 4472 0
1860 4472 0
1861 4472 0
1862 4472 0
1863 4472 0
1864 4472 0
1865 4472 0
1866 4472 0
1867 4472 0
1868 4472 0
1869 4472 0
1870 4472 0
4467 4472 0
4468 4472 0
4469 4472 0
4470 4472 0
4471 4472 -0.000143823
4472 4472 0.0126605
4473 4472 -2.33336e-05
4474 4472 0
4475 4472 -2.05905e-05
4476 4472 0
4477 4472 -2.60913e-05
4478 4472 0
4479 4472 0
4480 4472 -2.05905e-05
4481 4472 -0.000113871
4482 4472 0
4483 4472 -2.05905e-05
4484 4472 0
4485 4472 -2.05905e-05
4486 4472 -2.60913e-05
4487 4472 0
4488 4472 0
4489 4472 -2.60913e-05
4490 4472 0
4491 4472 -2.05905e-05
4492 4472 0
4493 4472 -2.05905e-05
4494 4472 -2.60913e-05
4495 4472 -2.05905e-05
4496 4472 0
4497 4472 -2.60913e-05
4498 4472 -8.13165e-05
4499 4472 -2.60913e-05
4500 4472 -0.00106443
4502 4472 0
4504 4472 0
4506 4472 0
4507 4472 0
4509 4472 -0.00617109
3257 4473 -0.000306032
3336 4473 -1
3337 4473 -1
3340 4473 -0.000235878
3341 4473 0
3342 4473 -0.004
3343 4473 0
3344 4473 0
3345 4473 0
3346 4473 0
3347 4473 0
3438 4473 0
3439 4473 0
3440 4473 0
3441 4473 0
3442 4473 0
3443 4473 0
4447 4473 0
4448 4473 0
4449 4473 0
4450 4473 0
4451 4473 0
4452 4473 0
4453 4473 0
4454 4473 0
4455 4473 0
4456 4473 0
4457 4473 0
4458 4473 0
4459 4473 0
4460 4473 0
4461 4473 0
4462 4473 0
4463 4473 0
4464 4473 0
4465 4473 0
4466 4473 0
4467 4473 0
4468 4473 0
4469 4473 -2.60913e-05
4470 4473 -2.60913e-05
4471 4473 -2.60913e-05
4472 4473 -2.33336e-05
4473 4473 0.011837
4474 4473 0
4475 4473 -2.11209e-05
4476 4473 0
4477 4473 -1.2134e-05
4478 4473 0
4479 4473 0
4480 4473 -1.23806e-05
4481 4473 -1.60078e-05
4482 4473 0
4483 4473 -1.23806e-05
4484 4473 0
4485 4473 -1.23806e-05
4486 4473 -9.62284e-06
4487 4473 0
4488 4473 0
4489 4473 -9.0979e-05
4490 4473 0
4491 4473 -8.48406e-05
4492 4473 0
4493 4473 -1.23806e-05
4494 4473 -9.62284e-06
4495 4473 -1.57288e-05
4496 4473 0
4497 4473 -9.62284e-06
4498 4473 -9.8759e-06
4499 4473 -1.23806e-05
4500 4473 -0.000591015
4502 4473 0
4504 4473 0
4506 4473 0
4507 4473 0
4509 4473 -0.00626105
944 4474 -1
945 4474 -1
973 4474 -4.19823e-06
1015 4474 0
1016 4474 0
1017 4474 0
1018 4474 0
1206 4474 0
1865 4474 0
1866 4474 0
1867 4474 0
1868 4474 0
1869 4474 0
1870 4474 0
3770 4474 -0.0105263
3771 4474 0
3781 4474 0
4432 4474 -9.85318e-05
4433 4474 -0.0104167
4434 4474 -8.44303e-05
4435 4474 0
4436 4474 0
4437 4474 0
4438 4474 0
4439 4474 0
4440 4474 0
4441 4474 0
4442 4474 0
4443 4474 0
4444 4474 0
4445 4474 0
4446 4474 0
4447 4474 0
4448 4474 0
4449 4474 0
4450 4474 0
4451 4474 0
4452 4474 0
4453 4474 0
4454 4474 0
4455 4474 0
4456 4474 0
4457 4474 0
4458 4474 -1.28997e-05
4459 4474 -2.10236e-05
4460 4474 -1.40871e-05
4461 4474 0
4462 4474 0
4463 4474 0
4464 4474 -1.40871e-05
4465 4474 -1.40871e-05
4466 4474 0
4467 4474 0
4468 4474 0
4469 4474 0
4470 4474 0
4471 4474 0
4472 4474 0
4473 4474 0
4474 4474 0.02234
4475 4474 0
4476 4474 0
4477 4474 0
4478 4474 -1.40871e-05
4479 4474 -6.82942e-05
4480 4474 0
4481 4474 0
4482 4474 0
4483 4474 0
4484 4474 0
4485 4474 0
4486 4474 0
4487 4474 0
4488 4474 0
4489 4474 0
4490 4474 0
4491 4474 0
4492 4474 0
4493 4474 0
4494 4474 0
4495 4474 0
4496 4474 0
4497 4474 0
4498 4474 0
4499 4474 0
4500 4474 0
4502 4474 0
4504 4474 0
4506 4474 -0.000440826
4507 4474 0
4509 4474 -0.000610474
2359 4475 -0.000306033
2381 4475 -2.50466e-06
2383 4475 -1
2384 4475 -1
2387 4475 -0.000235877
2388 4475 -2.75772e-06
2389 4475 0
2390 4475 -0.00561798
2391 4475 0
2392 4475 0
2470 4475 0
2471 4475 -2.75772e-06
2472 4475 0
2473 4475 0
2474 4475 0
2475 4475 0
2476 4475 0
2477 4475 0
2478 4475 0
3176 4475 0
3177 4475 0
3178 4475 0
3179 4475 0
3180 4475 0
3181 4475 0
3182 4475 0
3183 4475 0
3184 4475 0
3185 4475 0
4453 4475 0
4454 4475 0
4455 4475 0
4456 4475 0
4457 4475 0
4458 4475 0
4459 4475 0
4460 4475 0
4461 4475 0
4462 4475 0
4463 4475 0
4464 4475 0
4465 4475 0
4466 4475 0
4467 4475 0
4468 4475 0
4469 4475 -2.60913e-05
4470 4475 -2.60913e-05
4471 4475 -2.33336e-05
4472 4475 -2.60913e-05
4473 4475 -2.11209e-05
4474 4475 0
4475 4475 0.0136213
4476 4475 0
4477 4475 -9.62284e-06
4478 4475 0
4479 4475 0
4480 4475 -0.000101646
4481 4475 -8.88831e-05
4482 4475 0
4483 4475 -1.68448e-05
4484 4475 0
4485 4475 -1.76819e-05
4486 4475 -9.62284e-06
4487 4475 0
4488 4475 0
4489 4475 -1.23806e-05
4490 4475 0
4491 4475 -1.23806e-05
4492 4475 0
4493 4475 -1.65658e-05
4494 4475 -9.62284e-06
4495 4475 -1.23806e-05
4496 4475 0
4497 4475 -9.62284e-06
4498 4475 -9.8759e-06
4499 4475 -1.51707e-05
4500 4475 -0.000603688
4502 4475 0
4504 4475 0
4506 4475 0
4507 4475 0
4509 4475 -0.00638469
1344 4476 -0.000123728
1345 4476 -0.000130898
1346 4476 0
1387 4476 0
1388 4476 0
1389 4476 0
1390 4476 0
1597 4476 0
1598 4476 0
1860 4476 0
1861 4476 0
1862 4476 0
1863 4476 0
1864 4476 0
1865 4476 0
1866 4476 0
1867 4476 0
1868 4476 0
1869 4476 0
1870 4476 0
3219 4476 -4.19823e-06
3230 4476 -4.19823e-06
3231 4476 -4.19823e-06
3232 4476 -4.19823e-06
3233 4476 -4.19823e-06
3234 4476 0
3235 4476 0
3440 4476 0
3441 4476 0
3442 4476 0
3443 4476 0
4447 4476 0
4448 4476 0
4449 4476 0
4450 4476 0
4451 4476 0
4452 4476 0
4453 4476 0
4454 4476 0
4455 4476 0
4456 4476 0
4457 4476 0
4458 4476 0
4459 4476 0
4460 4476 -3.9257e-06
4461 4476 0
4462 4476 0
4463 4476 0
4464 4476 -0.00124378
4465 4476 -3.9257e-06
4466 4476 0
4467 4476 0
4468 4476 0
4469 4476 0
4470 4476 0
4471 4476 0
4472 4476 0
4473 4476 0
4474 4476 0
4475 4476 0
4476 4476 0.00173953
4477 4476 0
4478 4476 -3.9257e-06
4479 4476 -3.9257e-06
4480 4476 0
4481 4476 0
4482 4476 0
4483 4476 0
4484 4476 -2.86154e-06
4485 4476 0
4486 4476 0
4487 4476 0
4488 4476 0
4489 4476 0
4490 4476 0
4491 4476 0
4492 4476 -1.4736e-05
4493 4476 0
4494 4476 0
4495 4476 0
4496 4476 0
4497 4476 0
4498 4476 0
4499 4476 0
4500 4476 0
4502 4476 0
4504 4476 0
4506 4476 -5.86844e-05
4507 4476 0
4509 4476 -0.000128149
3507 4477 -0.00030604
3550 4477 0
3587 4477 -1
3588 4477 -1
3591 4477 -0.000235878
3592 4477 0
3593 4477 -0.004
3594 4477 0
3595 4477 0
3650 4477 0
3651 4477 0
3652 4477 0
3653 4477 0
3654 4477 0
4437 4477 0
4438 4477 0
4439 4477 0
4440 4477 0
4441 4477 0
4442 4477 0
4443 4477 0
4444 4477 0
4445 4477 0
4446 4477 0
4447 4477 0
4448 4477 0
4449 4477 0
4450 4477 0
4451 4477 0
4452 4477 0
4453 4477 0
4454 4477 0
4455 4477 0
4456 4477 0
4457 4477 0
4458 4477 0
4459 4477 0
4460 4477 0
4461 4477 0
4462 4477 0
4463 4477 0
4464 4477 0
4465 4477 0
4466 4477 0
4467 4477 0
4468 4477 0
4469 4477 -2.33336e-05
4470 4477 -2.33336e-05
4471 4477 -2.60913e-05
4472 4477 -2.60913e-05
4473 4477 -1.2134e-05
4474 4477 0
4475 4477 -9.62284e-06
4476 4477 0
4477 4477 0.0117399
4478 4477 0
4479 4477 0
4480 4477 -1.2134e-05
4481 4477 -9.62284e-06
4482 4477 0
4483 4477 -9.62284e-06
4484 4477 0
4485 4477 -9.62284e-06
4486 4477 -1.1576e-05
4487 4477 0
4488 4477 0
4489 4477 -9.62284e-06
4490 4477 0
4491 4477 -9.62284e-06
4492 4477 0
4493 4477 -1.2134e-05
4494 4477 -9.62284e-06
4495 4477 -9.62284e-06
4496 4477 0
4497 4477 -0.000100595
4498 4477 -9.8759e-06
4499 4477 -8.48471e-05
4500 4477 -0.000544348
4502 4477 0
4504 4477 0
4506 4477 0
4507 4477 0
4509 4477 -0.00623448
1203 4478 -0.0026738
1204 4478 0
1205 4478 0
1206 4478 0
1865 4478 0
1866 4478 0
1867 4478 0
1868 4478 0
1869 4478 0
1870 4478 0
1885 4478 -2.99392e-05
1891 4478 -6.20975e-06
1892 4478 -1.40871e-05
1893 4478 0
1894 4478 -9.16992e-05
1895 4478 -8.15524e-05
1896 4478 -4.69787e-06
1913 4478 -2.99392e-05
1917 4478 -6.20975e-06
1918 4478 -1.40871e-05
1919 4478 0
1920 4478 -9.16992e-05
1921 4478 -8.15524e-05
2205 4478 0
2206 4478 0
2207 4478 0
2208 4478 -1.40871e-05
2209 4478 0
2224 4478 -0.00299421
2230 4478 -6.20975e-06
2231 4478 -1.40871e-05
2232 4478 0
2233 4478 -0.000285264
2234 4478 -0.000253782
2249 4478 -2.99392e-05
2255 4478 -6.20975e-06
2256 4478 -1.40871e-05
2257 4478 0
2258 4478 -9.16992e-05
2259 4478 -8.15524e-05
2475 4478 0
2476 4478 0
2477 4478 -1.40871e-05
2478 4478 0
2525 4478 -1
2526 4478 -1
2527 4478 -1
2528 4478 -1
2529 4478 -1
2530 4478 -1
2531 4478 -1
2532 4478 -1
2533 4478 -1
2534 4478 -1
2535 4478 -1
2536 4478 -1
2537 4478 -1
2538 4478 -1
2539 4478 -1
2540 4478 -1
2541 4478 -1
2542 4478 -2.99392e-05
2582 4478 -6.20975e-06
2583 4478 -1.40871e-05
2584 4478 0
2765 4478 0
2780 4478 -2.99392e-05
2786 4478 -6.20975e-06
2787 4478 -1.40871e-05
2788 4478 0
2789 4478 -9.16992e-05
2790 4478 -8.15524e-05
2805 4478 -2.99392e-05
2811 4478 -6.20975e-06
2812 4478 -1.40871e-05
2813 4478 0
2814 4478 -9.16992e-05
2815 4478 -8.15524e-05
2884 4478 0
2885 4478 -1.40871e-05
2900 4478 -2.99392e-05
2906 4478 -6.20975e-06
2907 4478 -1.40871e-05
2908 4478 0
2909 4478 -9.16992e-05
2910 4478 -8.15524e-05
3166 4478 0
3167 4478 0
3168 4478 0
3169 4478 0
3170 4478 0
3171 4478 -1.40871e-05
3172 4478 0
3173 4478 -9.16992e-05
3174 4478 -8.15524e-05
3175 4478 -1.40871e-05
3176 4478 0
3177 4478 0
3178 4478 0
3179 4478 0
3180 4478 -1.40871e-05
3181 4478 0
3182 4478 0
3183 4478 0
3184 4478 0
3185 4478 -1.40871e-05
3202 4478 -2.99392e-05
3206 4478 -6.20975e-06
3207 4478 -1.40871e-05
3208 4478 0
3209 4478 -9.16991e-05
3210 4478 -8.15524e-05
3219 4478 -2.99392e-05
3232 4478 -6.20975e-06
3233 4478 -1.40871e-05
3234 4478 -9.16989e-05
3235 4478 -8.15526e-05
3440 4478 0
3441 4478 0
3442 4478 0
3443 4478 -1.40871e-05
3480 4478 -2.99392e-05
3481 4478 -6.20975e-06
3482 4478 0
3483 4478 -1.40871e-05
3484 4478 -9.16849e-05
3485 4478 -8.15652e-05
3661 4478 -2.99392e-05
3676 4478 -6.20975e-06
3677 4478 -1.40871e-05
3678 4478 -8.42422e-05
3679 4478 -8.83667e-05
3693 4478 -1.42234e-05
3694 4478 -8.01362e-06
3695 4478 -8.01362e-06
3696 4478 -8.01362e-06
3697 4478 -9.11573e-05
3761 4478 -8.92641e-05
3762 4478 0
3763 4478 -1.40871e-05
3770 4478 -2.99392e-05
3771 4478 -6.20975e-06
3781 4478 0
3794 4478 -0.00297687
3800 4478 -6.20975e-06
3801 4478 -1.40871e-05
3802 4478 0
3803 4478 -0.000249429
3816 4478 -2.99392e-05
3822 4478 -6.20975e-06
3823 4478 -1.40871e-05
3824 4478 0
3825 4478 -8.83672e-05
4427 4478 0
4428 4478 -8.42417e-05
4429 4478 -0.00030997
4430 4478 -1.40871e-05
4431 4478 0
4432 4478 -8.42417e-05
4433 4478 -1.40871e-05
4434 4478 -8.83672e-05
4435 4478 -1.40871e-05
4436 4478 0
4437 4478 0
4438 4478 0
4439 4478 0
4440 4478 0
4441 4478 0
4442 4478 0
4443 4478 0
4444 4478 0
4445 4478 -1.40871e-05
4446 4478 0
4447 4478 0
4448 4478 0
4449 4478 0
4450 4478 0
4451 4478 0
4452 4478 -1.40871e-05
4453 4478 0
4454 4478 0
4455 4478 0
4456 4478 -1.40871e-05
4457 4478 0
4458 4478 -8.83121e-06
4459 4478 -1.10374e-05
4460 4478 -1.15435e-05
4461 4478 0
4462 4478 -4.69787e-06
4463 4478 0
4464 4478 -1.15435e-05
4465 4478 -2.41966e-05
4466 4478 0
4467 4478 -3.41374e-05
4468 4478 -1.82853e-05
4469 4478 0
4470 4478 0
4471 4478 0
4472 4478 0
4473 4478 0
4474 4478 -1.40871e-05
4475 4478 0
4476 4478 -3.9257e-06
4477 4478 0
4478 4478 0.0246155
4479 4478 -4.82375e-05
4480 4478 0
4481 4478 0
4482 4478 -3.9257e-06
4483 4478 0
4484 4478 -7.55941e-06
4485 4478 0
4486 4478 0
4487 4478 -3.9257e-06
4488 4478 -3.9257e-06
4489 4478 0
4490 4478 -1.40871e-05
4491 4478 0
4492 4478 -1.37562e-05
4493 4478 0
4494 4478 0
4495 4478 0
4496 4478 -3.9257e-06
4497 4478 0
4498 4478 0
4499 4478 0
4500 4478 0
4502 4478 0
4504 4478 0
4506 4478 -0.00641926
4507 4478 0
4509 4478 -0.00484672
946 4479 -1
947 4479 -1
948 4479 -1
949 4479 -1
950 4479 -1
951 4479 -1
952 4479 -1
953 4479 -1
954 4479 -1
955 4479 -1
956 4479 -1
957 4479 -1
958 4479 -1
959 4479 -1
960 4479 -1
961 4479 -1
962 4479 -1
973 4479 -0.00423729
1015 4479 0
1016 4479 0
1017 4479 0
1018 4479 0
1203 4479 -3.9257e-06
1204 4479 0
1205 4479 0
1206 4479 0
1865 4479 0
1866 4479 0
1867 4479 0
1868 4479 0
1869 4479 0
1870 4479 0
1885 4479 -7.05329e-06
1891 4479 0
1892 4479 -6.36742e-05
1893 4479 0
1894 4479 -9.16992e-05
1895 4479 -8.13845e-05
1896 4479 -4.69787e-06
1913 4479 -7.05329e-06
1917 4479 0
1918 4479 -6.36742e-05
1919 4479 0
1920 4479 -9.16992e-05
1921 4479 -8.13845e-05
2205 4479 0
2206 4479 0
2207 4479 0
2208 4479 -1.40676e-05
2209 4479 0
2224 4479 -7.05329e-06
2230 4479 0
2231 4479 -0.00298945
2232 4479 0
2233 4479 -0.000276882
2234 4479 -0.000256769
2249 4479 -7.05329e-06
2255 4479 0
2256 4479 -6.36742e-05
2257 4479 0
2258 4479 -9.16992e-05
2259 4479 -8.13846e-05
2475 4479 0
2476 4479 0
2477 4479 -1.40676e-05
2478 4479 0
2542 4479 -6.63152e-06
2582 4479 0
2583 4479 -6.36742e-05
2584 4479 0
2765 4479 0
2780 4479 -7.05329e-06
2786 4479 0
2787 4479 -6.36742e-05
2788 4479 0
2789 4479 -9.16992e-05
2790 4479 -8.13846e-05
2805 4479 -7.05329e-06
2811 4479 0
2812 4479 -6.36742e-05
2813 4479 0
2814 4479 -9.16992e-05
2815 4479 -8.13845e-05
2884 4479 0
2885 4479 -1.40676e-05
2900 4479 -7.05329e-06
2906 4479 0
2907 4479 -6.36742e-05
2908 4479 0
2909 4479 -9.16992e-05
2910 4479 -8.13846e-05
3166 4479 0
3167 4479 0
3168 4479 0
3169 4479 0
3170 4479 0
3171 4479 -1.40676e-05
3172 4479 0
3173 4479 -9.16992e-05
3174 4479 -8.13846e-05
3175 4479 -1.40676e-05
3176 4479 0
3177 4479 0
3178 4479 0
3179 4479 0
3180 4479 -1.40676e-05
3181 4479 0
3182 4479 0
3183 4479 0
3184 4479 0
3185 4479 -1.40676e-05
3202 4479 -7.05329e-06
3206 4479 0
3207 4479 -6.36742e-05
3208 4479 0
3209 4479 -9.16991e-05
3210 4479 -8.13846e-05
3219 4479 -7.05329e-06
3232 4479 0
3233 4479 -6.36742e-05
3234 4479 -9.1699e-05
3235 4479 -8.13847e-05
3440 4479 0
3441 4479 0
3442 4479 0
3443 4479 -1.40676e-05
3480 4479 -7.05329e-06
3481 4479 0
3482 4479 0
3483 4479 -6.36742e-05
3484 4479 -9.16941e-05
3485 4479 -8.13892e-05
3661 4479 -7.05329e-06
3676 4479 0
3677 4479 -6.36742e-05
3678 4479 -8.42605e-05
3679 4479 -8.83665e-05
3697 4479 -8.83671e-05
3761 4479 -8.42598e-05
3762 4479 0
3763 4479 -1.40676e-05
3770 4479 -1.50669e-05
3771 4479 -8.01362e-06
3779 4479 -8.01362e-06
3780 4479 -8.01362e-06
3781 4479 -8.01362e-06
3794 4479 -7.05329e-06
3800 4479 0
3801 4479 -0.00296233
3802 4479 0
3803 4479 -0.00024683
3816 4479 -7.05329e-06
3822 4479 0
3823 4479 -6.36742e-05
3824 4479 0
3825 4479 -8.83672e-05
4427 4479 0
4428 4479 -8.42597e-05
4429 4479 -0.000320438
4430 4479 -1.40676e-05
4431 4479 0
4432 4479 -8.8166e-05
4433 4479 -1.40676e-05
4434 4479 -9.31105e-05
4435 4479 -1.40676e-05
4436 4479 0
4437 4479 0
4438 4479 0
4439 4479 0
4440 4479 0
4441 4479 0
4442 4479 0
4443 4479 0
4444 4479 0
4445 4479 -1.40676e-05
4446 4479 0
4447 4479 0
4448 4479 0
4449 4479 0
4450 4479 0
4451 4479 0
4452 4479 -1.40676e-05
4453 4479 0
4454 4479 0
4455 4479 0
4456 4479 -1.40676e-05
4457 4479 0
4458 4479 -8.83121e-06
4459 4479 -1.10374e-05
4460 4479 -1.15435e-05
4461 4479 0
4462 4479 -4.69787e-06
4463 4479 0
4464 4479 -1.15435e-05
4465 4479 -1.15435e-05
4466 4479 0
4467 4479 -7.05329e-06
4468 4479 -6.36742e-05
4469 4479 0
4470 4479 0
4471 4479 0
4472 4479 0
4473 4479 0
4474 4479 -6.82942e-05
4475 4479 0
4476 4479 -3.9257e-06
4477 4479 0
4478 4479 -4.82375e-05
4479 4479 0.0266335
4480 4479 0
4481 4479 0
4482 4479 -3.9257e-06
4483 4479 0
4484 4479 -6.76778e-06
4485 4479 0
4486 4479 0
4487 4479 -3.9257e-06
4488 4479 -3.9257e-06
4489 4479 0
4490 4479 -1.40676e-05
4491 4479 0
4492 4479 -1.29256e-05
4493 4479 0
4494 4479 0
4495 4479 0
4496 4479 -3.9257e-06
4497 4479 0
4498 4479 0
4499 4479 0
4500 4479 0
4502 4479 0
4504 4479 0
4506 4479 -0.00635373
4507 4479 0
4509 4479 -0.00513076
2348 4480 -0.000306035
2381 4480 0
2471 4480 0
2472 4480 0
2473 4480 0
2474 4480 0
2475 4480 0
2476 4480 0
2477 4480 0
2478 4480 0
2817 4480 -0.00408163
2818 4480 0
2819 4480 -1
2820 4480 -1
2823 4480 -0.000235877
2824 4480 0
2825 4480 0
2826 4480 0
2827 4480 0
2883 4480 0
2884 4480 0
2885 4480 0
3168 4480 0
3169 4480 0
3170 4480 0
3171 4480 0
3172 4480 0
3173 4480 0
3174 4480 0
3175 4480 0
3176 4480 0
3177 4480 -2.75772e-06
3178 4480 -2.75772e-06
3179 4480 0
3180 4480 0
3181 4480 0
3182 4480 0
3183 4480 0
3184 4480 0
3185 4480 0
4453 4480 0
4454 4480 0
4455 4480 0
4456 4480 0
4457 4480 0
4458 4480 0
4459 4480 0
4460 4480 0
4461 4480 0
4462 4480 0
4463 4480 0
4464 4480 0
4465 4480 0
4466 4480 0
4467 4480 0
4468 4480 0
4469 4480 -2.60913e-05
4470 4480 -2.60913e-05
4471 4480 -2.60913e-05
4472 4480 -2.60913e-05
4473 4480 -1.23806e-05
4474 4480 0
4475 4480 -0.000101646
4476 4480 0
4477 4480 -1.2134e-05
4478 4480 0
4479 4480 0
4480 4480 0.0121299
4481 4480 -1.23806e-05
4482 4480 0
4483 4480 -0.000115273
4484 4480 0
4485 4480 -1.23806e-05
4486 4480 -1.1576e-05
4487 4480 0
4488 4480 0
4489 4480 -1.23806e-05
4490 4480 0
4491 4480 -1.23806e-05
4492 4480 0
4493 4480 -1.62868e-05
4494 4480 -1.12969e-05
4495 4480 -1.85189e-05
4496 4480 0
4497 4480 -1.2134e-05
4498 4480 -9.8759e-06
4499 4480 -1.23806e-05
4500 4480 -0.000572886
4502 4480 0
4504 4480 0
4506 4480 0
4507 4480 0
4509 4480 -0.00644055
2270 4481 -0.000341639
2272 4481 -1
2273 4481 -1
2276 4481 -0.000163383
2277 4481 0
2278 4481 0
2279 4481 -0.00273973
2280 4481 0
2281 4481 0
2337 4481 0
2472 4481 0
2473 4481 0
2474 4481 -2.50466e-06
2475 4481 0
2476 4481 0
2477 4481 0
2478 4481 0
3176 4481 0
3177 4481 0
3178 4481 0
3179 4481 0
3180 4481 0
3181 4481 0
3182 4481 -2.50466e-06
3183 4481 0
3184 4481 0
3185 4481 0
4453 4481 0
4454 4481 0
4455 4481 0
4456 4481 0
4457 4481 0
4458 4481 0
4459 4481 0
4460 4481 0
4461 4481 0
4462 4481 0
4463 4481 0
4464 4481 0
4465 4481 0
4466 4481 0
4467 4481 0
4468 4481 0
4469 4481 -0.000956038
4470 4481 -9.09062e-05
4471 4481 -9.15518e-05
4472 4481 -0.000956024
4473 4481 -1.60078e-05
4474 4481 0
4475 4481 -8.88831e-05
4476 4481 0
4477 4481 -9.62284e-06
4478 4481 0
4479 4481 0
4480 4481 -1.23806e-05
4481 4481 0.00774702
4482 4481 0
4483 4481 -1.23806e-05
4484 4481 0
4485 4481 -1.23806e-05
4486 4481 -9.62284e-06
4487 4481 0
4488 4481 0
4489 4481 -1.54497e-05
4490 4481 0
4491 4481 -1.9635e-05
4492 4481 0
4493 4481 -9.26531e-05
4494 4481 -9.62284e-06
4495 4481 -1.23806e-05
4496 4481 0
4497 4481 -9.62284e-06
4498 4481 -9.8759e-06
4499 4481 -1.57288e-05
4500 4481 -0.000923356
4502 4481 0
4504 4481 0
4506 4481 0
4507 4481 0
4509 4481 -0.00113314
1549 4482 -0.000123728
1550 4482 -0.000130898
1551 4482 0
1592 4482 0
1593 4482 0
1594 4482 0
1595 4482 0
1596 4482 0
1597 4482 0
1598 4482 0
1860 4482 0
1861 4482 0
1862 4482 0
1863 4482 0
1864 4482 0
1865 4482 0
1866 4482 0
1867 4482 0
1868 4482 0
1869 4482 0
1870 4482 0
3195 4482 -4.19823e-06
3202 4482 -4.19823e-06
3205 4482 -4.19823e-06
3206 4482 -4.19823e-06
3207 4482 -4.19823e-06
3208 4482 -4.19823e-06
3209 4482 0
3210 4482 0
3442 4482 0
3443 4482 0
4447 4482 0
4448 4482 0
4449 4482 0
4450 4482 0
4451 4482 0
4452 4482 0
4453 4482 0
4454 4482 0
4455 4482 0
4456 4482 0
4457 4482 0
4458 4482 0
4459 4482 -0.00104932
4460 4482 -3.9257e-06
4461 4482 0
4462 4482 0
4463 4482 0
4464 4482 -3.9257e-06
4465 4482 -3.9257e-06
4466 4482 0
4467 4482 0
4468 4482 0
4469 4482 0
4470 4482 0
4471 4482 0
4472 4482 0
4473 4482 0
4474 4482 0
4475 4482 0
4476 4482 0
4477 4482 0
4478 4482 -3.9257e-06
4479 4482 -3.9257e-06
4480 4482 0
4481 4482 0
4482 4482 0.00157682
4483 4482 0
4484 4482 -2.86154e-06
4485 4482 0
4486 4482 0
4487 4482 0
4488 4482 0
4489 4482 0
4490 4482 0
4491 4482 0
4492 4482 -1.83567e-05
4493 4482 0
4494 4482 0
4495 4482 0
4496 4482 0
4497 4482 0
4498 4482 0
4499 4482 0
4500 4482 0
4502 4482 0
4504 4482 0
4506 4482 -6.21753e-05
4507 4482 0
4509 4482 -0.000144669
2911 4483 -1
2912 4483 -1
2915 4483 -0.000235877
2916 4483 0
2917 4483 0
2918 4483 -0.0019305
2919 4483 0
2920 4483 0
2921 4483 0
2977 4483 0
3009 4483 -0.000306027
3010 4483 -2.75772e-06
3031 4483 0
3079 4483 0
3080 4483 -2.75772e-06
3162 4483 0
3163 4483 0
3164 4483 0
3165 4483 0
3166 4483 0
3167 4483 0
3168 4483 0
3169 4483 0
3170 4483 0
3171 4483 0
3172 4483 0
3173 4483 0
3174 4483 0
3175 4483 0
3176 4483 0
3177 4483 0
3178 4483 0
3179 4483 0
3180 4483 0
3181 4483 0
3182 4483 0
3183 4483 0
3184 4483 0
3185 4483 0
4453 4483 0
4454 4483 0
4455 4483 0
4456 4483 0
4457 4483 0
4458 4483 0
4459 4483 0
4460 4483 0
4461 4483 0
4462 4483 0
4463 4483 0
4464 4483 0
4465 4483 0
4466 4483 0
4467 4483 0
4468 4483 0
4469 4483 -2.60913e-05
4470 4483 -2.60913e-05
4471 4483 -2.60913e-05
4472 4483 -2.60913e-05
4473 4483 -1.23806e-05
4474 4483 0
4475 4483 -1.68448e-05
4476 4483 0
4477 4483 -9.62284e-06
4478 4483 0
4479 4483 0
4480 4483 -0.000115273
4481 4483 -1.23806e-05
4482 4483 0
4483 4483 0.0100677
4484 4483 0
4485 4483 -0.000121366
4486 4483 -1.1576e-05
4487 4483 0
4488 4483 0
4489 4483 -1.23806e-05
4490 4483 0
4491 4483 -2.74475e-05
4492 4483 0
4493 4483 -1.23806e-05
4494 4483 -9.62284e-06
4495 4483 -1.23806e-05
4496 4483 0
4497 4483 -1.2134e-05
4498 4483 -9.8759e-06
4499 4483 -1.23806e-05
4500 4483 -0.00059694
4502 4483 0
4504 4483 0
4506 4483 0
4507 4483 0
4509 4483 -0.00648038
972 4484 0.000201031
973 4484 -6.37197e-06
982 4484 4.01071e-05
983 4484 0
1009 4484 3.96398e-05
1010 4484 0
1011 4484 0
1012 4484 0
1013 4484 0
1014 4484 0
1015 4484 0
1016 4484 0
1017 4484 0
1018 4484 0
1065 4484 0.000201031
1066 4484 0
1075 4484 4.01071e-05
1076 4484 0
1102 4484 3.96398e-05
1103 4484 0
1104 4484 0
1105 4484 0
1106 4484 0
1107 4484 0
1108 4484 0
1109 4484 0
1110 4484 0
1159 4484 0.000201031
1160 4484 0
1169 4484 4.01071e-05
1170 4484 0
1196 4484 3.96398e-05
1197 4484 0
1198 4484 0
1199 4484 0
1200 4484 0
1201 4484 0
1202 4484 0
1203 4484 -2.86154e-06
1204 4484 0
1205 4484 0
1206 4484 0
1253 4484 0.000201031
1254 4484 0
1263 4484 4.01071e-05
1264 4484 0
1290 4484 3.96398e-05
1291 4484 0
1292 4484 0
1293 4484 0
1294 4484 0
1295 4484 0
1296 4484 0
1297 4484 0
1298 4484 0
1345 4484 0.000201031
1346 4484 0
1355 4484 4.01071e-05
1356 4484 0
1382 4484 3.96398e-05
1383 4484 0
1384 4484 0
1385 4484 0
1386 4484 0
1387 4484 0
1388 4484 0
1389 4484 0
1390 4484 0
1456 4484 0.000201031
1457 4484 0
1463 4484 -1
1464 4484 -1
1468 4484 4.01071e-05
1469 4484 0
1495 4484 3.96398e-05
1496 4484 0
1497 4484 0
1498 4484 0
1499 4484 0
1500 4484 0
1501 4484 0
1502 4484 0
1503 4484 0
1550 4484 0.000201031
1551 4484 0
1560 4484 4.01071e-05
1561 4484 0
1587 4484 3.96398e-05
1588 4484 0
1589 4484 0
1590 4484 0
1591 4484 0
1592 4484 0
1593 4484 0
1594 4484 0
1595 4484 0
1596 4484 0
1597 4484 0
1598 4484 0
1860 4484 0
1861 4484 0
1862 4484 0
1863 4484 0
1864 4484 0
1865 4484 0
1866 4484 0
1867 4484 0
1868 4484 0
1869 4484 0
1870 4484 0
1877 4484 -5.36621e-06
1878 4484 -5.36621e-06
1885 4484 -5.36621e-06
1890 4484 -5.36621e-06
1891 4484 -5.36621e-06
1892 4484 -5.36621e-06
1893 4484 -5.36621e-06
1894 4484 0
1895 4484 0
1896 4484 -0.000765111
2207 4484 0
2208 4484 0
2209 4484 0
2712 4484 -3.03025e-06
2757 4484 0
2758 4484 0
2759 4484 0
2760 4484 0
2761 4484 -0.000514139
2762 4484 0
2763 4484 0
2764 4484 0
2765 4484 0
3173 4484 0
3174 4484 0
3175 4484 0
3176 4484 0
3177 4484 0
3178 4484 0
3179 4484 0
3180 4484 0
3181 4484 0
3182 4484 0
3183 4484 0
3184 4484 0
3185 4484 -3.63371e-06
4453 4484 0
4454 4484 0
4455 4484 0
4456 4484 0
4457 4484 0
4458 4484 -9.68772e-06
4459 4484 -7.55941e-06
4460 4484 -7.55941e-06
4461 4484 0
4462 4484 0
4463 4484 0
4464 4484 -7.55941e-06
4465 4484 -7.55941e-06
4466 4484 0
4467 4484 0
4468 4484 0
4469 4484 0
4470 4484 0
4471 4484 0
4472 4484 0
4473 4484 0
4474 4484 0
4475 4484 0
4476 4484 -2.86154e-06
4477 4484 0
4478 4484 -7.55941e-06
4479 4484 -6.76778e-06
4480 4484 0
4481 4484 0
4482 4484 -2.86154e-06
4483 4484 0
4484 4484 0.00789859
4485 4484 0
4486 4484 0
4487 4484 -2.86154e-06
4488 4484 -2.86154e-06
4489 4484 0
4490 4484 0
4491 4484 0
4492 4484 -0.000159351
4493 4484 0
4494 4484 0
4495 4484 0
4496 4484 -2.86154e-06
4497 4484 0
4498 4484 0
4499 4484 0
4500 4484 0
4502 4484 0
4504 4484 0
4506 4484 -5.64717e-05
4507 4484 -4.45129e-06
4509 4484 -0.00824249
3042 4485 -0.000306038
3078 4485 -5.45705e-06
3079 4485 -2.50466e-06
3080 4485 0
3081 4485 -1
3082 4485 -1
3085 4485 -0.000235877
3086 4485 0
3087 4485 0
3088 4485 -0.00561798
3089 4485 0
3090 4485 0
3091 4485 0
3161 4485 0
3162 4485 0
3163 4485 0
3164 4485 0
3165 4485 0
3166 4485 0
3167 4485 0
3168 4485 0
3169 4485 0
3170 4485 0
3171 4485 0
3172 4485 0
3173 4485 0
3174 4485 0
3175 4485 0
3176 4485 0
3177 4485 0
3178 4485 0
3179 4485 0
3180 4485 0
3181 4485 0
3182 4485 0
3183 4485 0
3184 4485 0
3185 4485 0
4453 4485 0
4454 4485 0
4455 4485 0
4456 4485 0
4457 4485 0
4458 4485 0
4459 4485 0
4460 4485 0
4461 4485 0
4462 4485 0
4463 4485 0
4464 4485 0
4465 4485 0
4466 4485 0
4467 4485 0
4468 4485 0
4469 4485 -2.60913e-05
4470 4485 -2.60913e-05
4471 4485 -2.60913e-05
4472 4485 -2.60913e-05
4473 4485 -1.23806e-05
4474 4485 0
4475 4485 -1.76819e-05
4476 4485 0
4477 4485 -9.62284e-06
4478 4485 0
4479 4485 0
4480 4485 -1.23806e-05
4481 4485 -1.23806e-05
4482 4485 0
4483 4485 -0.000121366
4484 4485 0
4485 4485 0.0138756
4486 4485 -9.62284e-06
4487 4485 0
4488 4485 0
4489 4485 -1.76819e-05
4490 4485 0
4491 4485 -1.23806e-05
4492 4485 0
4493 4485 -1.23806e-05
4494 4485 -9.62284e-06
4495 4485 -0.000149644
4496 4485 0
4497 4485 -9.62284e-06
4498 4485 -1.40612e-05
4499 4485 -1.23806e-05
4500 4485 -0.000598206
4502 4485 0
4504 4485 0
4506 4485 0
4507 4485 0
4509 4485 -0.00657201
3848 4486 -1
3849 4486 -1
3852 4486 -0.000235879
3853 4486 0
3864 4486 -0.000306047
3865 4486 0
3866 4486 -0.004
3867 4486 0
3924 4486 0
3925 4486 0
3926 4486 0
3927 4486 0
4424 4486 0
4425 4486 0
4426 4486 0
4427 4486 0
4428 4486 0
4429 4486 0
4430 4486 0
4431 4486 0
4432 4486 0
4433 4486 0
4434 4486 0
4435 4486 0
4436 4486 0
4437 4486 0
4438 4486 0
4439 4486 0
4440 4486 0
4441 4486 0
4442 4486 0
4443 4486 0
4444 4486 0
4445 4486 0
4446 4486 0
4447 4486 0
4448 4486 0
4449 4486 0
4450 4486 0
4451 4486 0
4452 4486 0
4453 4486 0
4454 4486 0
4455 4486 0
4456 4486 0
4457 4486 0
4458 4486 0
4459 4486 0
4460 4486 0
4461 4486 0
4462 4486 0
4463 4486 0
4464 4486 0
4465 4486 0
4466 4486 0
4467 4486 0
4468 4486 0
4469 4486 -2.60913e-05
4470 4486 -2.60913e-05
4471 4486 -2.60913e-05
4472 4486 -2.60913e-05
4473 4486 -9.62284e-06
4474 4486 0
4475 4486 -9.62284e-06
4476 4486 0
4477 4486 -1.1576e-05
4478 4486 0
4479 4486 0
4480 4486 -1.1576e-05
4481 4486 -9.62284e-06
4482 4486 0
4483 4486 -1.1576e-05
4484 4486 0
4485 4486 -9.62284e-06
4486 4486 0.011868
4487 4486 0
4488 4486 0
4489 4486 -9.62284e-06
4490 4486 0
4491 4486 -1.1576e-05
4492 4486 0
4493 4486 -9.62284e-06
4494 4486 -0.000126174
4495 4486 -9.62284e-06
4496 4486 0
4497 4486 -0.000114501
4498 4486 -9.8759e-06
4499 4486 -9.62284e-06
4500 4486 -0.000544347
4502 4486 0
4504 4486 0
4506 4486 0
4507 4486 0
4509 4486 -0.00630357
1064 4487 -0.000123728
1065 4487 -0.000130898
1066 4487 0
1107 4487 0
1108 4487 0
1109 4487 0
1110 4487 0
1206 4487 0
1865 4487 0
1866 4487 0
1867 4487 0
1868 4487 0
1869 4487 0
1870 4487 0
3661 4487 -4.19823e-06
3676 4487 -4.19823e-06
3677 4487 -4.19823e-06
3678 4487 0
3679 4487 0
3763 4487 0
4435 4487 0
4436 4487 0
4437 4487 0
4438 4487 0
4439 4487 0
4440 4487 0
4441 4487 0
4442 4487 0
4443 4487 0
4444 4487 0
4445 4487 0
4446 4487 0
4447 4487 0
4448 4487 0
4449 4487 0
4450 4487 0
4451 4487 0
4452 4487 0
4453 4487 0
4454 4487 0
4455 4487 0
4456 4487 0
4457 4487 0
4458 4487 0
4459 4487 0
4460 4487 0
4461 4487 0
4462 4487 0
4463 4487 0
4464 4487 0
4465 4487 -0.00192678
4466 4487 0
4467 4487 0
4468 4487 0
4469 4487 0
4470 4487 0
4471 4487 0
4472 4487 0
4473 4487 0
4474 4487 0
4475 4487 0
4476 4487 0
4477 4487 0
4478 4487 -3.9257e-06
4479 4487 -3.9257e-06
4480 4487 0
4481 4487 0
4482 4487 0
4483 4487 0
4484 4487 -2.86154e-06
4485 4487 0
4486 4487 0
4487 4487 0.00236216
4488 4487 0
4489 4487 0
4490 4487 0
4491 4487 0
4492 4487 -1.17836e-05
4493 4487 0
4494 4487 0
4495 4487 0
4496 4487 0
4497 4487 0
4498 4487 0
4499 4487 0
4500 4487 0
4502 4487 0
4504 4487 0
4506 4487 -3.40725e-05
4507 4487 0
4509 4487 -0.000111593
1252 4488 -0.000123728
1253 4488 -0.000130898
1254 4488 0
1295 4488 0
1296 4488 0
1297 4488 0
1298 4488 0
1598 4488 0
1860 4488 0
1861 4488 0
1862 4488 0
1863 4488 0
1864 4488 0
1865 4488 0
1866 4488 0
1867 4488 0
1868 4488 0
1869 4488 0
1870 4488 0
3480 4488 -4.19823e-06
3481 4488 -4.19823e-06
3482 4488 -4.19823e-06
3483 4488 -4.19823e-06
3484 4488 0
3485 4488 0
4445 4488 0
4446 4488 0
4447 4488 0
4448 4488 0
4449 4488 0
4450 4488 0
4451 4488 0
4452 4488 0
4453 4488 0
4454 4488 0
4455 4488 0
4456 4488 0
4457 4488 0
4458 4488 0
4459 4488 0
4460 4488 -0.00152207
4461 4488 0
4462 4488 0
4463 4488 0
4464 4488 0
4465 4488 -3.9257e-06
4466 4488 0
4467 4488 0
4468 4488 0
4469 4488 0
4470 4488 0
4471 4488 0
4472 4488 0
4473 4488 0
4474 4488 0
4475 4488 0
4476 4488 0
4477 4488 0
4478 4488 -3.9257e-06
4479 4488 -3.9257e-06
4480 4488 0
4481 4488 0
4482 4488 0
4483 4488 0
4484 4488 -2.86154e-06
4485 4488 0
4486 4488 0
4487 4488 0
4488 4488 0.00198908
4489 4488 0
4490 4488 0
4491 4488 0
4492 4488 -1.58261e-05
4493 4488 0
4494 4488 0
4495 4488 0
4496 4488 0
4497 4488 0
4498 4488 0
4499 4488 0
4500 4488 0
4502 4488 0
4504 4488 0
4506 4488 -3.94452e-05
4507 4488 0
4509 4488 -0.000125681
3246 4489 -0.000306318
3426 4489 -1
3427 4489 -1
3430 4489 -0.000235878
3431 4489 0
3432 4489 -0.004
3433 4489 0
3434 4489 0
3435 4489 0
3436 4489 0
3437 4489 0
3438 4489 0
3439 4489 0
3440 4489 0
3441 4489 0
3442 4489 0
3443 4489 0
4447 4489 0
4448 4489 0
4449 4489 0
4450 4489 0
4451 4489 0
4452 4489 0
4453 4489 0
4454 4489 0
4455 4489 0
4456 4489 0
4457 4489 0
4458 4489 0
4459 4489 0
4460 4489 0
4461 4489 0
4462 4489 0
4463 4489 0
4464 4489 0
4465 4489 0
4466 4489 0
4467 4489 0
4468 4489 0
4469 4489 -2.60913e-05
4470 4489 -2.60913e-05
4471 4489 -2.60913e-05
4472 4489 -2.60913e-05
4473 4489 -9.0979e-05
4474 4489 0
4475 4489 -1.23806e-05
4476 4489 0
4477 4489 -9.62284e-06
4478 4489 0
4479 4489 0
4480 4489 -1.23806e-05
4481 4489 -1.54497e-05
4482 4489 0
4483 4489 -1.23806e-05
4484 4489 0
4485 4489 -1.76819e-05
4486 4489 -9.62284e-06
4487 4489 0
4488 4489 0
4489 4489 0.0118258
4490 4489 0
4491 4489 -1.23806e-05
4492 4489 0
4493 4489 -1.65658e-05
4494 4489 -1.12969e-05
4495 4489 -1.23806e-05
4496 4489 0
4497 4489 -9.62284e-06
4498 4489 -9.8759e-06
4499 4489 -9.04209e-05
4500 4489 -0.000567682
4502 4489 0
4504 4489 0
4506 4489 0
4507 4489 0
4509 4489 -0.00626855
1637 4490 -7.53346e-06
1676 4490 -7.53346e-06
1677 4490 -7.53346e-06
1678 4490 -7.53346e-06
1853 4490 -7.53346e-06
1854 4490 -7.53346e-06
1855 4490 -7.53346e-06
1856 4490 -7.53346e-06
1857 4490 0
1858 4490 0
1859 4490 0
1860 4490 0
1861 4490 0
1862 4490 0
1863 4490 0
1864 4490 0
1865 4490 0
1866 4490 0
1867 4490 0
1868 4490 0
1869 4490 0
1870 4490 0
3801 4490 -0.0104167
3802 4490 0
3803 4490 -1.44829e-05
3939 4490 -1.47165e-05
4317 4490 0
4318 4490 0
4422 4490 0
4423 4490 0
4424 4490 0
4425 4490 0
4426 4490 0
4427 4490 0
4428 4490 0
4429 4490 -2.63898e-05
4430 4490 -0.0384788
4431 4490 0
4432 4490 0
4433 4490 0
4434 4490 0
4435 4490 0
4436 4490 0
4437 4490 0
4438 4490 0
4439 4490 0
4440 4490 0
4441 4490 0
4442 4490 0
4443 4490 0
4444 4490 0
4445 4490 0
4446 4490 0
4447 4490 0
4448 4490 0
4449 4490 0
4450 4490 0
4451 4490 0
4452 4490 0
4453 4490 0
4454 4490 0
4455 4490 0
4456 4490 0
4457 4490 0
4458 4490 -3.21324e-05
4459 4490 -2.95823e-05
4460 4490 -1.40871e-05
4461 4490 0
4462 4490 0
4463 4490 0
4464 4490 -1.40871e-05
4465 4490 -1.40871e-05
4466 4490 0
4467 4490 0
4468 4490 0
4469 4490 0
4470 4490 0
4471 4490 0
4472 4490 0
4473 4490 0
4474 4490 0
4475 4490 0
4476 4490 0
4477 4490 0
4478 4490 -1.40871e-05
4479 4490 -1.40676e-05
4480 4490 0
4481 4490 0
4482 4490 0
4483 4490 0
4484 4490 0
4485 4490 0
4486 4490 0
4487 4490 0
4488 4490 0
4489 4490 0
4490 4490 0.0542413
4491 4490 0
4492 4490 0
4493 4490 0
4494 4490 0
4495 4490 0
4496 4490 0
4497 4490 0
4498 4490 0
4499 4490 0
4500 4490 0
4502 4490 -2.77395e-05
4504 4490 0
4506 4490 -3.66485e-05
4507 4490 0
4509 4490 -0.00503343
2033 4491 -0.000306318
2190 4491 -1
2191 4491 -1
2194 4491 -0.000235878
2195 4491 0
2196 4491 -0.004
2197 4491 0
2198 4491 0
2199 4491 0
2200 4491 0
2201 4491 0
2202 4491 0
2203 4491 0
2204 4491 0
2205 4491 0
2206 4491 0
2207 4491 0
2208 4491 0
2209 4491 0
3181 4491 0
3182 4491 0
3183 4491 0
3184 4491 0
3185 4491 0
4453 4491 0
4454 4491 0
4455 4491 0
4456 4491 0
4457 4491 0
4458 4491 0
4459 4491 0
4460 4491 0
4461 4491 0
4462 4491 0
4463 4491 0
4464 4491 0
4465 4491 0
4466 4491 0
4467 4491 0
4468 4491 0
4469 4491 -2.60913e-05
4470 4491 -2.60913e-05
4471 4491 -2.60913e-05
4472 4491 -2.60913e-05
4473 4491 -8.48406e-05
4474 4491 0
4475 4491 -1.23806e-05
4476 4491 0
4477 4491 -9.62284e-06
4478 4491 0
4479 4491 0
4480 4491 -1.23806e-05
4481 4491 -1.9635e-05
4482 4491 0
4483 4491 -2.74475e-05
4484 4491 0
4485 4491 -1.23806e-05
4486 4491 -1.1576e-05
4487 4491 0
4488 4491 0
4489 4491 -1.23806e-05
4490 4491 0
4491 4491 0.0118645
4492 4491 0
4493 4491 -8.48406e-05
4494 4491 -9.62284e-06
4495 4491 -2.14519e-05
4496 4491 0
4497 4491 -1.1855e-05
4498 4491 -9.8759e-06
4499 4491 -1.23806e-05
4500 4491 -0.000544348
4502 4491 0
4504 4491 0
4506 4491 0
4507 4491 0
4509 4491 -0.00632097
972 4492 -0.00139607
973 4492 -1.07389e-05
1015 4492 0.000349151
1016 4492 0
1017 4492 0
1018 4492 0
1065 4492 -0.00139607
1066 4492 0.000349156
1107 4492 0
1108 4492 0
1109 4492 0
1110 4492 0
1159 4492 -0.00139607
1160 4492 0.000349154
1201 4492 0
1202 4492 0
1203 4492 -1.15695e-05
1204 4492 0
1205 4492 0
1206 4492 0
1253 4492 -0.00139607
1254 4492 0.000349157
1295 4492 0
1296 4492 0
1297 4492 0
1298 4492 0
1345 4492 -0.00139607
1346 4492 0.000349157
1387 4492 0
1388 4492 0
1389 4492 0
1390 4492 0
1456 4492 -0.00139607
1457 4492 0.000349154
1500 4492 0
1501 4492 0
1502 4492 0
1503 4492 0
1550 4492 -0.00139607
1551 4492 0.000349156
1592 4492 0
1593 4492 0
1594 4492 0
1595 4492 0
1596 4492 0
1597 4492 0
1598 4492 0
1860 4492 0
1861 4492 0
1862 4492 0
1863 4492 0
1864 4492 0
1865 4492 0
1866 4492 0
1867 4492 0
1868 4492 0
1869 4492 0
1870 4492 0
1896 4492 -3.98864e-05
2207 4492 0
2208 4492 0
2209 4492 0
2216 4492 -5.36621e-06
2217 4492 -5.36621e-06
2224 4492 -5.36621e-06
2229 4492 -5.36621e-06
2230 4492 -5.36621e-06
2231 4492 -5.36621e-06
2232 4492 -5.36621e-06
2233 4492 0
2234 4492 0
2477 4492 -3.63371e-06
2478 4492 0
2711 4492 -0.00511899
2712 4492 -0.0125
2757 4492 0
2758 4492 0
2759 4492 0
2760 4492 0
2761 4492 0
2762 4492 0
2763 4492 0
2764 4492 0
2765 4492 0
3173 4492 0
3174 4492 0
3175 4492 0
3176 4492 0
3177 4492 0
3178 4492 0
3179 4492 0
3180 4492 0
3181 4492 0
3182 4492 0
3183 4492 0
3184 4492 0
3185 4492 0
4453 4492 0
4454 4492 0
4455 4492 0
4456 4492 0
4457 4492 0
4458 4492 -2.59421e-05
4459 4492 -2.05434e-05
4460 4492 -1.80128e-05
4461 4492 0
4462 4492 -0.00131752
4463 4492 0
4464 4492 -1.69227e-05
4465 4492 -1.39703e-05
4466 4492 0
4467 4492 0
4468 4492 0
4469 4492 0
4470 4492 0
4471 4492 0
4472 4492 0
4473 4492 0
4474 4492 0
4475 4492 0
4476 4492 -1.4736e-05
4477 4492 0
4478 4492 -1.37562e-05
4479 4492 -1.29256e-05
4480 4492 0
4481 4492 0
4482 4492 -1.83567e-05
4483 4492 0
4484 4492 -0.000159351
4485 4492 0
4486 4492 0
4487 4492 -1.17836e-05
4488 4492 -1.58261e-05
4489 4492 0
4490 4492 0
4491 4492 0
4492 4492 0.0277496
4493 4492 0
4494 4492 0
4495 4492 0
4496 4492 -2.16271e-05
4497 4492 0
4498 4492 0
4499 4492 0
4500 4492 0
4502 4492 0
4504 4492 0
4506 4492 -7.06951e-05
4507 4492 -5.06124e-06
4509 4492 -0.00094176
1987 4493 -0.000306032
2011 4493 -1
2012 4493 -1
2015 4493 -0.000235877
2016 4493 0
2017 4493 -0.0147059
2018 4493 0
2019 4493 0
2020 4493 -2.50466e-06
2021 4493 0
2022 4493 0
2204 4493 0
2205 4493 0
2206 4493 0
2207 4493 0
2208 4493 0
2209 4493 0
3181 4493 0
3182 4493 0
3183 4493 0
3184 4493 -2.50466e-06
3185 4493 0
4453 4493 0
4454 4493 0
4455 4493 0
4456 4493 0
4457 4493 0
4458 4493 0
4459 4493 0
4460 4493 0
4461 4493 0
4462 4493 0
4463 4493 0
4464 4493 0
4465 4493 0
4466 4493 0
4467 4493 0
4468 4493 0
4469 4493 -2.60913e-05
4470 4493 -2.60913e-05
4471 4493 -2.60913e-05
4472 4493 -2.60913e-05
4473 4493 -1.23806e-05
4474 4493 0
4475 4493 -1.65658e-05
4476 4493 0
4477 4493 -1.2134e-05
4478 4493 0
4479 4493 0
4480 4493 -1.62868e-05
4481 4493 -9.26531e-05
4482 4493 0
4483 4493 -1.23806e-05
4484 4493 0
4485 4493 -1.23806e-05
4486 4493 -9.62284e-06
4487 4493 0
4488 4493 0
4489 4493 -1.65658e-05
4490 4493 0
4491 4493 -8.48406e-05
4492 4493 0
4493 4493 0.0225727
4494 4493 -1.12969e-05
4495 4493 -1.23806e-05
4496 4493 0
4497 4493 -9.62284e-06
4498 4493 -9.8759e-06
4499 4493 -1.51707e-05
4500 4493 -0.000568247
4502 4493 0
4504 4493 0
4506 4493 0
4507 4493 0
4509 4493 -0.00630313
4319 4494 -1
4320 4494 -1
4323 4494 -0.00023588
4324 4494 0
4325 4494 -0.004
4326 4494 0
4337 4494 -0.000306042
4338 4494 0
4359 4494 0
4420 4494 0
4421 4494 0
4422 4494 0
4423 4494 0
4424 4494 0
4425 4494 0
4426 4494 0
4427 4494 0
4428 4494 0
4429 4494 0
4430 4494 0
4431 4494 0
4432 4494 0
4433 4494 0
4434 4494 0
4435 4494 0
4436 4494 0
4437 4494 0
4438 4494 0
4439 4494 0
4440 4494 0
4441 4494 0
4442 4494 0
4443 4494 0
4444 4494 0
4445 4494 0
4446 4494 0
4447 4494 0
4448 4494 0
4449 4494 0
4450 4494 0
4451 4494 0
4452 4494 0
4453 4494 0
4454 4494 0
4455 4494 0
4456 4494 0
4457 4494 0
4458 4494 0
4459 4494 0
4460 4494 0
4461 4494 0
4462 4494 0
4463 4494 0
4464 4494 0
4465 4494 0
4466 4494 0
4467 4494 0
4468 4494 0
4469 4494 -2.60913e-05
4470 4494 -2.60913e-05
4471 4494 -2.60913e-05
4472 4494 -2.60913e-05
4473 4494 -9.62284e-06
4474 4494 0
4475 4494 -9.62284e-06
4476 4494 0
4477 4494 -9.62284e-06
4478 4494 0
4479 4494 0
4480 4494 -1.12969e-05
4481 4494 -9.62284e-06
4482 4494 0
4483 4494 -9.62284e-06
4484 4494 0
4485 4494 -9.62284e-06
4486 4494 -0.000126174
4487 4494 0
4488 4494 0
4489 4494 -1.12969e-05
4490 4494 0
4491 4494 -9.62284e-06
4492 4494 0
4493 4494 -1.12969e-05
4494 4494 0.0118967
4495 4494 -1.46451e-05
4496 4494 0
4497 4494 -9.62284e-06
4498 4494 -0.00013531
4499 4494 -9.62284e-06
4500 4494 -0.000544346
4502 4494 0
4504 4494 0
4506 4494 0
4507 4494 0
4509 4494 -0.00630942
3053 4495 -0.000306026
3054 4495 0
3077 4495 0
3078 4495 0
3079 4495 0
3080 4495 0
3092 4495 -1
3093 4495 -1
3096 4495 -0.000235876
3097 4495 0
3098 4495 -0.0018018
3099 4495 0
3107 4495 0
3108 4495 0
3160 4495 0
3161 4495 0
3162 4495 0
3163 4495 0
3164 4495 0
3165 4495 0
3166 4495 0
3167 4495 0
3168 4495 0
3169 4495 0
3170 4495 0
3171 4495 0
3172 4495 0
3173 4495 0
3174 4495 0
3175 4495 0
3176 4495 0
3177 4495 0
3178 4495 0
3179 4495 0
3180 4495 0
3181 4495 0
3182 4495 0
3183 4495 0
3184 4495 0
3185 4495 0
4453 4495 0
4454 4495 0
4455 4495 0
4456 4495 0
4457 4495 0
4458 4495 0
4459 4495 0
4460 4495 0
4461 4495 0
4462 4495 0
4463 4495 0
4464 4495 0
4465 4495 0
4466 4495 0
4467 4495 0
4468 4495 0
4469 4495 -2.60913e-05
4470 4495 -2.60913e-05
4471 4495 -2.60913e-05
4472 4495 -2.60913e-05
4473 4495 -1.57288e-05
4474 4495 0
4475 4495 -1.23806e-05
4476 4495 0
4477 4495 -9.62284e-06
4478 4495 0
4479 4495 0
4480 4495 -1.85189e-05
4481 4495 -1.23806e-05
4482 4495 0
4483 4495 -1.23806e-05
4484 4495 0
4485 4495 -0.000149644
4486 4495 -9.62284e-06
4487 4495 0
4488 4495 0
4489 4495 -1.23806e-05
4490 4495 0
4491 4495 -2.14519e-05
4492 4495 0
4493 4495 -1.23806e-05
4494 4495 -1.46451e-05
4495 4495 0.0101041
4496 4495 0
4497 4495 -9.62284e-06
4498 4495 -9.8759e-06
4499 4495 -1.23806e-05
4500 4495 -0.000627659
4502 4495 0
4504 4495 0
4506 4495 0
4507 4495 0
4509 4495 -0.00669532
1455 4496 -0.000123728
1456 4496 -0.000130898
1457 4496 0
1500 4496 0
1501 4496 0
1502 4496 0
1503 4496 0
1596 4496 0
1597 4496 0
1598 4496 0
1860 4496 0
1861 4496 0
1862 4496 0
1863 4496 0
1864 4496 0
1865 4496 0
1866 4496 0
1867 4496 0
1868 4496 0
1869 4496 0
1870 4496 0
1906 4496 -4.19823e-06
1913 4496 -4.19823e-06
1916 4496 -4.19823e-06
1917 4496 -4.19823e-06
1918 4496 -4.19823e-06
1919 4496 -4.19823e-06
1920 4496 0
1921 4496 0
2205 4496 0
2206 4496 0
2207 4496 0
2208 4496 0
2209 4496 0
3181 4496 0
3182 4496 0
3183 4496 0
3184 4496 0
3185 4496 0
4453 4496 0
4454 4496 0
4455 4496 0
4456 4496 0
4457 4496 0
4458 4496 -0.00099108
4459 4496 -3.9257e-06
4460 4496 -3.9257e-06
4461 4496 0
4462 4496 0
4463 4496 0
4464 4496 -3.9257e-06
4465 4496 -3.9257e-06
4466 4496 0
4467 4496 0
4468 4496 0
4469 4496 0
4470 4496 0
4471 4496 0
4472 4496 0
4473 4496 0
4474 4496 0
4475 4496 0
4476 4496 0
4477 4496 0
4478 4496 -3.9257e-06
4479 4496 -3.9257e-06
4480 4496 0
4481 4496 0
4482 4496 0
4483 4496 0
4484 4496 -2.86154e-06
4485 4496 0
4486 4496 0
4487 4496 0
4488 4496 0
4489 4496 0
4490 4496 0
4491 4496 0
4492 4496 -2.16271e-05
4493 4496 0
4494 4496 0
4495 4496 0
4496 4496 0.00153315
4497 4496 0
4498 4496 0
4499 4496 0
4500 4496 0
4502 4496 0
4504 4496 0
4506 4496 -6.54651e-05
4507 4496 0
4509 4496 -0.000148746
3508 4497 -1
3509 4497 -1
3512 4497 -0.000235879
3513 4497 0
3514 4497 -0.004
3515 4497 0
3526 4497 -0.000306038
3549 4497 0
3550 4497 0
3653 4497 0
3654 4497 0
4437 4497 0
4438 4497 0
4439 4497 0
4440 4497 0
4441 4497 0
4442 4497 0
4443 4497 0
4444 4497 0
4445 4497 0
4446 4497 0
4447 4497 0
4448 4497 0
4449 4497 0
4450 4497 0
4451 4497 0
4452 4497 0
4453 4497 0
4454 4497 0
4455 4497 0
4456 4497 0
4457 4497 0
4458 4497 0
4459 4497 0
4460 4497 0
4461 4497 0
4462 4497 0
4463 4497 0
4464 4497 0
4465 4497 0
4466 4497 0
4467 4497 0
4468 4497 0
4469 4497 -2.60913e-05
4470 4497 -2.60913e-05
4471 4497 -2.60913e-05
4472 4497 -2.60913e-05
4473 4497 -9.62284e-06
4474 4497 0
4475 4497 -9.62284e-06
4476 4497 0
4477 4497 -0.000100595
4478 4497 0
4479 4497 0
4480 4497 -1.2134e-05
4481 4497 -9.62284e-06
4482 4497 0
4483 4497 -1.2134e-05
4484 4497 0
4485 4497 -9.62284e-06
4486 4497 -0.000114501
4487 4497 0
4488 4497 0
4489 4497 -9.62284e-06
4490 4497 0
4491 4497 -1.1855e-05
4492 4497 0
4493 4497 -9.62284e-06
4494 4497 -9.62284e-06
4495 4497 -9.62284e-06
4496 4497 0
4497 4497 0.01182
4498 4497 -9.8759e-06
4499 4497 -1.40871e-05
4500 4497 -0.000567681
4502 4497 0
4504 4497 0
4506 4497 0
4507 4497 0
4509 4497 -0.00625391
3950 4498 -0.000163313
3951 4498 -0.004
3958 4498 0
3959 4498 0
3960 4498 0
3961 4498 0
3981 4498 -1
3982 4498 -1
4279 4498 -0.000341574
4280 4498 0
4281 4498 0
4282 4498 0
4283 4498 0
4314 4498 0
4315 4498 0
4316 4498 0
4317 4498 0
4318 4498 0
4422 4498 0
4423 4498 0
4424 4498 0
4425 4498 0
4426 4498 0
4427 4498 0
4428 4498 0
4429 4498 0
4430 4498 0
4431 4498 0
4432 4498 0
4433 4498 0
4434 4498 0
4435 4498 0
4436 4498 0
4437 4498 0
4438 4498 0
4439 4498 0
4440 4498 0
4441 4498 0
4442 4498 0
4443 4498 0
4444 4498 0
4445 4498 0
4446 4498 0
4447 4498 0
4448 4498 0
4449 4498 0
4450 4498 0
4451 4498 0
4452 4498 0
4453 4498 0
4454 4498 0
4455 4498 0
4456 4498 0
4457 4498 0
4458 4498 0
4459 4498 0
4460 4498 0
4461 4498 0
4462 4498 0
4463 4498 0
4464 4498 0
4465 4498 0
4466 4498 0
4467 4498 0
4468 4498 0
4469 4498 0.000175331
4470 4498 -9.09062e-05
4471 4498 -9.15518e-05
4472 4498 0.000175377
4473 4498 -9.8759e-06
4474 4498 0
4475 4498 -9.8759e-06
4476 4498 0
4477 4498 -9.8759e-06
4478 4498 0
4479 4498 0
4480 4498 -9.8759e-06
4481 4498 -9.8759e-06
4482 4498 0
4483 4498 -9.8759e-06
4484 4498 0
4485 4498 -1.40612e-05
4486 4498 -9.8759e-06
4487 4498 0
4488 4498 0
4489 4498 -9.8759e-06
4490 4498 0
4491 4498 -9.8759e-06
4492 4498 0
4493 4498 -9.8759e-06
4494 4498 -0.00013531
4495 4498 -9.8759e-06
4496 4498 0
4497 4498 -9.8759e-06
4498 4498 0.00911852
4499 4498 -9.8759e-06
4500 4498 -0.00255667
4502 4498 0
4504 4498 0
4506 4498 0
4507 4498 0
4509 4498 -0.00194745
3496 4499 -0.000306032
3550 4499 0
3575 4499 -1
3576 4499 -1
3579 4499 -0.000235878
3580 4499 0
3581 4499 -0.004
3582 4499 0
3583 4499 0
3584 4499 0
3651 4499 0
3652 4499 0
3653 4499 0
3654 4499 0
4437 4499 0
4438 4499 0
4439 4499 0
4440 4499 0
4441 4499 0
4442 4499 0
4443 4499 0
4444 4499 0
4445 4499 0
4446 4499 0
4447 4499 0
4448 4499 0
4449 4499 0
4450 4499 0
4451 4499 0
4452 4499 0
4453 4499 0
4454 4499 0
4455 4499 0
4456 4499 0
4457 4499 0
4458 4499 0
4459 4499 0
4460 4499 0
4461 4499 0
4462 4499 0
4463 4499 0
4464 4499 0
4465 4499 0
4466 4499 0
4467 4499 0
4468 4499 0
4469 4499 -2.60913e-05
4470 4499 -2.60913e-05
4471 4499 -2.60913e-05
4472 4499 -2.60913e-05
4473 4499 -1.23806e-05
4474 4499 0
4475 4499 -1.51707e-05
4476 4499 0
4477 4499 -8.48471e-05
4478 4499 0
4479 4499 0
4480 4499 -1.23806e-05
4481 4499 -1.57288e-05
4482 4499 0
4483 4499 -1.23806e-05
4484 4499 0
4485 4499 -1.23806e-05
4486 4499 -9.62284e-06
4487 4499 0
4488 4499 0
4489 4499 -9.04209e-05
4490 4499 0
4491 4499 -1.23806e-05
4492 4499 0
4493 4499 -1.51707e-05
4494 4499 -9.62284e-06
4495 4499 -1.23806e-05
4496 4499 0
4497 4499 -1.40871e-05
4498 4499 -9.8759e-06
4499 4499 0.0117846
4500 4499 -0.000567682
4502 4499 0
4504 4499 0
4506 4499 0
4507 4499 0
4509 4499 -0.00623183
4500 4500 1
4506 4500 -1
1987 4501 -0.00330077
1997 4501 -0.000298153
2007 4501 -0.000384769
2008 4501 -0.00125219
2015 4501 -0.00244411
2016 4501 -1.15824e-05
2017 4501 -1.98556e-06
2018 4501 -1.98556e-06
2019 4501 0
2020 4501 -0.000140791
2021 4501 0
2022 4501 0
2033 4501 -0.00330075
2043 4501 -0.000298153
2053 4501 -0.000385813
2054 4501 -0.00125347
2055 4501 -0.000865392
2110 4501 0
2111 4501 0
2175 4501 -0.000298153
2185 4501 -0.000382802
2186 4501 -0.00125402
2187 4501 -0.000865393
2194 4501 -0.00244418
2195 4501 -1.15824e-05
2196 4501 -4.51618e-06
2197 4501 -1.98556e-06
2198 4501 0
2199 4501 -7.08573e-06
2200 4501 0
2201 4501 0
2202 4501 0
2203 4501 -0.000141045
2204 4501 -7.08573e-06
2205 4501 0
2206 4501 0
2207 4501 0
2208 4501 0
2209 4501 0
2270 4501 -0.00122305
2276 4501 -0.000504731
2277 4501 -1.12061e-05
2278 4501 -7.08573e-06
2279 4501 -1.98556e-06
2280 4501 0
2281 4501 0
2337 4501 0
2348 4501 -0.00388866
2359 4501 -0.00330042
2369 4501 -0.000875598
2379 4501 -0.00127242
2380 4501 -0.000366044
2381 4501 -0.000276582
2387 4501 -0.00244399
2388 4501 -1.12061e-05
2389 4501 -7.08573e-06
2390 4501 -1.98556e-06
2391 4501 0
2392 4501 0
2402 4501 -0.000875613
2412 4501 -0.00127166
2413 4501 -0.000368507
2469 4501 0
2470 4501 0
2471 4501 -0.000213389
2472 4501 -0.000289328
2473 4501 0
2474 4501 -0.000211571
2475 4501 0
2476 4501 0
2477 4501 0
2478 4501 0
2587 4501 -0.000414692
2636 4501 0
2762 4501 0
2763 4501 0
2764 4501 0
2765 4501 0
2817 4501 -1.98556e-06
2818 4501 -1.98556e-06
2823 4501 -0.00244392
2824 4501 -1.12061e-05
2825 4501 -7.08573e-06
2826 4501 0
2827 4501 0
2883 4501 0
2884 4501 0
2885 4501 0
2915 4501 -0.00244383
2916 4501 -1.12061e-05
2917 4501 -7.08573e-06
2918 4501 -1.98556e-06
2919 4501 0
2920 4501 0
2921 4501 0
2977 4501 0
2987 4501 -0.0008756
2997 4501 -0.00127345
2998 4501 -0.000368131
3009 4501 -0.00388868
3010 4501 -0.000213606
3029 4501 -0.000875382
3030 4501 -0.000366042
3031 4501 -0.00127257
3042 4501 -0.00388874
3052 4501 -3.38951e-05
3053 4501 -0.00395604
3054 4501 -0.000137967
3064 4501 -0.000875681
3076 4501 -0.00127271
3077 4501 -0.00036604
3078 4501 -0.000213859
3079 4501 -0.000268609
3080 4501 -0.000269596
3085 4501 -0.00244371
3086 4501 -9.73964e-06
3087 4501 -7.79949e-06
3088 4501 -1.98556e-06
3089 4501 0
3090 4501 0
3091 4501 0
3096 4501 -0.00244768
3097 4501 -7.61781e-06
3098 4501 -1.42947e-05
3099 4501 0
3107 4501 0
3108 4501 0
3160 4501 0
3161 4501 0
3162 4501 -0.000289327
3163 4501 0
3164 4501 -0.000289328
3165 4501 0
3166 4501 0
3167 4501 0
3168 4501 0
3169 4501 -0.000289328
3170 4501 0
3171 4501 0
3172 4501 0
3173 4501 0
3174 4501 0
3175 4501 0
3176 4501 0
3177 4501 -0.00027314
3178 4501 -0.000214379
3179 4501 -0.000289328
3180 4501 0
3181 4501 -0.000865394
3182 4501 -0.000415866
3183 4501 0
3184 4501 -0.000416468
3185 4501 0
3246 4501 -0.00330076
3257 4501 -0.00330078
3321 4501 -0.000298153
3331 4501 -0.000383431
3332 4501 -0.00125577
3333 4501 -0.000865392
3340 4501 -0.00244429
3341 4501 -9.02587e-06
3342 4501 -4.51618e-06
3343 4501 -1.98556e-06
3344 4501 0
3345 4501 -7.08573e-06
3346 4501 0
3347 4501 0
3411 4501 -0.000297932
3421 4501 -0.000384703
3422 4501 -0.0012588
3423 4501 -0.000865394
3430 4501 -0.00244445
3431 4501 -9.02587e-06
3432 4501 -5.35972e-06
3433 4501 -1.98556e-06
3434 4501 0
3435 4501 -7.08573e-06
3436 4501 0
3437 4501 0
3438 4501 0
3439 4501 -0.000138806
3440 4501 0
3441 4501 0
3442 4501 0
3443 4501 0
3496 4501 -0.00330078
3507 4501 -0.00330078
3512 4501 -0.00244535
3513 4501 -9.02587e-06
3514 4501 -6.62503e-06
3515 4501 -1.98556e-06
3526 4501 -0.00330077
3536 4501 -0.000298153
3546 4501 -0.000383826
3547 4501 -0.00126191
3548 4501 -0.000865393
3549 4501 -0.000138806
3550 4501 -0.000427318
3560 4501 -0.000298153
3570 4501 -0.000383074
3571 4501 -0.00126054
3572 4501 -0.000865394
3579 4501 -0.00244465
3580 4501 -9.02587e-06
3581 4501 -5.78149e-06
3582 4501 -1.98556e-06
3583 4501 0
3584 4501 -7.08573e-06
3591 4501 -0.00244495
3592 4501 -9.02587e-06
3593 4501 -6.20326e-06
3594 4501 -1.98556e-06
3595 4501 0
3650 4501 0
3651 4501 0
3652 4501 0
3653 4501 -7.08573e-06
3654 4501 -0.000138806
3844 4501 -0.000298153
3845 4501 -0.0012523
3846 4501 -0.000865383
3847 4501 -1.98556e-06
3852 4501 -0.00244585
3853 4501 -9.02587e-06
3864 4501 -0.00388895
3865 4501 -0.000143164
3866 4501 -8.73388e-06
3867 4501 -0.000391808
3924 4501 0
3925 4501 0
3926 4501 0
3927 4501 -7.08573e-06
3950 4501 -0.000504742
3951 4501 -8.31211e-06
3958 4501 -1.98556e-06
3959 4501 -5.2559e-06
3960 4501 0
3961 4501 0
3971 4501 -0.000875612
3983 4501 -1
3984 4501 -1
3985 4501 -1
3986 4501 -1
3987 4501 -1
3988 4501 -1
3989 4501 -1
3990 4501 -1
3991 4501 -1
3992 4501 -1
3993 4501 -1
3994 4501 -1
3995 4501 -1
3996 4501 -1
3997 4501 -1
3998 4501 -1
3999 4501 -1
4000 4501 -1
4001 4501 -1
4002 4501 -1
4003 4501 -1
4004 4501 -1
4005 4501 -1
4006 4501 -1
4007 4501 -1
4008 4501 -1
4009 4501 -1
4010 4501 -1
4011 4501 -1
4012 4501 -1
4013 4501 -1
4014 4501 -1
4015 4501 -1
4016 4501 -1
4017 4501 -1
4018 4501 -1
4019 4501 -1
4020 4501 -1
4021 4501 -1
4022 4501 -1
4023 4501 -1
4024 4501 -1
4025 4501 -1
4026 4501 -1
4027 4501 -1
4028 4501 -1
4029 4501 -1
4030 4501 -1
4031 4501 -1
4032 4501 -1
4033 4501 -1
4034 4501 -1
4035 4501 -1
4036 4501 -1
4037 4501 -1
4038 4501 -1
4039 4501 -1
4040 4501 -1
4041 4501 -1
4042 4501 -1
4043 4501 -1
4044 4501 -1
4045 4501 -1
4046 4501 -1
4047 4501 -1
4048 4501 -1
4049 4501 -1
4050 4501 -1
4051 4501 -1
4052 4501 -1
4053 4501 -1
4054 4501 -1
4055 4501 -1
4056 4501 -1
4057 4501 -1
4058 4501 -1
4059 4501 -1
4060 4501 -1
4061 4501 -1
4062 4501 -1
4063 4501 -1
4064 4501 -1
4065 4501 -1
4066 4501 -1
4067 4501 -1
4068 4501 -1
4069 4501 -1
4070 4501 -1
4071 4501 -1
4072 4501 -1
4073 4501 -1
4074 4501 -1
4075 4501 -1
4076 4501 -1
4077 4501 -1
4078 4501 -1
4079 4501 -1
4080 4501 -1
4081 4501 -1
4082 4501 -1
4083 4501 -1
4084 4501 -1
4085 4501 -1
4086 4501 -1
4087 4501 -1
4088 4501 -1
4089 4501 -1
4090 4501 -1
4091 4501 -1
4092 4501 -1
4093 4501 -1
4094 4501 -1
4095 4501 -1
4096 4501 -1
4097 4501 -1
4098 4501 -1
4099 4501 -1
4100 4501 -1
4101 4501 -1
4102 4501 -1
4103 4501 -1
4104 4501 -1
4105 4501 -1
4106 4501 -1
4107 4501 -1
4108 4501 -1
4109 4501 -1
4110 4501 -1
4111 4501 -1
4112 4501 -1
4113 4501 -1
4114 4501 -1
4115 4501 -1
4116 4501 -1
4117 4501 -1
4118 4501 -1
4119 4501 -1
4120 4501 -1
4121 4501 -1
4122 4501 -1
4123 4501 -1
4124 4501 -1
4125 4501 -1
4126 4501 -1
4127 4501 -1
4128 4501 -1
4129 4501 -1
4130 4501 -1
4131 4501 -1
4132 4501 -1
4133 4501 -1
4134 4501 -1
4135 4501 -1
4136 4501 -1
4137 4501 -1
4138 4501 -1
4139 4501 -1
4140 4501 -1
4141 4501 -1
4142 4501 -1
4143 4501 -1
4144 4501 -1
4145 4501 -1
4146 4501 -1
4147 4501 -1
4148 4501 -1
4149 4501 -1
4150 4501 -1
4151 4501 -1
4152 4501 -1
4153 4501 -1
4154 4501 -1
4155 4501 -1
4156 4501 -1
4157 4501 -1
4158 4501 -1
4159 4501 -1
4160 4501 -1
4161 4501 -1
4162 4501 -1
4163 4501 -1
4164 4501 -1
4165 4501 -1
4166 4501 -1
4167 4501 -1
4168 4501 -1
4169 4501 -1
4170 4501 -1
4171 4501 -1
4172 4501 -1
4173 4501 -1
4174 4501 -1
4175 4501 -1
4176 4501 -1
4177 4501 -1
4178 4501 -1
4179 4501 -1
4180 4501 -1
4181 4501 -1
4182 4501 -1
4183 4501 -1
4184 4501 -1
4185 4501 -1
4186 4501 -1
4187 4501 -1
4188 4501 -1
4189 4501 -1
4190 4501 -1
4191 4501 -1
4192 4501 -1
4193 4501 -1
4194 4501 -1
4195 4501 -1
4196 4501 -1
4197 4501 -1
4198 4501 -1
4199 4501 -1
4200 4501 -1
4201 4501 -1
4202 4501 -1
4203 4501 -1
4204 4501 -1
4205 4501 -1
4206 4501 -1
4207 4501 -1
4208 4501 -1
4209 4501 -1
4210 4501 -1
4211 4501 -1
4212 4501 -1
4213 4501 -1
4214 4501 -1
4215 4501 -1
4216 4501 -1
4217 4501 -1
4218 4501 -1
4219 4501 -1
4220 4501 -1
4221 4501 -1
4222 4501 -1
4223 4501 -1
4224 4501 -1
4225 4501 -1
4226 4501 -1
4227 4501 -1
4228 4501 -1
4229 4501 -1
4230 4501 -1
4231 4501 -1
4232 4501 -1
4233 4501 -1
4234 4501 -1
4235 4501 -1
4236 4501 -1
4237 4501 -1
4238 4501 -1
4239 4501 -1
4240 4501 -1
4241 4501 -1
4242 4501 -1
4243 4501 -1
4244 4501 -1
4245 4501 -1
4246 4501 -1
4247 4501 -1
4248 4501 -1
4249 4501 -1
4250 4501 -1
4251 4501 -1
4252 4501 -1
4253 4501 -1
4254 4501 -1
4255 4501 -1
4256 4501 -1
4257 4501 -1
4258 4501 -1
4259 4501 -1
4260 4501 -1
4261 4501 -1
4262 4501 -1
4263 4501 -1
4264 4501 -1
4265 4501 -1
4266 4501 -1
4277 4501 -0.010714
4278 4501 -0.0109453
4279 4501 -0.00122312
4280 4501 -0.000214439
4281 4501 -0.00127602
4282 4501 -0.000366043
4283 4501 -0.000289328
4314 4501 0
4315 4501 0
4316 4501 0
4317 4501 0
4318 4501 0
4323 4501 -0.00244633
4324 4501 -9.02587e-06
4325 4501 -7.89034e-06
4326 4501 -1.98556e-06
4336 4501 -0.000129226
4337 4501 -0.0039161
4338 4501 -0.000142788
4357 4501 -0.000297932
4358 4501 -0.00125234
4359 4501 -0.000391159
4420 4501 0
4421 4501 0
4422 4501 0
4423 4501 -7.08573e-06
4424 4501 0
4425 4501 -0.000865381
4426 4501 -0.000275598
4427 4501 0
4428 4501 0
4429 4501 0
4430 4501 0
4431 4501 0
4432 4501 0
4433 4501 0
4434 4501 0
4435 4501 0
4436 4501 0
4437 4501 -7.08573e-06
4438 4501 0
4439 4501 0
4440 4501 -0.000408953
4441 4501 0
4442 4501 0
4443 4501 -0.000410648
4444 4501 0
4445 4501 0
4446 4501 0
4447 4501 -0.000138806
4448 4501 0
4449 4501 0
4450 4501 -0.000427188
4451 4501 -0.000423801
4452 4501 0
4453 4501 0
4454 4501 -0.000138806
4455 4501 -0.000422127
4456 4501 0
4457 4501 -0.000417909
4458 4501 0
4459 4501 0
4460 4501 0
4461 4501 -0.000960542
4462 4501 0
4463 4501 0
4464 4501 0
4465 4501 0
4466 4501 0
4467 4501 0
4468 4501 0
4469 4501 -8.03859e-05
4470 4501 -6.05596e-05
4471 4501 -6.09814e-05
4472 4501 -8.26045e-05
4473 4501 -0.000594964
4474 4501 0
4475 4501 -0.000607633
4476 4501 0
4477 4501 -0.000548304
4478 4501 0
4479 4501 0
4480 4501 -0.00057683
4481 4501 -0.00259411
4482 4501 0
4483 4501 -0.000600883
4484 4501 0
4485 4501 -0.000602147
4486 4501 -0.000548313
4487 4501 0
4488 4501 0
4489 4501 -0.000571632
4490 4501 0
4491 4501 -0.000548296
4492 4501 0
4493 4501 -0.000572193
4494 4501 -0.000548318
4495 4501 -0.000631591
4496 4501 0
4497 4501 -0.000571642
4498 4501 -0.00255152
4499 4501 -0.000571634
4500 4501 0.194364
4501 4501 1
4502 4501 0
4504 4501 0
4506 4501 -2.57604e-05
4507 4501 0
4509 4501 -0.0198519
4502 4502 1
4509 4502 -1
1703 4503 -2.70581e-06
1704 4503 -5.85287e-06
1705 4503 -0.000210946
1706 4503 0.00014731
1717 4503 -2.70581e-06
1718 4503 -5.85287e-06
1733 4503 -2.70581e-06
1734 4503 -5.85287e-06
1735 4503 -0.000199604
1736 4503 0.000135955
1737 4503 -1.51188e-06
1754 4503 -2.70581e-06
1755 4503 -5.85287e-06
1756 4503 -0.000199605
1757 4503 0.000135955
1758 4503 -1.51188e-06
1773 4503 -2.70581e-06
1774 4503 -5.85287e-06
1775 4503 -3.75185e-05
1776 4503 -4.48996e-05
1777 4503 -1.51188e-06
1778 4503 -1.51188e-06
1783 4503 -4.42466e-05
1808 4503 -2.70581e-06
1809 4503 -5.85287e-06
1810 4503 -0.000210951
1811 4503 0.000147314
1838 4503 -2.70581e-06
1839 4503 -5.85287e-06
1840 4503 -0.000210951
1841 4503 0.000147315
1842 4503 -4.22419e-06
1843 4503 -1.51188e-06
1844 4503 -1.51188e-06
1845 4503 -1.51188e-06
1846 4503 -3.81728e-05
1847 4503 0
1848 4503 0
1850 4503 -0.000133292
1853 4503 -3.85433e-06
1854 4503 -4.37408e-05
1855 4503 -1.49242e-06
1856 4503 0
1857 4503 0
1858 4503 0
1859 4503 0
1860 4503 0
1861 4503 0
1862 4503 0
1863 4503 0
1864 4503 0
1865 4503 0
1866 4503 0
1867 4503 0
1868 4503 0
1869 4503 0
1870 4503 0
1931 4503 -2.35542e-06
1946 4503 -2.08938e-06
1964 4503 -0.00552486
1965 4503 -8.38348e-06
1966 4503 -8.01362e-06
1967 4503 -1.9661e-06
1968 4503 -1.23157e-05
1969 4503 0
1970 4503 0
1971 4503 -2.08938e-06
1973 4503 -3.13407e-06
1974 4503 -2.08938e-06
1975 4503 -2.08938e-06
1976 4503 -3.13407e-06
2021 4503 -2.35542e-06
2022 4503 0
2065 4503 -2.35542e-06
2083 4503 -0.00552486
2084 4503 -8.38348e-06
2085 4503 -8.01362e-06
2086 4503 -1.9661e-06
2087 4503 -1.23157e-05
2088 4503 0
2091 4503 -2.08938e-06
2093 4503 -3.13407e-06
2106 4503 -2.08938e-06
2107 4503 -2.08938e-06
2108 4503 -2.08938e-06
2109 4503 -3.13407e-06
2110 4503 0
2111 4503 0
2121 4503 -2.35542e-06
2139 4503 -0.00552486
2140 4503 -8.38348e-06
2141 4503 -8.01362e-06
2142 4503 -1.9661e-06
2143 4503 -1.23157e-05
2144 4503 0
2147 4503 -2.08938e-06
2149 4503 -3.13407e-06
2162 4503 -2.08938e-06
2163 4503 -2.08938e-06
2164 4503 -2.08938e-06
2165 4503 -3.13407e-06
2200 4503 0
2201 4503 0
2202 4503 -2.35542e-06
2203 4503 0
2204 4503 0
2205 4503 0
2206 4503 0
2207 4503 0
2208 4503 0
2209 4503 0
2291 4503 -2.35542e-06
2306 4503 -2.08938e-06
2324 4503 -0.00552486
2325 4503 -8.38348e-06
2326 4503 -8.01362e-06
2327 4503 -1.9661e-06
2328 4503 -1.23157e-05
2329 4503 0
2330 4503 0
2331 4503 -2.08938e-06
2333 4503 -3.13407e-06
2334 4503 -2.08938e-06
2335 4503 -2.08938e-06
2336 4503 -3.13407e-06
2337 4503 -2.35542e-06
2423 4503 -2.35542e-06
2438 4503 -2.08938e-06
2456 4503 -0.00552486
2457 4503 -8.38348e-06
2458 4503 -8.01362e-06
2459 4503 -1.9661e-06
2460 4503 -1.23157e-05
2461 4503 0
2462 4503 0
2463 4503 -2.08938e-06
2465 4503 -3.13407e-06
2466 4503 -2.08938e-06
2467 4503 -2.08938e-06
2468 4503 -3.13407e-06
2469 4503 0
2470 4503 -2.35542e-06
2471 4503 0
2472 4503 0
2473 4503 0
2474 4503 0
2475 4503 0
2476 4503 0
2477 4503 0
2478 4503 0
2837 4503 -2.35542e-06
2852 4503 -2.08938e-06
2870 4503 -0.00552486
2871 4503 -8.38348e-06
2872 4503 -8.01362e-06
2873 4503 -1.9661e-06
2874 4503 -1.23157e-05
2875 4503 0
2876 4503 0
2877 4503 -2.08938e-06
2879 4503 -3.13407e-06
2880 4503 -2.08938e-06
2881 4503 -2.08938e-06
2882 4503 -3.13407e-06
2883 4503 -2.35542e-06
2884 4503 0
2885 4503 0
2931 4503 -2.35542e-06
2946 4503 -2.08938e-06
2964 4503 -0.00552486
2965 4503 -8.38348e-06
2966 4503 -8.01362e-06
2967 4503 -1.9661e-06
2968 4503 -1.23157e-05
2969 4503 0
2970 4503 0
2971 4503 -2.08938e-06
2973 4503 -3.13407e-06
2974 4503 -2.08938e-06
2975 4503 -2.08938e-06
2976 4503 -3.13407e-06
2977 4503 -2.35542e-06
3102 4503 -2.08938e-06
3106 4503 0
3107 4503 0
3108 4503 0
3110 4503 -3.13407e-06
3120 4503 -2.35542e-06
3150 4503 -0.00552486
3151 4503 -8.38348e-06
3152 4503 -8.01362e-06
3153 4503 -1.9661e-06
3154 4503 -1.23157e-05
3155 4503 0
3156 4503 0
3157 4503 -2.08938e-06
3158 4503 -2.08938e-06
3159 4503 -3.13407e-06
3160 4503 -2.08938e-06
3161 4503 -2.35542e-06
3162 4503 0
3163 4503 0
3164 4503 0
3165 4503 0
3166 4503 0
3167 4503 0
3168 4503 0
3169 4503 0
3170 4503 0
3171 4503 0
3172 4503 0
3173 4503 0
3174 4503 0
3175 4503 0
3176 4503 0
3177 4503 0
3178 4503 0
3179 4503 0
3180 4503 0
3181 4503 0
3182 4503 0
3183 4503 0
3184 4503 0
3185 4503 0
3267 4503 -2.35542e-06
3285 4503 -0.00552486
3286 4503 -8.38348e-06
3287 4503 -8.01362e-06
3288 4503 -1.9661e-06
3289 4503 -1.23157e-05
3290 4503 0
3293 4503 -2.08938e-06
3295 4503 -3.13407e-06
3308 4503 -2.08938e-06
3309 4503 -2.08938e-06
3310 4503 -2.08938e-06
3311 4503 -3.13407e-06
3346 4503 0
3347 4503 0
3357 4503 -2.35542e-06
3375 4503 -0.00552486
3376 4503 -8.38348e-06
3377 4503 -8.01362e-06
3378 4503 -1.9661e-06
3379 4503 -1.23157e-05
3380 4503 0
3383 4503 -2.08938e-06
3385 4503 -3.13407e-06
3398 4503 -2.08938e-06
3399 4503 -2.08938e-06
3400 4503 -2.08938e-06
3401 4503 -3.13407e-06
3436 4503 0
3437 4503 0
3438 4503 -2.35542e-06
3439 4503 0
3440 4503 0
3441 4503 0
3442 4503 0
3443 4503 0
3605 4503 -2.35542e-06
3623 4503 -0.00552486
3624 4503 -8.38348e-06
3625 4503 -8.01362e-06
3626 4503 -1.9661e-06
3627 4503 -1.23157e-05
3628 4503 0
3631 4503 -2.08938e-06
3633 4503 -3.13407e-06
3646 4503 -2.08938e-06
3647 4503 -2.08938e-06
3648 4503 -2.08938e-06
3649 4503 -3.13407e-06
3650 4503 -2.35542e-06
3651 4503 0
3652 4503 0
3653 4503 0
3654 4503 0
3700 4503 -2.08938e-06
3712 4503 0
3727 4503 -2.08938e-06
3745 4503 -0.00552486
3746 4503 -8.38348e-06
3747 4503 -8.01362e-06
3748 4503 -1.9661e-06
3749 4503 -1.23157e-05
3750 4503 0
3754 4503 -3.13407e-06
3755 4503 -2.35542e-06
3756 4503 -2.08938e-06
3757 4503 -2.08938e-06
3758 4503 -3.13407e-06
3759 4503 -2.08938e-06
3760 4503 -2.35542e-06
3761 4503 0
3762 4503 0
3763 4503 0
3885 4503 -0.00552486
3886 4503 -8.38348e-06
3887 4503 -8.01362e-06
3888 4503 -1.9661e-06
3889 4503 -1.23157e-05
3890 4503 0
3894 4503 -3.13407e-06
3895 4503 -2.35542e-06
3896 4503 -2.08938e-06
3921 4503 -2.08938e-06
3922 4503 -3.13407e-06
3923 4503 -2.35542e-06
3924 4503 0
3925 4503 0
3926 4503 0
3927 4503 0
3960 4503 -3.79593e-06
3961 4503 -2.35542e-06
4301 4503 -0.00552486
4302 4503 -8.38348e-06
4303 4503 -8.01362e-06
4304 4503 -1.9661e-06
4305 4503 -1.23157e-05
4306 4503 0
4309 4503 -2.08938e-06
4310 4503 -2.08938e-06
4312 4503 -3.13407e-06
4313 4503 -2.08938e-06
4314 4503 0
4315 4503 0
4316 4503 -2.35542e-06
4317 4503 -2.08938e-06
4318 4503 -3.13407e-06
4383 4503 -2.35542e-06
4386 4503 -2.08938e-06
4406 4503 -0.00552486
4407 4503 -8.38348e-06
4408 4503 -8.01362e-06
4409 4503 -1.9661e-06
4410 4503 -1.23157e-05
4411 4503 0
4412 4503 0
4413 4503 -2.08938e-06
4415 4503 -3.13407e-06
4416 4503 -2.08938e-06
4417 4503 -2.35542e-06
4418 4503 -3.13407e-06
4419 4503 -2.08938e-06
4420 4503 0
4421 4503 0
4422 4503 0
4423 4503 0
4424 4503 0
4425 4503 0
4426 4503 0
4427 4503 0
4428 4503 0
4429 4503 0
4430 4503 0
4431 4503 0
4432 4503 0
4433 4503 0
4434 4503 0
4435 4503 0
4436 4503 -2.08938e-06
4437 4503 0
4438 4503 0
4439 4503 0
4440 4503 0
4441 4503 0
4442 4503 0
4443 4503 0
4444 4503 0
4445 4503 0
4446 4503 0
4447 4503 0
4448 4503 -2.35542e-06
4449 4503 0
4450 4503 0
4451 4503 0
4452 4503 0
4453 4503 0
4454 4503 0
4455 4503 0
4456 4503 0
4457 4503 0
4458 4503 0
4459 4503 0
4460 4503 0
4461 4503 0.000464585
4462 4503 0
4463 4503 0
4464 4503 0
4465 4503 0
4466 4503 -2.35542e-06
4467 4503 0
4468 4503 0
4469 4503 0
4470 4503 0
4471 4503 0
4472 4503 0
4473 4503 0
4474 4503 0
4475 4503 0
4476 4503 0
4477 4503 0
4478 4503 0
4479 4503 0
4480 4503 0
4481 4503 0
4482 4503 0
4483 4503 0
4484 4503 0
4485 4503 0
4486 4503 0
4487 4503 0
4488 4503 0
4489 4503 0
4490 4503 -2.77395e-05
4491 4503 0
4492 4503 0
4493 4503 0
4494 4503 0
4495 4503 0
4496 4503 0
4497 4503 0
4498 4503 0
4499 4503 0
4500 4503 0
4502 4503 0.0878393
4503 4503 1
4504 4503 -2.56566e-05
4506 4503 -0.000974366
4507 4503 0
4509 4503 -0.002909
4504 4504 1
4506 4504 -1
706 4505 -0.00242149
712 4505 -1
713 4505 -1
714 4505 -1
715 4505 -1
716 4505 -1
717 4505 -1
718 4505 -1
719 4505 -1
720 4505 -1
721 4505 -1
722 4505 -1
723 4505 -1
724 4505 -1
725 4505 -1
726 4505 -1
727 4505 -1
728 4505 -1
729 4505 -1
730 4505 -1
731 4505 -1
732 4505 -1
733 4505 -1
734 4505 -1
735 4505 -1
736 4505 -1
737 4505 -1
738 4505 -1
739 4505 -1
740 4505 -1
741 4505 -1
742 4505 -1
743 4505 -1
744 4505 -1
745 4505 -1
746 4505 -1
747 4505 -1
748 4505 -1
749 4505 -1
750 4505 -1
751 4505 -1
752 4505 -1
753 4505 -1
754 4505 -1
755 4505 -1
756 4505 -1
757 4505 -1
758 4505 -1
759 4505 -1
760 4505 -1
761 4505 -1
762 4505 -1
763 4505 -1
764 4505 -1
765 4505 -1
766 4505 -1
767 4505 -1
768 4505 -1
769 4505 -1
770 4505 -1
771 4505 -1
772 4505 -1
773 4505 -1
774 4505 -1
775 4505 -1
776 4505 -1
777 4505 -1
778 4505 -1
779 4505 -1
780 4505 -1
781 4505 -1
782 4505 -1
783 4505 -1
784 4505 -1
785 4505 -1
786 4505 -1
787 4505 -1
788 4505 -1
789 4505 -1
790 4505 -1
791 4505 -1
792 4505 -1
793 4505 -1
794 4505 -1
795 4505 -1
796 4505 -1
797 4505 -1
798 4505 -1
799 4505 -1
800 4505 -1
801 4505 -1
802 4505 -1
803 4505 -1
804 4505 -1
805 4505 -1
806 4505 -1
807 4505 -1
808 4505 -1
809 4505 -1
810 4505 -1
811 4505 -1
812 4505 -1
813 4505 -1
814 4505 -1
815 4505 -1
816 4505 -1
817 4505 -1
818 4505 -1
819 4505 -1
820 4505 -1
821 4505 -1
822 4505 -1
823 4505 -1
824 4505 -1
825 4505 -1
826 4505 -1
827 4505 -1
828 4505 -1
829 4505 -1
830 4505 -1
831 4505 -1
832 4505 -1
833 4505 -1
834 4505 -1
835 4505 -1
836 4505 -1
837 4505 -1
838 4505 -1
839 4505 -1
840 4505 -1
841 4505 -1
842 4505 -1
843 4505 -1
844 4505 -1
845 4505 -1
846 4505 -1
847 4505 -1
848 4505 -1
849 4505 -1
850 4505 -1
851 4505 -1
852 4505 -1
853 4505 -1
854 4505 -1
855 4505 -1
856 4505 -1
857 4505 -1
858 4505 -1
859 4505 -1
860 4505 -1
861 4505 -1
862 4505 -1
863 4505 -1
864 4505 -1
865 4505 -1
866 4505 -1
867 4505 -1
868 4505 -1
869 4505 -1
870 4505 -1
871 4505 -1
872 4505 -1
873 4505 -1
874 4505 -1
875 4505 -1
876 4505 -1
877 4505 -1
878 4505 -1
879 4505 -1
880 4505 -1
881 4505 -1
882 4505 -1
883 4505 -1
884 4505 -1
885 4505 -1
886 4505 -1
887 4505 -1
888 4505 -1
889 4505 -1
890 4505 -1
891 4505 -1
892 4505 -1
893 4505 -1
894 4505 -1
895 4505 -1
896 4505 -1
897 4505 -1
898 4505 -1
899 4505 -1
900 4505 -1
901 4505 -1
902 4505 -1
903 4505 -1
904 4505 -1
905 4505 -1
906 4505 -1
907 4505 -1
908 4505 -1
909 4505 -1
910 4505 -1
911 4505 -1
912 4505 -1
913 4505 -1
914 4505 -1
915 4505 -1
916 4505 -1
917 4505 -1
918 4505 -1
919 4505 -1
920 4505 -1
921 4505 -1
922 4505 -1
923 4505 -1
924 4505 -1
925 4505 -1
929 4505 -0.000258452
930 4505 -0.000129226
931 4505 -0.00335351
932 4505 -0.000545236
942 4505 -0.000298378
943 4505 -0.00086738
1017 4505 0
1018 4505 0
1023 4505 -0.00242149
1034 4505 -0.00330013
1053 4505 -0.000298157
1054 4505 -0.000865649
1055 4505 -0.000535075
1109 4505 0
1110 4505 0
1115 4505 -0.00242149
1125 4505 -0.000129226
1126 4505 -0.00332727
1145 4505 -0.000298157
1146 4505 -0.000865649
1147 4505 -0.000534809
1204 4505 0
1205 4505 0
1206 4505 -0.001666
1211 4505 -0.00242149
1222 4505 -0.00330013
1241 4505 -0.000298157
1242 4505 -0.00086587
1243 4505 -0.000536716
1297 4505 0
1298 4505 0
1303 4505 -0.00242149
1314 4505 -0.00330013
1333 4505 -0.000298157
1334 4505 -0.000865649
1335 4505 -0.000537495
1389 4505 0
1390 4505 0
1395 4505 -0.00242149
1406 4505 -0.00330013
1411 4505 -0.000491071
1421 4505 -0.000129226
1422 4505 -0.00138549
1443 4505 -0.000298157
1444 4505 -0.000865649
1445 4505 -0.00145846
1446 4505 -0.000538611
1502 4505 0
1503 4505 0
1508 4505 -0.00242149
1519 4505 -0.00330013
1538 4505 -0.000298157
1539 4505 -0.000865649
1540 4505 -0.000537839
1594 4505 0
1595 4505 0
1596 4505 -0.00165274
1597 4505 -0.00165531
1598 4505 -0.00166065
1703 4505 -0.000911061
1704 4505 -0.00108441
1705 4505 -6.74013e-05
1706 4505 0
1717 4505 -0.000911485
1718 4505 -0.00108441
1733 4505 -0.000911124
1734 4505 -0.00108441
1735 4505 -6.608e-05
1736 4505 0
1737 4505 -0.000347109
1742 4505 -0.0012085
1754 4505 -0.000911124
1755 4505 -0.00109166
1756 4505 -6.608e-05
1757 4505 0
1758 4505 -0.000490198
1773 4505 -0.000911478
1774 4505 -0.00108441
1775 4505 -6.61471e-05
1776 4505 0
1777 4505 -0.00034646
1778 4505 -0.000346459
1808 4505 -0.000911061
1809 4505 -0.00108441
1810 4505 -6.60776e-05
1811 4505 0
1838 4505 -0.000911061
1839 4505 -0.00108441
1840 4505 -6.60776e-05
1841 4505 0
1842 4505 -1.59429e-05
1843 4505 -0.000346459
1844 4505 -0.000346682
1845 4505 -0.000346461
1846 4505 -6.61459e-05
1847 4505 -8.94801e-06
1848 4505 -7.63079e-06
1850 4505 -8.21478e-06
1853 4505 -1.02652e-05
1854 4505 -4.71344e-05
1855 4505 -1.63971e-05
1856 4505 -1.75781e-05
1857 4505 -3.06141e-05
1858 4505 -3.10359e-05
1859 4505 -3.1529e-05
1860 4505 -0.00260853
1861 4505 -0.00056871
1862 4505 -0.000545376
1863 4505 -0.000568489
1864 4505 -0.00056871
1865 4505 -0.00165849
1866 4505 -0.00165924
1867 4505 -3.79593e-06
1868 4505 -0.000522296
1869 4505 -0.000545156
1870 4505 -0.000545376
2595 4505 -0.000162399
2596 4505 -0.000469377
2608 4505 -0.000338659
2609 4505 -0.00203128
2610 4505 -0.000465873
2611 4505 -0.00254106
2612 4505 -0.00229158
2613 4505 -0.00438491
2620 4505 -0.00293686
2629 4505 -0.00112529
2632 4505 -0.00299617
2633 4505 -0.000453838
2634 4505 -0.000453836
2635 4505 -0.00126999
2636 4505 -0.000184974
2665 4505 -1.62608e-05
2714 4505 -1.20571e-05
2715 4505 -8.41616e-05
2720 4505 -0.000294825
2754 4505 0
2755 4505 -0.0011996
2756 4505 -0.000298434
2757 4505 0
2758 4505 -0.0011049
2759 4505 -0.000613491
2760 4505 0
2761 4505 -9.16862e-06
2762 4505 -0.00227395
2763 4505 -0.000673865
2764 4505 -0.000172685
2765 4505 0
3173 4505 0
3174 4505 0
3175 4505 0
3176 4505 0
3177 4505 0
3178 4505 0
3179 4505 0
3180 4505 0
3181 4505 0
3182 4505 0
3183 4505 0
3184 4505 0
3185 4505 0
4453 4505 0
4454 4505 0
4455 4505 0
4456 4505 0
4457 4505 0
4458 4505 0
4459 4505 0
4460 4505 0
4461 4505 0
4462 4505 0
4463 4505 0
4464 4505 0
4465 4505 0
4466 4505 0
4467 4505 0
4468 4505 0
4469 4505 0
4470 4505 0
4471 4505 0
4472 4505 0
4473 4505 0
4474 4505 0
4475 4505 0
4476 4505 0
4477 4505 0
4478 4505 0
4479 4505 0
4480 4505 0
4481 4505 0
4482 4505 0
4483 4505 0
4484 4505 0
4485 4505 0
4486 4505 0
4487 4505 0
4488 4505 0
4489 4505 0
4490 4505 0
4491 4505 0
4492 4505 0
4493 4505 0
4494 4505 0
4495 4505 0
4496 4505 0
4497 4505 0
4498 4505 0
4499 4505 0
4500 4505 0
4502 4505 -2.56566e-05
4504 4505 0.134865
4505 4505 1
4506 4505 -0.000120101
4507 4505 -3.35923e-05
4509 4505 -0.0149252
4506 4506 1
983 4507 -2.35542e-06
1000 4507 -0.00552486
1001 4507 0
1002 4507 -8.38348e-06
1003 4507 -8.01362e-06
1004 4507 -1.9661e-06
1005 4507 -1.23157e-05
1006 4507 0
1009 4507 -2.08938e-06
1010 4507 -2.08938e-06
1011 4507 -1.04145e-05
1012 4507 0
1013 4507 -2.35542e-06
1014 4507 -3.13407e-06
1015 4507 -1.04145e-05
1016 4507 -3.13407e-06
1017 4507 0
1018 4507 0
1066 4507 -2.08938e-06
1076 4507 -2.35542e-06
1093 4507 -0.00552486
1094 4507 0
1095 4507 -8.38348e-06
1096 4507 -8.01362e-06
1097 4507 -1.9661e-06
1098 4507 -1.23157e-05
1099 4507 0
1102 4507 -2.08938e-06
1103 4507 -2.08938e-06
1104 4507 0
1105 4507 -2.35542e-06
1106 4507 -3.13407e-06
1107 4507 -2.08938e-06
1108 4507 -3.13407e-06
1109 4507 0
1110 4507 0
1160 4507 -2.08938e-06
1170 4507 -2.35542e-06
1187 4507 -0.00552486
1188 4507 0
1189 4507 -8.38348e-06
1190 4507 -8.01362e-06
1191 4507 -1.9661e-06
1192 4507 -1.23157e-05
1193 4507 0
1196 4507 -2.08938e-06
1197 4507 -2.08938e-06
1198 4507 0
1199 4507 -2.35542e-06
1200 4507 -3.13407e-06
1201 4507 -2.08938e-06
1202 4507 -3.13407e-06
1203 4507 0
1204 4507 0
1205 4507 0
1206 4507 0
1254 4507 -2.08938e-06
1264 4507 -2.35542e-06
1281 4507 -0.00552486
1282 4507 0
1283 4507 -8.38348e-06
1284 4507 -8.01362e-06
1285 4507 -1.9661e-06
1286 4507 -1.23157e-05
1287 4507 0
1290 4507 -2.08938e-06
1291 4507 -2.08938e-06
1292 4507 0
1293 4507 -2.35542e-06
1294 4507 -3.13407e-06
1295 4507 -2.08938e-06
1296 4507 -3.13407e-06
1297 4507 0
1298 4507 0
1346 4507 -2.08938e-06
1356 4507 -2.35542e-06
1373 4507 -0.00552486
1374 4507 0
1375 4507 -8.38348e-06
1376 4507 -8.01362e-06
1377 4507 -1.9661e-06
1378 4507 -1.23157e-05
1379 4507 0
1382 4507 -2.08938e-06
1383 4507 -2.08938e-06
1384 4507 0
1385 4507 -2.35542e-06
1386 4507 -3.13407e-06
1387 4507 -2.08938e-06
1388 4507 -3.13407e-06
1389 4507 0
1390 4507 0
1457 4507 -2.08938e-06
1469 4507 -2.35542e-06
1486 4507 -0.00552486
1487 4507 0
1488 4507 -8.38348e-06
1489 4507 -8.01362e-06
1490 4507 -1.9661e-06
1491 4507 -1.23157e-05
1492 4507 0
1495 4507 -2.08938e-06
1496 4507 -2.08938e-06
1497 4507 0
1498 4507 -2.35542e-06
1499 4507 -3.13407e-06
1500 4507 -2.08938e-06
1501 4507 -3.13407e-06
1502 4507 0
1503 4507 0
1551 4507 -2.08938e-06
1561 4507 -2.35542e-06
1578 4507 -0.00552486
1579 4507 0
1580 4507 -8.38348e-06
1581 4507 -8.01362e-06
1582 4507 -1.9661e-06
1583 4507 -1.23157e-05
1584 4507 0
1587 4507 -2.08938e-06
1588 4507 -2.08938e-06
1589 4507 0
1590 4507 -2.35542e-06
1591 4507 -3.13407e-06
1592 4507 -2.08938e-06
1593 4507 -3.13407e-06
1594 4507 0
1595 4507 0
1596 4507 0
1597 4507 0
1598 4507 0
1860 4507 0
1861 4507 0
1862 4507 0
1863 4507 0
1864 4507 0
1865 4507 0
1866 4507 0
1867 4507 -0.000191611
1868 4507 0
1869 4507 0
1870 4507 0
2712 4507 -5.90478e-06
2757 4507 0
2758 4507 0
2759 4507 0
2760 4507 0
2761 4507 -4.45129e-06
2762 4507 0
2763 4507 0
2764 4507 -0.00347222
2765 4507 0
3173 4507 0
3174 4507 0
3175 4507 0
3176 4507 0
3177 4507 0
3178 4507 0
3179 4507 0
3180 4507 0
3181 4507 0
3182 4507 0
3183 4507 0
3184 4507 0
3185 4507 0
4453 4507 0
4454 4507 0
4455 4507 0
4456 4507 0
4457 4507 0
4458 4507 0
4459 4507 0
4460 4507 0
4461 4507 0
4462 4507 0
4463 4507 0
4464 4507 0
4465 4507 0
4466 4507 0
4467 4507 0
4468 4507 0
4469 4507 0
4470 4507 0
4471 4507 0
4472 4507 0
4473 4507 0
4474 4507 0
4475 4507 0
4476 4507 0
4477 4507 0
4478 4507 0
4479 4507 0
4480 4507 0
4481 4507 0
4482 4507 0
4483 4507 0
4484 4507 -4.45129e-06
4485 4507 0
4486 4507 0
4487 4507 0
4488 4507 0
4489 4507 0
4490 4507 0
4491 4507 0
4492 4507 -5.06124e-06
4493 4507 0
4494 4507 0
4495 4507 0
4496 4507 0
4497 4507 0
4498 4507 0
4499 4507 0
4500 4507 0
4502 4507 0
4504 4507 -3.35923e-05
4506 4507 -0.000633778
4507 4507 0.0441695
4509 4507 -0.000777676
1 4508 -1
2 4508 -1
3 4508 -1
4 4508 -1
5 4508 -1
6 4508 -1
7 4508 -1
8 4508 -1
9 4508 -1
10 4508 -1
11 4508 -1
12 4508 -1
13 4508 -1
14 4508 -1
15 4508 -1
16 4508 -1
17 4508 -1
18 4508 -1
19 4508 -1
20 4508 -1
21 4508 -1
22 4508 -1
23 4508 -1
24 4508 -1
25 4508 -1
26 4508 -1
27 4508 -1
28 4508 -1
29 4508 -1
30 4508 -1
31 4508 -1
32 4508 -1
33 4508 -1
34 4508 -1
35 4508 -1
36 4508 -1
37 4508 -1
38 4508 -1
39 4508 -1
40 4508 -1
41 4508 -1
42 4508 -1
43 4508 -1
44 4508 -1
45 4508 -1
46 4508 -1
47 4508 -1
48 4508 -1
49 4508 -1
50 4508 -1
51 4508 -1
52 4508 -1
53 4508 -1
54 4508 -1
55 4508 -1
56 4508 -1
57 4508 -1
58 4508 -1
59 4508 -1
60 4508 -1
61 4508 -1
62 4508 -1
63 4508 -1
64 4508 -1
65 4508 -1
66 4508 -1
67 4508 -1
68 4508 -1
69 4508 -1
70 4508 -1
71 4508 -1
72 4508 -1
73 4508 -1
74 4508 -1
75 4508 -1
76 4508 -1
77 4508 -1
78 4508 -1
79 4508 -1
80 4508 -1
81 4508 -1
82 4508 -1
83 4508 -1
84 4508 -1
85 4508 -1
86 4508 -1
87 4508 -1
88 4508 -1
89 4508 -1
90 4508 -1
91 4508 -1
92 4508 -1
93 4508 -1
94 4508 -1
95 4508 -1
96 4508 -1
97 4508 -1
98 4508 -1
99 4508 -1
100 4508 -1
101 4508 -1
102 4508 -1
103 4508 -1
104 4508 -1
105 4508 -1
106 4508 -1
107 4508 -1
108 4508 -1
109 4508 -1
110 4508 -1
111 4508 -1
112 4508 -1
113 4508 -1
114 4508 -1
115 4508 -1
116 4508 -1
117 4508 -1
118 4508 -1
119 4508 -1
120 4508 -1
121 4508 -1
122 4508 -1
123 4508 -1
124 4508 -1
125 4508 -1
126 4508 -1
127 4508 -1
128 4508 -1
129 4508 -1
130 4508 -1
131 4508 -1
132 4508 -1
133 4508 -1
134 4508 -1
135 4508 -1
136 4508 -1
137 4508 -1
138 4508 -1
139 4508 -1
140 4508 -1
141 4508 -1
142 4508 -1
143 4508 -1
144 4508 -1
145 4508 -1
146 4508 -1
147 4508 -1
148 4508 -1
149 4508 -1
150 4508 -1
151 4508 -1
152 4508 -1
153 4508 -1
154 4508 -1
155 4508 -1
156 4508 -1
157 4508 -1
158 4508 -1
159 4508 -1
160 4508 -1
161 4508 -1
162 4508 -1
163 4508 -1
164 4508 -1
165 4508 -1
166 4508 -1
167 4508 -1
168 4508 -1
169 4508 -1
170 4508 -1
171 4508 -1
172 4508 -1
173 4508 -1
174 4508 -1
175 4508 -1
176 4508 -1
177 4508 -1
178 4508 -1
179 4508 -1
180 4508 -1
181 4508 -1
182 4508 -1
183 4508 -1
184 4508 -1
185 4508 -1
186 4508 -1
187 4508 -1
188 4508 -1
189 4508 -1
190 4508 -1
191 4508 -1
192 4508 -1
193 4508 -1
194 4508 -1
195 4508 -1
196 4508 -1
197 4508 -1
198 4508 -1
199 4508 -1
200 4508 -1
201 4508 -1
202 4508 -1
203 4508 -1
204 4508 -1
205 4508 -1
206 4508 -1
207 4508 -1
208 4508 -1
209 4508 -1
210 4508 -1
211 4508 -1
212 4508 -1
213 4508 -1
214 4508 -1
215 4508 -1
216 4508 -1
217 4508 -1
218 4508 -1
219 4508 -1
220 4508 -1
221 4508 -1
222 4508 -1
223 4508 -1
224 4508 -1
225 4508 -1
226 4508 -1
227 4508 -1
228 4508 -1
229 4508 -1
230 4508 -1
231 4508 -1
232 4508 -1
233 4508 -1
234 4508 -1
235 4508 -1
236 4508 -1
237 4508 -1
238 4508 -1
239 4508 -1
240 4508 -1
241 4508 -1
242 4508 -1
243 4508 -1
244 4508 -1
245 4508 -1
246 4508 -1
247 4508 -1
248 4508 -1
249 4508 -1
250 4508 -1
251 4508 -1
252 4508 -1
253 4508 -1
254 4508 -1
255 4508 -1
256 4508 -1
257 4508 -1
258 4508 -1
259 4508 -1
260 4508 -1
261 4508 -1
262 4508 -1
263 4508 -1
264 4508 -1
265 4508 -1
266 4508 -1
267 4508 -1
268 4508 -1
269 4508 -1
270 4508 -1
271 4508 -1
272 4508 -1
273 4508 -1
274 4508 -1
275 4508 -1
276 4508 -1
277 4508 -1
278 4508 -1
279 4508 -1
280 4508 -1
281 4508 -1
282 4508 -1
283 4508 -1
284 4508 -1
285 4508 -1
286 4508 -1
287 4508 -1
288 4508 -1
289 4508 -1
290 4508 -1
291 4508 -1
292 4508 -1
293 4508 -1
294 4508 -1
295 4508 -1
296 4508 -1
297 4508 -1
298 4508 -1
299 4508 -1
300 4508 -1
301 4508 -1
302 4508 -1
303 4508 -1
304 4508 -1
305 4508 -1
306 4508 -1
307 4508 -1
308 4508 -1
309 4508 -1
310 4508 -1
311 4508 -1
312 4508 -1
313 4508 -1
314 4508 -1
315 4508 -1
316 4508 -1
317 4508 -1
318 4508 -1
319 4508 -1
320 4508 -1
321 4508 -1
322 4508 -1
323 4508 -1
324 4508 -1
325 4508 -1
326 4508 -1
327 4508 -1
328 4508 -1
329 4508 -1
330 4508 -1
331 4508 -1
332 4508 -1
333 4508 -1
334 4508 -1
335 4508 -1
336 4508 -1
337 4508 -1
338 4508 -1
339 4508 -1
340 4508 -1
341 4508 -1
342 4508 -1
343 4508 -1
344 4508 -1
345 4508 -1
346 4508 -1
347 4508 -1
348 4508 -1
349 4508 -1
350 4508 -1
351 4508 -1
352 4508 -1
353 4508 -1
354 4508 -1
355 4508 -1
356 4508 -1
357 4508 -1
358 4508 -1
359 4508 -1
360 4508 -1
361 4508 -1
362 4508 -1
363 4508 -1
364 4508 -1
365 4508 -1
366 4508 -1
367 4508 -1
368 4508 -1
369 4508 -1
370 4508 -1
371 4508 -1
372 4508 -1
373 4508 -1
374 4508 -1
375 4508 -1
376 4508 -1
377 4508 -1
378 4508 -1
379 4508 -1
380 4508 -1
381 4508 -1
382 4508 -1
383 4508 -1
384 4508 -1
385 4508 -1
386 4508 -1
387 4508 -1
388 4508 -1
389 4508 -1
390 4508 -1
391 4508 -1
392 4508 -1
393 4508 -1
394 4508 -1
395 4508 -1
396 4508 -1
397 4508 -1
398 4508 -1
399 4508 -1
400 4508 -1
401 4508 -1
402 4508 -1
403 4508 -1
404 4508 -1
405 4508 -1
406 4508 -1
407 4508 -1
408 4508 -1
409 4508 -1
410 4508 -1
411 4508 -1
412 4508 -1
413 4508 -1
414 4508 -1
415 4508 -1
416 4508 -1
417 4508 -1
418 4508 -1
419 4508 -1
420 4508 -1
421 4508 -1
422 4508 -1
423 4508 -1
424 4508 -1
425 4508 -1
426 4508 -1
427 4508 -1
428 4508 -1
429 4508 -1
430 4508 -1
431 4508 -1
432 4508 -1
433 4508 -1
434 4508 -1
435 4508 -1
436 4508 -1
437 4508 -1
438 4508 -1
439 4508 -1
440 4508 -1
441 4508 -1
442 4508 -1
443 4508 -1
444 4508 -1
445 4508 -1
446 4508 -1
447 4508 -1
448 4508 -1
449 4508 -1
450 4508 -1
451 4508 -1
452 4508 -1
453 4508 -1
454 4508 -1
455 4508 -1
456 4508 -1
457 4508 -1
458 4508 -1
459 4508 -1
460 4508 -1
461 4508 -1
462 4508 -1
463 4508 -1
464 4508 -1
465 4508 -1
466 4508 -1
467 4508 -1
468 4508 -1
469 4508 -1
470 4508 -1
471 4508 -1
472 4508 -1
473 4508 -1
474 4508 -1
475 4508 -1
476 4508 -1
477 4508 -1
478 4508 -1
479 4508 -1
480 4508 -1
481 4508 -1
482 4508 -1
483 4508 -1
484 4508 -1
485 4508 -1
486 4508 -1
487 4508 -1
488 4508 -1
489 4508 -1
490 4508 -1
491 4508 -1
492 4508 -1
493 4508 -1
494 4508 -1
495 4508 -1
496 4508 -1
497 4508 -1
498 4508 -1
499 4508 -1
500 4508 -1
501 4508 -1
502 4508 -1
503 4508 -1
504 4508 -1
505 4508 -1
506 4508 -1
507 4508 -1
508 4508 -1
509 4508 -1
510 4508 -1
511 4508 -1
512 4508 -1
513 4508 -1
514 4508 -1
515 4508 -1
516 4508 -1
517 4508 -1
518 4508 -1
519 4508 -1
520 4508 -1
521 4508 -1
522 4508 -1
523 4508 -1
524 4508 -1
525 4508 -1
526 4508 -1
527 4508 -1
528 4508 -1
529 4508 -1
530 4508 -1
531 4508 -1
532 4508 -1
533 4508 -1
534 4508 -1
535 4508 -1
536 4508 -1
537 4508 -1
538 4508 -1
539 4508 -1
540 4508 -1
541 4508 -1
542 4508 -1
543 4508 -1
544 4508 -1
545 4508 -1
546 4508 -1
547 4508 -1
548 4508 -1
549 4508 -1
550 4508 -1
551 4508 -1
552 4508 -1
553 4508 -1
554 4508 -1
555 4508 -1
556 4508 -1
557 4508 -1
558 4508 -1
559 4508 -1
560 4508 -1
561 4508 -1
562 4508 -1
563 4508 -1
564 4508 -1
565 4508 -1
566 4508 -1
567 4508 -1
568 4508 -1
569 4508 -1
570 4508 -1
571 4508 -1
572 4508 -1
573 4508 -1
574 4508 -1
575 4508 -1
576 4508 -1
577 4508 -1
578 4508 -1
579 4508 -1
580 4508 -1
581 4508 -1
582 4508 -1
583 4508 -1
584 4508 -1
585 4508 -1
586 4508 -1
587 4508 -1
588 4508 -1
589 4508 -1
590 4508 -1
591 4508 -1
592 4508 -1
593 4508 -1
594 4508 -1
595 4508 -1
596 4508 -1
597 4508 -1
598 4508 -1
599 4508 -1
600 4508 -1
601 4508 -1
602 4508 -1
603 4508 -1
604 4508 -1
605 4508 -1
606 4508 -1
607 4508 -1
608 4508 -1
609 4508 -1
610 4508 -1
611 4508 -1
612 4508 -1
613 4508 -1
614 4508 -1
615 4508 -1
616 4508 -1
617 4508 -1
618 4508 -1
619 4508 -1
620 4508 -1
621 4508 -1
622 4508 -1
623 4508 -1
624 4508 -1
625 4508 -1
626 4508 -1
627 4508 -1
628 4508 -1
629 4508 -1
630 4508 -1
631 4508 -1
632 4508 -1
633 4508 -1
634 4508 -1
635 4508 -1
636 4508 -1
637 4508 -1
638 4508 -1
639 4508 -1
640 4508 -1
641 4508 -1
642 4508 -1
643 4508 -1
644 4508 -1
645 4508 -1
646 4508 -1
647 4508 -1
648 4508 -1
649 4508 -1
650 4508 -1
651 4508 -1
652 4508 -1
653 4508 -1
654 4508 -1
655 4508 -1
656 4508 -1
657 4508 -1
658 4508 -1
659 4508 -1
660 4508 -1
661 4508 -1
662 4508 -1
663 4508 -1
664 4508 -1
665 4508 -1
666 4508 -1
667 4508 -1
668 4508 -1
669 4508 -1
670 4508 -1
671 4508 -1
672 4508 -1
673 4508 -1
674 4508 -1
675 4508 -1
676 4508 -1
677 4508 -1
678 4508 -1
679 4508 -1
680 4508 -1
681 4508 -1
682 4508 -1
683 4508 -1
684 4508 -1
685 4508 -1
686 4508 -1
687 4508 -1
688 4508 -1
689 4508 -1
690 4508 -1
691 4508 -1
692 4508 -1
973 4508 -7.20253e-06
983 4508 -2.99132e-06
1004 4508 -0.00436681
1005 4508 -5.56087e-06
1006 4508 -1.98556e-06
1009 4508 -2.75772e-06
1010 4508 -0.000728017
1011 4508 -0.00128827
1012 4508 -4.72904e-05
1013 4508 -0.00184414
1014 4508 -0.00145356
1015 4508 -3.4066e-06
1016 4508 -6.74183e-06
1017 4508 -0.000399195
1018 4508 -0.000420774
1066 4508 -3.4066e-06
1076 4508 -2.99132e-06
1097 4508 -0.00436681
1098 4508 -5.56087e-06
1099 4508 -1.98556e-06
1102 4508 -2.75772e-06
1103 4508 -0.000727795
1104 4508 -4.72903e-05
1105 4508 -0.00184414
1106 4508 -0.00145355
1107 4508 -0.00128825
1108 4508 -6.74183e-06
1109 4508 -0.000399203
1110 4508 -0.000420774
1160 4508 -3.4066e-06
1170 4508 -2.99132e-06
1191 4508 -0.00436681
1192 4508 -5.56087e-06
1193 4508 -1.98556e-06
1196 4508 -2.75772e-06
1197 4508 -0.000727795
1198 4508 -4.72903e-05
1199 4508 -0.00184414
1200 4508 -0.00145356
1201 4508 -0.00128825
1202 4508 -6.74183e-06
1203 4508 -2.26977e-05
1204 4508 -0.000399203
1205 4508 -0.000420774
1206 4508 0
1254 4508 -3.4066e-06
1264 4508 -2.99132e-06
1285 4508 -0.00436681
1286 4508 -5.56087e-06
1287 4508 -1.98556e-06
1290 4508 -2.75772e-06
1291 4508 -0.000727795
1292 4508 -4.72903e-05
1293 4508 -0.00184414
1294 4508 -0.00145355
1295 4508 -0.00128825
1296 4508 -6.74183e-06
1297 4508 -0.000399203
1298 4508 -0.000420774
1346 4508 -3.4066e-06
1356 4508 -2.99132e-06
1377 4508 -0.00436681
1378 4508 -5.56087e-06
1379 4508 -1.98556e-06
1382 4508 -2.75772e-06
1383 4508 -0.000727795
1384 4508 -4.72903e-05
1385 4508 -0.00184414
1386 4508 -0.00145355
1387 4508 -0.00128825
1388 4508 -6.74183e-06
1389 4508 -0.000399203
1390 4508 -0.000420774
1457 4508 -3.4066e-06
1469 4508 -2.99132e-06
1490 4508 -0.00436681
1491 4508 -5.56087e-06
1492 4508 -1.98556e-06
1495 4508 -2.75772e-06
1496 4508 -0.000727795
1497 4508 -4.72903e-05
1498 4508 -0.00184794
1499 4508 -0.00145356
1500 4508 -0.00128825
1501 4508 -6.74183e-06
1502 4508 -0.000399203
1503 4508 -0.000420774
1551 4508 -3.4066e-06
1561 4508 -2.99132e-06
1582 4508 -0.00436681
1583 4508 -5.56087e-06
1584 4508 -1.98556e-06
1587 4508 -2.75772e-06
1588 4508 -0.000727795
1589 4508 -4.72903e-05
1590 4508 -0.00184414
1591 4508 -0.00145355
1592 4508 -0.00128825
1593 4508 -6.74183e-06
1594 4508 -0.000399203
1595 4508 -0.000420774
1596 4508 0
1597 4508 0
1598 4508 0
1737 4508 -7.89034e-06
1742 4508 -7.89034e-06
1758 4508 0
1777 4508 -7.89034e-06
1778 4508 -7.89034e-06
1842 4508 -7.09871e-06
1843 4508 -7.89034e-06
1844 4508 -7.89034e-06
1845 4508 -7.89034e-06
1846 4508 0
1847 4508 -7.09871e-06
1848 4508 -7.09871e-06
1850 4508 -6.30708e-06
1853 4508 0
1854 4508 0
1855 4508 0
1856 4508 0
1857 4508 0
1858 4508 0
1859 4508 0
1860 4508 0
1861 4508 0
1862 4508 0
1863 4508 0
1864 4508 0
1865 4508 0
1866 4508 0
1867 4508 -0.000613479
1868 4508 0
1869 4508 0
1870 4508 0
1877 4508 -0.00047271
1878 4508 -0.000473365
1885 4508 -0.000471232
1890 4508 -0.000472294
1891 4508 -0.000471762
1892 4508 -0.000467635
1893 4508 -0.000472828
1894 4508 -0.00389064
1895 4508 0
1896 4508 -4.70695e-05
1905 4508 -0.000468941
1906 4508 -0.000467529
1913 4508 -0.000465458
1916 4508 -0.000466489
1917 4508 -0.000465973
1918 4508 -0.000462117
1919 4508 -0.000467008
1920 4508 -0.00389034
1921 4508 0
1931 4508 -2.99132e-06
1946 4508 -2.75772e-06
1967 4508 -0.00436681
1968 4508 -5.56087e-06
1969 4508 -1.98556e-06
1970 4508 -0.000396555
1971 4508 -0.00128843
1972 4508 -4.74382e-05
1973 4508 -0.00148728
1974 4508 -0.000728078
1975 4508 -3.4066e-06
1976 4508 -6.74183e-06
2009 4508 -1.98556e-06
2010 4508 -1.98556e-06
2019 4508 -1.98556e-06
2020 4508 0
2021 4508 -0.00183346
2022 4508 -0.000535909
2065 4508 -2.99132e-06
2086 4508 -0.00436681
2087 4508 -5.56087e-06
2088 4508 -1.98556e-06
2091 4508 -2.75772e-06
2092 4508 -4.74382e-05
2093 4508 -0.00148728
2106 4508 -3.4066e-06
2107 4508 -0.00128843
2108 4508 -0.000728078
2109 4508 -6.74183e-06
2110 4508 -0.000396555
2111 4508 -0.000535908
2121 4508 -2.99132e-06
2142 4508 -0.00436681
2143 4508 -5.56087e-06
2144 4508 -1.98556e-06
2147 4508 -2.75772e-06
2148 4508 -4.74382e-05
2149 4508 -0.00148728
2162 4508 -3.4066e-06
2163 4508 -0.00128843
2164 4508 -0.000728078
2165 4508 -6.74183e-06
2188 4508 -1.98556e-06
2189 4508 -1.98556e-06
2198 4508 -1.98556e-06
2199 4508 0
2200 4508 -0.000396555
2201 4508 -0.000535908
2202 4508 -0.00183346
2203 4508 0
2204 4508 0
2205 4508 0
2206 4508 -1.98556e-06
2207 4508 0
2208 4508 -1.71303e-05
2209 4508 -1.98556e-06
2216 4508 -0.000515281
2217 4508 -0.000504395
2224 4508 -0.000500674
2229 4508 -0.000495163
2230 4508 -0.000495996
2231 4508 -0.000508013
2232 4508 -0.000497706
2233 4508 -0.0010989
2234 4508 0
2241 4508 -0.000488966
2242 4508 -0.000488926
2249 4508 -0.000483855
2254 4508 -0.00048625
2255 4508 -0.000485047
2256 4508 -0.000479843
2257 4508 -0.000487463
2258 4508 -0.0038909
2259 4508 0
2271 4508 -1.98556e-06
2280 4508 -1.98556e-06
2281 4508 -1.98556e-06
2291 4508 -2.99132e-06
2306 4508 -2.75772e-06
2327 4508 -0.00436681
2328 4508 -5.56087e-06
2329 4508 -1.98556e-06
2330 4508 -0.000508235
2331 4508 -0.00129555
2332 4508 -4.72893e-05
2333 4508 -0.00144386
2334 4508 -0.000728184
2335 4508 -3.4066e-06
2336 4508 -6.74183e-06
2337 4508 -0.00184732
2382 4508 -1.98556e-06
2391 4508 -1.98556e-06
2392 4508 -1.98556e-06
2423 4508 -2.99132e-06
2438 4508 -2.75772e-06
2459 4508 -0.00436681
2460 4508 -5.56087e-06
2461 4508 -1.98556e-06
2462 4508 -0.000508235
2463 4508 -0.00129555
2464 4508 -4.72893e-05
2465 4508 -0.00144386
2466 4508 -0.000728184
2467 4508 -3.4066e-06
2468 4508 -6.74183e-06
2469 4508 -0.00038406
2470 4508 -0.00184732
2471 4508 0
2472 4508 0
2473 4508 -0.00038406
2474 4508 0
2475 4508 -1.98556e-06
2476 4508 0
2477 4508 -1.71303e-05
2478 4508 -1.98556e-06
2517 4508 -0.000534872
2518 4508 -0.000534412
2542 4508 -0.000527721
2581 4508 -0.000530914
2582 4508 -0.000529309
2583 4508 -0.00052374
2584 4508 -0.000532535
2587 4508 -2.14973e-05
2635 4508 -2.69673e-05
2636 4508 -8.27707e-05
2659 4508 -0.00742669
2660 4508 -0.000803112
2661 4508 0
2662 4508 0
2663 4508 -0.00174028
2665 4508 -7.89034e-06
2679 4508 -0.00416338
2680 4508 0
2681 4508 0
2682 4508 -0.00632226
2685 4508 -0.00168107
2709 4508 -0.00155105
2710 4508 -0.00701383
2711 4508 -7.5659e-05
2712 4508 -0.0144408
2713 4508 -2.92643e-06
2714 4508 -2.92643e-06
2715 4508 -3.6986e-06
2716 4508 -6.81167e-05
2717 4508 -3.77646e-05
2720 4508 -3.02701e-05
2723 4508 -7.07924e-06
2724 4508 -6.23117e-06
2727 4508 -0.0017405
2751 4508 -0.00742647
2752 4508 -0.000803539
2753 4508 -0.000307829
2754 4508 -7.75602e-05
2755 4508 -1.00057e-05
2756 4508 -0.00161802
2757 4508 -0.000639745
2758 4508 -4.85554e-05
2759 4508 -0.00370111
2760 4508 -0.00209665
2761 4508 -1.72926e-05
2762 4508 -5.68416e-06
2763 4508 -4.91199e-06
2764 4508 -7.02538e-05
2765 4508 -0.00392843
2772 4508 -0.000510232
2773 4508 -0.000510008
2780 4508 -0.000504224
2785 4508 -0.000506971
2786 4508 -0.000505592
2787 4508 -0.000500041
2788 4508 -0.000508363
2789 4508 -0.00389131
2790 4508 0
2797 4508 -0.000499227
2798 4508 -0.000499101
2805 4508 -0.000493694
2810 4508 -0.000496255
2811 4508 -0.000494969
2812 4508 -0.000489601
2813 4508 -0.000497552
2814 4508 -0.00389109
2815 4508 0
2816 4508 -1.98556e-06
2826 4508 -1.98556e-06
2827 4508 -1.98556e-06
2837 4508 -2.99132e-06
2852 4508 -2.75772e-06
2873 4508 -0.00436681
2874 4508 -5.56087e-06
2875 4508 -1.98556e-06
2876 4508 -0.000508235
2877 4508 -0.00129555
2878 4508 -4.72893e-05
2879 4508 -0.00144386
2880 4508 -0.000728184
2881 4508 -3.4066e-06
2882 4508 -6.74183e-06
2883 4508 -0.00184732
2884 4508 -1.98556e-06
2885 4508 -1.71303e-05
2892 4508 -0.000522076
2893 4508 -0.000521742
2900 4508 -0.000515533
2905 4508 -0.000518489
2906 4508 -0.000517004
2907 4508 -0.000511247
2908 4508 -0.000519988
2909 4508 -0.00389155
2910 4508 0
2919 4508 -1.98556e-06
2920 4508 -1.98556e-06
2921 4508 -1.98556e-06
2931 4508 -2.99132e-06
2946 4508 -2.75772e-06
2967 4508 -0.00436681
2968 4508 -5.56087e-06
2969 4508 -1.98556e-06
2970 4508 -0.000508235
2971 4508 -0.00129555
2972 4508 -4.72893e-05
2973 4508 -0.00144386
2974 4508 -0.000728184
2975 4508 -3.4066e-06
2976 4508 -6.74183e-06
2977 4508 -0.00184732
3089 4508 -1.98556e-06
3090 4508 -1.98556e-06
3091 4508 -1.98556e-06
3099 4508 -1.98556e-06
3102 4508 -2.75772e-06
3104 4508 -2.10885e-06
3105 4508 -1.98556e-06
3106 4508 0
3107 4508 -1.98556e-06
3108 4508 -1.98556e-06
3109 4508 -4.72893e-05
3110 4508 -0.00144386
3120 4508 -2.99132e-06
3153 4508 -0.00436681
3154 4508 -5.56087e-06
3155 4508 -1.98556e-06
3156 4508 -0.000508235
3157 4508 -0.00129555
3158 4508 -3.4066e-06
3159 4508 -6.74183e-06
3160 4508 -0.000728184
3161 4508 -0.00184732
3162 4508 0
3163 4508 -0.000384061
3164 4508 0
3165 4508 -0.00038406
3166 4508 -1.98556e-06
3167 4508 0
3168 4508 -0.00038406
3169 4508 0
3170 4508 0
3171 4508 -1.71303e-05
3172 4508 -1.98556e-06
3173 4508 -0.00389183
3174 4508 0
3175 4508 -1.71303e-05
3176 4508 0
3177 4508 0
3178 4508 0
3179 4508 0
3180 4508 -1.71303e-05
3181 4508 0
3182 4508 0
3183 4508 0
3184 4508 0
3185 4508 -1.66437e-05
3194 4508 -0.000464809
3195 4508 -0.000463412
3202 4508 -0.000461401
3205 4508 -0.000462402
3206 4508 -0.000461901
3207 4508 -0.000458074
3208 4508 -0.000462906
3209 4508 -0.00389027
3210 4508 0
3219 4508 -0.000456783
3226 4508 -0.000460796
3227 4508 -0.000458738
3230 4508 -0.000457757
3231 4508 -0.000458246
3232 4508 -0.000457269
3233 4508 -0.00045347
3234 4508 -0.00388998
3235 4508 0
3267 4508 -2.99132e-06
3288 4508 -0.00436681
3289 4508 -5.56087e-06
3290 4508 -1.98556e-06
3293 4508 -2.75772e-06
3294 4508 -4.74382e-05
3295 4508 -0.00148729
3308 4508 -3.4066e-06
3309 4508 -0.00128843
3310 4508 -0.000728078
3311 4508 -6.74183e-06
3334 4508 -1.98556e-06
3335 4508 -1.98556e-06
3344 4508 -1.98556e-06
3345 4508 0
3346 4508 -0.000396555
3347 4508 -0.000535908
3357 4508 -2.99132e-06
3378 4508 -0.00436681
3379 4508 -5.56087e-06
3380 4508 -1.98556e-06
3383 4508 -2.75772e-06
3384 4508 -4.74382e-05
3385 4508 -0.00148729
3398 4508 -3.4066e-06
3399 4508 -0.00128843
3400 4508 -0.000728078
3401 4508 -6.74183e-06
3424 4508 -1.98556e-06
3425 4508 -1.98556e-06
3434 4508 -1.98556e-06
3435 4508 0
3436 4508 -0.000396555
3437 4508 -0.000535908
3438 4508 -0.00183346
3439 4508 0
3440 4508 0
3441 4508 -1.98556e-06
3442 4508 0
3443 4508 -1.71303e-05
3448 4508 -0.000456895
3472 4508 -0.000455047
3473 4508 -0.000455525
3480 4508 -0.000453625
3481 4508 -0.000454097
3482 4508 -0.000454571
3483 4508 -0.000450085
3484 4508 -0.00388992
3485 4508 0
3573 4508 -1.98556e-06
3574 4508 -1.98556e-06
3583 4508 -1.98556e-06
3584 4508 0
3585 4508 -1.98556e-06
3586 4508 -1.98556e-06
3595 4508 -1.98556e-06
3605 4508 -2.99132e-06
3626 4508 -0.00436681
3627 4508 -5.56087e-06
3628 4508 -1.98556e-06
3631 4508 -2.75772e-06
3632 4508 -4.74382e-05
3633 4508 -0.00148729
3646 4508 -3.4066e-06
3647 4508 -0.00128843
3648 4508 -0.000728078
3649 4508 -6.74183e-06
3650 4508 -0.00183346
3651 4508 -0.000396555
3652 4508 -0.000535908
3653 4508 0
3654 4508 0
3661 4508 -0.000449221
3666 4508 -0.000453101
3673 4508 -0.000450142
3674 4508 -0.000450605
3675 4508 -0.00045107
3676 4508 -0.00044968
3677 4508 -0.000445934
3678 4508 -0.00388969
3679 4508 0
3684 4508 -0.00044941
3693 4508 -0.000446039
3694 4508 -0.000446488
3695 4508 -0.000446939
3696 4508 -0.000447392
3697 4508 0
3700 4508 -2.75772e-06
3709 4508 -1.98556e-06
3710 4508 -1.98556e-06
3711 4508 -1.98556e-06
3712 4508 0
3727 4508 -2.75772e-06
3748 4508 -0.00436681
3749 4508 -5.56087e-06
3750 4508 -1.98556e-06
3753 4508 -4.74383e-05
3754 4508 -0.00148729
3755 4508 -0.00183346
3756 4508 -0.00128843
3757 4508 -0.000728078
3758 4508 -6.74183e-06
3759 4508 -3.4066e-06
3760 4508 -2.99132e-06
3761 4508 -0.00388947
3762 4508 0
3763 4508 -1.71303e-05
3770 4508 -0.000444089
3771 4508 -0.000444524
3776 4508 -0.000445817
3779 4508 -0.000445641
3780 4508 -0.000446082
3781 4508 -0.000445202
3786 4508 -0.000454957
3787 4508 -0.000465707
3794 4508 -0.000462609
3799 4508 -0.00047086
3800 4508 -0.000468547
3801 4508 -0.000448679
3802 4508 -0.000469978
3803 4508 0
3808 4508 -0.000442318
3809 4508 -0.000443081
3816 4508 -0.000441133
3821 4508 -0.000441983
3822 4508 -0.000441557
3823 4508 -0.000437881
3824 4508 -0.000442411
3825 4508 0
3888 4508 -0.00436681
3889 4508 -5.56087e-06
3890 4508 -1.98556e-06
3893 4508 -4.74383e-05
3894 4508 -0.00148729
3895 4508 -0.00183346
3896 4508 -0.00128843
3905 4508 -1.98556e-06
3906 4508 -1.98556e-06
3907 4508 -1.98556e-06
3920 4508 0
3921 4508 -3.4066e-06
3922 4508 -6.74183e-06
3923 4508 -2.99132e-06
3924 4508 -1.98556e-06
3925 4508 -0.000535908
3926 4508 -0.000396554
3927 4508 0
3956 4508 -1.98556e-06
3957 4508 -1.98556e-06
3958 4508 0
3959 4508 0
3960 4508 0
3961 4508 -2.99132e-06
4304 4508 -0.00436681
4305 4508 -5.56087e-06
4306 4508 -1.98556e-06
4309 4508 -2.75772e-06
4310 4508 -0.00129556
4311 4508 -4.72894e-05
4312 4508 -0.00144387
4313 4508 -0.000728185
4314 4508 -0.000508235
4315 4508 -0.000384058
4316 4508 -0.00184732
4317 4508 -3.4066e-06
4318 4508 -6.74183e-06
4380 4508 -1.98556e-06
4381 4508 -1.98556e-06
4382 4508 -1.98556e-06
4383 4508 -2.99132e-06
4386 4508 -2.75772e-06
4409 4508 -0.00436681
4410 4508 -5.56087e-06
4411 4508 -1.98556e-06
4412 4508 -0.000396554
4413 4508 -0.00128843
4414 4508 -4.74383e-05
4415 4508 -0.0014873
4416 4508 -0.000728078
4417 4508 -0.00183346
4418 4508 -6.74183e-06
4419 4508 -3.4066e-06
4420 4508 -0.000535907
4421 4508 -1.98556e-06
4422 4508 0
4423 4508 0
4424 4508 0
4425 4508 0
4426 4508 0
4427 4508 0
4428 4508 -0.00389036
4429 4508 -0.00109866
4430 4508 -1.71303e-05
4431 4508 0
4432 4508 -0.00388992
4433 4508 -1.71303e-05
4434 4508 0
4435 4508 -1.71303e-05
4436 4508 -0.000728078
4437 4508 0
4438 4508 -1.98556e-06
4439 4508 -0.000535908
4440 4508 0
4441 4508 -1.98556e-06
4442 4508 0
4443 4508 0
4444 4508 -0.000396554
4445 4508 -1.71303e-05
4446 4508 0
4447 4508 0
4448 4508 -0.00183346
4449 4508 -1.98556e-06
4450 4508 0
4451 4508 0
4452 4508 -1.71303e-05
4453 4508 -1.98556e-06
4454 4508 0
4455 4508 0
4456 4508 -1.71303e-05
4457 4508 0
4458 4508 -0.00650328
4459 4508 -0.00639085
4460 4508 -0.00638246
4461 4508 -0.00346277
4462 4508 -3.63371e-06
4463 4508 0
4464 4508 -0.00640192
4465 4508 -0.0063876
4466 4508 -0.00183346
4467 4508 -0.000445592
4468 4508 -0.000442317
4469 4508 0
4470 4508 0
4471 4508 0
4472 4508 0
4473 4508 0
4474 4508 -0.000440826
4475 4508 0
4476 4508 -5.86844e-05
4477 4508 0
4478 4508 -0.00638129
4479 4508 -0.00631523
4480 4508 0
4481 4508 0
4482 4508 -6.21753e-05
4483 4508 0
4484 4508 -5.64717e-05
4485 4508 0
4486 4508 0
4487 4508 -3.40725e-05
4488 4508 -3.94452e-05
4489 4508 0
4490 4508 -3.66485e-05
4491 4508 0
4492 4508 -7.06951e-05
4493 4508 0
4494 4508 0
4495 4508 0
4496 4508 -6.54651e-05
4497 4508 0
4498 4508 0
4499 4508 0
4500 4508 -2.57604e-05
4501 4508 -1
4502 4508 -0.000976998
4504 4508 -0.000120101
4505 4508 -1
4506 4508 0.518466
4507 4508 -0.000633778
4508 4508 1
4509 4508 -0.0548126
4509 4509 1
701 4510 -0.00077191
706 4510 -0.000229092
929 4510 -0.00333456
930 4510 -0.000772715
931 4510 -0.0004723
932 4510 -0.00263265
941 4510 -0.000752496
942 4510 -0.000932668
943 4510 -0.000316971
971 4510 -0.000432131
972 4510 -0.00185413
973 4510 -0.000224712
982 4510 -0.000329582
983 4510 -0.000123588
999 4510 -0.00343887
1000 4510 -0.000106328
1001 4510 -0.00130097
1002 4510 -8.2679e-05
1003 4510 -0.00161248
1004 4510 -4.36701e-05
1005 4510 -2.98872e-05
1006 4510 -0.000778499
1009 4510 -0.000317136
1010 4510 -6.5238e-05
1011 4510 -5.47457e-05
1012 4510 -5.82691e-06
1013 4510 -0.000114766
1014 4510 -2.90697e-05
1015 4510 -0.000432512
1016 4510 -5.96253e-05
1017 4510 -9.47679e-05
1018 4510 -0.000144805
1023 4510 -0.000229092
1032 4510 -0.00333456
1033 4510 -0.000772715
1034 4510 -0.0004723
1043 4510 -0.00077191
1052 4510 -0.000752496
1053 4510 -0.00093267
1054 4510 -0.000318521
1055 4510 -0.00262524
1064 4510 -0.000432131
1065 4510 -0.00185371
1066 4510 -0.000432514
1075 4510 -0.000329582
1076 4510 -0.000123588
1092 4510 -0.00343887
1093 4510 -0.000106328
1094 4510 -0.00130098
1095 4510 -8.26802e-05
1096 4510 -0.00161248
1097 4510 -4.36701e-05
1098 4510 -2.98872e-05
1099 4510 -0.000778499
1102 4510 -0.000315085
1103 4510 -6.54781e-05
1104 4510 -5.82691e-06
1105 4510 -0.000114766
1106 4510 -2.90697e-05
1107 4510 -5.47457e-05
1108 4510 -5.96253e-05
1109 4510 -9.47703e-05
1110 4510 -0.000144805
1115 4510 -0.000229092
1124 4510 -0.000772715
1125 4510 -0.00333456
1126 4510 -0.0004723
1135 4510 -0.00077191
1144 4510 -0.000752496
1145 4510 -0.000932671
1146 4510 -0.000318521
1147 4510 -0.00263618
1158 4510 -0.000432131
1159 4510 -0.00185371
1160 4510 -0.000432514
1169 4510 -0.000329582
1170 4510 -0.000123588
1186 4510 -0.00343887
1187 4510 -0.000106328
1188 4510 -0.00130098
1189 4510 -8.26802e-05
1190 4510 -0.00161248
1191 4510 -4.36701e-05
1192 4510 -2.98872e-05
1193 4510 -0.000778499
1196 4510 -0.000315085
1197 4510 -6.54781e-05
1198 4510 -5.82691e-06
1199 4510 -0.000114766
1200 4510 -2.90697e-05
1201 4510 -5.47457e-05
1202 4510 -5.96253e-05
1203 4510 -0.000227304
1204 4510 -9.47703e-05
1205 4510 -0.000144805
1206 4510 -0.000775629
1211 4510 -0.000229092
1220 4510 -0.00333456
1221 4510 -0.000772715
1222 4510 -0.0004723
1231 4510 -0.00077191
1240 4510 -0.000752496
1241 4510 -0.000932669
1242 4510 -0.000318521
1243 4510 -0.00262772
1252 4510 -0.000432131
1253 4510 -0.00185371
1254 4510 -0.000432514
1263 4510 -0.000329582
1264 4510 -0.000123588
1280 4510 -0.00343887
1281 4510 -0.000106328
1282 4510 -0.00130098
1283 4510 -8.26802e-05
1284 4510 -0.00161248
1285 4510 -4.36701e-05
1286 4510 -2.98872e-05
1287 4510 -0.000778499
1290 4510 -0.000315085
1291 4510 -6.54781e-05
1292 4510 -5.82691e-06
1293 4510 -0.000114766
1294 4510 -2.90697e-05
1295 4510 -5.47457e-05
1296 4510 -5.96253e-05
1297 4510 -9.47703e-05
1298 4510 -0.000144805
1303 4510 -0.000229092
1312 4510 -0.00333456
1313 4510 -0.000772715
1314 4510 -0.0004723
1323 4510 -0.00077191
1332 4510 -0.000752496
1333 4510 -0.000932669
1334 4510 -0.000318521
1335 4510 -0.00263068
1344 4510 -0.000432131
1345 4510 -0.00185371
1346 4510 -0.000432514
1355 4510 -0.000329582
1356 4510 -0.000123588
1372 4510 -0.00343887
1373 4510 -0.000106328
1374 4510 -0.00130098
1375 4510 -8.26802e-05
1376 4510 -0.00161248
1377 4510 -4.36701e-05
1378 4510 -2.98872e-05
1379 4510 -0.000778499
1382 4510 -0.000315085
1383 4510 -6.54781e-05
1384 4510 -5.82691e-06
1385 4510 -0.000114766
1386 4510 -2.90697e-05
1387 4510 -5.47457e-05
1388 4510 -5.96253e-05
1389 4510 -9.47703e-05
1390 4510 -0.000144805
1395 4510 -0.000229092
1404 4510 -0.00333456
1405 4510 -0.000772715
1406 4510 -0.0004723
1411 4510 -0.0027226
1420 4510 -0.00333456
1421 4510 -0.00079263
1422 4510 -0.000829701
1431 4510 -0.00077191
1442 4510 -0.000752496
1443 4510 -0.000932671
1444 4510 -0.000318521
1445 4510 -0.00059057
1446 4510 -0.00263596
1455 4510 -0.000432131
1456 4510 -0.00185371
1457 4510 -0.000432514
1468 4510 -0.000331697
1469 4510 -0.000123588
1485 4510 -0.00343887
1486 4510 -0.000106328
1487 4510 -0.00130098
1488 4510 -8.26802e-05
1489 4510 -0.00161248
1490 4510 -4.36701e-05
1491 4510 -2.98872e-05
1492 4510 -0.000778499
1495 4510 -0.000315085
1496 4510 -6.54781e-05
1497 4510 -5.82691e-06
1498 4510 -0.000113566
1499 4510 -2.90697e-05
1500 4510 -5.47457e-05
1501 4510 -5.94046e-05
1502 4510 -9.47703e-05
1503 4510 -0.000145246
1508 4510 -0.000229092
1517 4510 -0.00333456
1518 4510 -0.000772715
1519 4510 -0.0004723
1528 4510 -0.00077191
1537 4510 -0.000752496
1538 4510 -0.00093267
1539 4510 -0.000318521
1540 4510 -0.00263337
1549 4510 -0.000432131
1550 4510 -0.00185371
1551 4510 -0.000432514
1560 4510 -0.000329582
1561 4510 -0.000123588
1577 4510 -0.00343887
1578 4510 -0.000106328
1579 4510 -0.00130098
1580 4510 -8.26802e-05
1581 4510 -0.00161248
1582 4510 -4.36701e-05
1583 4510 -2.98872e-05
1584 4510 -0.000778499
1587 4510 -0.000315085
1588 4510 -6.54781e-05
1589 4510 -5.82691e-06
1590 4510 -0.000114766
1591 4510 -2.90697e-05
1592 4510 -5.47457e-05
1593 4510 -5.96253e-05
1594 4510 -9.47703e-05
1595 4510 -0.000144805
1596 4510 -0.000763281
1597 4510 -0.000762262
1598 4510 -0.000766168
1637 4510 -0.000272223
1676 4510 -0.000292793
1677 4510 -0.000248344
1678 4510 -0.000230857
1703 4510 -0.000353319
1704 4510 -0.000428777
1705 4510 -0.000660086
1706 4510 -0.000536788
1717 4510 -0.000353449
1718 4510 -0.000428838
1733 4510 -0.000353328
1734 4510 -0.000428894
1735 4510 -0.000658571
1736 4510 -0.000807777
1737 4510 -0.00325844
1742 4510 -0.000216211
1754 4510 -0.000353328
1755 4510 -0.000429138
1756 4510 -0.000658571
1757 4510 -0.000807752
1758 4510 -0.00261257
1773 4510 -0.00035345
1774 4510 -0.00042884
1775 4510 -0.000640904
1776 4510 -0.0012609
1777 4510 -0.00325864
1778 4510 -0.00325714
1783 4510 -0.00125849
1808 4510 -0.000353319
1809 4510 -0.000428795
1810 4510 -0.000658771
1811 4510 -0.000536787
1838 4510 -0.000353319
1839 4510 -0.000428906
1840 4510 -0.000658771
1841 4510 -0.000536787
1842 4510 -0.000611176
1843 4510 -0.00342925
1844 4510 -0.00313324
1845 4510 -0.00313313
1846 4510 -0.000640901
1847 4510 -0.000434215
1848 4510 -0.000199637
1849 4510 -1
1850 4510 -0.000577341
1851 4510 -1
1852 4510 -1
1853 4510 -0.000644139
1854 4510 -0.000938368
1855 4510 -0.00079388
1856 4510 -0.000934933
1857 4510 -0.00173052
1858 4510 -0.0017373
1859 4510 -0.00172437
1860 4510 -0.00113651
1861 4510 -0.00621161
1862 4510 -0.0061352
1863 4510 -0.00617494
1864 4510 -0.00610238
1865 4510 -0.000773935
1866 4510 -0.000769036
1867 4510 -0.00599374
1868 4510 -0.00602338
1869 4510 -0.00607882
1870 4510 -0.00610254
1871 4510 -3.97437e-05
1872 4510 -3.84719e-05
1877 4510 -0.000327093
1878 4510 -0.000326934
1885 4510 -0.000328284
1890 4510 -0.000327607
1891 4510 -0.000327945
1892 4510 -0.000578974
1893 4510 -0.00032727
1894 4510 -4.29167e-05
1895 4510 -0.00321309
1896 4510 -0.000221105
1897 4510 -3.97437e-05
1898 4510 -4.23197e-05
1905 4510 -0.000333622
1906 4510 -0.000332177
1913 4510 -0.000333569
1916 4510 -0.00033287
1917 4510 -0.000333219
1918 4510 -0.00058449
1919 4510 -0.000332523
1920 4510 -4.9373e-05
1921 4510 -0.00321209
1930 4510 -0.000328854
1931 4510 -0.000121879
1940 4510 -0.000430886
1941 4510 -0.00185375
1942 4510 -8.30684e-05
1943 4510 -0.000197631
1946 4510 -0.000313548
1962 4510 -0.0021771
1963 4510 -0.00137226
1964 4510 -0.000141824
1965 4510 -8.85257e-05
1966 4510 -0.00158901
1967 4510 -4.36911e-05
1968 4510 -2.98872e-05
1969 4510 -0.000622893
1970 4510 -0.000104723
1971 4510 -5.47457e-05
1972 4510 -5.82691e-06
1973 4510 -2.90697e-05
1974 4510 -6.5238e-05
1975 4510 -0.000432388
1976 4510 -5.94046e-05
1985 4510 -0.00333483
1986 4510 -0.000772629
1987 4510 -0.000472294
1996 4510 -0.00329087
1997 4510 -0.00150703
2006 4510 -0.00329012
2007 4510 -0.00243664
2008 4510 -0.000551657
2009 4510 -6.38235e-05
2010 4510 -4.01719e-05
2015 4510 -0.000238371
2016 4510 -3.47603e-05
2017 4510 -2.2516e-05
2018 4510 -4.98207e-05
2019 4510 -6.00989e-05
2020 4510 -0.000221685
2021 4510 -0.000113693
2022 4510 -0.000143966
2031 4510 -0.00333482
2032 4510 -0.00077263
2033 4510 -0.000472287
2042 4510 -0.00329087
2043 4510 -0.00150703
2052 4510 -0.00329012
2053 4510 -0.00243701
2054 4510 -0.000553448
2055 4510 -0.000312842
2064 4510 -0.000328854
2065 4510 -0.000121879
2081 4510 -0.0021771
2082 4510 -0.00137226
2083 4510 -0.000141824
2084 4510 -8.85257e-05
2085 4510 -0.00158901
2086 4510 -4.36911e-05
2087 4510 -2.98872e-05
2088 4510 -0.000622893
2091 4510 -0.000313548
2092 4510 -5.82691e-06
2093 4510 -2.90697e-05
2102 4510 -0.000430886
2103 4510 -0.00185375
2104 4510 -8.34253e-05
2105 4510 -0.000199162
2106 4510 -0.000432388
2107 4510 -5.47457e-05
2108 4510 -6.5238e-05
2109 4510 -5.94046e-05
2110 4510 -0.000104723
2111 4510 -0.000143966
2120 4510 -0.000328854
2121 4510 -0.000121879
2137 4510 -0.0021771
2138 4510 -0.00137226
2139 4510 -0.000141824
2140 4510 -8.85257e-05
2141 4510 -0.00158901
2142 4510 -4.36911e-05
2143 4510 -2.98872e-05
2144 4510 -0.000622893
2147 4510 -0.000313548
2148 4510 -5.82691e-06
2149 4510 -2.90697e-05
2158 4510 -0.000430886
2159 4510 -0.00185375
2160 4510 -8.34253e-05
2161 4510 -0.000204217
2162 4510 -0.000432388
2163 4510 -5.47457e-05
2164 4510 -6.5238e-05
2165 4510 -5.94046e-05
2174 4510 -0.00329087
2175 4510 -0.00150703
2184 4510 -0.00329012
2185 4510 -0.00243567
2186 4510 -0.000555291
2187 4510 -0.000312843
2188 4510 -6.38235e-05
2189 4510 -4.01719e-05
2194 4510 -0.000238728
2195 4510 -3.54287e-05
2196 4510 -3.0043e-05
2197 4510 -4.98207e-05
2198 4510 -6.00989e-05
2199 4510 -3.59348e-05
2200 4510 -0.000104723
2201 4510 -0.000143966
2202 4510 -0.000113693
2203 4510 -0.0002197
2204 4510 -3.59348e-05
2205 4510 -5.85222e-05
2206 4510 -3.80242e-05
2207 4510 -5.85222e-05
2208 4510 -0.000619041
2209 4510 -3.80242e-05
2210 4510 -3.97437e-05
2211 4510 -3.64863e-05
2216 4510 -0.000316283
2217 4510 -0.000329649
2224 4510 -0.000332409
2229 4510 -0.00034084
2230 4510 -0.000339292
2231 4510 -0.000568893
2232 4510 -0.000337717
2233 4510 -4.23976e-05
2234 4510 -0.00110521
2235 4510 -3.97437e-05
2236 4510 -3.22816e-05
2241 4510 -0.000322119
2242 4510 -0.00032225
2249 4510 -0.000324791
2254 4510 -0.000323511
2255 4510 -0.000324149
2256 4510 -0.0005756
2257 4510 -0.000322878
2258 4510 -4.13205e-05
2259 4510 -0.00321149
2268 4510 -0.00333468
2269 4510 -0.000792566
2270 4510 -0.000829669
2271 4510 -4.01719e-05
2276 4510 -0.00273732
2277 4510 -3.34236e-05
2278 4510 -3.59348e-05
2279 4510 -5.49144e-05
2280 4510 -6.38235e-05
2281 4510 -6.00989e-05
2290 4510 -0.000328854
2291 4510 -0.000121879
2300 4510 -0.0004325
2301 4510 -0.00185374
2302 4510 -8.30682e-05
2303 4510 -0.000197288
2306 4510 -0.000313323
2322 4510 -0.00218413
2323 4510 -0.00067803
2324 4510 -0.000141824
2325 4510 -2.11635e-05
2326 4510 -0.00147658
2327 4510 -4.42303e-05
2328 4510 -2.98872e-05
2329 4510 -0.00123456
2330 4510 -9.94322e-05
2331 4510 -5.47457e-05
2332 4510 -5.82691e-06
2333 4510 -2.90697e-05
2334 4510 -6.5238e-05
2335 4510 -0.00043138
2336 4510 -5.94046e-05
2337 4510 -0.000113693
2346 4510 -0.000758293
2347 4510 -0.000333127
2348 4510 -0.000472291
2357 4510 -0.00331498
2358 4510 -0.000333127
2359 4510 -0.000472293
2368 4510 -0.00328936
2369 4510 -0.000243247
2378 4510 -0.00329093
2379 4510 -0.000567558
2380 4510 -0.00241988
2381 4510 -0.000428126
2382 4510 -4.01719e-05
2387 4510 -0.000238371
2388 4510 -3.17236e-05
2389 4510 -3.59348e-05
2390 4510 -4.98207e-05
2391 4510 -6.38235e-05
2392 4510 -6.00989e-05
2401 4510 -0.00328948
2402 4510 -0.000243231
2411 4510 -0.00329093
2412 4510 -0.000566982
2413 4510 -0.00242446
2422 4510 -0.000328854
2423 4510 -0.000121879
2432 4510 -0.0004325
2433 4510 -0.00185374
2434 4510 -8.38014e-05
2435 4510 -0.000190127
2438 4510 -0.000313323
2454 4510 -0.00218413
2455 4510 -0.00067803
2456 4510 -0.000141824
2457 4510 -2.11635e-05
2458 4510 -0.00147658
2459 4510 -4.42303e-05
2460 4510 -2.98872e-05
2461 4510 -0.00123456
2462 4510 -9.94323e-05
2463 4510 -5.47457e-05
2464 4510 -5.82691e-06
2465 4510 -2.90697e-05
2466 4510 -6.5238e-05
2467 4510 -0.00043138
2468 4510 -5.94046e-05
2469 4510 -0.000111941
2470 4510 -0.000113693
2471 4510 -8.80787e-05
2472 4510 -0.00139842
2473 4510 -0.000111941
2474 4510 -7.26296e-05
2475 4510 -3.80242e-05
2476 4510 -6.14746e-05
2477 4510 -0.000618009
2478 4510 -3.80242e-05
2517 4510 -0.000304248
2518 4510 -0.000304258
2542 4510 -0.000306301
2581 4510 -0.000305273
2582 4510 -0.000305785
2583 4510 -0.000557202
2584 4510 -0.000304764
2587 4510 -0.00473471
2595 4510 -0.000575553
2596 4510 -0.00218962
2608 4510 -0.000671275
2609 4510 -0.000393191
2610 4510 -0.00185548
2611 4510 -0.000361681
2612 4510 -0.000378803
2613 4510 -0.000594958
2629 4510 -0.000373772
2633 4510 -0.000719779
2634 4510 -0.000726932
2635 4510 -0.00432067
2636 4510 -0.00077136
2653 4510 -0.00227197
2659 4510 -0.0005373
2660 4510 -0.00046238
2661 4510 -0.00224947
2662 4510 -0.00432331
2663 4510 -0.000290609
2664 4510 -1
2665 4510 -0.000333766
2679 4510 -0.00038144
2680 4510 -0.00335089
2681 4510 -0.000104144
2682 4510 -0.000527111
2685 4510 -0.00028996
2699 4510 -0.00145617
2707 4510 -0.00147381
2708 4510 -0.00263603
2709 4510 -0.000288708
2710 4510 -0.000691739
2711 4510 -0.00589648
2712 4510 -0.00773801
2713 4510 -2.17654e-05
2714 4510 -1.74613e-05
2716 4510 -1.5002e-05
2717 4510 -9.93813e-05
2720 4510 -0.00119754
2723 4510 -4.28155e-05
2724 4510 -1.20886e-05
2727 4510 -0.000290388
2741 4510 -0.00226807
2749 4510 -0.00224593
2750 4510 -0.00431653
2751 4510 -0.000537652
2752 4510 -0.000461848
2753 4510 -0.00986522
2754 4510 -0.000166086
2755 4510 -0.00025413
2756 4510 -0.0011346
2757 4510 -0.00967821
2758 4510 -0.000547103
2759 4510 -0.000857249
2760 4510 -0.00139469
2761 4510 -0.0106717
2762 4510 -0.00090226
2763 4510 -0.00503315
2764 4510 -0.00114424
2765 4510 -0.000829355
2766 4510 -3.97437e-05
2767 4510 -2.65066e-05
2772 4510 -0.000312703
2773 4510 -0.000312768
2780 4510 -0.000315037
2785 4510 -0.000313895
2786 4510 -0.000314464
2787 4510 -0.000565996
2788 4510 -0.00031333
2789 4510 -4.00551e-05
2790 4510 -0.00321283
2791 4510 -3.97437e-05
2792 4510 -2.9433e-05
2797 4510 -0.00031728
2798 4510 -0.000317376
2805 4510 -0.000319775
2810 4510 -0.000318567
2811 4510 -0.000319169
2812 4510 -0.000570767
2813 4510 -0.000317969
2814 4510 -3.71806e-05
2815 4510 -0.0032126
2816 4510 -4.01719e-05
2817 4510 -1.27634e-05
2818 4510 -4.98207e-05
2823 4510 -0.000239461
2824 4510 -2.86414e-05
2825 4510 -3.59348e-05
2826 4510 -6.38235e-05
2827 4510 -6.00989e-05
2836 4510 -0.000328854
2837 4510 -0.000121879
2846 4510 -0.0004325
2847 4510 -0.00185374
2848 4510 -8.34445e-05
2849 4510 -0.000187855
2852 4510 -0.000313323
2868 4510 -0.00218413
2869 4510 -0.00067803
2870 4510 -0.000141824
2871 4510 -2.11635e-05
2872 4510 -0.00147658
2873 4510 -4.42303e-05
2874 4510 -2.98872e-05
2875 4510 -0.00123456
2876 4510 -9.94323e-05
2877 4510 -5.47457e-05
2878 4510 -5.82691e-06
2879 4510 -2.90697e-05
2880 4510 -6.5238e-05
2881 4510 -0.00043138
2882 4510 -5.94046e-05
2883 4510 -0.000113693
2884 4510 -3.80242e-05
2885 4510 -0.000633738
2886 4510 -3.97437e-05
2887 4510 -2.626e-05
2892 4510 -0.000308366
2893 4510 -0.000308402
2900 4510 -0.000310554
2905 4510 -0.000309471
2906 4510 -0.000310011
2907 4510 -0.000561482
2908 4510 -0.000308935
2909 4510 -4.41171e-05
2910 4510 -0.00321605
2915 4510 -0.000240551
2916 4510 -2.61692e-05
2917 4510 -3.59348e-05
2918 4510 -5.96512e-05
2919 4510 -6.38235e-05
2920 4510 -4.01719e-05
2921 4510 -6.00989e-05
2930 4510 -0.000328854
2931 4510 -0.000121879
2940 4510 -0.0004325
2941 4510 -0.00185374
2942 4510 -8.38014e-05
2943 4510 -0.0001849
2946 4510 -0.000313544
2962 4510 -0.00218413
2963 4510 -0.00067803
2964 4510 -0.000141824
2965 4510 -2.11635e-05
2966 4510 -0.00147658
2967 4510 -4.42303e-05
2968 4510 -2.98872e-05
2969 4510 -0.00123456
2970 4510 -9.94323e-05
2971 4510 -5.47457e-05
2972 4510 -5.82691e-06
2973 4510 -2.90697e-05
2974 4510 -6.5238e-05
2975 4510 -0.00043138
2976 4510 -5.94046e-05
2977 4510 -0.000113693
2986 4510 -0.00328938
2987 4510 -0.000243245
2996 4510 -0.00329093
2997 4510 -0.000567954
2998 4510 -0.00242247
3007 4510 -0.000758293
3008 4510 -0.000333127
3009 4510 -0.000472299
3010 4510 -8.99215e-05
3019 4510 -0.00329093
3028 4510 -0.00328939
3029 4510 -0.000243243
3030 4510 -0.00242084
3031 4510 -0.000567202
3040 4510 -0.000758294
3041 4510 -0.000333127
3042 4510 -0.000472289
3051 4510 -0.000758294
3052 4510 -0.000333127
3053 4510 -0.0004723
3054 4510 -0.000199335
3063 4510 -0.00328982
3064 4510 -0.000243178
3075 4510 -0.00329093
3076 4510 -0.000565744
3077 4510 -0.00242079
3078 4510 -9.09143e-05
3079 4510 -0.000426213
3080 4510 -0.000423378
3085 4510 -0.000238371
3086 4510 -1.42104e-05
3087 4510 -4.24949e-05
3088 4510 -4.98207e-05
3089 4510 -6.38235e-05
3090 4510 -4.01719e-05
3091 4510 -6.00989e-05
3096 4510 -0.000251115
3097 4510 -6.02352e-05
3098 4510 -4.52721e-05
3099 4510 -6.38235e-05
3102 4510 -0.000313544
3103 4510 -3.99578e-05
3104 4510 -3.97242e-05
3105 4510 -3.92051e-05
3106 4510 -6.31616e-05
3107 4510 -4.01719e-05
3108 4510 -6.45892e-05
3109 4510 -5.82691e-06
3110 4510 -2.90697e-05
3119 4510 -0.000328854
3120 4510 -0.000121879
3129 4510 -0.0004325
3130 4510 -0.00185374
3131 4510 -8.30682e-05
3132 4510 -0.000182094
3148 4510 -0.00218413
3149 4510 -0.00067803
3150 4510 -0.000141824
3151 4510 -2.11635e-05
3152 4510 -0.00147658
3153 4510 -4.42303e-05
3154 4510 -2.98872e-05
3155 4510 -0.00123456
3156 4510 -9.94336e-05
3157 4510 -5.47457e-05
3158 4510 -0.00043138
3159 4510 -5.94046e-05
3160 4510 -6.5238e-05
3161 4510 -0.000113693
3162 4510 -0.00139848
3163 4510 -0.000111941
3164 4510 -0.00139864
3165 4510 -0.000111941
3166 4510 -3.80242e-05
3167 4510 -6.58934e-05
3168 4510 -0.000111941
3169 4510 -0.00139841
3170 4510 -6.18314e-05
3171 4510 -0.000636561
3172 4510 -3.80242e-05
3173 4510 -2.76876e-05
3174 4510 -0.00322571
3175 4510 -0.000633479
3176 4510 -5.85222e-05
3177 4510 -0.000427736
3178 4510 -9.14139e-05
3179 4510 -0.00139863
3180 4510 -0.000628106
3181 4510 -0.000313063
3182 4510 -0.000234801
3183 4510 -5.81458e-05
3184 4510 -0.000236942
3185 4510 -0.00061629
3186 4510 -3.97437e-05
3187 4510 -4.50385e-05
3194 4510 -0.000336422
3195 4510 -0.000334987
3202 4510 -0.000336424
3205 4510 -0.000335703
3206 4510 -0.000336063
3207 4510 -0.000587356
3208 4510 -0.000335344
3209 4510 -5.2254e-05
3210 4510 -0.00321263
3211 4510 -3.97437e-05
3212 4510 -4.98337e-05
3219 4510 -0.000340046
3226 4510 -0.000339311
3227 4510 -0.000338562
3230 4510 -0.000339302
3231 4510 -0.000338931
3232 4510 -0.000339673
3233 4510 -0.000590802
3234 4510 -5.42915e-05
3235 4510 -0.00321743
3244 4510 -0.00333482
3245 4510 -0.00077263
3246 4510 -0.000472066
3255 4510 -0.00333482
3256 4510 -0.00077263
3257 4510 -0.000472294
3266 4510 -0.000328854
3267 4510 -0.000121879
3283 4510 -0.0021771
3284 4510 -0.00137226
3285 4510 -0.000141824
3286 4510 -8.85257e-05
3287 4510 -0.00158901
3288 4510 -4.36911e-05
3289 4510 -2.98872e-05
3290 4510 -0.000622893
3293 4510 -0.000313548
3294 4510 -5.82691e-06
3295 4510 -2.90697e-05
3304 4510 -0.000430886
3305 4510 -0.00185375
3306 4510 -8.34448e-05
3307 4510 -0.000209307
3308 4510 -0.000432388
3309 4510 -5.47457e-05
3310 4510 -6.5238e-05
3311 4510 -5.94046e-05
3320 4510 -0.00329087
3321 4510 -0.00150703
3330 4510 -0.00329012
3331 4510 -0.00243641
3332 4510 -0.000557114
3333 4510 -0.000312842
3334 4510 -6.38235e-05
3335 4510 -4.01719e-05
3340 4510 -0.000238728
3341 4510 -3.80566e-05
3342 4510 -3.1451e-05
3343 4510 -4.98207e-05
3344 4510 -6.00989e-05
3345 4510 -3.57142e-05
3346 4510 -0.000104723
3347 4510 -0.000143966
3356 4510 -0.000328854
3357 4510 -0.000121879
3373 4510 -0.0021771
3374 4510 -0.00137226
3375 4510 -0.000141824
3376 4510 -8.85257e-05
3377 4510 -0.00158901
3378 4510 -4.36911e-05
3379 4510 -2.98872e-05
3380 4510 -0.000622893
3383 4510 -0.000313548
3384 4510 -5.82691e-06
3385 4510 -2.90697e-05
3394 4510 -0.000430886
3395 4510 -0.00185375
3396 4510 -9.04396e-05
3397 4510 -0.000216662
3398 4510 -0.000432388
3399 4510 -5.47457e-05
3400 4510 -6.5238e-05
3401 4510 -5.94046e-05
3410 4510 -0.00329087
3411 4510 -0.00150703
3420 4510 -0.00329011
3421 4510 -0.00243654
3422 4510 -0.000560385
3423 4510 -0.000312844
3424 4510 -6.38235e-05
3425 4510 -4.01719e-05
3430 4510 -0.000238728
3431 4510 -4.03731e-05
3432 4510 -3.33912e-05
3433 4510 -4.98207e-05
3434 4510 -6.00989e-05
3435 4510 -3.57142e-05
3436 4510 -0.000104723
3437 4510 -0.000143966
3438 4510 -0.000113693
3439 4510 -0.000219571
3440 4510 -5.85222e-05
3441 4510 -3.80242e-05
3442 4510 -5.85222e-05
3443 4510 -0.000623512
3444 4510 -3.97437e-05
3445 4510 -5.29872e-05
3448 4510 -0.000342295
3472 4510 -0.000340967
3473 4510 -0.000340585
3480 4510 -0.000342119
3481 4510 -0.000341734
3482 4510 -0.000341349
3483 4510 -0.000593186
3484 4510 -5.82042e-05
3485 4510 -0.00321257
3494 4510 -0.00333482
3495 4510 -0.000772631
3496 4510 -0.000472295
3505 4510 -0.00333482
3506 4510 -0.000772631
3507 4510 -0.000472287
3512 4510 -0.000238728
3513 4510 -4.66283e-05
3514 4510 -3.96788e-05
3515 4510 -4.98207e-05
3524 4510 -0.00333508
3525 4510 -0.000772875
3526 4510 -0.000472534
3535 4510 -0.00329087
3536 4510 -0.00150703
3545 4510 -0.00329012
3546 4510 -0.00243567
3547 4510 -0.000564765
3548 4510 -0.000313063
3549 4510 -0.000217772
3550 4510 -0.000240553
3559 4510 -0.00329087
3560 4510 -0.00150703
3569 4510 -0.00329011
3570 4510 -0.00243676
3571 4510 -0.000562941
3572 4510 -0.000312844
3573 4510 -6.38235e-05
3574 4510 -4.01719e-05
3579 4510 -0.000238728
3580 4510 -4.21705e-05
3581 4510 -3.52405e-05
3582 4510 -4.98207e-05
3583 4510 -6.00989e-05
3584 4510 -3.57142e-05
3585 4510 -6.38235e-05
3586 4510 -4.01719e-05
3591 4510 -0.000238728
3592 4510 -4.39484e-05
3593 4510 -3.74986e-05
3594 4510 -4.98207e-05
3595 4510 -6.00989e-05
3604 4510 -0.000328854
3605 4510 -0.000121879
3621 4510 -0.0021771
3622 4510 -0.00137226
3623 4510 -0.000141824
3624 4510 -8.85257e-05
3625 4510 -0.00158901
3626 4510 -4.36911e-05
3627 4510 -2.98872e-05
3628 4510 -0.000622893
3631 4510 -0.000313548
3632 4510 -5.82691e-06
3633 4510 -2.90697e-05
3642 4510 -0.000430886
3643 4510 -0.00185283
3644 4510 -9.00438e-05
3645 4510 -0.000224581
3646 4510 -0.000432389
3647 4510 -5.47457e-05
3648 4510 -6.5238e-05
3649 4510 -5.94046e-05
3650 4510 -0.000113693
3651 4510 -0.000104723
3652 4510 -0.000143966
3653 4510 -3.57142e-05
3654 4510 -0.000219416
3655 4510 -3.97437e-05
3656 4510 -5.68026e-05
3661 4510 -0.000345755
3666 4510 -0.000345379
3673 4510 -0.000344959
3674 4510 -0.000344564
3675 4510 -0.000344169
3676 4510 -0.000345357
3677 4510 -0.000597024
3678 4510 -6.10852e-05
3679 4510 -0.00321843
3684 4510 -0.000348569
3693 4510 -0.000348602
3694 4510 -0.000348191
3695 4510 -0.000347781
3696 4510 -0.000347373
3697 4510 -0.00322404
3700 4510 -0.000313548
3707 4510 -0.000328854
3708 4510 -3.97437e-05
3709 4510 -3.80242e-05
3710 4510 -4.01719e-05
3711 4510 -6.38235e-05
3712 4510 -5.85222e-05
3721 4510 -0.000430886
3722 4510 -0.00185375
3723 4510 -9.46768e-05
3724 4510 -0.000254744
3727 4510 -0.000313548
3743 4510 -0.0021771
3744 4510 -0.00137226
3745 4510 -0.000141824
3746 4510 -8.85257e-05
3747 4510 -0.00158901
3748 4510 -4.36911e-05
3749 4510 -2.98872e-05
3750 4510 -0.000622892
3753 4510 -5.82691e-06
3754 4510 -2.90697e-05
3755 4510 -0.000113693
3756 4510 -5.47457e-05
3757 4510 -6.5238e-05
3758 4510 -5.94046e-05
3759 4510 -0.000432389
3760 4510 -0.000121879
3761 4510 -6.14681e-05
3762 4510 -5.58942e-05
3763 4510 -0.000644496
3770 4510 -0.00035012
3771 4510 -0.000349693
3776 4510 -0.000351872
3779 4510 -0.000348842
3780 4510 -0.000348419
3781 4510 -0.000349267
3786 4510 -0.00041122
3787 4510 -0.000393307
3794 4510 -0.000398604
3799 4510 -0.000383723
3800 4510 -0.000387749
3801 4510 -0.000669902
3802 4510 -0.000385408
3803 4510 -0.0011158
3808 4510 -0.000355293
3809 4510 -0.000355237
3816 4510 -0.000357001
3821 4510 -0.000356116
3822 4510 -0.000356558
3823 4510 -0.000607828
3824 4510 -0.000355676
3825 4510 -0.00322432
3834 4510 -0.00329021
3843 4510 -0.00329087
3844 4510 -0.00150703
3845 4510 -0.000556026
3846 4510 -0.00031283
3847 4510 -4.98207e-05
3852 4510 -0.000238728
3853 4510 -4.84581e-05
3862 4510 -0.000780335
3863 4510 -0.000774764
3864 4510 -0.000472525
3865 4510 -0.00018925
3866 4510 -4.0399e-05
3867 4510 -0.00244693
3883 4510 -0.0021771
3884 4510 -0.00137226
3885 4510 -0.000141824
3886 4510 -8.85257e-05
3887 4510 -0.00158901
3888 4510 -4.36911e-05
3889 4510 -2.98872e-05
3890 4510 -0.000622892
3893 4510 -5.82691e-06
3894 4510 -2.90697e-05
3895 4510 -0.000113693
3896 4510 -5.47457e-05
3903 4510 -0.000328854
3904 4510 -3.97437e-05
3905 4510 -3.80242e-05
3906 4510 -4.01719e-05
3907 4510 -6.38235e-05
3916 4510 -0.000430886
3917 4510 -0.00185375
3918 4510 -9.541e-05
3919 4510 -0.000255234
3920 4510 -5.8879e-05
3921 4510 -0.000432389
3922 4510 -5.94046e-05
3923 4510 -0.000121879
3924 4510 -6.00989e-05
3925 4510 -0.000143966
3926 4510 -0.000104723
3927 4510 -3.57142e-05
3936 4510 -0.000432499
3937 4510 -0.00185325
3938 4510 -0.000102009
3939 4510 -0.000263654
3946 4510 -0.000328374
3947 4510 -6.5569e-05
3950 4510 -0.00276475
3951 4510 -4.38835e-05
3954 4510 -5.31949e-05
3955 4510 -6.9313e-05
3956 4510 -6.58739e-05
3957 4510 -3.89715e-05
3958 4510 -4.67126e-05
3959 4510 -5.87168e-05
3960 4510 -3.82448e-05
3961 4510 -0.000122359
3970 4510 -0.0032895
3971 4510 -0.000243228
3980 4510 -0.00329093
4275 4510 -0.00333491
4276 4510 -0.000792918
4277 4510 -0.000145295
4278 4510 -1.79123e-05
4279 4510 -0.000829971
4280 4510 -3.91395e-05
4281 4510 -0.000575152
4282 4510 -0.00242654
4283 4510 -0.00139865
4299 4510 -0.00218413
4300 4510 -0.00067803
4301 4510 -0.000141824
4302 4510 -2.11635e-05
4303 4510 -0.00147658
4304 4510 -4.42303e-05
4305 4510 -2.98872e-05
4306 4510 -0.00123456
4309 4510 -0.000313323
4310 4510 -5.47457e-05
4311 4510 -5.82691e-06
4312 4510 -2.90697e-05
4313 4510 -6.5238e-05
4314 4510 -9.94322e-05
4315 4510 -0.00011194
4316 4510 -0.000114413
4317 4510 -0.000431382
4318 4510 -5.96253e-05
4323 4510 -0.000238727
4324 4510 -4.8231e-05
4325 4510 -4.26506e-05
4326 4510 -4.98207e-05
4335 4510 -0.000752962
4336 4510 -0.0033151
4337 4510 -0.000472531
4338 4510 -0.000190645
4347 4510 -0.00329023
4356 4510 -0.00329087
4357 4510 -0.00150703
4358 4510 -0.000556519
4359 4510 -0.00244713
4368 4510 -0.000430886
4369 4510 -0.00185375
4370 4510 -9.77914e-05
4371 4510 -0.000251274
4378 4510 -0.000328854
4379 4510 -3.97437e-05
4380 4510 -3.80242e-05
4381 4510 -4.01719e-05
4382 4510 -6.38235e-05
4383 4510 -0.000121879
4386 4510 -0.000313327
4404 4510 -0.0021771
4405 4510 -0.00137226
4406 4510 -0.000141824
4407 4510 -8.85256e-05
4408 4510 -0.00158901
4409 4510 -4.36911e-05
4410 4510 -2.98872e-05
4411 4510 -0.000622892
4412 4510 -0.000104723
4413 4510 -5.47457e-05
4414 4510 -5.82691e-06
4415 4510 -2.90697e-05
4416 4510 -6.5238e-05
4417 4510 -0.000113693
4418 4510 -5.94046e-05
4419 4510 -0.000432389
4420 4510 -0.000143966
4421 4510 -6.00989e-05
4422 4510 -6.10982e-05
4423 4510 -3.57142e-05
4424 4510 -5.85222e-05
4425 4510 -0.000312827
4426 4510 -0.000449105
4427 4510 -6.24868e-05
4428 4510 -6.88782e-05
4429 4510 -0.000113112
4430 4510 -0.000627327
4431 4510 -0.000147464
4432 4510 -6.48876e-05
4433 4510 -0.000623998
4434 4510 -0.00322668
4435 4510 -0.000631824
4436 4510 -6.5238e-05
4437 4510 -3.57142e-05
4438 4510 -6.00989e-05
4439 4510 -0.000143966
4440 4510 -0.000253777
4441 4510 -3.80242e-05
4442 4510 -5.85222e-05
4443 4510 -0.000246904
4444 4510 -0.000104723
4445 4510 -0.000630176
4446 4510 -5.85222e-05
4447 4510 -0.00022033
4448 4510 -0.000113693
4449 4510 -3.80242e-05
4450 4510 -0.000236802
4451 4510 -0.000238035
4452 4510 -0.000626237
4453 4510 -3.80242e-05
4454 4510 -0.000223665
4455 4510 -0.000237645
4456 4510 -0.000620287
4457 4510 -0.000238398
4458 4510 -0.00508725
4459 4510 -0.00491954
4460 4510 -0.00476702
4461 4510 -0.00668332
4462 4510 -0.00121817
4463 4510 -0.00914134
4464 4510 -0.00473657
4465 4510 -0.00476237
4466 4510 -0.000113693
4467 4510 -0.000349015
4468 4510 -0.000600298
4469 4510 -0.00628885
4470 4510 -0.0106464
4471 4510 -0.0106452
4472 4510 -0.00652895
4473 4510 -0.00629087
4474 4510 -0.000601418
4475 4510 -0.00640773
4476 4510 -0.000253114
4477 4510 -0.0062435
4478 4510 -0.00477188
4479 4510 -0.00505175
4480 4510 -0.00645507
4481 4510 -0.00114437
4482 4510 -0.000269783
4483 4510 -0.00651019
4484 4510 -0.00582401
4485 4510 -0.00659203
4486 4510 -0.00630583
4487 4510 -0.00023622
4488 4510 -0.000250483
4489 4510 -0.00628307
4490 4510 -0.00503343
4491 4510 -0.00632322
4492 4510 -0.00115531
4493 4510 -0.00632067
4494 4510 -0.00632147
4495 4510 -0.00673062
4496 4510 -0.000273979
4497 4510 -0.00627145
4498 4510 -0.00143632
4499 4510 -0.00625614
4500 4510 -0.0195816
4502 4510 -0.00191002
4503 4510 -1
4504 4510 -0.0149436
4506 4510 -0.0548126
4507 4510 -0.000780452
4509 4510 1.16157
4510 4510 1
