%%MatrixMarket matrix coordinate real general
430 430 2250
1 1 1
2 2 1
3 3 100000
425 3 -100000
426 3 -1.18e-30
4 4 -1
425 4 1
5 5 -3635.14
8 5 1
6 6 1
7 6 18.1818
9 6 -18.1818
7 7 1
426 7 -1
5 8 3634.14
7 8 -18.1818
8 8 -1
9 8 18.1961
423 8 -2e-31
426 8 -0.0142857
4 9 1
9 9 -1
424 9 -310.078
425 9 0
10 10 100000
427 10 -100000
428 10 -1.18e-30
11 11 -1
427 11 1
12 12 -3635.14
15 12 1
13 13 1
16 13 -1
13 14 1.2987
14 14 1
16 14 0
428 14 -1.2987
12 15 3634.14
14 15 -1
15 15 -1
16 15 100000
423 15 -100000
428 15 -0.000606061
11 16 1
16 16 -1
424 16 -1705.43
427 16 0
17 17 1
17 18 4
18 18 1
19 18 -4
17 19 -4
19 19 8
20 19 -4
19 20 -4
20 20 4.01
422 20 -0.01
21 21 0.126415
26 21 -0.115915
422 21 -0.0005
22 22 100009
25 22 -8.89838
428 22 -100000
23 23 100032
24 23 -31.7901
426 23 -100000
23 24 -31.7901
24 24 31.7901
25 24 -5.90855e-11
26 24 -8.41421e-12
426 24 0
22 25 -8.89838
24 25 -5.81108e-11
25 25 8.89838
26 25 -4.43362e-10
426 25 0
428 25 0
21 26 -0.115915
24 26 -9.38897e-12
25 26 -4.42388e-10
26 26 0.115915
422 26 0
426 26 0
428 26 0
27 27 1
424 27 -465.116
425 27 -1
28 28 100000
410 28 -100000
425 28 -1.18e-30
29 29 100000
425 29 -100000
30 30 1
33 30 -3635.14
31 31 1
32 31 8.33333
34 31 -8.33333
32 32 1
410 32 -1
32 33 -8.33333
33 33 1
34 33 8.33958
410 33 -0.00625
421 33 -2e-31
27 34 -1
34 34 1
424 34 0
425 34 0
35 35 100000
405 35 -100000
406 35 -1.18e-30
36 36 -1
405 36 1
37 37 -3635.14
40 37 1
38 38 1
39 38 18.1818
41 38 -18.1818
39 39 1
406 39 -1
37 40 3634.14
39 40 -18.1818
40 40 -1
41 40 18.1961
49 40 -2e-31
406 40 -0.0142857
36 41 1
41 41 -1
404 41 -310.078
405 41 0
42 42 100000
407 42 -1.18e-30
409 42 -100000
43 43 -1
409 43 1
44 44 -3635.14
47 44 1
45 45 1
48 45 -1
45 46 1.2987
46 46 1
48 46 0
407 46 -1.2987
44 47 3634.14
46 47 -1
47 47 -1
48 47 100000
49 47 -100000
407 47 -0.000606061
43 48 1
48 48 -1
404 48 -1705.43
409 48 0
41 49 -2e-31
48 49 -100000
49 49 100000
404 49 0
405 49 0
409 49 0
50 50 1
50 51 4
51 51 1
52 51 -4
50 52 -4
52 52 8
53 52 -4
52 53 -4
53 53 4.01
408 53 -0.01
54 54 0.126415
59 54 -0.115915
408 54 -0.0005
55 55 100009
58 55 -8.89838
407 55 -100000
56 56 100032
57 56 -31.7901
406 56 -100000
56 57 -31.7901
57 57 31.7901
58 57 -5.90855e-11
59 57 -8.41421e-12
406 57 0
55 58 -8.89838
57 58 -5.81108e-11
58 58 8.89838
59 58 -4.43362e-10
406 58 0
407 58 0
54 59 -0.115915
57 59 -9.38897e-12
58 59 -4.42388e-10
59 59 0.115915
406 59 0
407 59 0
408 59 0
60 60 1
404 60 -465.116
405 60 -1
61 61 100000
392 61 -100000
405 61 -1.18e-30
62 62 100000
405 62 -100000
63 63 1
66 63 -3635.14
64 64 1
65 64 8.33333
67 64 -8.33333
65 65 1
392 65 -1
65 66 -8.33333
66 66 1
67 66 8.33958
392 66 -0.00625
403 66 -2e-31
60 67 -1
67 67 1
404 67 0
405 67 0
68 68 1000
69 68 -4.96256e-07
70 68 -0.00365244
88 68 -1000
68 69 -0.00365294
69 69 1000
70 69 0.00365244
71 69 -1000
88 69 0
68 70 -1.0021e-12
69 70 -1.0021e-12
70 70 1000
71 70 0
88 70 0
154 70 -1000
69 71 -1000
70 71 0
71 71 1000
88 71 -0.000133333
154 71 -0.000222222
72 72 1000.07
73 72 -1000
72 73 -1000
73 73 1000.07
74 73 -0.0352393
75 73 -0.0352393
73 74 -0.0704721
74 74 1000.04
75 74 0.0352328
88 74 -1000
73 75 -6.436e-06
74 75 -6.87607e-10
75 75 1000
76 75 -1000
88 75 0
75 76 -1000
76 76 1000.05
88 76 0
391 76 -0.0454545
77 77 1000
78 77 -1.41955e-16
80 77 -1.04479e-12
77 78 -4.48722e-14
78 78 1000
79 78 -1000
80 78 -9.55328e-13
78 79 -1000
79 79 2000.01
80 79 0
81 79 -1000
77 80 -1.00006e-12
78 80 -1.00006e-12
79 80 0
80 80 1000
81 80 0
155 80 -1000
79 81 -1000
80 81 0
81 81 1000
86 81 -1.01839e-12
87 81 -1.38368e-16
155 81 0
82 82 2000
83 82 -1000
87 82 -1000
82 83 -1000
83 83 1000
84 83 -0.00170852
85 83 -2.32135e-07
87 83 0
83 84 -0.00503972
84 84 1000.01
85 84 -0.00503972
87 84 0
88 84 -1000
83 85 0.00333097
84 85 -0.00837092
85 85 1000.01
87 85 0
88 85 0
155 85 -1000
81 86 -0.0245335
86 86 1000.05
87 86 -0.0245335
88 86 -1000
155 86 0
81 87 0.0245335
82 87 -1000
83 87 0
84 87 0
85 87 0
86 87 -0.0490669
87 87 1000.02
88 87 0
155 87 0
68 88 -1000
69 88 0
70 88 0
71 88 -0.000133333
74 88 -1000
75 88 0
76 88 0
84 88 -1000
85 88 0
86 88 -1000
87 88 0
88 88 4000
154 88 0
155 88 0
391 88 0
89 89 1000
90 89 -1.40235e-16
91 89 -1.03213e-12
391 89 -1000
89 90 -3.07766e-14
90 90 1000
91 90 -9.70857e-13
96 90 -1000
391 90 0
89 91 -1.00149e-12
90 91 -1.00149e-12
91 91 1000
96 91 0
154 91 -1000
391 91 0
92 92 1000.07
93 92 -1000
390 92 -0.0666667
92 93 -1000
93 93 1000
94 93 -1.00005e-12
95 93 -1.00005e-12
390 93 0
93 94 7.09078e-05
94 94 1000
95 94 -7.09175e-05
154 94 -1000
390 94 0
93 95 -7.09078e-05
94 95 -9.63422e-09
95 95 1000
96 95 -1000
154 95 0
390 95 0
90 96 -1000
91 96 0
95 96 -1000
96 96 2000.04
154 96 0
390 96 0
391 96 -0.037037
97 97 1000
98 97 -0.00167203
99 97 -2.27179e-07
97 98 -1.03213e-12
98 98 1000
99 98 -1.03213e-12
104 98 -1000
97 99 -0.00167226
98 99 0.00167203
99 99 1000
104 99 -1000
100 100 1000
101 100 -1000
100 101 -1000
101 101 1000.25
102 101 -0.248814
103 101 -3.38063e-05
101 102 -0.208105
102 102 1000.42
103 102 -0.208105
153 102 -1000
101 103 -0.0407435
102 103 -0.167395
103 103 1000.21
104 103 -1000
153 103 0
98 104 -1000
99 104 -1000
103 104 -1000
104 104 3000
108 104 -2.5641e-05
153 104 0
105 105 1000.01
106 105 -0.00640236
107 105 -6.84013e-07
390 105 -1000
105 106 -1.03213e-12
106 106 1000
107 106 -1.03213e-12
108 106 -1000
390 106 0
105 107 -0.00640304
106 107 0.00640236
107 107 1000
108 107 -1000
390 107 0
104 108 -2.5641e-05
106 108 -1000
107 108 -1000
108 108 3000
110 108 -1000
153 108 0
390 108 0
109 109 1000.01
110 109 -6.84013e-07
111 109 -0.00640236
390 109 -1000
108 110 -1000
109 110 -0.00640304
110 110 1000
111 110 0.00640236
153 110 0
390 110 0
109 111 -1.00005e-12
110 111 -1.00005e-12
111 111 1000
153 111 0
154 111 -1000
390 111 0
112 112 1000
113 112 -1000
112 113 -1000
113 113 1000
114 113 -3.84447e-12
115 113 -5.22346e-16
113 114 -1.00007e-12
114 114 1000
115 114 -1.00007e-12
155 114 -1000
113 115 -2.84492e-12
114 115 1.84433e-12
115 115 1000
120 115 -1000
155 115 0
116 116 1000
117 116 -1000
116 117 -1000
117 117 1000
118 117 -3.84447e-12
119 117 -5.22346e-16
117 118 -1.00006e-12
118 118 1000
119 118 -1.00006e-12
126 118 -1000
117 119 -2.84492e-12
118 119 1.84434e-12
119 119 1000
120 119 -1000
126 119 0
115 120 -1000
119 120 -1000
120 120 3000
122 120 -1000
126 120 0
155 120 0
121 121 1000
122 121 -0.00149685
123 121 0.00149664
126 121 -1000
120 122 -1000
121 122 -2.03348e-07
122 122 1000
123 122 -0.00149664
126 122 0
155 122 0
121 123 -1.00029e-12
122 123 -1.00029e-12
123 123 1000
126 123 0
155 123 0
390 123 -1000
124 124 1000.05
125 124 2.04243e-07
152 124 -0.0524564
153 124 -1000
124 125 -0.052445
125 125 1000.1
126 125 -1000
152 125 -0.052445
153 125 0
118 126 -1000
119 126 0
120 126 0
121 126 -1000
122 126 0
123 126 0
125 126 -1000
126 126 3000
152 126 0
153 126 0
155 126 0
390 126 0
127 127 1000.05
131 127 -5.56934e-06
132 127 -0.052129
390 127 -1000
128 128 1000.05
129 128 -0.052129
130 128 -5.56934e-06
390 128 -1000
128 129 -1.03213e-12
129 129 1000
130 129 -1.03213e-12
151 129 -1000
390 129 0
128 130 -0.0521346
129 130 0.052129
130 130 1000
151 130 -1000
390 130 0
127 131 -0.0521346
131 131 1000
132 131 0.052129
151 131 -1000
390 131 0
127 132 -1.0005e-12
131 132 -1.0005e-12
132 132 1000
151 132 0
153 132 -1000
390 132 0
133 133 1000.35
134 133 -0.698753
139 133 0.349276
153 133 -1000
133 134 -0.349476
134 134 1000.7
139 134 -0.349476
153 134 0
155 134 -1000
135 135 2000
136 135 -1000
139 135 -1000
135 136 -1000
136 136 1000.01
137 136 -0.0130778
138 136 -1.77687e-06
139 136 0
136 137 -3.89391e-08
137 137 1000
138 137 -3.89391e-08
139 137 0
151 137 -1000
136 138 -0.0130795
137 138 0.0130777
138 138 1000
139 138 0
151 138 0
389 138 -1000
133 139 -2.13825e-08
134 139 -0.00020014
135 139 -1000
136 139 0
137 139 0
138 139 0
139 139 1000
151 139 0
153 139 0
155 139 0
389 139 0
140 140 1.43282
143 140 -0.00424862
141 141 0.01
146 141 -2.40228e-12
142 142 0.0100102
146 142 -0.01
140 143 -0.00424862
143 143 100.004
146 143 -100
144 144 0.391526
146 144 -0.379795
389 144 -0.0117315
145 145 0.379795
146 145 -3.86179e-12
389 145 -0.379795
141 146 -2.40228e-12
142 146 -0.01
143 146 -100
144 146 -0.379795
145 146 -3.86179e-12
146 146 1100.39
150 146 -1000
389 146 -2.2e-28
390 146 -0.0005
147 147 2000
148 147 -1000
152 147 -1000
147 148 -1000
148 148 1000.06
149 148 -0.0609162
150 148 -8.27666e-06
152 148 0
148 149 -0.00846811
149 149 1000.02
150 149 -0.00846811
151 149 -1000
152 149 0
146 150 -1000
148 150 -0.0524564
149 150 0.04398
150 150 1000.01
151 150 0
152 150 0
389 150 0
390 150 0
129 151 -1000
130 151 -1000
131 151 -1000
132 151 0
137 151 -1000
138 151 0
139 151 0
149 151 -1000
150 151 0
151 151 5000
152 151 0
153 151 0
155 151 0
389 151 0
390 151 0
124 152 -1.12062e-05
125 152 -0.10489
126 152 0
147 152 -1000
148 152 0
149 152 0
150 152 0
151 152 0
152 152 1000.1
153 152 0
155 152 0
389 152 0
390 152 0
102 153 -1000
103 153 0
104 153 0
108 153 0
110 153 0
111 153 0
124 153 -1000
125 153 0
126 153 0
132 153 -1000
133 153 -1000
134 153 0
139 153 0
151 153 0
152 153 0
153 153 4000
154 153 0
155 153 0
389 153 0
390 153 0
70 154 -1000
71 154 -0.000222222
88 154 0
91 154 -1000
94 154 -1000
95 154 0
96 154 0
111 154 -1000
153 154 0
154 154 4000
155 154 -2.5e-32
389 154 0
390 154 0
391 154 0
80 155 -1000
81 155 0
85 155 -1000
86 155 0
87 155 0
88 155 0
114 155 -1000
115 155 0
120 155 0
122 155 0
123 155 0
126 155 0
134 155 -1000
139 155 0
151 155 0
152 155 0
153 155 0
154 155 -2.5e-32
155 155 4000
389 155 0
390 155 0
391 155 0
156 156 100
159 156 -1e-12
163 156 -100
157 157 0.01
163 157 -1.00082e-12
185 157 -0.01
158 158 1
163 158 -1
185 158 -1.18986e-12
156 159 -1e-12
159 159 0.335796
163 159 0
185 159 -0.335796
160 160 21.9246
161 160 -0.000981934
162 160 -0.105657
160 161 -0.0326096
161 161 0.0885415
162 161 0.00822272
186 161 -0.0641547
160 162 -0.0740297
161 162 -0.0234049
162 162 4.15917
163 162 -4.06174
186 162 0
156 163 -100
157 163 -1.00082e-12
158 163 -1
159 163 0
162 163 -4.06174
163 163 105.062
185 163 0
186 163 0
391 163 -0.0005
164 164 100000
184 164 1
392 164 -100000
165 165 0.0143885
168 165 -1e-12
166 166 70.922
169 166 -1.12445e-10
167 167 1000
169 167 -1000
165 168 -1e-12
168 168 1000
169 168 -1000
166 169 -1.12445e-10
167 169 -1000
168 169 -1000
169 169 1.00201e+06
173 169 -6.57462
388 169 -1e+06
170 170 1000
171 170 -1.33378e-07
173 170 -4.99012e-08
170 171 -1.8298e-07
171 171 0.0516798
172 171 -0.0516797
173 171 3.05178e-09
171 172 -0.0516797
172 172 0.17668
173 172 0
182 172 -0.125
169 173 -6.57462
170 173 -2.99378e-10
171 173 -4.655e-08
172 173 0
173 173 6.57462
182 173 0
388 173 0
174 174 17.8891
182 174 -17.8891
183 174 -1.3538e-07
175 175 21.8267
176 175 -9.02095e-05
177 175 -0.00872319
182 175 -21.8179
175 176 0.00161933
176 176 0.0443937
177 176 -0.00684331
182 176 0
185 176 -0.0391698
175 177 -0.0104327
176 177 -0.00513377
177 177 4.0773
181 177 -4.06174
182 177 0
185 177 0
178 178 0.0380804
179 178 -0.0232999
180 178 0.0193577
181 178 -0.0341383
178 179 -0.00394214
179 179 0.459995
180 179 -0.0194126
181 179 0
185 179 -0.43664
178 180 -8.47321e-14
179 180 -5.48788e-05
180 180 5.16095
181 180 0
183 180 -5.16089
185 180 0
177 181 -4.06174
178 181 -0.0341383
179 181 0
180 181 0
181 181 4.09838
182 181 0
183 181 -0.0025
185 181 0
172 182 -0.125
173 182 0
174 182 -17.8891
175 182 -21.8179
176 182 0
177 182 0
181 182 0
182 182 39.8445
183 182 0
185 182 -0.0025
388 182 0
164 183 1
183 183 -1
184 183 0
392 183 0
174 184 -1.3538e-07
180 184 -5.16089
181 184 -0.0025
182 184 0
183 184 5.16472
184 184 -1
185 184 0
186 184 -0.00133333
388 184 0
392 184 0
157 185 -0.01
158 185 -1.18986e-12
159 185 -0.335796
163 185 0
176 185 -0.0391698
177 185 0
179 185 -0.43664
180 185 0
181 185 0
182 185 -0.0025
183 185 0
184 185 0
185 185 0.824106
186 185 0
388 185 0
391 185 0
392 185 0
161 186 -0.0641547
162 186 0
163 186 0
183 186 -0.00133333
184 186 0
185 186 0
186 186 0.065588
388 186 0
390 186 -0.0001
391 186 0
392 186 0
187 187 1
187 188 2
188 188 1
189 188 -2
187 189 -2
189 189 2.5
194 189 -0.5
190 190 0.757971
193 190 -0.257971
191 191 6.01288
390 191 -1e-12
192 192 1000
390 192 -1000
190 193 -0.257971
193 193 1000.26
390 193 -1000
189 194 -0.5
194 194 1e+06
201 194 -1e+06
390 194 -0.0030303
195 195 1
196 195 -24.8995
196 196 1
197 196 -1
197 197 1
200 197 3.20513
201 197 -3.20513
198 198 1
199 198 -1
199 199 1
387 199 -691.489
388 199 -1
198 200 -1
199 200 0
200 200 1
387 200 0
388 200 0
194 201 -1e+06
200 201 -3.20513
201 201 1e+06
387 201 0
388 201 0
390 201 0
202 202 1
215 202 -1
202 203 0.0172414
203 203 1
215 203 0
370 203 -0.0172414
204 204 0.0002002
205 204 -2e-07
204 205 -2e-07
205 205 6.24015e-05
206 205 -3.11007e-05
209 205 -3.11007e-05
205 206 -3.11007e-05
206 206 0.882644
207 206 -0.882613
209 206 0
206 207 -0.882613
207 207 0.882644
208 207 -3.11007e-05
209 207 0
207 208 -3.11007e-05
208 208 0.882644
209 208 0
215 208 -0.882613
205 209 -3.11007e-05
206 209 0
207 209 0
208 209 0
209 209 0.882644
210 209 -0.882613
215 209 0
209 210 -0.882613
210 210 0.882644
211 210 -3.11007e-05
215 210 0
210 211 -3.11007e-05
211 211 0.882644
212 211 -0.882613
215 211 0
211 212 -0.882613
212 212 0.882613
214 212 -1
215 212 0
212 213 -1
213 213 1
214 213 0
215 213 0
213 214 0.0172414
214 214 1
215 214 0
386 214 -0.0172414
203 215 -1
208 215 -0.882613
209 215 0
210 215 0
211 215 0
212 215 0
214 215 0
215 215 0.882613
370 215 0
386 215 0
216 216 -1
217 217 -1
229 217 1
218 218 0.000165357
220 218 -1.1274e-05
219 219 0.000333533
221 219 -0.000333333
218 220 -1.1274e-05
220 220 0.000111324
221 220 -5e-08
367 220 -0.0001
219 221 -0.000333333
220 221 -5e-08
221 221 0.000363417
222 221 -3.00339e-05
367 221 0
221 222 -3.00339e-05
222 222 0.882643
223 222 -0.882613
367 222 0
222 223 -0.882613
223 223 0.882613
224 223 -1
367 223 0
224 224 1
228 224 0.00641026
229 224 -0.00641026
225 225 -24.8995
227 225 1
226 226 -24.8995
369 226 1
225 227 23.8995
226 227 1
227 227 -1
228 227 -0.00641026
229 227 0.00641026
369 227 0
223 228 -1
224 228 0
228 228 1
229 228 0
367 228 0
216 229 1
229 229 -1
368 229 -22553.2
230 230 1
230 231 2
231 231 1
232 231 -2
230 232 -2
232 232 2.5
237 232 -0.5
233 233 0.757971
236 233 -0.257971
234 234 6.01288
365 234 -1e-12
235 235 1000
365 235 -1000
233 236 -0.257971
236 236 1000.26
365 236 -1000
232 237 -0.5
237 237 1e+06
244 237 -1e+06
365 237 -0.0030303
238 238 1
239 238 -24.8995
239 239 1
240 239 -1
240 240 1
243 240 3.20513
244 240 -3.20513
241 241 1
242 241 -1
242 242 1
366 242 -1
368 242 -691.489
241 243 -1
242 243 0
243 243 1
366 243 0
368 243 0
237 244 -1e+06
243 244 -3.20513
244 244 1e+06
365 244 0
366 244 0
368 244 0
245 245 1000
246 245 -4.96247e-07
247 245 -0.00365238
265 245 -1000
245 246 -0.00365288
246 246 1000
247 246 0.00365238
248 246 -1000
265 246 0
245 247 -1.0021e-12
246 247 -1.0021e-12
247 247 1000
248 247 0
265 247 0
331 247 -1000
246 248 -1000
247 248 0
248 248 1000
265 248 -0.000133333
331 248 -0.000222222
249 249 1000.07
250 249 -1000
249 250 -1000
250 250 1000.07
251 250 -0.0352393
252 250 -0.0352393
250 251 -0.0704722
251 251 1000.04
252 251 0.0352329
265 251 -1000
250 252 -6.43837e-06
251 252 -6.8786e-10
252 252 1000
253 252 -1000
265 252 0
252 253 -1000
253 253 1000.05
265 253 0
364 253 -0.0454545
254 254 1000
255 254 -1.41955e-16
257 254 -1.04479e-12
254 255 -4.48724e-14
255 255 1000
256 255 -1000
257 255 -9.55328e-13
255 256 -1000
256 256 2000.01
257 256 0
258 256 -1000
254 257 -1.00006e-12
255 257 -1.00006e-12
256 257 0
257 257 1000
258 257 0
332 257 -1000
256 258 -1000
257 258 0
258 258 1000
263 258 -1.01839e-12
264 258 -1.38368e-16
332 258 0
259 259 2000
260 259 -1000
264 259 -1000
259 260 -1000
260 260 1000
261 260 -0.00170853
262 260 -2.32138e-07
264 260 0
260 261 -0.00503977
261 261 1000.01
262 261 -0.00503977
264 261 0
265 261 -1000
260 262 0.003331
261 262 -0.00837101
262 262 1000.01
264 262 0
265 262 0
332 262 -1000
258 263 -0.0245335
263 263 1000.05
264 263 -0.0245335
265 263 -1000
332 263 0
258 264 0.0245335
259 264 -1000
260 264 0
261 264 0
262 264 0
263 264 -0.0490669
264 264 1000.02
265 264 0
332 264 0
245 265 -1000
246 265 0
247 265 0
248 265 -0.000133333
251 265 -1000
252 265 0
253 265 0
261 265 -1000
262 265 0
263 265 -1000
264 265 0
265 265 4000
331 265 0
332 265 0
364 265 0
266 266 1000
267 266 -1.40235e-16
268 266 -1.03213e-12
364 266 -1000
266 267 -3.07765e-14
267 267 1000
268 267 -9.70857e-13
273 267 -1000
364 267 0
266 268 -1.00149e-12
267 268 -1.00149e-12
268 268 1000
273 268 0
331 268 -1000
364 268 0
269 269 1000.07
270 269 -1000
365 269 -0.0666667
269 270 -1000
270 270 1000
271 270 -1.00005e-12
272 270 -1.00005e-12
365 270 0
270 271 7.088e-05
271 271 1000
272 271 -7.08897e-05
331 271 -1000
365 271 0
270 272 -7.088e-05
271 272 -9.63044e-09
272 272 1000
273 272 -1000
331 272 0
365 272 0
267 273 -1000
268 273 0
272 273 -1000
273 273 2000.04
331 273 0
364 273 -0.037037
365 273 0
274 274 1000
275 274 -0.00167205
276 274 -2.27181e-07
274 275 -1.03213e-12
275 275 1000
276 275 -1.03213e-12
281 275 -1000
274 276 -0.00167228
275 276 0.00167205
276 276 1000
281 276 -1000
277 277 1000
278 277 -1000
277 278 -1000
278 278 1000.25
279 278 -0.248815
280 278 -3.38064e-05
278 279 -0.208105
279 279 1000.42
280 279 -0.208105
330 279 -1000
278 280 -0.0407441
279 280 -0.167394
280 280 1000.21
281 280 -1000
330 280 0
275 281 -1000
276 281 -1000
280 281 -1000
281 281 3000
285 281 -2.5641e-05
330 281 0
282 282 1000.01
283 282 -0.00640227
284 282 -6.84004e-07
365 282 -1000
282 283 -1.03213e-12
283 283 1000
284 283 -1.03213e-12
285 283 -1000
365 283 0
282 284 -0.00640296
283 284 0.00640227
284 284 1000
285 284 -1000
365 284 0
281 285 -2.5641e-05
283 285 -1000
284 285 -1000
285 285 3000
287 285 -1000
330 285 0
365 285 0
286 286 1000.01
287 286 -6.84004e-07
288 286 -0.00640227
365 286 -1000
285 287 -1000
286 287 -0.00640296
287 287 1000
288 287 0.00640227
330 287 0
365 287 0
286 288 -1.00005e-12
287 288 -1.00005e-12
288 288 1000
330 288 0
331 288 -1000
365 288 0
289 289 1000
290 289 -1000
289 290 -1000
290 290 1000
291 290 -3.84445e-12
292 290 -5.22343e-16
290 291 -1.00007e-12
291 291 1000
292 291 -1.00007e-12
332 291 -1000
290 292 -2.8449e-12
291 292 1.84431e-12
292 292 1000
297 292 -1000
332 292 0
293 293 1000
294 293 -1000
293 294 -1000
294 294 1000
295 294 -3.84445e-12
296 294 -5.22343e-16
294 295 -1.00006e-12
295 295 1000
296 295 -1.00006e-12
303 295 -1000
294 296 -2.8449e-12
295 296 1.84432e-12
296 296 1000
297 296 -1000
303 296 0
292 297 -1000
296 297 -1000
297 297 3000
299 297 -1000
303 297 0
332 297 0
298 298 1000
299 298 -0.00149684
300 298 0.00149663
303 298 -1000
297 299 -1000
298 299 -2.03347e-07
299 299 1000
300 299 -0.00149663
303 299 0
332 299 0
298 300 -1.00029e-12
299 300 -1.00029e-12
300 300 1000
303 300 0
332 300 0
365 300 -1000
301 301 1000.05
302 301 2.04278e-07
329 301 -0.0524401
330 301 -1000
301 302 -0.0524287
302 302 1000.1
303 302 -1000
329 302 -0.0524287
330 302 0
295 303 -1000
296 303 0
297 303 0
298 303 -1000
299 303 0
300 303 0
302 303 -1000
303 303 3000
329 303 0
330 303 0
332 303 0
365 303 0
304 304 1000.05
308 304 -5.5692e-06
309 304 -0.0521277
365 304 -1000
305 305 1000.05
306 305 -0.0521277
307 305 -5.5692e-06
365 305 -1000
305 306 -1.03213e-12
306 306 1000
307 306 -1.03213e-12
328 306 -1000
365 306 0
305 307 -0.0521333
306 307 0.0521277
307 307 1000
328 307 -1000
365 307 0
304 308 -0.0521333
308 308 1000
309 308 0.0521277
328 308 -1000
365 308 0
304 309 -1.0005e-12
308 309 -1.0005e-12
309 309 1000
328 309 0
330 309 -1000
365 309 0
310 310 1000.35
311 310 -0.698728
316 310 0.349245
330 310 -1000
310 311 -0.349483
311 311 1000.7
316 311 -0.349483
330 311 0
332 311 -1000
312 312 2000
313 312 -1000
316 312 -1000
312 313 -1000
313 313 1000
314 313 -3.75086e-05
315 313 -5.09627e-09
316 313 0
313 314 -3.90678e-08
314 314 1000
315 314 -3.90678e-08
316 314 0
328 314 -1000
313 315 -3.74746e-05
314 315 3.74304e-05
315 315 1000
316 315 0
328 315 0
367 315 -1000
310 316 -2.55246e-08
311 316 -0.00023891
312 316 -1000
313 316 0
314 316 0
315 316 0
316 316 1000
328 316 0
330 316 0
332 316 0
367 316 0
317 317 1.43282
320 317 -0.00424848
318 318 0.01
323 318 -2.4023e-12
319 319 0.0100102
323 319 -0.01
317 320 -0.00424848
320 320 100.004
323 320 -100
321 321 0.391556
323 321 -0.379795
367 321 -0.0117613
322 322 0.379795
323 322 -3.85959e-12
367 322 -0.379795
318 323 -2.4023e-12
319 323 -0.01
320 323 -100
321 323 -0.379795
322 323 -3.85959e-12
323 323 1100.39
327 323 -1000
365 323 -0.0005
367 323 -2.2e-28
324 324 2000
325 324 -1000
329 324 -1000
324 325 -1000
325 325 1000.06
326 325 -0.0609041
327 325 -8.27501e-06
329 325 0
325 326 -0.00847231
326 326 1000.02
327 326 -0.00847231
328 326 -1000
329 326 0
323 327 -1000
325 327 -0.0524401
326 327 0.0439595
327 327 1000.01
328 327 0
329 327 0
365 327 0
367 327 0
306 328 -1000
307 328 -1000
308 328 -1000
309 328 0
314 328 -1000
315 328 0
316 328 0
326 328 -1000
327 328 0
328 328 5000
329 328 0
330 328 0
332 328 0
365 328 0
367 328 0
301 329 -1.12027e-05
302 329 -0.104858
303 329 0
324 329 -1000
325 329 0
326 329 0
327 329 0
328 329 0
329 329 1000.1
330 329 0
332 329 0
365 329 0
367 329 0
279 330 -1000
280 330 0
281 330 0
285 330 0
287 330 0
288 330 0
301 330 -1000
302 330 0
303 330 0
309 330 -1000
310 330 -1000
311 330 0
316 330 0
328 330 0
329 330 0
330 330 4000
331 330 0
332 330 0
365 330 0
367 330 0
247 331 -1000
248 331 -0.000222222
265 331 0
268 331 -1000
271 331 -1000
272 331 0
273 331 0
288 331 -1000
330 331 0
331 331 4000
332 331 -2.5e-32
364 331 0
365 331 0
367 331 0
257 332 -1000
258 332 0
262 332 -1000
263 332 0
264 332 0
265 332 0
291 332 -1000
292 332 0
297 332 0
299 332 0
300 332 0
303 332 0
311 332 -1000
316 332 0
328 332 0
329 332 0
330 332 0
331 332 -2.5e-32
332 332 4000
364 332 0
365 332 0
367 332 0
333 333 100
336 333 -1e-12
340 333 -100
334 334 0.01
340 334 -1.00082e-12
362 334 -0.01
335 335 1
340 335 -1
362 335 -1.18986e-12
333 336 -1e-12
336 336 0.335796
340 336 0
362 336 -0.335796
337 337 21.9246
338 337 -0.000981936
339 337 -0.105657
337 338 -0.0326097
338 338 0.0885415
339 338 0.00822284
363 338 -0.0641547
337 339 -0.0740297
338 339 -0.0234049
339 339 4.15917
340 339 -4.06174
363 339 0
333 340 -100
334 340 -1.00082e-12
335 340 -1
336 340 0
339 340 -4.06174
340 340 105.062
362 340 0
363 340 0
364 340 -0.0005
341 341 100000
361 341 1
410 341 -100000
342 342 0.0143885
345 342 -1e-12
343 343 70.922
346 343 -1.12445e-10
344 344 1000
346 344 -1000
342 345 -1e-12
345 345 1000
346 345 -1000
343 346 -1.12445e-10
344 346 -1000
345 346 -1000
346 346 1.00201e+06
350 346 -6.57462
366 346 -1e+06
347 347 1000
348 347 -1.33378e-07
350 347 -4.99012e-08
347 348 -1.8298e-07
348 348 0.0516798
349 348 -0.0516797
350 348 3.05178e-09
348 349 -0.0516797
349 349 0.17668
350 349 0
359 349 -0.125
346 350 -6.57462
347 350 -2.99378e-10
348 350 -4.655e-08
349 350 0
350 350 6.57462
359 350 0
366 350 0
351 351 17.8891
359 351 -17.8891
360 351 -1.3538e-07
352 352 21.8267
353 352 -9.02095e-05
354 352 -0.00872319
359 352 -21.8179
352 353 0.00161933
353 353 0.0443937
354 353 -0.00684331
359 353 0
362 353 -0.0391698
352 354 -0.0104327
353 354 -0.00513377
354 354 4.0773
358 354 -4.06174
359 354 0
362 354 0
355 355 0.0380804
356 355 -0.0232999
357 355 0.0193577
358 355 -0.0341383
355 356 -0.00394214
356 356 0.459995
357 356 -0.0194126
358 356 0
362 356 -0.43664
355 357 -8.47321e-14
356 357 -5.48788e-05
357 357 5.16095
358 357 0
360 357 -5.16089
362 357 0
354 358 -4.06174
355 358 -0.0341383
356 358 0
357 358 0
358 358 4.09838
359 358 0
360 358 -0.0025
362 358 0
349 359 -0.125
350 359 0
351 359 -17.8891
352 359 -21.8179
353 359 0
354 359 0
358 359 0
359 359 39.8445
360 359 0
362 359 -0.0025
366 359 0
341 360 1
360 360 -1
361 360 0
410 360 0
351 361 -1.3538e-07
357 361 -5.16089
358 361 -0.0025
359 361 0
360 361 5.16472
361 361 -1
362 361 0
363 361 -0.00133333
366 361 0
410 361 0
334 362 -0.01
335 362 -1.18986e-12
336 362 -0.335796
340 362 0
353 362 -0.0391698
354 362 0
356 362 -0.43664
357 362 0
358 362 0
359 362 -0.0025
360 362 0
361 362 0
362 362 0.824106
363 362 0
364 362 0
366 362 0
410 362 0
338 363 -0.0641547
339 363 0
340 363 0
360 363 -0.00133333
361 363 0
362 363 0
363 363 0.065588
364 363 0
365 363 -0.0001
366 363 0
410 363 0
253 364 -0.0454545
265 364 0
266 364 -1000
267 364 0
268 364 0
273 364 -0.037037
331 364 0
332 364 0
340 364 -0.0005
362 364 0
363 364 0
364 364 1000.08
365 364 0
366 364 0
367 364 0
410 364 0
234 365 -1e-12
235 365 -1000
236 365 -1000
237 365 -0.0030303
244 365 0
269 365 -0.0666667
270 365 0
271 365 0
272 365 0
273 365 0
282 365 -1000
283 365 0
284 365 0
285 365 0
286 365 -1000
287 365 0
288 365 0
300 365 -1000
303 365 0
304 365 -1000
305 365 -1000
306 365 0
307 365 0
308 365 0
309 365 0
323 365 -0.0005
327 365 0
328 365 0
329 365 0
330 365 0
331 365 0
332 365 0
363 365 -0.0001
364 365 0
365 365 7000.07
366 365 0
367 365 0
368 365 0
410 365 0
238 366 -1
239 366 23.8995
240 366 0
243 366 0
244 366 0
346 366 -1e+06
350 366 0
359 366 0
360 366 0
361 366 0
362 366 0
363 366 0
364 366 0
365 366 0
366 366 1e+06
367 366 0
368 366 0
370 366 -8e-31
410 366 0
220 367 -0.0001
221 367 0
222 367 0
223 367 0
224 367 0
228 367 0
229 367 0
315 367 -1000
316 367 0
321 367 -0.0117613
322 367 -0.379795
323 367 -2.2e-28
327 367 0
328 367 0
329 367 0
330 367 0
331 367 0
332 367 0
364 367 0
365 367 0
366 367 0
367 367 1000.39
368 367 0
370 367 0
410 367 0
368 368 1
202 369 -0.0172414
215 369 0
226 369 23.8995
366 369 -8e-31
367 369 0
368 369 0
369 369 -1
370 369 0.0172414
386 369 0
410 369 0
217 370 1
229 370 0
368 370 -7047.87
370 370 -1
371 371 -1
372 372 -1
384 372 1
373 373 0.000165357
375 373 -1.1274e-05
374 374 0.000333533
376 374 -0.000333333
373 375 -1.1274e-05
375 375 0.000111324
376 375 -5e-08
389 375 -0.0001
374 376 -0.000333333
375 376 -5e-08
376 376 0.000363417
377 376 -3.00339e-05
389 376 0
376 377 -3.00339e-05
377 377 0.882643
378 377 -0.882613
389 377 0
377 378 -0.882613
378 378 0.882613
379 378 -1
389 378 0
379 379 1
383 379 0.00641026
384 379 -0.00641026
380 380 -24.8995
382 380 1
381 381 -24.8995
385 381 1
380 382 23.8995
381 382 1
382 382 -1
383 382 -0.00641026
384 382 0.00641026
385 382 0
378 383 -1
379 383 0
383 383 1
384 383 0
389 383 0
371 384 1
384 384 -1
387 384 -22553.2
213 385 -0.0172414
214 385 0
215 385 0
370 385 0
381 385 23.8995
385 385 -1
386 385 0.0172414
388 385 -8e-31
372 386 1
384 386 0
386 386 -1
387 386 -7047.87
387 387 1
169 388 -1e+06
173 388 0
182 388 0
183 388 0
184 388 0
185 388 0
186 388 0
195 388 -1
196 388 23.8995
197 388 0
200 388 0
201 388 0
386 388 -8e-31
387 388 0
388 388 1e+06
390 388 0
391 388 0
392 388 0
138 389 -1000
139 389 0
144 389 -0.0117315
145 389 -0.379795
146 389 -2.2e-28
150 389 0
151 389 0
152 389 0
153 389 0
154 389 0
155 389 0
375 389 -0.0001
376 389 0
377 389 0
378 389 0
379 389 0
383 389 0
384 389 0
387 389 0
389 389 1000.39
390 389 0
391 389 0
92 390 -0.0666667
93 390 0
94 390 0
95 390 0
96 390 0
105 390 -1000
106 390 0
107 390 0
108 390 0
109 390 -1000
110 390 0
111 390 0
123 390 -1000
126 390 0
127 390 -1000
128 390 -1000
129 390 0
130 390 0
131 390 0
132 390 0
146 390 -0.0005
150 390 0
151 390 0
152 390 0
153 390 0
154 390 0
155 390 0
186 390 -0.0001
191 390 -1e-12
192 390 -1000
193 390 -1000
194 390 -0.0030303
201 390 0
387 390 0
388 390 0
389 390 0
390 390 7000.07
391 390 0
392 390 0
76 391 -0.0454545
88 391 0
89 391 -1000
90 391 0
91 391 0
96 391 -0.037037
154 391 0
155 391 0
163 391 -0.0005
185 391 0
186 391 0
388 391 0
389 391 0
390 391 0
391 391 1000.08
392 391 0
61 392 -100000
64 392 -1
65 392 0
67 392 -0.00625
164 392 -100000
184 392 0
185 392 0
186 392 0
388 392 0
390 392 0
391 392 0
392 392 200000
404 392 0
405 392 -3.33333e-05
393 393 26.9179
394 393 -6.99791e-08
393 394 -6.99791e-08
394 394 100000
402 394 -100000
408 394 -0.0005
395 395 1
404 395 -2325.58
409 395 -1
396 396 100000
402 396 -100000
409 396 -1.18e-30
397 397 1
400 397 -3635.14
398 398 1
401 398 -1
398 399 0.714286
399 399 1
401 399 0
402 399 -0.714286
399 400 -1
400 400 1
401 400 100000
402 400 -0.000324675
403 400 -100000
395 401 -1
401 401 1
404 401 0
409 401 0
394 402 -100000
396 402 -100000
398 402 -0.714286
401 402 -0.000324675
402 402 200001
404 402 0
408 402 0
409 402 -1.33333e-06
67 403 -2e-31
401 403 -100000
403 403 100000
404 403 0
405 403 0
409 403 0
404 404 1
35 405 -100000
37 405 1
40 405 0
41 405 0
49 405 0
61 405 -1.18e-30
62 405 -100000
63 405 -1
66 405 3634.14
67 405 0
392 405 -3.33333e-05
403 405 0
404 405 0
405 405 200000
406 405 -7.69231e-05
409 405 -1e-08
35 406 -1.18e-30
38 406 -1
39 406 0
41 406 -0.0142857
56 406 -100000
57 406 0
58 406 0
59 406 0
404 406 0
405 406 -7.69231e-05
406 406 100000
407 406 0
408 406 0
409 406 0
42 407 -1.18e-30
45 407 -1.2987
48 407 -0.000606061
55 407 -100000
58 407 0
59 407 0
404 407 0
406 407 0
407 407 100001
408 407 0
409 407 -2.46305e-06
53 408 -0.01
54 408 -0.0005
59 408 0
394 408 -0.0005
402 408 0
404 408 0
406 408 0
407 408 0
408 408 100000
409 408 -100000
42 409 -100000
44 409 1
47 409 0
48 409 0
49 409 0
396 409 -1.18e-30
397 409 -1
400 409 3634.14
401 409 0
402 409 -1.33333e-06
403 409 0
404 409 0
405 409 -1e-08
406 409 0
407 409 -2.46305e-06
408 409 -100000
409 409 200000
28 410 -100000
31 410 -1
32 410 0
34 410 -0.00625
341 410 -100000
361 410 0
362 410 0
363 410 0
364 410 0
365 410 0
366 410 0
367 410 0
368 410 0
370 410 0
410 410 200000
424 410 0
425 410 -3.33333e-05
411 411 26.9179
412 411 -6.99791e-08
411 412 -6.99791e-08
412 412 100000
420 412 -100000
422 412 -0.0005
413 413 1
424 413 -2325.58
427 413 -1
414 414 100000
420 414 -100000
427 414 -1.18e-30
415 415 1
418 415 -3635.14
416 416 1
419 416 -1
416 417 0.714286
417 417 1
419 417 0
420 417 -0.714286
417 418 -1
418 418 1
419 418 100000
420 418 -0.000324675
421 418 -100000
413 419 -1
419 419 1
424 419 0
427 419 0
412 420 -100000
414 420 -100000
416 420 -0.714286
419 420 -0.000324675
420 420 200001
422 420 0
424 420 0
427 420 -1.33333e-06
34 421 -2e-31
419 421 -100000
421 421 100000
424 421 0
425 421 0
427 421 0
20 422 -0.01
21 422 -0.0005
26 422 0
412 422 -0.0005
420 422 0
422 422 100000
424 422 0
426 422 0
427 422 -100000
428 422 0
9 423 -2e-31
16 423 -100000
423 423 100000
424 423 0
425 423 0
427 423 0
424 424 1
3 425 -100000
5 425 1
8 425 0
9 425 0
28 425 -1.18e-30
29 425 -100000
30 425 -1
33 425 3634.14
34 425 0
410 425 -3.33333e-05
421 425 0
423 425 0
424 425 0
425 425 200000
426 425 -7.69231e-05
427 425 -1e-08
3 426 -1.18e-30
6 426 -1
7 426 0
9 426 -0.0142857
23 426 -100000
24 426 0
25 426 0
26 426 0
422 426 0
424 426 0
425 426 -7.69231e-05
426 426 100000
427 426 0
428 426 0
10 427 -100000
12 427 1
15 427 0
16 427 0
414 427 -1.18e-30
415 427 -1
418 427 3634.14
419 427 0
420 427 -1.33333e-06
421 427 0
422 427 -100000
423 427 0
424 427 0
425 427 -1e-08
426 427 0
427 427 200000
428 427 -2.46305e-06
10 428 -1.18e-30
13 428 -1.2987
16 428 -0.000606061
22 428 -100000
25 428 0
26 428 0
422 428 0
424 428 0
426 428 0
427 428 -2.46305e-06
428 428 100001
429 429 1
430 430 1
