%MatrixMarket matrix coordinate real general
430 430 1544
1 1 1.0000000000000000e+00
2 2 1.0000000000000000e+00
3 3 1.0000000000000000e+05
425 3 -1.0000000000000000e+05
426 3 -1.1800000000000001e-30
4 4 -1.0000000000000000e+00
425 4 1.0000000000000000e+00
5 5 -3.6351359314157999e+03
8 5 1.0000000000000000e+00
6 6 1.0000000000000000e+00
7 6 1.8181818181817999e+01
9 6 -1.8181818181817999e+01
7 7 1.0000000000000000e+00
426 7 -1.0000000000000000e+00
5 8 3.6341359314157999e+03
7 8 -1.8181818181817999e+01
8 8 -1.0000000000000000e+00
9 8 1.8196103896103999e+01
423 8 -2.0000000000000002e-31
426 8 -1.4285714285714001e-02
4 9 1.0000000000000000e+00
9 9 -1.0000000000000000e+00
424 9 -3.1007751937984000e+02
10 10 1.0000000000000000e+05
427 10 -1.0000000000000000e+05
428 10 -1.1800000000000001e-30
11 11 -1.0000000000000000e+00
427 11 1.0000000000000000e+00
12 12 -3.6351359314157999e+03
15 12 1.0000000000000000e+00
13 13 1.0000000000000000e+00
16 13 -1.0000000000000000e+00
13 14 1.2987012987013000e+00
14 14 1.0000000000000000e+00
428 14 -1.2987012987013000e+00
12 15 3.6341359314157999e+03
14 15 -1.0000000000000000e+00
15 15 -1.0000000000000000e+00
16 15 1.0000000060606000e+05
423 15 -1.0000000000000000e+05
428 15 -6.0606060606060996e-04
11 16 1.0000000000000000e+00
16 16 -1.0000000000000000e+00
424 16 -1.7054263565890999e+03
17 17 1.0000000000000000e+00
17 18 4.0000000000000000e+00
18 18 1.0000000000000000e+00
19 18 -4.0000000000000000e+00
17 19 -4.0000000000000000e+00
19 19 8.0000000000000000e+00
20 19 -4.0000000000000000e+00
19 20 -4.0000000000000000e+00
20 20 4.0099999999999998e+00
422 20 -1.0000000000000000e-02
21 21 1.2641450080837999e-01
26 21 -1.1591450080838001e-01
422 21 -5.0000000000000001e-04
22 22 1.0000889838049001e+05
25 22 -8.8983804947500005e+00
428 22 -1.0000000000000000e+05
23 23 1.0003179013425000e+05
24 23 -3.1790134249737001e+01
426 23 -1.0000000000000000e+05
23 24 -3.1790134249737001e+01
24 24 3.1790134249804002e+01
25 24 -5.9085530990545996e-11
26 24 -8.4142052733134999e-12
22 25 -8.8983804947500005e+00
24 25 -5.8110767036606003e-11
25 25 8.8983804952514003e+00
26 25 -4.4336236319966000e-10
21 26 -1.1591450080838001e-01
24 26 -9.3889692272533996e-12
25 26 -4.4238759924572002e-10
26 26 1.1591450126015999e-01
27 27 1.0000000000000000e+00
424 27 -4.6511627906976997e+02
425 27 -1.0000000000000000e+00
28 28 1.0000000000000000e+05
410 28 -1.0000000000000000e+05
425 28 -1.1800000000000001e-30
29 29 1.0000020000000000e+05
425 29 -1.0000000000000000e+05
30 30 1.0000000000000000e+00
33 30 -3.6351359314157999e+03
31 31 1.0000000000000000e+00
32 31 8.3333333333333002e+00
34 31 -8.3333333333333002e+00
32 32 1.0000000000000000e+00
410 32 -1.0000000000000000e+00
32 33 -8.3333333333333002e+00
33 33 1.0000000000000000e+00
34 33 8.3395833333332998e+00
410 33 -6.2500000000000003e-03
421 33 -2.0000000000000002e-31
27 34 -1.0000000000000000e+00
34 34 1.0000000000000000e+00
35 35 1.0000000000000000e+05
405 35 -1.0000000000000000e+05
406 35 -1.1800000000000001e-30
36 36 -1.0000000000000000e+00
405 36 1.0000000000000000e+00
37 37 -3.6351359299502001e+03
40 37 1.0000000000000000e+00
38 38 1.0000000000000000e+00
39 38 1.8181818181817999e+01
41 38 -1.8181818181817999e+01
39 39 1.0000000000000000e+00
406 39 -1.0000000000000000e+00
37 40 3.6341359299502001e+03
39 40 -1.8181818181817999e+01
40 40 -1.0000000000000000e+00
41 40 1.8196103896103999e+01
49 40 -2.0000000000000002e-31
406 40 -1.4285714285714001e-02
36 41 1.0000000000000000e+00
41 41 -1.0000000000000000e+00
404 41 -3.1007751937984000e+02
42 42 1.0000000000000000e+05
407 42 -1.1800000000000001e-30
409 42 -1.0000000000000000e+05
43 43 -1.0000000000000000e+00
409 43 1.0000000000000000e+00
44 44 -3.6351359299502001e+03
47 44 1.0000000000000000e+00
45 45 1.0000000000000000e+00
48 45 -1.0000000000000000e+00
45 46 1.2987012987013000e+00
46 46 1.0000000000000000e+00
407 46 -1.2987012987013000e+00
44 47 3.6341359299502001e+03
46 47 -1.0000000000000000e+00
47 47 -1.0000000000000000e+00
48 47 1.0000000060606000e+05
49 47 -1.0000000000000000e+05
407 47 -6.0606060606060996e-04
43 48 1.0000000000000000e+00
48 48 -1.0000000000000000e+00
404 48 -1.7054263565890999e+03
41 49 -2.0000000000000002e-31
48 49 -1.0000000000000000e+05
49 49 1.0000000000000000e+05
50 50 1.0000000000000000e+00
50 51 4.0000000000000000e+00
51 51 1.0000000000000000e+00
52 51 -4.0000000000000000e+00
50 52 -4.0000000000000000e+00
52 52 8.0000000000000000e+00
53 52 -4.0000000000000000e+00
52 53 -4.0000000000000000e+00
53 53 4.0099999999999998e+00
408 53 -1.0000000000000000e-02
54 54 1.2641450080837999e-01
59 54 -1.1591450080838001e-01
408 54 -5.0000000000000001e-04
55 55 1.0000889838049001e+05
58 55 -8.8983804947500005e+00
407 55 -1.0000000000000000e+05
56 56 1.0003179013425000e+05
57 56 -3.1790134249737001e+01
406 56 -1.0000000000000000e+05
56 57 -3.1790134249737001e+01
57 57 3.1790134249804002e+01
58 57 -5.9085531400732997e-11
59 57 -8.4142053222611001e-12
55 58 -8.8983804947500005e+00
57 58 -5.8110767036379000e-11
58 58 8.8983804952514003e+00
59 58 -4.4336236319966000e-10
54 59 -1.1591450080838001e-01
57 59 -9.3889696866154995e-12
58 59 -4.4238759883529999e-10
59 59 1.1591450126015999e-01
60 60 1.0000000000000000e+00
404 60 -4.6511627906976997e+02
405 60 -1.0000000000000000e+00
61 61 1.0000000000000000e+05
392 61 -1.0000000000000000e+05
405 61 -1.1800000000000001e-30
62 62 1.0000020000000000e+05
405 62 -1.0000000000000000e+05
63 63 1.0000000000000000e+00
66 63 -3.6351359299502001e+03
64 64 1.0000000000000000e+00
65 64 8.3333333333333002e+00
67 64 -8.3333333333333002e+00
65 65 1.0000000000000000e+00
392 65 -1.0000000000000000e+00
65 66 -8.3333333333333002e+00
66 66 1.0000000000000000e+00
67 66 8.3395833333332998e+00
392 66 -6.2500000000000003e-03
403 66 -2.0000000000000002e-31
60 67 -1.0000000000000000e+00
67 67 1.0000000000000000e+00
68 68 1.0000036529399000e+03
69 68 -4.9625592364033002e-07
70 68 -3.6524435979927998e-03
88 68 -1.0000000000000000e+03
68 69 -3.6529398529143000e-03
69 69 1.0000000004963000e+03
70 69 3.6524435959886001e-03
71 69 -1.0000000000000000e+03
68 70 -1.0021035835274001e-12
69 70 -1.0021035835274001e-12
70 70 1.0000000000000000e+03
154 70 -1.0000000000000000e+03
69 71 -1.0000000000000000e+03
71 71 1.0000003555556000e+03
88 71 -1.3333333333333001e-04
154 71 -2.2222222222222001e-04
72 72 1.0000666666667000e+03
73 72 -1.0000000000000000e+03
72 73 -1.0000000000000000e+03
73 73 1.0000704785194000e+03
74 73 -3.5239259710953000e-02
75 73 -3.5239259710953000e-02
73 74 -7.0472083422501997e-02
74 74 1.0000352392604000e+03
75 74 3.5232823023942997e-02
88 74 -1.0000000000000000e+03
73 75 -6.4359994038319002e-06
74 75 -6.8760677391365995e-10
75 75 1.0000000064367000e+03
76 75 -1.0000000000000000e+03
75 76 -1.0000000000000000e+03
76 76 1.0000454545455000e+03
391 76 -4.5454545454544998e-02
77 77 1.0000000000000000e+03
78 77 -1.4195503784048999e-16
80 77 -1.0447890785060001e-12
77 78 -4.4872234130844999e-14
78 78 1.0000000000000000e+03
79 78 -1.0000000000000000e+03
80 78 -9.5532852032001999e-13
78 79 -1.0000000000000000e+03
79 79 2.0000100000000000e+03
81 79 -1.0000000000000000e+03
77 80 -1.0000587994130000e-12
78 80 -1.0000587994130000e-12
80 80 1.0000000000000000e+03
155 80 -1.0000000000000000e+03
79 81 -1.0000000000000000e+03
81 81 1.0000000000000000e+03
86 81 -1.0183901094712000e-12
87 81 -1.3836822139555001e-16
82 82 2.0000000399999999e+03
83 82 -1.0000000000000000e+03
87 82 -1.0000000000000000e+03
82 83 -1.0000000000000000e+03
83 83 1.0000017087479000e+03
84 83 -1.7085157234987000e-03
85 83 -2.3213528851885000e-07
83 84 -5.0397156188576996e-03
84 84 1.0000100794312000e+03
85 84 -5.0397156188576996e-03
88 84 -1.0000000000000000e+03
83 85 3.3309677600704001e-03
84 85 -8.3709155142165995e-03
85 85 1.0000050399478000e+03
155 85 -1.0000000000000000e+03
81 86 -2.4533470110756999e-02
86 86 1.0000490669402000e+03
87 86 -2.4533470110756999e-02
88 86 -1.0000000000000000e+03
81 87 2.4533470109738002e-02
82 87 -1.0000000000000000e+03
86 87 -4.9066940220496000e-02
87 87 1.0000245334701000e+03
68 88 -1.0000000000000000e+03
71 88 -1.3333333333333001e-04
74 88 -1.0000000000000000e+03
84 88 -1.0000000000000000e+03
86 88 -1.0000000000000000e+03
88 88 4.0000001333332998e+03
89 89 1.0000000000000000e+03
90 89 -1.4023501158522001e-16
91 89 -1.0321296852672000e-12
391 89 -1.0000000000000000e+03
89 90 -3.0776564280528003e-14
90 90 1.0000000000000000e+03
91 90 -9.7085702672934008e-13
96 90 -1.0000000000000000e+03
89 91 -1.0014933559982999e-12
90 91 -1.0014933559982999e-12
91 91 1.0000000000000000e+03
154 91 -1.0000000000000000e+03
92 92 1.0000666666667000e+03
93 92 -1.0000000000000000e+03
390 92 -6.6666666666666999e-02
92 93 -1.0000000000000000e+03
93 93 1.0000000000000000e+03
94 93 -1.0000480229492000e-12
95 93 -1.0000480229492000e-12
93 94 7.0907833659029007e-05
94 94 1.0000000000095999e+03
95 94 -7.0917468875878999e-05
154 94 -1.0000000000000000e+03
93 95 -7.0907835659125005e-05
94 95 -9.6342168015115998e-09
95 95 1.0000000709175000e+03
96 95 -1.0000000000000000e+03
90 96 -1.0000000000000000e+03
95 96 -1.0000000000000000e+03
96 96 2.0000370370369999e+03
391 96 -3.7037037037037000e-02
97 97 1.0000016722620001e+03
98 97 -1.6720347822376000e-03
99 97 -2.2717863889097999e-07
97 98 -1.0321294231691000e-12
98 98 1.0000000000000000e+03
99 98 -1.0321294231691000e-12
104 98 -1.0000000000000000e+03
97 99 -1.6722619598443999e-03
98 99 1.6720347801734000e-03
99 99 1.0000000002272000e+03
104 99 -1.0000000000000000e+03
100 100 1.0000001999999999e+03
101 100 -1.0000000000000000e+03
100 101 -1.0000000000000000e+03
101 101 1.0002488482165001e+03
102 101 -2.4881441022670001e-01
103 101 -3.3806305737322999e-05
101 102 -2.0810475147915000e-01
102 102 1.0004162095030000e+03
103 102 -2.0810475147915000e-01
153 102 -1.0000000000000000e+03
101 103 -4.0743465053291003e-02
102 103 -1.6739509273159001e-01
103 103 1.0002081385578000e+03
104 103 -1.0000000000000000e+03
98 104 -1.0000000000000000e+03
99 104 -1.0000000000000000e+03
103 104 -1.0000000000000000e+03
104 104 3.0000000256409999e+03
108 104 -2.5641025641025999e-05
105 105 1.0000064030417000e+03
106 105 -6.4023576634328000e-03
107 105 -6.8401257087957002e-07
390 105 -1.0000000000000000e+03
105 106 -1.0321294599899001e-12
106 106 1.0000000000000000e+03
107 106 -1.0321294599899001e-12
108 106 -1.0000000000000000e+03
105 107 -6.4030416749714996e-03
106 107 6.4023576613684999e-03
107 107 1.0000000006840000e+03
108 107 -1.0000000000000000e+03
104 108 -2.5641025641025999e-05
106 108 -1.0000000000000000e+03
107 108 -1.0000000000000000e+03
108 108 3.0000000256409999e+03
110 108 -1.0000000000000000e+03
109 109 1.0000064030417000e+03
110 109 -6.8401257087966002e-07
111 109 -6.4023576634335997e-03
390 109 -1.0000000000000000e+03
108 110 -1.0000000000000000e+03
109 110 -6.4030416750045002e-03
110 110 1.0000000006840000e+03
111 110 6.4023576614335000e-03
109 111 -1.0000499660445999e-12
110 111 -1.0000499660445999e-12
111 111 1.0000000000000000e+03
154 111 -1.0000000000000000e+03
112 112 1.0000010000000000e+03
113 112 -1.0000000000000000e+03
112 113 -1.0000000000000000e+03
113 113 1.0000000000000000e+03
114 113 -3.8444675244539997e-12
115 113 -5.2234613103993995e-16
113 114 -1.0000680832391001e-12
114 114 1.0000000000000000e+03
115 114 -1.0000680832391001e-12
155 114 -1.0000000000000000e+03
113 115 -2.8449217873458998e-12
114 115 1.8443313579757002e-12
115 115 1.0000000000000000e+03
120 115 -1.0000000000000000e+03
116 116 1.0000010000000000e+03
117 116 -1.0000000000000000e+03
116 117 -1.0000000000000000e+03
117 117 1.0000000000000000e+03
118 117 -3.8444674167970003e-12
119 117 -5.2234611641262999e-16
117 118 -1.0000649161187000e-12
118 118 1.0000000000000000e+03
119 118 -1.0000649161187000e-12
126 118 -1.0000000000000000e+03
117 119 -2.8449248467947001e-12
118 119 1.8443375845595999e-12
119 119 1.0000000000000000e+03
120 119 -1.0000000000000000e+03
115 120 -1.0000000000000000e+03
119 120 -1.0000000000000000e+03
120 120 3.0000000199999999e+03
122 120 -1.0000000000000000e+03
121 121 1.0000000002033000e+03
122 121 -1.4968472307002999e-03
123 121 1.4966438813463000e-03
126 121 -1.0000000000000000e+03
120 122 -1.0000000000000000e+03
121 122 -2.0334835371561000e-07
122 122 1.0000014968472000e+03
123 122 -1.4966438833468999e-03
121 123 -1.0002858329867000e-12
122 123 -1.0002858329867000e-12
123 123 1.0000000000000000e+03
390 123 -1.0000000000000000e+03
124 124 1.0000524561864000e+03
125 124 2.0424319277512000e-07
152 124 -5.2456390663483003e-02
153 124 -1.0000000000000000e+03
124 125 -5.2444980206118000e-02
125 125 1.0001048899604000e+03
126 125 -1.0000000000000000e+03
152 125 -5.2444980206118000e-02
118 126 -1.0000000000000000e+03
121 126 -1.0000000000000000e+03
125 126 -1.0000000000000000e+03
126 126 3.0000000000000000e+03
127 127 1.0000521345924000e+03
131 127 -5.5693400655142999e-06
132 127 -5.2129023013214003e-02
390 127 -1.0000000000000000e+03
128 128 1.0000521345924000e+03
129 128 -5.2129023013214003e-02
130 128 -5.5693400655142999e-06
390 128 -1.0000000000000000e+03
128 129 -1.0321310441923001e-12
129 129 1.0000000000000000e+03
130 129 -1.0321310441923001e-12
151 129 -1.0000000000000000e+03
128 130 -5.2134592352247003e-02
129 130 5.2129023011150001e-02
130 130 1.0000000055693000e+03
151 130 -1.0000000000000000e+03
127 131 -5.2134592352278998e-02
131 131 1.0000000055693000e+03
132 131 5.2129023011212999e-02
151 131 -1.0000000000000000e+03
127 132 -1.0004962162499000e-12
131 132 -1.0004962162499000e-12
132 132 1.0000000000000000e+03
153 132 -1.0000000000000000e+03
133 133 1.0003494764035000e+03
134 133 -6.9875262378592995e-01
139 133 3.4927622029636002e-01
153 133 -1.0000000000000000e+03
133 134 -3.4947638210704002e-01
134 134 1.0006989527642000e+03
139 134 -3.4947638210704002e-01
155 134 -1.0000000000000000e+03
135 135 2.0000000000000000e+03
136 135 -1.0000000000000000e+03
139 135 -1.0000000000000000e+03
135 136 -1.0000000000000000e+03
136 136 1.0000130795453000e+03
137 136 -1.3077768471648000e-02
138 136 -1.7768707162565000e-06
136 137 -3.8939104692739003e-08
137 137 1.0000000000779000e+03
138 137 -3.8939104692739003e-08
151 137 -1.0000000000000000e+03
136 138 -1.3079506403259999e-02
137 138 1.3077690593439001e-02
138 138 1.0000000018158000e+03
389 138 -1.0000000000000000e+03
133 139 -2.1382524375115999e-08
134 139 -2.0014042815108001e-04
135 139 -1.0000000000000000e+03
139 139 1.0000002001618000e+03
140 140 1.4328200502266000e+00
143 140 -4.2486216551745996e-03
141 141 1.0000000002402001e-02
146 141 -2.4022780776959002e-12
142 142 1.0010215455669000e-02
146 142 -1.0000000000000000e-02
140 143 -4.2486216551745996e-03
143 143 1.0000424862166000e+02
146 143 -1.0000000000000000e+02
144 144 3.9152645018664001e-01
146 144 -3.7979491074819999e-01
389 144 -1.1731539438445999e-02
145 145 3.7979491075206001e-01
146 145 -3.8617853301179999e-12
389 145 -3.7979491074819999e-01
141 146 -2.4022780776959002e-12
142 146 -1.0000000000000000e-02
143 146 -1.0000000000000000e+02
144 146 -3.7979491074819999e-01
145 146 -3.8617853301179999e-12
146 146 1.1003902949108001e+03
150 146 -1.0000000000000000e+03
389 146 -2.2000000000000000e-28
390 146 -5.0000000000000001e-04
147 147 2.0000000000000000e+03
148 147 -1.0000000000000000e+03
152 147 -1.0000000000000000e+03
147 148 -1.0000000000000000e+03
148 148 1.0000609245048000e+03
149 148 -6.0916228187671000e-02
150 148 -8.2766614385422993e-06
148 149 -8.4681141968707008e-03
149 149 1.0000169362284000e+03
150 149 -8.4681141968707008e-03
151 149 -1.0000000000000000e+03
146 150 -1.0000000000000000e+03
148 150 -5.2456390652238997e-02
149 150 4.3979999793929997e-02
150 150 1.0000084763909000e+03
129 151 -1.0000000000000000e+03
130 151 -1.0000000000000000e+03
131 151 -1.0000000000000000e+03
137 151 -1.0000000000000000e+03
149 151 -1.0000000000000000e+03
151 151 5.0000000000000000e+03
124 152 -1.1206214172588001e-05
125 152 -1.0489016465543000e-01
147 152 -1.0000000000000000e+03
152 152 1.0001049013709001e+03
102 153 -1.0000000000000000e+03
124 153 -1.0000000000000000e+03
132 153 -1.0000000000000000e+03
133 153 -1.0000000000000000e+03
153 153 4.0000000000000000e+03
70 154 -1.0000000000000000e+03
71 154 -2.2222222222222001e-04
91 154 -1.0000000000000000e+03
94 154 -1.0000000000000000e+03
111 154 -1.0000000000000000e+03
154 154 4.0000002222222001e+03
155 154 -2.5000000000000002e-32
80 155 -1.0000000000000000e+03
85 155 -1.0000000000000000e+03
114 155 -1.0000000000000000e+03
134 155 -1.0000000000000000e+03
154 155 -2.5000000000000002e-32
155 155 4.0000000000000000e+03
156 156 1.0000000000000000e+02
159 156 -1.0000022822784001e-12
163 156 -1.0000000000000000e+02
157 157 1.0000000001001000e-02
163 157 -1.0008151513963001e-12
185 157 -1.0000000000000000e-02
158 158 1.0000000000011999e+00
163 158 -1.0000000000000000e+00
185 158 -1.1898603758485001e-12
156 159 -1.0000022822784001e-12
159 159 3.3579583613262998e-01
185 159 -3.3579583613163000e-01
160 160 2.1924570350665999e+01
161 160 -9.8193452398198005e-04
162 160 -1.0565730582344000e-01
160 161 -3.2609553091108003e-02
161 161 8.8541531649842006e-02
162 161 8.2227216017906994e-03
186 161 -6.4154700160524006e-02
160 162 -7.4029687256313995e-02
161 162 -2.3404896965336000e-02
162 162 4.1591730082670999e+00
163 162 -4.0617384240455001e+00
156 163 -1.0000000000000000e+02
157 163 -1.0008151513963001e-12
158 163 -1.0000000000000000e+00
162 163 -4.0617384240455001e+00
163 163 1.0506223842404999e+02
391 163 -5.0000000000000001e-04
164 164 1.0000000000000000e+05
184 164 1.0000000000000000e+00
392 164 -1.0000000000000000e+05
165 165 1.4388489209632999e-02
168 165 -1.0000000000033000e-12
166 166 7.0921985815715004e+01
169 166 -1.1244455819764000e-10
167 167 1.0000000000000000e+03
169 167 -1.0000000000000000e+03
165 168 -1.0000000000033000e-12
168 168 1.0000000000000000e+03
169 168 -1.0000000000000000e+03
166 169 -1.1244455819764000e-10
167 169 -1.0000000000000000e+03
168 169 -1.0000000000000000e+03
169 169 1.0020065746220000e+06
173 169 -6.5746219592372999e+00
388 169 -1.0000000000000000e+06
170 170 1.0000000001833000e+03
171 170 -1.3337844461180000e-07
173 170 -4.9901203484215999e-08
170 171 -1.8298026995289000e-07
171 171 5.1679841326602000e-02
172 171 -5.1679661398110997e-02
173 171 3.0517783046561999e-09
171 172 -5.1679661398110997e-02
172 172 1.7667966139811001e-01
182 172 -1.2500000000000000e-01
169 173 -6.5746219592372999e+00
170 173 -2.9937814312158001e-10
171 173 -4.6550047036439002e-08
173 173 6.5746220060868001e+00
174 174 1.7889087791910001e+01
182 174 -1.7889087656529998e+01
183 174 -1.3538039459241999e-07
175 175 2.1826744509074999e+01
176 175 -9.0209526720808005e-05
177 175 -8.7231892295769001e-03
182 175 -2.1817931110319002e+01
175 176 1.6193292452091001e-03
176 176 4.4393740396650998e-02
177 176 -6.8433083643205999e-03
185 176 -3.9169761277540002e-02
175 177 -1.0432728001507000e-02
176 177 -5.1337695923908003e-03
177 177 4.0773049216394002e+00
181 177 -4.0617384240455001e+00
178 178 3.8080407385584998e-02
179 178 -2.3299870650517002e-02
180 178 1.9357733949132001e-02
181 178 -3.4138270684200001e-02
178 179 -3.9421367013001999e-03
179 179 4.5999469155137002e-01
180 179 -1.9412612731058002e-02
185 179 -4.3663994211901003e-01
178 180 -8.4732074488874005e-14
179 180 -5.4878781841120998e-05
180 180 5.1609456485288003e+00
183 180 -5.1608907697469002e+00
177 181 -4.0617384240455001e+00
178 181 -3.4138270684200001e-02
181 181 4.0983766947296996e+00
183 181 -2.5000000000000001e-03
172 182 -1.2500000000000000e-01
174 182 -1.7889087656529998e+01
175 182 -2.1817931110319002e+01
182 182 3.9844518766847997e+01
185 182 -2.5000000000000001e-03
164 183 1.0000000000000000e+00
183 183 -1.0000000000000000e+00
174 184 -1.3538039459241999e-07
180 184 -5.1608907697469002e+00
181 184 -2.5000000000000001e-03
183 184 5.1647242384606002e+00
184 184 -1.0000000000000000e+00
186 184 -1.3333333333332999e-03
157 185 -1.0000000000000000e-02
158 185 -1.1898603758485001e-12
159 185 -3.3579583613163000e-01
176 185 -3.9169761277540002e-02
179 185 -4.3663994211901003e-01
182 185 -2.5000000000000001e-03
185 185 8.2410553952937005e-01
161 186 -6.4154700160524006e-02
183 186 -1.3333333333332999e-03
186 186 6.5588033493857001e-02
390 186 -1.0000000000000000e-04
187 187 1.0000000000000000e+00
187 188 2.0000000000000000e+00
188 188 1.0000000000000000e+00
189 188 -2.0000000000000000e+00
187 189 -2.0000000000000000e+00
189 189 2.5000000000000000e+00
194 189 -5.0000000000000000e-01
190 190 7.5797089653210004e-01
193 190 -2.5797089653209998e-01
191 191 6.0128819983944002e+00
390 191 -1.0000000001307000e-12
192 192 1.0000000000071000e+03
390 192 -1.0000000000000000e+03
190 193 -2.5797089653209998e-01
193 193 1.0002579708965000e+03
390 193 -1.0000000000000000e+03
189 194 -5.0000000000000000e-01
194 194 1.0000005030303000e+06
201 194 -1.0000000000000000e+06
390 194 -3.0303030303029999e-03
195 195 1.0000000000000000e+00
196 195 -2.4899528802763001e+01
196 196 1.0000000000000000e+00
197 196 -1.0000000000000000e+00
197 197 1.0000000000000000e+00
200 197 3.2051282051282000e+00
201 197 -3.2051282051282000e+00
198 198 1.0000000000000000e+00
199 198 -1.0000000000000000e+00
199 199 1.0000000000000000e+00
387 199 -6.9148936170213005e+02
388 199 -1.0000000000000000e+00
198 200 -1.0000000000000000e+00
200 200 1.0000000000000000e+00
194 201 -1.0000000000000000e+06
200 201 -3.2051282051282000e+00
201 201 1.0000032051282000e+06
202 202 1.0000000000000000e+00
215 202 -1.0000000000000000e+00
202 203 1.7241379310345001e-02
203 203 1.0000000000000000e+00
370 203 -1.7241379310345001e-02
204 204 2.0019999999999999e-04
205 204 -1.9999999999999999e-07
204 205 -1.9999999999999999e-07
205 205 6.2401484598087001e-05
206 205 -3.1100742299040998e-05
209 205 -3.1100742299045002e-05
205 206 -3.1100742299040998e-05
206 206 8.8264363384027000e-01
207 206 -8.8261253309797005e-01
206 207 -8.8261253309797005e-01
207 207 8.8264363384027000e-01
208 207 -3.1100742299050003e-05
207 208 -3.1100742299050003e-05
208 208 8.8264363384027000e-01
215 208 -8.8261253309797005e-01
205 209 -3.1100742299045002e-05
209 209 8.8264363384027000e-01
210 209 -8.8261253309797005e-01
209 210 -8.8261253309797005e-01
210 210 8.8264363384027000e-01
211 210 -3.1100742299045002e-05
210 211 -3.1100742299045002e-05
211 211 8.8264363384027000e-01
212 211 -8.8261253309797005e-01
211 212 -8.8261253309797005e-01
212 212 8.8261253309797005e-01
214 212 -1.0000000000000000e+00
212 213 -1.0000000000000000e+00
213 213 1.0000000000000000e+00
213 214 1.7241379310345001e-02
214 214 1.0000000000000000e+00
386 214 -1.7241379310345001e-02
203 215 -1.0000000000000000e+00
208 215 -8.8261253309797005e-01
215 215 8.8261253309797005e-01
216 216 -1.0000000000000000e+00
217 217 -1.0000000000000000e+00
229 217 1.0000000000000000e+00
218 218 1.6535716208963000e-04
220 218 -1.1273957158963000e-05
219 219 3.3353333333333002e-04
221 219 -3.3333333333333002e-04
218 220 -1.1273957158963000e-05
220 220 1.1132395715896001e-04
221 220 -4.9999999999999998e-08
367 220 -1.0000000000000000e-04
219 221 -3.3333333333333002e-04
220 221 -4.9999999999999998e-08
221 221 3.6341723816282003e-04
222 221 -3.0033904829485001e-05
221 222 -3.0033904829485001e-05
222 222 8.8264256700279997e-01
223 222 -8.8261253309797005e-01
222 223 -8.8261253309797005e-01
223 223 8.8261253309797005e-01
224 223 -1.0000000000000000e+00
224 224 1.0000000000000000e+00
228 224 6.4102564102563996e-03
229 224 -6.4102564102563996e-03
225 225 -2.4899528803889002e+01
227 225 1.0000000000000000e+00
226 226 -2.4899528803889002e+01
369 226 1.0000000000000000e+00
225 227 2.3899528803889002e+01
226 227 1.0000000000000000e+00
227 227 -1.0000000000000000e+00
228 227 -6.4102564102563996e-03
229 227 6.4102564102563996e-03
223 228 -1.0000000000000000e+00
228 228 1.0000000000000000e+00
216 229 1.0000000000000000e+00
229 229 -1.0000000000000000e+00
368 229 -2.2553191489362001e+04
230 230 1.0000000000000000e+00
230 231 2.0000000000000000e+00
231 231 1.0000000000000000e+00
232 231 -2.0000000000000000e+00
230 232 -2.0000000000000000e+00
232 232 2.5000000000000000e+00
237 232 -5.0000000000000000e-01
233 233 7.5797084596044995e-01
236 233 -2.5797084596045000e-01
234 234 6.0128819983944002e+00
365 234 -1.0000000001307000e-12
235 235 1.0000000000071000e+03
365 235 -1.0000000000000000e+03
233 236 -2.5797084596045000e-01
236 236 1.0002579708460000e+03
365 236 -1.0000000000000000e+03
232 237 -5.0000000000000000e-01
237 237 1.0000005030303000e+06
244 237 -1.0000000000000000e+06
365 237 -3.0303030303029999e-03
238 238 1.0000000000000000e+00
239 238 -2.4899528803889002e+01
239 239 1.0000000000000000e+00
240 239 -1.0000000000000000e+00
240 240 1.0000000000000000e+00
243 240 3.2051282051282000e+00
244 240 -3.2051282051282000e+00
241 241 1.0000000000000000e+00
242 241 -1.0000000000000000e+00
242 242 1.0000000000000000e+00
366 242 -1.0000000000000000e+00
368 242 -6.9148936170213005e+02
241 243 -1.0000000000000000e+00
243 243 1.0000000000000000e+00
237 244 -1.0000000000000000e+06
243 244 -3.2051282051282000e+00
244 244 1.0000032051282000e+06
245 245 1.0000036528756000e+03
246 245 -4.9624719684306005e-07
247 245 -3.6523793687649000e-03
265 245 -1.0000000000000000e+03
245 246 -3.6528756149596998e-03
246 246 1.0000000004962000e+03
247 246 3.6523793667606998e-03
248 246 -1.0000000000000000e+03
245 247 -1.0021035849969000e-12
246 247 -1.0021035849969000e-12
247 247 1.0000000000000000e+03
331 247 -1.0000000000000000e+03
246 248 -1.0000000000000000e+03
248 248 1.0000003555556000e+03
265 248 -1.3333333333333001e-04
331 248 -2.2222222222222001e-04
249 249 1.0000666666667000e+03
250 249 -1.0000000000000000e+03
249 250 -1.0000000000000000e+03
250 250 1.0000704786410000e+03
251 250 -3.5239320486146003e-02
252 250 -3.5239320486146003e-02
250 251 -7.0472202604556999e-02
251 251 1.0000352393212000e+03
252 251 3.5232881430550998e-02
265 251 -1.0000000000000000e+03
250 252 -6.4383677351848002e-06
251 252 -6.8785980076761004e-10
252 252 1.0000000064391000e+03
253 252 -1.0000000000000000e+03
252 253 -1.0000000000000000e+03
253 253 1.0000454545455000e+03
364 253 -4.5454545454544998e-02
254 254 1.0000000000000000e+03
255 254 -1.4195505962253000e-16
257 254 -1.0447892388218001e-12
254 255 -4.4872395296602998e-14
255 255 1.0000000000000000e+03
256 255 -1.0000000000000000e+03
257 255 -9.5532835834784998e-13
255 256 -1.0000000000000000e+03
256 256 2.0000100000000000e+03
258 256 -1.0000000000000000e+03
254 257 -1.0000587985848000e-12
255 257 -1.0000587985848000e-12
257 257 1.0000000000000000e+03
332 257 -1.0000000000000000e+03
256 258 -1.0000000000000000e+03
258 258 1.0000000000000000e+03
263 258 -1.0183899041917000e-12
264 258 -1.3836819350430000e-16
259 259 2.0000000399999999e+03
260 259 -1.0000000000000000e+03
264 259 -1.0000000000000000e+03
259 260 -1.0000000000000000e+03
260 260 1.0000017087659000e+03
261 260 -1.7085338086625999e-03
262 260 -2.3213774574220001e-07
260 261 -5.0397698032198998e-03
261 261 1.0000100795396000e+03
262 261 -5.0397698032198998e-03
265 261 -1.0000000000000000e+03
260 262 3.3310038568115001e-03
261 262 -8.3710057977771993e-03
262 262 1.0000050400019001e+03
332 262 -1.0000000000000000e+03
258 263 -2.4533457294367001e-02
263 263 1.0000490669146000e+03
264 263 -2.4533457294367001e-02
265 263 -1.0000000000000000e+03
258 264 2.4533457293348999e-02
259 264 -1.0000000000000000e+03
263 264 -4.9066914587717003e-02
264 264 1.0000245334573000e+03
245 265 -1.0000000000000000e+03
248 265 -1.3333333333333001e-04
251 265 -1.0000000000000000e+03
261 265 -1.0000000000000000e+03
263 265 -1.0000000000000000e+03
265 265 4.0000001333332998e+03
266 266 1.0000000000000000e+03
267 266 -1.4023501158332001e-16
268 266 -1.0321296852533001e-12
364 266 -1.0000000000000000e+03
266 267 -3.0776537039347001e-14
267 267 1.0000000000000000e+03
268 267 -9.7085708119773000e-13
273 267 -1.0000000000000000e+03
266 268 -1.0014933832254999e-12
267 268 -1.0014933832254999e-12
268 268 1.0000000000000000e+03
331 268 -1.0000000000000000e+03
269 269 1.0000666666667000e+03
270 269 -1.0000000000000000e+03
365 269 -6.6666666666666999e-02
269 270 -1.0000000000000000e+03
270 270 1.0000000000000000e+03
271 270 -1.0000480229468000e-12
272 270 -1.0000480229468000e-12
270 271 7.0880025025511000e-05
271 271 1.0000000000095999e+03
272 271 -7.0889656464013999e-05
331 271 -1.0000000000000000e+03
270 272 -7.0880027025606998e-05
271 272 -9.6304384545661999e-09
272 272 1.0000000708897001e+03
273 272 -1.0000000000000000e+03
267 273 -1.0000000000000000e+03
272 273 -1.0000000000000000e+03
273 273 2.0000370370369999e+03
364 273 -3.7037037037037000e-02
274 274 1.0000016722796000e+03
275 274 -1.6720524007981000e-03
276 274 -2.2718103271713000e-07
274 275 -1.0321294231697000e-12
275 275 1.0000000000000000e+03
276 275 -1.0321294231697000e-12
281 275 -1.0000000000000000e+03
274 276 -1.6722795807987000e-03
275 276 1.6720523987339001e-03
276 276 1.0000000002272000e+03
281 276 -1.0000000000000000e+03
277 277 1.0000001999999999e+03
278 277 -1.0000000000000000e+03
277 278 -1.0000000000000000e+03
278 278 1.0002488487921000e+03
279 278 -2.4881498566999000e-01
280 278 -3.3806383922552998e-05
278 279 -2.0810467363726001e-01
279 279 1.0004162093473000e+03
280 279 -2.0810467363726001e-01
330 279 -1.0000000000000000e+03
278 280 -4.0744118416653000e-02
279 280 -1.6739436160453000e-01
280 280 1.0002081384800000e+03
281 280 -1.0000000000000000e+03
275 281 -1.0000000000000000e+03
276 281 -1.0000000000000000e+03
280 281 -1.0000000000000000e+03
281 281 3.0000000256409999e+03
285 281 -2.5641025641025999e-05
282 282 1.0000064029566000e+03
283 282 -6.4022726435609004e-03
284 282 -6.8400348755993005e-07
365 282 -1.0000000000000000e+03
282 283 -1.0321294599835999e-12
283 283 1.0000000000000000e+03
284 283 -1.0321294599835999e-12
285 283 -1.0000000000000000e+03
282 284 -6.4029566460163997e-03
283 284 6.4022726414967000e-03
284 284 1.0000000006840000e+03
285 284 -1.0000000000000000e+03
281 285 -2.5641025641025999e-05
283 285 -1.0000000000000000e+03
284 285 -1.0000000000000000e+03
285 285 3.0000000256409999e+03
287 285 -1.0000000000000000e+03
286 286 1.0000064029566000e+03
287 286 -6.8400348755993005e-07
288 286 -6.4022726435609004e-03
365 286 -1.0000000000000000e+03
285 287 -1.0000000000000000e+03
286 287 -6.4029566460484001e-03
287 287 1.0000000006840000e+03
288 287 6.4022726415607998e-03
286 288 -1.0000499660409000e-12
287 288 -1.0000499660409000e-12
288 288 1.0000000000000000e+03
331 288 -1.0000000000000000e+03
289 289 1.0000010000000000e+03
290 289 -1.0000000000000000e+03
289 290 -1.0000000000000000e+03
290 290 1.0000000000000000e+03
291 290 -3.8444472176303998e-12
292 290 -5.2234337196064999e-16
290 291 -1.0000680820580001e-12
291 291 1.0000000000000000e+03
292 291 -1.0000680820580001e-12
332 291 -1.0000000000000000e+03
290 292 -2.8449014789444000e-12
291 292 1.8443110535144001e-12
292 292 1.0000000000000000e+03
297 292 -1.0000000000000000e+03
293 293 1.0000010000000000e+03
294 293 -1.0000000000000000e+03
293 294 -1.0000000000000000e+03
294 294 1.0000000000000000e+03
295 294 -3.8444471099752002e-12
296 294 -5.2234335733359000e-16
294 295 -1.0000649162417001e-12
295 295 1.0000000000000000e+03
296 295 -1.0000649162417001e-12
303 295 -1.0000000000000000e+03
294 296 -2.8449045370909001e-12
295 296 1.8443172774919002e-12
296 296 1.0000000000000000e+03
297 296 -1.0000000000000000e+03
292 297 -1.0000000000000000e+03
296 297 -1.0000000000000000e+03
297 297 3.0000000199999999e+03
299 297 -1.0000000000000000e+03
298 298 1.0000000002033000e+03
299 298 -1.4968374937658999e-03
300 298 1.4966341457347001e-03
303 298 -1.0000000000000000e+03
297 299 -1.0000000000000000e+03
298 299 -2.0334703094229001e-07
299 299 1.0000014968375000e+03
300 299 -1.4966341477353001e-03
298 300 -1.0002858293666000e-12
299 300 -1.0002858293666000e-12
300 300 1.0000000000000000e+03
365 300 -1.0000000000000000e+03
301 301 1.0000524398738000e+03
302 301 2.0427779809373000e-07
329 301 -5.2440078078532001e-02
330 301 -1.0000000000000000e+03
301 302 -5.2428671071416001e-02
302 302 1.0001048573421000e+03
303 302 -1.0000000000000000e+03
329 302 -5.2428671071416001e-02
295 303 -1.0000000000000000e+03
298 303 -1.0000000000000000e+03
302 303 -1.0000000000000000e+03
303 303 3.0000000000000000e+03
304 304 1.0000521332926000e+03
308 304 -5.5692012133886001e-06
309 304 -5.2127723357317003e-02
365 304 -1.0000000000000000e+03
305 305 1.0000521332926000e+03
306 305 -5.2127723357318002e-02
307 305 -5.5692012133886001e-06
365 305 -1.0000000000000000e+03
305 306 -1.0321310441505000e-12
306 306 1.0000000000000000e+03
307 306 -1.0321310441505000e-12
328 306 -1.0000000000000000e+03
305 307 -5.2133292557499003e-02
306 307 5.2127723355253001e-02
307 307 1.0000000055692000e+03
328 307 -1.0000000000000000e+03
304 308 -5.2133292557529999e-02
308 308 1.0000000055692000e+03
309 308 5.2127723355316000e-02
328 308 -1.0000000000000000e+03
304 309 -1.0004963905178000e-12
308 309 -1.0004963905178000e-12
309 309 1.0000000000000000e+03
330 309 -1.0000000000000000e+03
310 310 1.0003494835185001e+03
311 310 -6.9872807588454000e-01
316 310 3.4924455743041000e-01
330 310 -1.0000000000000000e+03
310 311 -3.4948349292956998e-01
311 311 1.0006989669859000e+03
316 311 -3.4948349292956998e-01
332 311 -1.0000000000000000e+03
312 312 2.0000000000000000e+03
313 312 -1.0000000000000000e+03
316 312 -1.0000000000000000e+03
312 313 -1.0000000000000000e+03
313 313 1.0000000375137000e+03
314 313 -3.7508561700567000e-05
315 313 -5.0962719701857998e-09
313 314 -3.9067779163313003e-08
314 314 1.0000000000781000e+03
315 314 -3.9067779163313003e-08
328 314 -1.0000000000000000e+03
313 315 -3.7474590193373998e-05
314 315 3.7430426142241000e-05
315 315 1.0000000000442000e+03
367 315 -1.0000000000000000e+03
310 316 -2.5524569934842001e-08
311 316 -2.3890997459011999e-04
312 316 -1.0000000000000000e+03
316 316 1.0000002389355000e+03
317 317 1.4328199067027001e+00
320 317 -4.2484781312351000e-03
318 318 1.0000000002402001e-02
323 318 -2.4022972446255002e-12
319 319 1.0010214244997000e-02
323 319 -1.0000000000000000e-02
317 320 -4.2484781312351000e-03
320 320 1.0000424847812999e+02
323 320 -1.0000000000000000e+02
321 321 3.9155622863456002e-01
323 321 -3.7979491074819999e-01
367 321 -1.1761317886362000e-02
322 322 3.7979491075206001e-01
323 322 -3.8595888103998004e-12
367 322 -3.7979491074819999e-01
318 323 -2.4022972446255002e-12
319 323 -1.0000000000000000e-02
320 323 -1.0000000000000000e+02
321 323 -3.7979491074819999e-01
322 323 -3.8595888103998004e-12
323 323 1.1003902949108001e+03
327 323 -1.0000000000000000e+03
365 323 -5.0000000000000001e-04
367 323 -2.2000000000000000e-28
324 324 2.0000000000000000e+03
325 324 -1.0000000000000000e+03
329 324 -1.0000000000000000e+03
324 325 -1.0000000000000000e+03
325 325 1.0000609123855000e+03
326 325 -6.0904110474404999e-02
327 325 -8.2750150101092999e-06
325 326 -8.4723074403688006e-03
326 326 1.0000169446149000e+03
327 326 -8.4723074403688006e-03
328 326 -1.0000000000000000e+03
323 327 -1.0000000000000000e+03
325 327 -5.2440078049045998e-02
326 327 4.3959495593666999e-02
327 327 1.0000084805825001e+03
306 328 -1.0000000000000000e+03
307 328 -1.0000000000000000e+03
308 328 -1.0000000000000000e+03
314 328 -1.0000000000000000e+03
326 328 -1.0000000000000000e+03
328 328 5.0000000000000000e+03
301 329 -1.1202729318443000e-05
302 329 -1.0485754642063000e-01
324 329 -1.0000000000000000e+03
329 329 1.0001048687492000e+03
279 330 -1.0000000000000000e+03
301 330 -1.0000000000000000e+03
309 330 -1.0000000000000000e+03
310 330 -1.0000000000000000e+03
330 330 4.0000000000000000e+03
247 331 -1.0000000000000000e+03
248 331 -2.2222222222222001e-04
268 331 -1.0000000000000000e+03
271 331 -1.0000000000000000e+03
288 331 -1.0000000000000000e+03
331 331 4.0000002222222001e+03
332 331 -2.5000000000000002e-32
257 332 -1.0000000000000000e+03
262 332 -1.0000000000000000e+03
291 332 -1.0000000000000000e+03
311 332 -1.0000000000000000e+03
331 332 -2.5000000000000002e-32
332 332 4.0000000000000000e+03
333 333 1.0000000000000000e+02
336 333 -1.0000022822785000e-12
340 333 -1.0000000000000000e+02
334 334 1.0000000001001000e-02
340 334 -1.0008151513943000e-12
362 334 -1.0000000000000000e-02
335 335 1.0000000000011999e+00
340 335 -1.0000000000000000e+00
362 335 -1.1898603928487001e-12
333 336 -1.0000022822785000e-12
336 336 3.3579583613262998e-01
362 336 -3.3579583613163000e-01
337 337 2.1924570466565001e+01
338 337 -9.8193555002322008e-04
339 337 -1.0565742069655000e-01
337 338 -3.2609674884094997e-02
338 338 8.8541528639579994e-02
339 338 8.2228448606508995e-03
363 338 -6.4154698616135999e-02
337 339 -7.4029681362472996e-02
338 339 -2.3404894473420999e-02
339 339 4.1591729998813998e+00
340 339 -4.0617384240455001e+00
333 340 -1.0000000000000000e+02
334 340 -1.0008151513943000e-12
335 340 -1.0000000000000000e+00
339 340 -4.0617384240455001e+00
340 340 1.0506223842404999e+02
364 340 -5.0000000000000001e-04
341 341 1.0000000000000000e+05
361 341 1.0000000000000000e+00
410 341 -1.0000000000000000e+05
342 342 1.4388489209632999e-02
345 342 -1.0000000000033000e-12
343 343 7.0921985815715004e+01
346 343 -1.1244455881302000e-10
344 344 1.0000000000000000e+03
346 344 -1.0000000000000000e+03
342 345 -1.0000000000033000e-12
345 345 1.0000000000000000e+03
346 345 -1.0000000000000000e+03
343 346 -1.1244455881302000e-10
344 346 -1.0000000000000000e+03
345 346 -1.0000000000000000e+03
346 346 1.0020065746220000e+06
350 346 -6.5746219592372999e+00
366 346 -1.0000000000000000e+06
347 347 1.0000000001833000e+03
348 347 -1.3337844483052000e-07
350 347 -4.9901203625988999e-08
347 348 -1.8298027031054000e-07
348 348 5.1679841326660002e-02
349 348 -5.1679661398167001e-02
350 348 3.0517781289263999e-09
348 349 -5.1679661398167001e-02
349 349 1.7667966139817001e-01
359 349 -1.2500000000000000e-01
346 350 -6.5746219592372999e+00
347 350 -2.9937814596454999e-10
348 350 -4.6550047351097997e-08
350 350 6.5746220060868001e+00
351 351 1.7889087791910001e+01
359 351 -1.7889087656529998e+01
360 351 -1.3538039420505001e-07
352 352 2.1826744509103001e+01
353 352 -9.0209526986276994e-05
354 352 -8.7231892571729003e-03
359 352 -2.1817931110319002e+01
352 353 1.6193292263478000e-03
353 353 4.4393740407843003e-02
354 353 -6.8433083490863000e-03
362 353 -3.9169761285104999e-02
352 354 -1.0432728010507000e-02
353 354 -5.1337695957522000e-03
354 354 4.0773049216518000e+00
358 354 -4.0617384240455001e+00
355 355 3.8080407395970003e-02
356 355 -2.3299870672240000e-02
357 355 1.9357733967477000e-02
358 355 -3.4138270691207000e-02
355 356 -3.9421367046782998e-03
356 356 4.5999469157313999e-01
357 356 -1.9412612749456000e-02
362 356 -4.3663994211901003e-01
355 357 -8.4732074607694001e-14
356 357 -5.4878781894436999e-05
357 357 5.1609456485288003e+00
360 357 -5.1608907697469002e+00
354 358 -4.0617384240455001e+00
355 358 -3.4138270691207000e-02
358 358 4.0983766947367002e+00
360 358 -2.5000000000000001e-03
349 359 -1.2500000000000000e-01
351 359 -1.7889087656529998e+01
352 359 -2.1817931110319002e+01
359 359 3.9844518766847997e+01
362 359 -2.5000000000000001e-03
341 360 1.0000000000000000e+00
360 360 -1.0000000000000000e+00
351 361 -1.3538039420505001e-07
357 361 -5.1608907697469002e+00
358 361 -2.5000000000000001e-03
360 361 5.1647242384606002e+00
361 361 -1.0000000000000000e+00
363 361 -1.3333333333332999e-03
334 362 -1.0000000000000000e-02
335 362 -1.1898603928487001e-12
336 362 -3.3579583613163000e-01
353 362 -3.9169761285104999e-02
356 362 -4.3663994211901003e-01
359 362 -2.5000000000000001e-03
362 362 8.2410553953693999e-01
338 363 -6.4154698616135999e-02
360 363 -1.3333333333332999e-03
363 363 6.5588031949468995e-02
365 363 -1.0000000000000000e-04
253 364 -4.5454545454544998e-02
266 364 -1.0000000000000000e+03
273 364 -3.7037037037037000e-02
340 364 -5.0000000000000001e-04
364 364 1.0000829915825000e+03
234 365 -1.0000000001307000e-12
235 365 -1.0000000000000000e+03
236 365 -1.0000000000000000e+03
237 365 -3.0303030303029999e-03
269 365 -6.6666666666666999e-02
282 365 -1.0000000000000000e+03
286 365 -1.0000000000000000e+03
300 365 -1.0000000000000000e+03
304 365 -1.0000000000000000e+03
305 365 -1.0000000000000000e+03
323 365 -5.0000000000000001e-04
363 365 -1.0000000000000000e-04
365 365 7.0000702969697004e+03
238 366 -1.0000000000000000e+00
239 366 2.3899528803889002e+01
346 366 -1.0000000000000000e+06
366 366 1.0000000000000000e+06
370 366 -8.0000000000000007e-31
220 367 -1.0000000000000000e-04
315 367 -1.0000000000000000e+03
321 367 -1.1761317886362000e-02
322 367 -3.7979491074819999e-01
323 367 -2.2000000000000000e-28
367 367 1.0003916562286000e+03
368 368 1.0000000000000000e+00
202 369 -1.7241379310345001e-02
226 369 2.3899528803889002e+01
366 369 -8.0000000000000007e-31
369 369 -1.0000000000000000e+00
370 369 1.7241379310345001e-02
217 370 1.0000000000000000e+00
368 370 -7.0478723404254997e+03
370 370 -1.0000000000000000e+00
371 371 -1.0000000000000000e+00
372 372 -1.0000000000000000e+00
384 372 1.0000000000000000e+00
373 373 1.6535716208963000e-04
375 373 -1.1273957158963000e-05
374 374 3.3353333333333002e-04
376 374 -3.3333333333333002e-04
373 375 -1.1273957158963000e-05
375 375 1.1132395715896001e-04
376 375 -4.9999999999999998e-08
389 375 -1.0000000000000000e-04
374 376 -3.3333333333333002e-04
375 376 -4.9999999999999998e-08
376 376 3.6341722745539002e-04
377 376 -3.0033894122053000e-05
376 377 -3.0033894122053000e-05
377 377 8.8264256699208998e-01
378 377 -8.8261253309797005e-01
377 378 -8.8261253309797005e-01
378 378 8.8261253309797005e-01
379 378 -1.0000000000000000e+00
379 379 1.0000000000000000e+00
383 379 6.4102564102563996e-03
384 379 -6.4102564102563996e-03
380 380 -2.4899528802763001e+01
382 380 1.0000000000000000e+00
381 381 -2.4899528802763001e+01
385 381 1.0000000000000000e+00
380 382 2.3899528802763001e+01
381 382 1.0000000000000000e+00
382 382 -1.0000000000000000e+00
383 382 -6.4102564102563996e-03
384 382 6.4102564102563996e-03
378 383 -1.0000000000000000e+00
383 383 1.0000000000000000e+00
371 384 1.0000000000000000e+00
384 384 -1.0000000000000000e+00
387 384 -2.2553191489362001e+04
213 385 -1.7241379310345001e-02
381 385 2.3899528802763001e+01
385 385 -1.0000000000000000e+00
386 385 1.7241379310345001e-02
388 385 -8.0000000000000007e-31
372 386 1.0000000000000000e+00
386 386 -1.0000000000000000e+00
387 386 -7.0478723404254997e+03
387 387 1.0000000000000000e+00
169 388 -1.0000000000000000e+06
195 388 -1.0000000000000000e+00
196 388 2.3899528802763001e+01
386 388 -8.0000000000000007e-31
388 388 1.0000000000000000e+06
138 389 -1.0000000000000000e+03
144 389 -1.1731539438445999e-02
145 389 -3.7979491074819999e-01
146 389 -2.2000000000000000e-28
375 389 -1.0000000000000000e-04
389 389 1.0003916264502000e+03
92 390 -6.6666666666666999e-02
105 390 -1.0000000000000000e+03
109 390 -1.0000000000000000e+03
123 390 -1.0000000000000000e+03
127 390 -1.0000000000000000e+03
128 390 -1.0000000000000000e+03
146 390 -5.0000000000000001e-04
186 390 -1.0000000000000000e-04
191 390 -1.0000000001307000e-12
192 390 -1.0000000000000000e+03
193 390 -1.0000000000000000e+03
194 390 -3.0303030303029999e-03
390 390 7.0000702969697004e+03
76 391 -4.5454545454544998e-02
89 391 -1.0000000000000000e+03
96 391 -3.7037037037037000e-02
163 391 -5.0000000000000001e-04
391 391 1.0000829915825000e+03
61 392 -1.0000000000000000e+05
64 392 -1.0000000000000000e+00
67 392 -6.2500000000000003e-03
164 392 -1.0000000000000000e+05
392 392 2.0000000628333000e+05
405 392 -3.3333333333333003e-05
393 393 2.6917900473747999e+01
394 393 -6.9979103180368000e-08
393 394 -6.9979103180368000e-08
394 394 1.0000000065880000e+05
402 394 -1.0000000000000000e+05
408 394 -5.0000000000000001e-04
395 395 1.0000000000000000e+00
404 395 -2.3255813953488000e+03
409 395 -1.0000000000000000e+00
396 396 1.0000000000000000e+05
402 396 -1.0000000000000000e+05
409 396 -1.1800000000000001e-30
397 397 1.0000000000000000e+00
400 397 -3.6351359299502001e+03
398 398 1.0000000000000000e+00
401 398 -1.0000000000000000e+00
398 399 7.1428571428570997e-01
399 399 1.0000000000000000e+00
402 399 -7.1428571428570997e-01
399 400 -1.0000000000000000e+00
400 400 1.0000000000000000e+00
401 400 1.0000000032468000e+05
402 400 -3.2467532467532001e-04
403 400 -1.0000000000000000e+05
395 401 -1.0000000000000000e+00
401 401 1.0000000000000000e+00
394 402 -1.0000000000000000e+05
396 402 -1.0000000000000000e+05
398 402 -7.1428571428570997e-01
401 402 -3.2467532467532001e-04
402 402 2.0000071461172000e+05
409 402 -1.3333333333333000e-06
67 403 -2.0000000000000002e-31
401 403 -1.0000000000000000e+05
403 403 1.0000000000000000e+05
404 404 1.0000000000000000e+00
35 405 -1.0000000000000000e+05
37 405 1.0000000000000000e+00
61 405 -1.1800000000000001e-30
62 405 -1.0000000000000000e+05
63 405 -1.0000000000000000e+00
66 405 3.6341359299502001e+03
392 405 -3.3333333333333003e-05
405 405 2.0000000011026999e+05
406 405 -7.6923076923076993e-05
409 405 -1.0000000000000000e-08
35 406 -1.1800000000000001e-30
38 406 -1.0000000000000000e+00
41 406 -1.4285714285714001e-02
56 406 -1.0000000000000000e+05
405 406 -7.6923076923076993e-05
406 406 1.0000001436263999e+05
42 407 -1.1800000000000001e-30
45 407 -1.2987012987013000e+00
48 407 -6.0606060606060996e-04
55 407 -1.0000000000000000e+05
407 407 1.0000129930981999e+05
409 407 -2.4630541871921000e-06
53 408 -1.0000000000000000e-02
54 408 -5.0000000000000001e-04
394 408 -5.0000000000000001e-04
408 408 1.0000001100000000e+05
409 408 -1.0000000000000000e+05
42 409 -1.0000000000000000e+05
44 409 1.0000000000000000e+00
396 409 -1.1800000000000001e-30
397 409 -1.0000000000000000e+00
400 409 3.6341359299502001e+03
402 409 -1.3333333333333000e-06
405 409 -1.0000000000000000e-08
407 409 -2.4630541871921000e-06
408 409 -1.0000000000000000e+05
409 409 2.0000000000381001e+05
28 410 -1.0000000000000000e+05
31 410 -1.0000000000000000e+00
34 410 -6.2500000000000003e-03
341 410 -1.0000000000000000e+05
410 410 2.0000000628333000e+05
425 410 -3.3333333333333003e-05
411 411 2.6917900473747999e+01
412 411 -6.9979103180368000e-08
411 412 -6.9979103180368000e-08
412 412 1.0000000065880000e+05
420 412 -1.0000000000000000e+05
422 412 -5.0000000000000001e-04
413 413 1.0000000000000000e+00
424 413 -2.3255813953488000e+03
427 413 -1.0000000000000000e+00
414 414 1.0000000000000000e+05
420 414 -1.0000000000000000e+05
427 414 -1.1800000000000001e-30
415 415 1.0000000000000000e+00
418 415 -3.6351359314157999e+03
416 416 1.0000000000000000e+00
419 416 -1.0000000000000000e+00
416 417 7.1428571428570997e-01
417 417 1.0000000000000000e+00
420 417 -7.1428571428570997e-01
417 418 -1.0000000000000000e+00
418 418 1.0000000000000000e+00
419 418 1.0000000032468000e+05
420 418 -3.2467532467532001e-04
421 418 -1.0000000000000000e+05
413 419 -1.0000000000000000e+00
419 419 1.0000000000000000e+00
412 420 -1.0000000000000000e+05
414 420 -1.0000000000000000e+05
416 420 -7.1428571428570997e-01
419 420 -3.2467532467532001e-04
420 420 2.0000071461172000e+05
427 420 -1.3333333333333000e-06
34 421 -2.0000000000000002e-31
419 421 -1.0000000000000000e+05
421 421 1.0000000000000000e+05
20 422 -1.0000000000000000e-02
21 422 -5.0000000000000001e-04
412 422 -5.0000000000000001e-04
422 422 1.0000001100000000e+05
427 422 -1.0000000000000000e+05
9 423 -2.0000000000000002e-31
16 423 -1.0000000000000000e+05
423 423 1.0000000000000000e+05
424 424 1.0000000000000000e+00
3 425 -1.0000000000000000e+05
5 425 1.0000000000000000e+00
28 425 -1.1800000000000001e-30
29 425 -1.0000000000000000e+05
30 425 -1.0000000000000000e+00
33 425 3.6341359314157999e+03
410 425 -3.3333333333333003e-05
425 425 2.0000000011026999e+05
426 425 -7.6923076923076993e-05
427 425 -1.0000000000000000e-08
3 426 -1.1800000000000001e-30
6 426 -1.0000000000000000e+00
9 426 -1.4285714285714001e-02
23 426 -1.0000000000000000e+05
425 426 -7.6923076923076993e-05
426 426 1.0000001436263999e+05
10 427 -1.0000000000000000e+05
12 427 1.0000000000000000e+00
414 427 -1.1800000000000001e-30
415 427 -1.0000000000000000e+00
418 427 3.6341359314157999e+03
420 427 -1.3333333333333000e-06
422 427 -1.0000000000000000e+05
425 427 -1.0000000000000000e-08
427 427 2.0000000000381001e+05
428 427 -2.4630541871921000e-06
10 428 -1.1800000000000001e-30
13 428 -1.2987012987013000e+00
16 428 -6.0606060606060996e-04
22 428 -1.0000000000000000e+05
427 428 -2.4630541871921000e-06
428 428 1.0000129930981999e+05
429 429 1.0000000000000000e+00
430 430 1.0000000000000000e+00
