%%MatrixMarket matrix coordinate real general
1157 1157 4052
1 1 1e-09
2 2 1e-09
3 3 1
3 4 1
4 4 -1
5 5 1
5 6 1
6 6 -1
7 7 1
7 8 1
8 8 -1
9 9 1
9 10 1
10 10 -1
11 11 1
12 12 1
13 13 1
14 14 1
15 15 0.0104851
16 15 -1
18 15 -0.0104851
14 16 0.001
16 16 1
13 17 0.001
17 17 1
15 18 -0.0104851
16 18 1
17 18 -1
18 18 0.0120516
21 18 -0.00156657
19 19 0.0104851
20 19 1
21 19 -0.0104851
12 20 0.001
20 20 1
17 21 1
18 21 -0.00156657
19 21 -0.0104851
20 21 -1
21 21 0.0120516
22 22 1
23 23 1
24 24 1
25 25 1
26 26 0.0104851
27 26 -1
29 26 -0.0104851
25 27 0.001
27 27 1
24 28 0.001
28 28 1
26 29 -0.0104851
27 29 1
28 29 -1
29 29 0.0120516
32 29 -0.00156657
30 30 0.0104851
31 30 1
32 30 -0.0104851
23 31 0.001
31 31 1
28 32 1
29 32 -0.00156657
30 32 -0.0104851
31 32 -1
32 32 0.0120516
33 33 1
34 34 1
35 35 1
36 36 1
37 37 0.0104851
38 37 -1
40 37 -0.0104851
36 38 0.001
38 38 1
35 39 0.001
39 39 1
37 40 -0.0104851
38 40 1
39 40 -1
40 40 0.0120516
43 40 -0.00156657
41 41 0.0104851
42 41 1
43 41 -0.0104851
34 42 0.001
42 42 1
39 43 1
40 43 -0.00156657
41 43 -0.0104851
42 43 -1
43 43 0.0120516
44 44 1
45 45 1
46 46 1
47 47 1
48 48 0.0104851
49 48 -1
51 48 -0.0104851
47 49 0.001
49 49 1
46 50 0.001
50 50 1
48 51 -0.0104851
49 51 1
50 51 -1
51 51 0.0116223
54 51 -0.00113724
52 52 0.0104851
53 52 1
54 52 -0.0104851
45 53 0.001
53 53 1
50 54 1
51 54 -0.00113724
52 54 -0.0104851
53 54 -1
54 54 0.0116223
55 55 1
56 56 1
57 57 1
58 58 1
59 59 1
60 60 0.0104851
61 60 -1
63 60 -0.0104851
59 61 0.001
61 61 1
58 62 0.001
62 62 1
60 63 -0.0104851
61 63 1
62 63 -1
63 63 0.0120516
66 63 -0.00156657
64 64 0.0104851
65 64 1
66 64 -0.0104851
57 65 0.001
65 65 1
62 66 1
63 66 -0.00156657
64 66 -0.0104851
65 66 -1
66 66 0.0120516
67 67 1
68 68 1
69 69 1
70 70 1
71 71 1
72 72 1
73 73 1
74 74 1
75 75 1
76 76 1
77 77 1
78 78 1
79 79 1
80 80 1
81 81 1
82 82 1
83 83 1
84 84 1
85 85 1
86 86 1
87 87 1
88 88 1
89 89 1
90 90 1
91 91 1
92 92 1
93 93 1
94 94 1
95 95 0.015735
96 96 0.015735
97 97 0.00843
98 98 0.00843
99 99 0.00843
100 100 0.00843
101 101 1
102 102 1
103 103 1
104 104 1
105 105 1
106 106 1
107 107 1
108 108 1
109 109 1
110 110 1
111 111 1
112 112 1
113 113 1
114 114 1
115 115 1
116 116 1
117 117 1
118 118 1
119 119 1
120 120 1
121 121 1
122 122 1
123 123 1
124 124 1
125 125 1
126 126 1
127 127 1
128 128 1
129 129 1
130 130 1
131 131 1
132 132 1
133 133 1
134 134 1
135 135 1
136 136 1
137 137 1
138 138 1
139 139 1
140 140 1
141 141 1
141 142 0.001
142 142 1
143 143 1
143 144 0.001
144 144 1
142 145 1
144 145 -1
145 145 0.0115778
149 145 -0.00109271
630 145 -0.0104851
146 146 1
147 147 0.0104851
148 147 1
149 147 -0.0104851
146 148 0.001
148 148 1
144 149 1
145 149 -0.00109271
147 149 -0.0104851
148 149 -1
149 149 0.0115778
630 149 0
150 150 0.00600235
629 150 -0.00100117
630 150 -0.00100117
1133 150 -0.004
151 151 1
151 152 0.001
152 152 1
153 153 1
153 154 0.001
154 154 1
152 155 1
154 155 -1
155 155 0.0116922
158 155 -0.00120716
592 155 -0.0104851
156 156 1
156 157 0.001
157 157 1
154 158 1
155 158 -0.00120716
157 158 -1
158 158 0.0116922
250 158 -0.0104851
592 158 0
159 159 1
159 160 0.001
160 160 1
161 161 1
161 162 0.001
162 162 1
160 163 1
162 163 -1
163 163 0.0116889
166 163 -0.00120378
592 163 -0.0104851
164 164 1
164 165 0.001
165 165 1
162 166 1
163 166 -0.00120378
165 166 -1
166 166 0.0116889
249 166 -0.0104851
592 166 0
167 167 1
167 168 0.001
168 168 1
169 169 1
169 170 0.001
170 170 1
168 171 1
170 171 -1
171 171 0.0115715
174 171 -0.00108646
177 171 -0.0104851
172 172 1
172 173 0.001
173 173 1
170 174 1
171 174 -0.00108646
173 174 -1
174 174 0.0115715
177 174 0
202 174 -0.0104851
175 175 1
175 176 0.001
176 176 1
168 177 -1
171 177 -0.0104851
174 177 0
176 177 1
177 177 0.0209702
183 177 -0.0104851
202 177 0
178 178 1
178 179 0.001
179 179 1
180 180 1
180 181 0.001
181 181 1
179 182 1
181 182 -1
182 182 0.0115715
183 182 -0.00108646
592 182 -0.0104851
176 183 -1
177 183 -0.0104851
181 183 1
182 183 -0.00108646
183 183 0.0115715
202 183 0
592 183 0
184 184 1
184 185 0.001
185 185 1
186 186 1
186 187 0.001
187 187 1
185 188 1
187 188 -1
188 188 0.0115715
191 188 -0.00108646
202 188 -0.0104851
189 189 1
189 190 0.001
190 190 1
187 191 1
188 191 -0.00108646
190 191 -1
191 191 0.0115715
201 191 -0.0104851
202 191 0
192 192 1
192 193 0.001
193 193 1
194 194 1
194 195 0.001
195 195 1
193 196 1
195 196 -1
196 196 0.0115136
199 196 -0.00102847
201 196 -0.0104851
197 197 1
197 198 0.001
198 198 1
195 199 1
196 199 -0.00102847
198 199 -1
199 199 0.0115136
200 199 -0.0104851
201 199 0
198 200 1
199 200 -0.0104851
200 200 0.0124851
201 200 0
1133 200 -0.002
190 201 1
191 201 -0.0104851
193 201 -1
196 201 -0.0104851
199 201 0
200 201 0
201 201 0.0229702
202 201 0
1133 201 -0.002
173 202 1
174 202 -0.0104851
177 202 0
183 202 0
185 202 -1
188 202 -0.0104851
191 202 0
201 202 0
202 202 0.0229702
592 202 0
1133 202 -0.002
203 203 1
203 204 0.001
204 204 1
205 205 1
205 206 0.001
206 206 1
204 207 1
206 207 -1
207 207 0.0116931
210 207 -0.00120802
592 207 -0.0104851
208 208 1
208 209 0.001
209 209 1
206 210 1
207 210 -0.00120802
209 210 -1
210 210 0.0116931
248 210 -0.0104851
592 210 0
211 211 1
211 212 0.001
212 212 1
213 213 1
213 214 0.001
214 214 1
212 215 1
214 215 -1
215 215 0.0116786
218 215 -0.00119353
592 215 -0.0104851
216 216 1
216 217 0.001
217 217 1
214 218 1
215 218 -0.00119353
217 218 -1
218 218 0.0116786
251 218 -0.0104851
592 218 0
219 219 1
219 220 0.001
220 220 1
221 221 1
221 222 0.001
222 222 1
220 223 1
222 223 -1
223 223 0.0116786
226 223 -0.00119353
592 223 -0.0104851
224 224 1
224 225 0.001
225 225 1
222 226 1
223 226 -0.00119353
225 226 -1
226 226 0.0116786
251 226 -0.0104851
592 226 0
227 227 0.115743
246 227 -6.90863e-23
247 227 -0.001
251 227 -0.114743
228 228 0.115743
244 228 -6.90863e-23
245 228 -0.001
251 228 -0.114743
229 229 0.115743
242 229 -6.90863e-23
243 229 -0.001
251 229 -0.114743
230 230 0.115743
240 230 -6.90863e-23
241 230 -0.001
251 230 -0.114743
231 231 0.115743
238 231 -6.90863e-23
239 231 -0.001
251 231 -0.114743
232 232 0.115743
236 232 -6.90863e-23
237 232 -0.001
251 232 -0.114743
233 233 0.115743
234 233 -6.90863e-23
235 233 -0.001
251 233 -0.114743
233 234 -7.02074e-23
234 234 0.0534109
235 234 -0.001
251 234 0
1133 234 -0.0524109
233 235 -0.001
234 235 -0.001
235 235 0.00599716
251 235 0
1133 235 -0.00399716
232 236 -7.02074e-23
236 236 0.0534109
237 236 -0.001
251 236 0
1133 236 -0.0524109
232 237 -0.001
236 237 -0.001
237 237 0.00599716
251 237 0
1133 237 -0.00399716
231 238 -7.02074e-23
238 238 0.0534109
239 238 -0.001
251 238 0
1133 238 -0.0524109
231 239 -0.001
238 239 -0.001
239 239 0.00599716
251 239 0
1133 239 -0.00399716
230 240 -7.02074e-23
240 240 0.0534109
241 240 -0.001
251 240 0
1133 240 -0.0524109
230 241 -0.001
240 241 -0.001
241 241 0.00599716
251 241 0
1133 241 -0.00399716
229 242 -7.02074e-23
242 242 0.0534109
243 242 -0.001
251 242 0
1133 242 -0.0524109
229 243 -0.001
242 243 -0.001
243 243 0.00599716
251 243 0
1133 243 -0.00399716
228 244 -7.02074e-23
244 244 0.0534109
245 244 -0.001
251 244 0
1133 244 -0.0524109
228 245 -0.001
244 245 -0.001
245 245 0.00599716
251 245 0
1133 245 -0.00399716
227 246 -7.02074e-23
246 246 0.0534109
247 246 -0.001
251 246 0
1133 246 -0.0524109
227 247 -0.001
246 247 -0.001
247 247 0.00599716
251 247 0
1133 247 -0.00399716
209 248 1
210 248 -0.0104851
248 248 0.0145206
251 248 -0.0030355
592 248 0
1133 248 -0.001
165 249 1
166 249 -0.0104851
249 249 0.0145206
251 249 -0.0030355
592 249 0
1133 249 -0.001
157 250 1
158 250 -0.0104851
250 250 0.0145206
251 250 -0.0030355
592 250 0
1133 250 -0.001
217 251 1
218 251 -0.0104851
225 251 1
226 251 -0.0104851
227 251 -0.114743
228 251 -0.114743
229 251 -0.114743
230 251 -0.114743
231 251 -0.114743
232 251 -0.114743
233 251 -0.114743
234 251 0
235 251 0
236 251 0
237 251 0
238 251 0
239 251 0
240 251 0
241 251 0
242 251 0
243 251 0
244 251 0
245 251 0
246 251 0
247 251 0
248 251 -0.0030355
249 251 -0.0030355
250 251 -0.0030355
251 251 0.836277
592 251 0
1133 251 -0.003
252 252 0.004
592 252 -0.001
1135 252 -0.003
253 253 0.004
592 253 -0.001
1135 253 -0.003
254 254 0.004
592 254 -0.001
1135 254 -0.003
255 255 0.004
592 255 -0.001
1135 255 -0.003
256 256 0.004
592 256 -0.001
1135 256 -0.003
257 257 1
257 258 0.001
258 258 1
259 259 1
259 260 0.001
260 260 1
258 261 1
260 261 -1
261 261 0.004504
264 261 -0.00349607
591 261 -0.00100793
262 262 1
262 263 0.001
263 263 1
258 264 -1
261 264 -0.00349607
263 264 1
264 264 0.00699215
270 264 -0.00349607
591 264 0
265 265 1
265 266 0.001
266 266 1
267 267 1
267 268 0.001
268 268 1
266 269 1
268 269 -1
269 269 0.004504
270 269 -0.00100793
271 269 -0.00349607
263 270 -1
264 270 -0.00349607
268 270 1
269 270 -0.00100793
270 270 0.004504
271 270 0
591 270 0
266 271 -1
269 271 -0.00349607
270 271 0
271 271 0.00549607
591 271 0
1135 271 -0.002
272 272 1
272 273 0.001
273 273 1
274 274 1
274 275 0.001
275 275 1
276 276 1
276 277 0.001
277 277 1
275 278 1
277 278 -1
278 278 0.00713686
281 278 -0.00164393
590 278 -0.00549293
279 279 1
279 280 0.001
280 280 1
277 281 1
278 281 -0.00164393
280 281 -1
281 281 0.00713686
290 281 -0.00549293
590 281 0
282 282 1
282 283 0.001
283 283 1
284 284 1
284 285 0.001
285 285 1
283 286 1
285 286 -1
286 286 0.00713686
289 286 -0.00164393
590 286 -0.00549293
287 287 1
287 288 0.001
288 288 1
285 289 1
286 289 -0.00164393
288 289 -1
289 289 0.00713686
290 289 -0.00549293
590 289 0
280 290 1
281 290 -0.00549293
288 290 1
289 290 -0.00549293
290 290 0.0109859
590 290 0
291 291 0.004
590 291 -0.001
1135 291 -0.003
292 292 0.004
589 292 -0.001
1135 292 -0.003
293 293 0.004
589 293 -0.001
1135 293 -0.003
294 294 0.004
589 294 -0.001
1135 294 -0.003
295 295 0.004
589 295 -0.001
1135 295 -0.003
296 296 0.004
589 296 -0.001
1135 296 -0.003
297 297 0.002
298 297 -0.002
298 298 -1
488 298 -1e-06
1133 298 1
299 299 0.002
300 299 -0.002
300 300 -1
487 300 -1e-06
1133 300 1
301 301 0.002
302 301 -0.002
302 302 -1
486 302 -1e-06
1133 302 1
303 303 0.002
304 303 -0.002
304 304 -1
485 304 -1e-06
1133 304 1
305 305 0.002
306 305 -0.002
306 306 -1
484 306 -1e-06
1133 306 1
307 307 0.002
308 307 -0.002
308 308 -1
483 308 -1e-06
1133 308 1
309 309 0.002
310 309 -0.002
310 310 -1
482 310 -1e-06
1133 310 1
311 311 0.002
312 311 -0.002
312 312 -1
481 312 -1e-06
1133 312 1
313 313 0.002
314 313 -0.002
314 314 -1
480 314 -1e-06
1133 314 1
315 315 0.002
316 315 -0.002
316 316 -1
479 316 -1e-06
1133 316 1
317 317 0.002
318 317 -0.002
318 318 -1
478 318 -1e-06
1133 318 1
319 319 0.002
320 319 -0.002
320 320 -1
477 320 -1e-06
1133 320 1
321 321 0.002
322 321 -0.002
322 322 -1
476 322 -1e-06
1133 322 1
323 323 0.002
324 323 -0.002
324 324 -1
475 324 -1e-06
1133 324 1
325 325 0.002
326 325 -0.002
326 326 -1
474 326 -1e-06
1133 326 1
327 327 0.002
328 327 -0.002
328 328 -1
473 328 -1e-06
1133 328 1
329 329 0.002
330 329 -0.002
330 330 -1
472 330 -1e-06
1133 330 1
331 331 0.002
332 331 -0.002
332 332 -1
471 332 -1e-06
1133 332 1
333 333 0.002
334 333 -0.002
334 334 -1
470 334 -1e-06
1133 334 1
335 335 0.002
336 335 -0.002
336 336 -1
469 336 -1e-06
1133 336 1
337 337 0.002
338 337 -0.002
338 338 -1
468 338 -1e-06
1133 338 1
339 339 0.002
340 339 -0.002
340 340 -1
467 340 -1e-06
1133 340 1
341 341 0.002
342 341 -0.002
342 342 -1
466 342 -1e-06
1133 342 1
343 343 0.002
344 343 -0.002
344 344 -1
465 344 -1e-06
1133 344 1
345 345 0.002
346 345 -0.002
346 346 -1
464 346 -1e-06
1133 346 1
347 347 0.002
348 347 -0.002
348 348 -1
463 348 -1e-06
1133 348 1
349 349 0.002
350 349 -0.002
350 350 -1
462 350 -1e-06
1133 350 1
351 351 0.002
352 351 -0.002
352 352 -1
461 352 -1e-06
1133 352 1
353 353 0.002
354 353 -0.002
354 354 -1
460 354 -1e-06
1133 354 1
355 355 0.002
356 355 -0.002
356 356 -1
459 356 -1e-06
1133 356 1
357 357 0.002
358 357 -0.002
358 358 -1
458 358 -1e-06
1133 358 1
359 359 0.002
360 359 -0.002
360 360 -1
457 360 -1e-06
1133 360 1
361 361 0.002
362 361 -0.002
362 362 -1
456 362 -1e-06
1133 362 1
363 363 0.002
364 363 -0.002
364 364 -1
455 364 -1e-06
1133 364 1
365 365 0.002
366 365 -0.002
366 366 -1
454 366 -1e-06
1133 366 1
367 367 0.002
368 367 -0.002
368 368 -1
453 368 -1e-06
1133 368 1
369 369 0.002
370 369 -0.002
370 370 -1
452 370 -1e-06
1133 370 1
371 371 0.002
372 371 -0.002
372 372 -1
451 372 -1e-06
1133 372 1
373 373 0.002
374 373 -0.002
374 374 -1
450 374 -1e-06
1133 374 1
375 375 0.002
376 375 -0.002
376 376 -1
449 376 -1e-06
1133 376 1
377 377 0.002
378 377 -0.002
378 378 -1
448 378 -1e-06
1133 378 1
379 379 0.002
380 379 -0.002
380 380 -1
447 380 -1e-06
1133 380 1
381 381 0.002
382 381 -0.002
382 382 -1
446 382 -1e-06
1133 382 1
383 383 0.002
384 383 -0.002
384 384 -1
445 384 -1e-06
1133 384 1
385 385 0.002
386 385 -0.002
386 386 -1
444 386 -1e-06
1133 386 1
387 387 0.002
388 387 -0.002
388 388 -1
443 388 -1e-06
1133 388 1
389 389 0.002
390 389 -0.002
390 390 -1
442 390 -1e-06
1133 390 1
391 391 0.002
392 391 -0.002
392 392 -1
441 392 -1e-06
1133 392 1
393 393 0.002
394 393 -0.002
394 394 -1
440 394 -1e-06
1133 394 1
395 395 0.002
396 395 -0.002
396 396 -1
439 396 -1e-06
1133 396 1
397 397 0.002
398 397 -0.002
398 398 -1
438 398 -1e-06
1133 398 1
399 399 0.002
400 399 -0.002
400 400 -1
437 400 -1e-06
1133 400 1
401 401 0.002
402 401 -0.002
402 402 -1
436 402 -1e-06
1133 402 1
403 403 0.002
404 403 -0.002
404 404 -1
435 404 -1e-06
1133 404 1
405 405 0.002
406 405 -0.002
406 406 -1
434 406 -1e-06
1133 406 1
407 407 0.002
408 407 -0.002
408 408 -1
433 408 -1e-06
1133 408 1
409 409 0.002
410 409 -0.002
410 410 -1
432 410 -1e-06
1133 410 1
411 411 0.002
412 411 -0.002
412 412 -1
431 412 -1e-06
1133 412 1
413 413 0.002
414 413 -0.002
414 414 -1
430 414 -1e-06
1133 414 1
415 415 0.002
416 415 -0.002
416 416 -1
429 416 -1e-06
1133 416 1
417 417 0.002
418 417 -0.002
418 418 -1
428 418 -1e-06
1133 418 1
419 419 0.002
420 419 -0.002
420 420 -1
427 420 -1e-06
1133 420 1
421 421 1
1133 421 -1
422 422 0.004
1133 422 -0.004
423 423 1
1133 423 -1
424 424 0.000373552
1133 424 -0.000373552
425 425 0.000373552
1133 425 -0.000373552
426 426 1e-05
1133 426 -1e-05
419 427 -0.002
420 427 0.002
427 427 -1
1133 427 0
417 428 -0.002
418 428 0.002
428 428 -1
1133 428 0
415 429 -0.002
416 429 0.002
429 429 -1
1133 429 0
413 430 -0.002
414 430 0.002
430 430 -1
1133 430 0
411 431 -0.002
412 431 0.002
431 431 -1
1133 431 0
409 432 -0.002
410 432 0.002
432 432 -1
1133 432 0
407 433 -0.002
408 433 0.002
433 433 -1
1133 433 0
405 434 -0.002
406 434 0.002
434 434 -1
1133 434 0
403 435 -0.002
404 435 0.002
435 435 -1
1133 435 0
401 436 -0.002
402 436 0.002
436 436 -1
1133 436 0
399 437 -0.002
400 437 0.002
437 437 -1
1133 437 0
397 438 -0.002
398 438 0.002
438 438 -1
1133 438 0
395 439 -0.002
396 439 0.002
439 439 -1
1133 439 0
393 440 -0.002
394 440 0.002
440 440 -1
1133 440 0
391 441 -0.002
392 441 0.002
441 441 -1
1133 441 0
389 442 -0.002
390 442 0.002
442 442 -1
1133 442 0
387 443 -0.002
388 443 0.002
443 443 -1
1133 443 0
385 444 -0.002
386 444 0.002
444 444 -1
1133 444 0
383 445 -0.002
384 445 0.002
445 445 -1
1133 445 0
381 446 -0.002
382 446 0.002
446 446 -1
1133 446 0
379 447 -0.002
380 447 0.002
447 447 -1
1133 447 0
377 448 -0.002
378 448 0.002
448 448 -1
1133 448 0
375 449 -0.002
376 449 0.002
449 449 -1
1133 449 0
373 450 -0.002
374 450 0.002
450 450 -1
1133 450 0
371 451 -0.002
372 451 0.002
451 451 -1
1133 451 0
369 452 -0.002
370 452 0.002
452 452 -1
1133 452 0
367 453 -0.002
368 453 0.002
453 453 -1
1133 453 0
365 454 -0.002
366 454 0.002
454 454 -1
1133 454 0
363 455 -0.002
364 455 0.002
455 455 -1
1133 455 0
361 456 -0.002
362 456 0.002
456 456 -1
1133 456 0
359 457 -0.002
360 457 0.002
457 457 -1
1133 457 0
357 458 -0.002
358 458 0.002
458 458 -1
1133 458 0
355 459 -0.002
356 459 0.002
459 459 -1
1133 459 0
353 460 -0.002
354 460 0.002
460 460 -1
1133 460 0
351 461 -0.002
352 461 0.002
461 461 -1
1133 461 0
349 462 -0.002
350 462 0.002
462 462 -1
1133 462 0
347 463 -0.002
348 463 0.002
463 463 -1
1133 463 0
345 464 -0.002
346 464 0.002
464 464 -1
1133 464 0
343 465 -0.002
344 465 0.002
465 465 -1
1133 465 0
341 466 -0.002
342 466 0.002
466 466 -1
1133 466 0
339 467 -0.002
340 467 0.002
467 467 -1
1133 467 0
337 468 -0.002
338 468 0.002
468 468 -1
1133 468 0
335 469 -0.002
336 469 0.002
469 469 -1
1133 469 0
333 470 -0.002
334 470 0.002
470 470 -1
1133 470 0
331 471 -0.002
332 471 0.002
471 471 -1
1133 471 0
329 472 -0.002
330 472 0.002
472 472 -1
1133 472 0
327 473 -0.002
328 473 0.002
473 473 -1
1133 473 0
325 474 -0.002
326 474 0.002
474 474 -1
1133 474 0
323 475 -0.002
324 475 0.002
475 475 -1
1133 475 0
321 476 -0.002
322 476 0.002
476 476 -1
1133 476 0
319 477 -0.002
320 477 0.002
477 477 -1
1133 477 0
317 478 -0.002
318 478 0.002
478 478 -1
1133 478 0
315 479 -0.002
316 479 0.002
479 479 -1
1133 479 0
313 480 -0.002
314 480 0.002
480 480 -1
1133 480 0
311 481 -0.002
312 481 0.002
481 481 -1
1133 481 0
309 482 -0.002
310 482 0.002
482 482 -1
1133 482 0
307 483 -0.002
308 483 0.002
483 483 -1
1133 483 0
305 484 -0.002
306 484 0.002
484 484 -1
1133 484 0
303 485 -0.002
304 485 0.002
485 485 -1
1133 485 0
301 486 -0.002
302 486 0.002
486 486 -1
1133 486 0
299 487 -0.002
300 487 0.002
487 487 -1
1133 487 0
297 488 -0.002
298 488 0.002
488 488 -1
1133 488 0
489 489 1
489 490 0.001
490 490 1
491 491 1
491 492 0.001
492 492 1
490 493 1
492 493 -1
493 493 0.00713686
496 493 -0.00164393
589 493 -0.00549293
494 494 1
494 495 0.001
495 495 1
492 496 1
493 496 -0.00164393
495 496 -1
496 496 0.00713686
515 496 -0.00549293
589 496 0
497 497 1
497 498 0.001
498 498 1
499 499 1
499 500 0.001
500 500 1
498 501 1
500 501 -1
501 501 0.00713686
504 501 -0.00164393
589 501 -0.00549293
502 502 1
502 503 0.001
503 503 1
500 504 1
501 504 -0.00164393
503 504 -1
504 504 0.00713686
515 504 -0.00549293
589 504 0
505 505 1
506 506 1
507 507 1
508 508 0.00549293
509 508 -1
511 508 -0.00549293
507 509 0.001
509 509 1
506 510 0.001
510 510 1
508 511 -0.00549293
509 511 1
510 511 -1
511 511 0.0065416
513 511 -0.00104867
505 512 0.001
512 512 1
510 513 1
511 513 -0.00104867
512 513 -1
513 513 0.0065416
514 513 -0.00549293
514 514 -1
515 514 1
495 515 1
496 515 -0.00549293
503 515 1
504 515 -0.00549293
515 515 0.0109859
516 515 1
589 515 0
512 516 1
513 516 -0.00549293
514 516 0.00749293
515 516 0
516 516 -1
589 516 0
1133 516 -0.002
517 517 0.004
518 517 -0.001
1135 517 -0.003
517 518 -0.001
518 518 0.004
519 518 -0.001
1135 518 -0.002
518 519 -0.001
519 519 0.004
588 519 -0.001
1135 519 -0.002
520 520 1
521 520 -2.19298
522 520 2.19298
521 521 3.19298
522 521 -2.19298
1133 521 -1
522 522 1
1133 522 -1
523 523 0.004
587 523 -0.001
1133 523 -0.003
524 524 0.004
586 524 -0.001
1135 524 -0.003
525 525 0.004
585 525 -0.001
1133 525 -0.003
526 526 1
526 527 0.001
527 527 1
528 528 1
528 529 0.001
529 529 1
527 530 1
529 530 -1
530 530 0.0115263
533 530 -0.00104118
534 530 -0.0104851
531 531 1
531 532 0.001
532 532 1
529 533 1
530 533 -0.00104118
532 533 -1
533 533 0.0115263
534 533 0
1133 533 -0.0104851
527 534 -1
530 534 -0.0104851
533 534 0
534 534 0.0124851
538 534 -0.001
1133 534 -0.001
535 535 0.004
538 535 -0.001
1133 535 -0.003
536 536 0.004
537 536 -0.001
1135 536 -0.003
536 537 -0.001
537 537 0.00400006
1133 537 -0.00200006
1135 537 -0.001
534 538 -0.001
535 538 -0.001
538 538 0.008
1133 538 -0.002
1135 538 -0.004
539 539 0.004
584 539 -0.001
1135 539 -0.003
540 540 0.004
584 540 -0.001
1135 540 -0.003
541 541 0.004
584 541 -0.001
1135 541 -0.003
542 542 0.004
584 542 -0.001
1135 542 -0.003
543 543 0.004
584 543 -0.001
1135 543 -0.003
544 544 0.004
584 544 -0.001
1135 544 -0.003
545 545 0.115743
582 545 -6.90863e-23
583 545 -0.001
584 545 -0.114743
546 546 1
546 547 0.001
547 547 1
548 548 1
548 549 0.001
549 549 1
547 550 1
549 550 -1
550 550 0.0115715
553 550 -0.00108646
556 550 -0.0104851
551 551 1
551 552 0.001
552 552 1
549 553 1
550 553 -0.00108646
552 553 -1
553 553 0.0115715
556 553 0
581 553 -0.0104851
554 554 1
554 555 0.001
555 555 1
547 556 -1
550 556 -0.0104851
553 556 0
555 556 1
556 556 0.0209702
562 556 -0.0104851
581 556 0
557 557 1
557 558 0.001
558 558 1
559 559 1
559 560 0.001
560 560 1
558 561 1
560 561 -1
561 561 0.0115715
562 561 -0.00108646
584 561 -0.0104851
555 562 -1
556 562 -0.0104851
560 562 1
561 562 -0.00108646
562 562 0.0115715
581 562 0
584 562 0
563 563 1
563 564 0.001
564 564 1
565 565 1
565 566 0.001
566 566 1
564 567 1
566 567 -1
567 567 0.0115715
570 567 -0.00108646
581 567 -0.0104851
568 568 1
568 569 0.001
569 569 1
566 570 1
567 570 -0.00108646
569 570 -1
570 570 0.0115715
580 570 -0.0104851
581 570 0
571 571 1
571 572 0.001
572 572 1
573 573 1
573 574 0.001
574 574 1
572 575 1
574 575 -1
575 575 0.0115136
578 575 -0.00102847
580 575 -0.0104851
576 576 1
576 577 0.001
577 577 1
574 578 1
575 578 -0.00102847
577 578 -1
578 578 0.0115136
579 578 -0.0104851
580 578 0
577 579 1
578 579 -0.0104851
579 579 0.0124851
580 579 0
1133 579 -0.002
569 580 1
570 580 -0.0104851
572 580 -1
575 580 -0.0104851
578 580 0
579 580 0
580 580 0.0229702
581 580 0
1133 580 -0.002
552 581 1
553 581 -0.0104851
556 581 0
562 581 0
564 581 -1
567 581 -0.0104851
570 581 0
580 581 0
581 581 0.0229702
584 581 0
1133 581 -0.002
545 582 -7.02074e-23
582 582 0.0534109
583 582 -0.001
584 582 0
1133 582 -0.0524109
545 583 -0.001
582 583 -0.001
583 583 0.00599716
584 583 0
1133 583 -0.00399716
539 584 -0.001
540 584 -0.001
541 584 -0.001
542 584 -0.001
543 584 -0.001
544 584 -0.001
545 584 -0.114743
558 584 -1
561 584 -0.0104851
562 584 0
581 584 0
582 584 0
583 584 0
584 584 0.137228
1133 584 0
1135 584 -0.006
525 585 -0.001
585 585 0.006
1133 585 -0.001
1135 585 -0.004
524 586 -0.001
586 586 0.006
1133 586 -0.004
1135 586 -0.001
523 587 -0.001
587 587 0.004
1133 587 -0.001
1135 587 -0.002
519 588 -0.001
588 588 0.004
1133 588 -0.002
1135 588 -0.001
292 589 -0.001
293 589 -0.001
294 589 -0.001
295 589 -0.001
296 589 -0.001
490 589 -1
493 589 -0.00549293
496 589 0
498 589 -1
501 589 -0.00549293
504 589 0
515 589 0
516 589 0
589 589 0.0229859
1133 589 -0.002
1135 589 -0.005
275 590 -1
278 590 -0.00549293
281 590 0
283 590 -1
286 590 -0.00549293
289 590 0
290 590 0
291 590 -0.001
590 590 0.0149859
1133 590 -0.002
1135 590 -0.001
260 591 1
261 591 -0.00100793
264 591 0
270 591 0
271 591 0
273 591 -1
591 591 0.004504
1133 591 -0.00349607
1135 591 0
152 592 -1
155 592 -0.0104851
158 592 0
160 592 -1
163 592 -0.0104851
166 592 0
179 592 -1
182 592 -0.0104851
183 592 0
202 592 0
204 592 -1
207 592 -0.0104851
210 592 0
212 592 -1
215 592 -0.0104851
218 592 0
220 592 -1
223 592 -0.0104851
226 592 0
248 592 0
249 592 0
250 592 0
251 592 0
252 592 -0.001
253 592 -0.001
254 592 -0.001
255 592 -0.001
256 592 -0.001
592 592 0.0729105
1133 592 0
1135 592 -0.005
593 593 0.004
1133 593 -0.002
1135 593 -0.002
594 594 0.004
1133 594 -0.002
1135 594 -0.002
595 595 0.004
1133 595 -0.002
1135 595 -0.002
596 596 0.004
1133 596 -0.002
1135 596 -0.002
597 597 0.004
1133 597 -0.002
1135 597 -0.002
598 598 0.004
1133 598 -0.002
1135 598 -0.002
599 599 0.004
1133 599 -0.002
1135 599 -0.002
600 600 0.004
1133 600 -0.002
1135 600 -0.002
601 601 0.004
1133 601 -0.002
1135 601 -0.002
602 602 0.004
1133 602 -0.002
1135 602 -0.002
603 603 0.004
1133 603 -0.002
1135 603 -0.002
604 604 0.004
1133 604 -0.002
1135 604 -0.002
605 605 0.004
1133 605 -0.002
1135 605 -0.002
606 606 0.004
1133 606 -0.002
1135 606 -0.002
607 607 0.004
1133 607 -0.002
1135 607 -0.002
608 608 0.004
1133 608 -0.002
1135 608 -0.002
609 609 0.004
1133 609 -0.002
1135 609 -0.002
610 610 0.004
1133 610 -0.002
1135 610 -0.002
611 611 0.004
1133 611 -0.002
1135 611 -0.002
612 612 0.004
1133 612 -0.002
1135 612 -0.002
613 613 0.004
1133 613 -0.002
1135 613 -0.002
614 614 0.004
1133 614 -0.002
1135 614 -0.002
615 615 0.004
1133 615 -0.002
1135 615 -0.002
616 616 0.004
1133 616 -0.002
1135 616 -0.002
617 617 0.004
1133 617 -0.002
1135 617 -0.002
618 618 0.004
1133 618 -0.002
1135 618 -0.002
619 619 0.004
1133 619 -0.002
1135 619 -0.002
620 620 0.004
1133 620 -0.002
1135 620 -0.002
621 621 0.004
1133 621 -0.002
1135 621 -0.002
622 622 0.004
1133 622 -0.002
1135 622 -0.002
623 623 0.004
1133 623 -0.002
1135 623 -0.002
624 624 0.004
1133 624 -0.002
1135 624 -0.002
625 625 0.004
1133 625 -0.002
1135 625 -0.002
626 626 0.004
1133 626 -0.002
1135 626 -0.002
627 627 0.004
1133 627 -0.002
1135 627 -0.002
628 628 0.006
1133 628 -0.004
1135 628 -0.002
150 629 -0.00100117
629 629 0.00400117
630 629 0
1133 629 -0.001
1135 629 -0.002
142 630 -1
145 630 -0.0104851
149 630 0
150 630 -0.00100117
629 630 0
630 630 0.0144863
1133 630 -0.001
1135 630 -0.002
631 631 0.004
1133 631 -0.002
1135 631 -0.002
632 632 0.004
1133 632 -0.002
1135 632 -0.002
633 633 8.99281e-05
635 633 -8.99281e-05
633 634 -8.99281e-05
634 634 1
635 634 8.99281e-05
635 635 1
668 635 -1
636 636 1
636 637 0.001
637 637 1
638 638 1
638 639 0.001
639 639 1
637 640 1
639 640 -1
640 640 0.00550267
643 640 -0.00100817
656 640 -0.0044945
641 641 1
641 642 0.001
642 642 1
639 643 1
640 643 -0.00100817
642 643 -1
643 643 0.00550267
653 643 -0.0044945
656 643 0
644 644 1
644 645 0.001
645 645 1
646 646 1
646 647 0.001
647 647 1
645 648 1
647 648 -1
648 648 0.00551092
652 648 -0.00101642
653 648 -0.0044945
649 649 2.00963
667 649 -2.00963
650 650 1
650 651 0.001
651 651 1
647 652 1
648 652 -0.00101642
651 652 -1
652 652 0.00551092
653 652 0
667 652 -0.0044945
642 653 1
643 653 -0.0044945
645 653 -1
648 653 -0.0044945
652 653 0
653 653 0.012989
656 653 -0.002
667 653 -0.002
654 654 1
654 655 0.001
655 655 1
637 656 -1
640 656 -0.0044945
643 656 0
653 656 -0.002
655 656 1
656 656 0.0189796
662 656 -0.0104851
667 656 -0.002
657 657 1
657 658 0.001
658 658 1
659 659 1
659 660 0.001
660 660 1
658 661 1
660 661 -1
661 661 0.0120516
662 661 -0.00156657
668 661 -0.0104851
655 662 -1
656 662 -0.0104851
660 662 1
661 662 -0.00156657
662 662 0.0120516
667 662 0
668 662 0
663 663 -1
664 663 0.000494604
665 663 -0.000494604
664 664 -1
667 664 1
665 665 1
1136 665 -1
664 666 -0.000494604
665 666 0.000494604
666 666 1
667 666 0
1136 666 0
649 667 -2.00963
651 667 1
652 667 -0.0044945
653 667 -0.002
656 667 -0.002
662 667 0
663 667 1
664 667 0
665 667 0
667 667 2.02013
668 667 0
1135 667 -0.002
1136 667 0
634 668 -1
635 668 0
658 668 -1
661 668 -0.0104851
662 668 0
667 668 0
668 668 0.0164851
1133 668 -0.002
1135 668 -0.004
1136 668 0
669 669 1
1066 669 -1
669 670 1e-09
670 670 1
1066 670 0
671 671 1
1066 671 -1
671 672 6.59473e-06
672 672 1
1066 672 0
1136 672 -6.59473e-06
673 673 1
674 673 0.002
688 673 -0.002
674 674 1
678 674 -1
675 675 1
676 675 0.002
688 675 -0.002
676 676 1
677 676 -1
675 677 -1
676 677 0
677 677 0.002
688 677 0
1133 677 -0.002
673 678 -1
674 678 0
678 678 0.002
688 678 0
1133 678 -0.002
679 679 -1
680 679 0.002
1133 679 -0.002
680 680 -1
681 680 1
679 681 1
680 681 0
681 681 0.004
682 681 -0.001
683 681 -0.001
1133 681 -0.002
681 682 -0.001
682 682 0.004
683 682 0
688 682 -0.002
1133 682 -0.001
681 683 -0.001
682 683 0
683 683 0.004
688 683 -0.002
1133 683 -0.001
684 684 0.004
688 684 -0.002
1133 684 -0.002
685 685 0.004
688 685 -0.002
1133 685 -0.002
686 686 0.004
688 686 -0.002
1133 686 -0.002
687 687 0.004
688 687 -0.002
1133 687 -0.002
688 688 -1
1134 688 1
689 689 0.004
692 689 -0.001
696 689 -0.003
690 690 0.00400001
691 690 -0.001
1133 690 -0.003
690 691 -0.001
691 691 0.006
696 691 -0.004
1133 691 -0.001
689 692 -0.001
692 692 0.006
696 692 -0.001
1133 692 -0.004
693 693 0.004
696 693 -0.002
1133 693 -0.002
694 694 0.004
696 694 -0.002
1133 694 -0.002
695 695 0.004
696 695 -0.002
1133 695 -0.002
696 696 -1
1134 696 1
697 697 1e-05
730 697 -1e-05
698 698 1e-05
729 698 -1e-05
699 699 1
701 699 -1
699 700 3.95684e-05
700 700 1
701 700 0
728 700 -3.95684e-05
700 701 -1
701 701 0.002
728 701 0
1134 701 -0.002
702 702 6.59473e-06
707 702 -6.59473e-06
703 703 6.59473e-06
705 703 -6.59473e-06
703 704 -6.59473e-06
704 704 1
705 704 6.59473e-06
705 705 1
728 705 -1
702 706 -6.59473e-06
706 706 1
707 706 6.59473e-06
707 707 1
728 707 -1
708 708 1
709 708 1.31895e-05
1133 708 -1.31895e-05
709 709 1
728 709 -1
710 710 1
710 711 0.001
711 711 1
712 712 1
712 713 0.001
713 713 1
711 714 1
713 714 -1
714 714 0.0065416
717 714 -0.00104867
727 714 -0.00549293
715 715 1
715 716 0.001
716 716 1
713 717 1
714 717 -0.00104867
716 717 -1
717 717 0.0065416
718 717 -0.00549293
727 717 0
716 718 1
717 718 -0.00549293
718 718 0.00749293
727 718 0
1133 718 -0.002
719 719 1
720 719 -2.19298
721 719 2.19298
720 720 3.19298
721 720 -2.19298
1134 720 -1
721 721 1
1134 721 -1
722 722 0.004
727 722 -0.001
1134 722 -0.003
723 723 -1
724 723 0.002
1133 723 -0.002
724 724 -1
726 724 1
725 725 0.00400001
726 725 -0.001
1134 725 -0.00300001
723 726 1
724 726 0
725 726 -0.001
726 726 0.002
1133 726 0
1134 726 -0.001
711 727 -1
714 727 -0.00549293
717 727 0
718 727 0
722 727 -0.001
727 727 0.00749293
1133 727 0
1134 727 -0.001
699 728 -3.95684e-05
701 728 0
704 728 -1
705 728 0
706 728 -1
707 728 0
708 728 -1
709 728 0
728 728 3.95684e-05
1133 728 0
1134 728 0
698 729 -1e-05
729 729 0.00401
1133 729 -0.002
1134 729 -0.002
697 730 -1e-05
730 730 0.00401
1133 730 -0.002
1134 730 -0.002
731 731 -1
822 731 1
732 732 -1
735 732 1
733 733 -1
734 734 -1
735 735 -3.07797
736 735 3.07797
939 735 -1
733 736 1
735 736 3.07797
736 736 -3.07797
939 736 0
737 737 -1
738 738 -1
739 738 1
737 739 1
739 739 1.53899
741 739 -1.53899
739 740 -1.53899
740 740 -1
741 740 1.53899
741 741 -1
822 741 1
742 742 -1
743 743 -1
744 743 1
742 744 1
744 744 1.53899
746 744 -1.53899
744 745 -1.53899
745 745 -1
746 745 1.53899
746 746 -1
822 746 1
747 747 1
747 748 -1e-06
748 748 1
822 748 -1
749 749 1
749 750 -1e-06
750 750 1
822 750 -1
751 751 1
751 752 -1e-06
752 752 1
822 752 -1
753 753 1
753 754 -1e-06
754 754 1
822 754 -1
755 755 1
755 756 -1e-06
756 756 1
822 756 -1
757 757 1
757 758 -1e-06
758 758 1
822 758 -1
759 759 1
759 760 -1e-06
760 760 1
822 760 -1
761 761 1
761 762 -1e-06
762 762 1
822 762 -1
763 763 1
763 764 -1e-06
764 764 1
822 764 -1
765 765 1
765 766 -1e-06
766 766 1
822 766 -1
767 767 1
767 768 -1e-06
768 768 1
822 768 -1
769 769 1
769 770 -1e-06
770 770 1
822 770 -1
771 771 1
771 772 -1e-06
772 772 1
822 772 -1
773 773 1
773 774 -1e-06
774 774 1
822 774 -1
775 775 1
775 776 -1e-06
776 776 1
822 776 -1
777 777 1
777 778 -1e-06
778 778 1
822 778 -1
779 779 1
779 780 -1e-06
780 780 1
822 780 -1
781 781 1
781 782 -1e-06
782 782 1
822 782 -1
783 783 1
783 784 -1e-06
784 784 1
822 784 -1
785 785 1
785 786 -1e-06
786 786 1
822 786 -1
787 787 1
787 788 -1e-06
788 788 1
822 788 -1
789 789 1
789 790 -1e-06
790 790 1
822 790 -1
791 791 1
791 792 -1e-06
792 792 1
822 792 -1
793 793 1
793 794 -1e-06
794 794 1
822 794 -1
795 795 1
795 796 -1e-06
796 796 1
822 796 -1
797 797 1
797 798 -1e-06
798 798 1
822 798 -1
799 799 1
799 800 -1e-06
800 800 1
822 800 -1
801 801 1
801 802 -1e-06
802 802 1
822 802 -1
803 803 1
803 804 -1e-06
804 804 1
822 804 -1
805 805 1
805 806 -1e-06
806 806 1
822 806 -1
807 807 1
807 808 -1e-06
808 808 1
822 808 -1
809 809 -1
810 809 0.0643993
940 809 -0.0643993
810 810 -1
822 810 1
811 811 1
812 812 -1e-06
813 812 1
822 812 -1
813 813 1
816 813 -1e-06
822 813 -1
813 814 1
814 814 -1e-06
816 814 0
822 814 -1
813 815 1
815 815 -1e-06
816 815 0
822 815 -1
812 816 1
813 816 0
814 816 1
815 816 1
816 816 1
822 816 0
817 817 -1e-06
818 817 1
822 817 -1
818 818 1
821 818 -1e-06
822 818 -1
818 819 1
819 819 -1e-06
821 819 0
822 819 -1
818 820 1
820 820 -1e-06
821 820 0
822 820 -1
817 821 1
818 821 0
819 821 1
820 821 1
821 821 1
822 821 0
736 822 -1
822 822 1
939 822 0
823 823 -1
913 823 1
824 824 -1
827 824 1
825 825 -1
826 826 -1
827 827 -3.07797
828 827 3.07797
938 827 -1
825 828 1
827 828 3.07797
828 828 -3.07797
938 828 0
829 829 -1
830 830 -1
831 830 1
829 831 1
831 831 1.53899
833 831 -1.53899
831 832 -1.53899
832 832 -1
833 832 1.53899
833 833 -1
913 833 1
834 834 -1
835 835 -1
836 835 1
834 836 1
836 836 1.53899
838 836 -1.53899
836 837 -1.53899
837 837 -1
838 837 1.53899
838 838 -1
913 838 1
839 839 1
839 840 -1e-06
840 840 1
913 840 -1
841 841 1
841 842 -1e-06
842 842 1
913 842 -1
843 843 1
843 844 -1e-06
844 844 1
913 844 -1
845 845 1
845 846 -1e-06
846 846 1
913 846 -1
847 847 1
847 848 -1e-06
848 848 1
913 848 -1
849 849 1
849 850 -1e-06
850 850 1
913 850 -1
851 851 1
851 852 -1e-06
852 852 1
913 852 -1
853 853 1
853 854 -1e-06
854 854 1
913 854 -1
855 855 1
855 856 -1e-06
856 856 1
913 856 -1
857 857 1
857 858 -1e-06
858 858 1
913 858 -1
859 859 1
859 860 -1e-06
860 860 1
913 860 -1
861 861 1
861 862 -1e-06
862 862 1
913 862 -1
863 863 1
863 864 -1e-06
864 864 1
913 864 -1
865 865 1
865 866 -1e-06
866 866 1
913 866 -1
867 867 1
867 868 -1e-06
868 868 1
913 868 -1
869 869 1
869 870 -1e-06
870 870 1
913 870 -1
871 871 1
871 872 -1e-06
872 872 1
913 872 -1
873 873 1
873 874 -1e-06
874 874 1
913 874 -1
875 875 1
875 876 -1e-06
876 876 1
913 876 -1
877 877 1
877 878 -1e-06
878 878 1
913 878 -1
879 879 1
879 880 -1e-06
880 880 1
913 880 -1
881 881 1
881 882 -1e-06
882 882 1
913 882 -1
883 883 1
883 884 -1e-06
884 884 1
913 884 -1
885 885 1
885 886 -1e-06
886 886 1
913 886 -1
887 887 1
887 888 -1e-06
888 888 1
913 888 -1
889 889 1
889 890 -1e-06
890 890 1
913 890 -1
891 891 1
891 892 -1e-06
892 892 1
913 892 -1
893 893 1
893 894 -1e-06
894 894 1
913 894 -1
895 895 1
895 896 -1e-06
896 896 1
913 896 -1
897 897 1
897 898 -1e-06
898 898 1
913 898 -1
899 899 1
899 900 -1e-06
900 900 1
913 900 -1
901 901 -1
902 901 0.0643993
940 901 -0.0643993
902 902 -1
913 902 1
903 903 -1e-06
904 903 1
913 903 -1
904 904 1
907 904 -1e-06
913 904 -1
904 905 1
905 905 -1e-06
907 905 0
913 905 -1
904 906 1
906 906 -1e-06
907 906 0
913 906 -1
903 907 1
904 907 0
905 907 1
906 907 1
907 907 1
913 907 0
908 908 -1e-06
909 908 1
913 908 -1
909 909 1
912 909 -1e-06
913 909 -1
909 910 1
910 910 -1e-06
912 910 0
913 910 -1
909 911 1
911 911 -1e-06
912 911 0
913 911 -1
908 912 1
909 912 0
910 912 1
911 912 1
912 912 1
913 912 0
828 913 -1
913 913 1
938 913 0
914 914 0.002
934 914 -0.002
915 915 0.002
929 915 -0.002
916 916 0.002
924 916 -0.002
917 917 0.002
919 917 -0.002
918 918 -1e-06
919 918 -1
1133 918 1
919 919 -1
922 919 -1e-06
1133 919 1
919 920 -1
920 920 -1e-06
922 920 0
1133 920 1
919 921 -1
921 921 -1e-06
922 921 0
1133 921 1
917 922 -0.002
918 922 -1
919 922 0.002
920 922 -1
921 922 -1
922 922 -1
1133 922 0
923 923 -1e-06
924 923 -1
1133 923 1
924 924 -1
927 924 -1e-06
1133 924 1
924 925 -1
925 925 -1e-06
927 925 0
1133 925 1
924 926 -1
926 926 -1e-06
927 926 0
1133 926 1
916 927 -0.002
923 927 -1
924 927 0.002
925 927 -1
926 927 -1
927 927 -1
1133 927 0
928 928 -1e-06
929 928 -1
1133 928 1
929 929 -1
932 929 -1e-06
1133 929 1
929 930 -1
930 930 -1e-06
932 930 0
1133 930 1
929 931 -1
931 931 -1e-06
932 931 0
1133 931 1
915 932 -0.002
928 932 -1
929 932 0.002
930 932 -1
931 932 -1
932 932 -1
1133 932 0
933 933 -1e-06
934 933 -1
1133 933 1
934 934 -1
937 934 -1e-06
1133 934 1
934 935 -1
935 935 -1e-06
937 935 0
1133 935 1
934 936 -1
936 936 -1e-06
937 936 0
1133 936 1
914 937 -0.002
933 937 -1
934 937 0.002
935 937 -1
936 937 -1
937 937 -1
1133 937 0
811 938 1
822 938 -0.0005
826 938 1
832 938 1
833 938 0
837 938 1
838 938 0
839 938 -1
841 938 -1
843 938 -1
845 938 -1
847 938 -1
849 938 -1
851 938 -1
853 938 -1
855 938 -1
857 938 -1
859 938 -1
861 938 -1
863 938 -1
865 938 -1
867 938 -1
869 938 -1
871 938 -1
873 938 -1
875 938 -1
877 938 -1
879 938 -1
881 938 -1
883 938 -1
885 938 -1
887 938 -1
889 938 -1
891 938 -1
893 938 -1
895 938 -1
897 938 -1
899 938 -1
901 938 1
902 938 0
903 938 -1
904 938 0
905 938 -1
906 938 -1
907 938 -1
908 938 -1
909 938 0
910 938 -1
911 938 -1
912 938 -1
913 938 0.0025
938 938 1
939 938 0
940 938 0
1133 938 -0.002
734 939 1
740 939 1
741 939 0
745 939 1
746 939 0
747 939 -1
749 939 -1
751 939 -1
753 939 -1
755 939 -1
757 939 -1
759 939 -1
761 939 -1
763 939 -1
765 939 -1
767 939 -1
769 939 -1
771 939 -1
773 939 -1
775 939 -1
777 939 -1
779 939 -1
781 939 -1
783 939 -1
785 939 -1
787 939 -1
789 939 -1
791 939 -1
793 939 -1
795 939 -1
797 939 -1
799 939 -1
801 939 -1
803 939 -1
805 939 -1
807 939 -1
809 939 1
810 939 0
811 939 -1
812 939 -1
813 939 0
814 939 -1
815 939 -1
816 939 -1
817 939 -1
818 939 0
819 939 -1
820 939 -1
821 939 -1
822 939 0.0025
913 939 -0.0005
938 939 0
939 939 1
940 939 0
1133 939 -0.002
810 940 -0.0643993
822 940 0
902 940 -0.0643993
913 940 0
938 940 0
939 940 0
940 940 0.128799
945 940 -1
1133 940 0
941 941 0.00400003
944 941 -0.00200001
1134 941 -0.00200001
942 942 0.00400009
944 942 -0.00200004
1134 942 -0.00200004
943 943 0.00400006
944 943 -0.00200003
1134 943 -0.00200003
940 944 -1
944 944 1
945 944 0
1133 944 0
941 945 -0.00200001
942 945 -0.00200004
943 945 -0.00200003
944 945 0.00600009
945 945 1
1133 945 0
1134 945 0
946 946 0.004
1133 946 -0.002
1134 946 -0.002
689 947 -0.003
691 947 -0.004
692 947 -0.001
693 947 -0.002
694 947 -0.002
695 947 -0.002
696 947 0.014
947 947 -1
1133 947 0
1134 947 0
674 948 -0.002
676 948 -0.002
677 948 0
678 948 0
682 948 -0.002
683 948 -0.002
684 948 -0.002
685 948 -0.002
686 948 -0.002
687 948 -0.002
688 948 0.016
948 948 -1
1133 948 0
1134 948 0
949 949 0.004
1133 949 -0.002
1134 949 -0.002
950 950 0.004
1133 950 -0.002
1134 950 -0.002
951 951 0.004
1133 951 -0.002
1134 951 -0.002
952 952 0.004
1133 952 -0.002
1134 952 -0.002
953 953 0.004
1133 953 -0.002
1134 953 -0.002
954 954 0.004
1133 954 -0.002
1134 954 -0.002
955 955 0.004
1133 955 -0.002
1134 955 -0.002
956 956 0.004
1133 956 -0.002
1134 956 -0.002
957 957 0.004
1133 957 -0.002
1134 957 -0.002
958 958 0.004
1133 958 -0.002
1134 958 -0.002
959 959 0.004
1133 959 -0.002
1134 959 -0.002
960 960 0.004
1133 960 -0.002
1134 960 -0.002
961 961 0.004
1133 961 -0.002
1134 961 -0.002
962 962 0.004
1133 962 -0.002
1134 962 -0.002
963 963 0.004
1133 963 -0.002
1134 963 -0.002
964 964 0.004
1133 964 -0.002
1134 964 -0.002
965 965 0.004
1133 965 -0.002
1134 965 -0.002
966 966 0.004
1133 966 -0.002
1134 966 -0.002
967 967 0.004
1133 967 -0.002
1134 967 -0.002
968 968 0.004
1133 968 -0.002
1134 968 -0.002
969 969 0.004
1133 969 -0.002
1134 969 -0.002
970 970 0.004
1133 970 -0.002
1134 970 -0.002
971 971 0.004
1133 971 -0.002
1134 971 -0.002
972 972 0.004
1133 972 -0.002
1134 972 -0.002
973 973 0.004
1133 973 -0.002
1134 973 -0.002
974 974 0.004
1133 974 -0.002
1134 974 -0.002
975 975 0.004
1133 975 -0.002
1134 975 -0.002
976 976 0.004
1133 976 -0.002
1134 976 -0.002
977 977 0.004
1133 977 -0.002
1134 977 -0.002
978 978 0.004
1133 978 -0.002
1134 978 -0.002
979 979 0.004
1133 979 -0.002
1134 979 -0.002
980 980 0.004
1133 980 -0.002
1134 980 -0.002
981 981 0.004
1133 981 -0.002
1134 981 -0.002
982 982 0.004
1133 982 -0.002
1134 982 -0.002
983 983 0.004
1133 983 -0.002
1134 983 -0.002
984 984 0.004
1133 984 -0.002
1134 984 -0.002
985 985 0.004
1133 985 -0.002
1134 985 -0.002
986 986 0.004
1133 986 -0.002
1134 986 -0.002
987 987 0.004
1133 987 -0.002
1134 987 -0.002
988 988 0.004
1133 988 -0.002
1134 988 -0.002
989 989 0.004
1133 989 -0.002
1134 989 -0.002
990 990 0.004
1133 990 -0.002
1134 990 -0.002
991 991 0.004
1133 991 -0.002
1134 991 -0.002
992 992 0.004
1133 992 -0.002
1134 992 -0.002
993 993 0.004
1133 993 -0.002
1134 993 -0.002
994 994 0.004
1133 994 -0.002
1134 994 -0.002
995 995 0.004
1133 995 -0.002
1134 995 -0.002
996 996 0.004
1133 996 -0.002
1134 996 -0.002
997 997 0.004
1133 997 -0.002
1134 997 -0.002
998 998 0.004
1133 998 -0.002
1134 998 -0.002
999 999 0.004
1133 999 -0.002
1134 999 -0.002
1000 1000 0.004
1133 1000 -0.002
1134 1000 -0.002
1001 1001 0.004
1133 1001 -0.002
1134 1001 -0.002
1002 1002 0.004
1133 1002 -0.002
1134 1002 -0.002
1003 1003 0.004
1133 1003 -0.002
1134 1003 -0.002
1004 1004 0.004
1133 1004 -0.002
1134 1004 -0.002
1005 1005 0.004
1133 1005 -0.002
1134 1005 -0.002
1006 1006 0.004
1133 1006 -0.002
1134 1006 -0.002
1007 1007 0.004
1133 1007 -0.002
1134 1007 -0.002
1008 1008 0.004
1133 1008 -0.002
1134 1008 -0.002
1009 1009 0.004
1133 1009 -0.002
1134 1009 -0.002
1010 1010 0.004
1133 1010 -0.002
1134 1010 -0.002
1011 1011 0.004
1133 1011 -0.002
1134 1011 -0.002
1012 1012 0.004
1133 1012 -0.002
1134 1012 -0.002
1013 1013 0.004
1133 1013 -0.002
1134 1013 -0.002
1014 1014 0.004
1133 1014 -0.002
1134 1014 -0.002
1015 1015 0.004
1133 1015 -0.002
1134 1015 -0.002
1016 1016 0.004
1133 1016 -0.002
1134 1016 -0.002
1017 1017 0.004
1133 1017 -0.002
1134 1017 -0.002
1018 1018 0.004
1133 1018 -0.002
1134 1018 -0.002
1019 1019 0.004
1133 1019 -0.002
1134 1019 -0.002
1020 1020 0.004
1133 1020 -0.002
1134 1020 -0.002
1021 1021 0.004
1133 1021 -0.002
1134 1021 -0.002
1022 1022 0.004
1133 1022 -0.002
1134 1022 -0.002
1023 1023 0.004
1133 1023 -0.002
1134 1023 -0.002
1024 1024 0.004
1133 1024 -0.002
1134 1024 -0.002
1025 1025 0.004
1133 1025 -0.002
1134 1025 -0.002
1026 1026 0.004
1133 1026 -0.002
1134 1026 -0.002
1027 1027 0.004
1133 1027 -0.002
1134 1027 -0.002
1028 1028 0.004
1133 1028 -0.002
1134 1028 -0.002
1029 1029 0.004
1133 1029 -0.002
1134 1029 -0.002
1030 1030 0.004
1133 1030 -0.002
1134 1030 -0.002
1031 1031 0.004
1133 1031 -0.002
1134 1031 -0.002
1032 1032 0.004
1133 1032 -0.002
1134 1032 -0.002
1033 1033 0.004
1133 1033 -0.002
1134 1033 -0.002
1034 1034 0.004
1062 1034 -0.002
1065 1034 -0.002
1035 1035 0.004
1062 1035 -0.002
1065 1035 -0.002
1036 1036 0.004
1062 1036 -0.002
1065 1036 -0.002
1037 1037 0.004
1062 1037 -0.002
1065 1037 -0.002
1038 1038 0.004
1046 1038 -0.001
1065 1038 -0.003
1039 1039 0.004
1046 1039 -0.001
1048 1039 -0.003
1040 1040 0.004
1045 1040 -0.001
1065 1040 -0.003
1041 1041 0.004
1045 1041 -0.001
1048 1041 -0.003
1042 1042 0.004
1048 1042 -0.002
1065 1042 -0.002
1043 1043 0.004
1048 1043 -0.002
1065 1043 -0.002
1044 1044 0.008
1045 1044 -0.002
1048 1044 -0.003
1065 1044 -0.003
1040 1045 -0.001
1041 1045 -0.001
1044 1045 -0.002
1045 1045 0.008
1048 1045 -0.002
1065 1045 -0.002
1038 1046 -0.001
1039 1046 -0.001
1046 1046 0.008
1048 1046 -0.002
1049 1046 -0.002
1065 1046 -0.002
1039 1047 -0.003
1041 1047 -0.003
1042 1047 -0.002
1043 1047 -0.002
1044 1047 -0.003
1045 1047 -0.002
1046 1047 -0.002
1047 1047 -1
1048 1047 0.018
1049 1047 -0.001
1065 1047 0
1048 1048 -1
1062 1048 1
1046 1049 -0.002
1048 1049 -0.001
1049 1049 0.008
1062 1049 -0.002
1065 1049 -0.003
1050 1050 0.004
1058 1050 -0.001
1065 1050 -0.003
1051 1051 0.004
1058 1051 -0.001
1060 1051 -0.003
1052 1052 0.004
1057 1052 -0.001
1065 1052 -0.003
1053 1053 0.004
1057 1053 -0.001
1060 1053 -0.003
1054 1054 0.004
1060 1054 -0.002
1065 1054 -0.002
1055 1055 0.004
1060 1055 -0.002
1065 1055 -0.002
1056 1056 0.008
1057 1056 -0.002
1060 1056 -0.003
1065 1056 -0.003
1052 1057 -0.001
1053 1057 -0.001
1056 1057 -0.002
1057 1057 0.008
1060 1057 -0.002
1065 1057 -0.002
1050 1058 -0.001
1051 1058 -0.001
1058 1058 0.008
1060 1058 -0.002
1061 1058 -0.002
1065 1058 -0.002
1051 1059 -0.003
1053 1059 -0.003
1054 1059 -0.002
1055 1059 -0.002
1056 1059 -0.003
1057 1059 -0.002
1058 1059 -0.002
1059 1059 -1
1060 1059 0.018
1061 1059 -0.001
1065 1059 0
1060 1060 -1
1062 1060 1
1058 1061 -0.002
1060 1061 -0.001
1061 1061 0.008
1062 1061 -0.002
1065 1061 -0.003
1062 1062 1
1134 1062 -1
1034 1063 -0.002
1035 1063 -0.002
1036 1063 -0.002
1037 1063 -0.002
1047 1063 1
1048 1063 0
1049 1063 -0.002
1059 1063 1
1060 1063 0
1061 1063 -0.002
1062 1063 0.012
1063 1063 1
1065 1063 0
1134 1063 0
1034 1064 -0.002
1035 1064 -0.002
1036 1064 -0.002
1037 1064 -0.002
1038 1064 -0.003
1040 1064 -0.003
1042 1064 -0.002
1043 1064 -0.002
1044 1064 -0.003
1045 1064 -0.002
1046 1064 -0.002
1048 1064 0
1049 1064 -0.003
1050 1064 -0.003
1052 1064 -0.003
1054 1064 -0.002
1055 1064 -0.002
1056 1064 -0.003
1057 1064 -0.002
1058 1064 -0.002
1060 1064 0
1061 1064 -0.003
1062 1064 0
1064 1064 1
1065 1064 0.048
1134 1064 0
1065 1065 1
1133 1065 -1
670 1066 -1
672 1066 -1
1066 1066 0.004
1133 1066 -0.001
1134 1066 -0.001
1136 1066 -0.002
1067 1067 1
1083 1067 -1
1067 1068 1e-09
1068 1068 1
1083 1068 0
1069 1069 1
1083 1069 -1
1069 1070 3.29736e-06
1070 1070 1
1083 1070 0
1132 1070 -3.29736e-06
1071 1071 1.02564
1080 1071 -1.02564
1072 1072 1.02564
1080 1072 -1.02564
1073 1073 0.512821
1078 1073 -0.512821
1074 1074 0.512821
1078 1074 -0.512821
1075 1075 0.512821
1079 1075 -0.512821
1076 1076 0.512821
1079 1076 -0.512821
1075 1077 -0.512821
1076 1077 -0.512821
1077 1077 1
1078 1077 -0.00200002
1079 1077 1.03764
1080 1077 -0.00400003
1133 1077 -0.003
1134 1077 -0.003
1073 1078 -0.512821
1074 1078 -0.512821
1078 1078 1.03164
1079 1078 -0.00200002
1133 1078 -0.00300001
1134 1078 -0.001
1079 1079 1
1071 1080 -1.02564
1072 1080 -1.02564
1079 1080 -0.00400003
1080 1080 2.06128
1133 1080 -0.00400002
1134 1080 -0.002
1081 1081 0.004
1083 1081 -0.001
1133 1081 -0.001
1134 1081 -0.002
1082 1082 0.004
1083 1082 -0.001
1133 1082 -0.001
1134 1082 -0.002
1068 1083 -1
1070 1083 -1
1081 1083 -0.001
1082 1083 -0.001
1083 1083 0.008
1132 1083 -0.002
1133 1083 -0.003
1134 1083 -0.001
1084 1084 -1
1085 1084 0.000494604
1086 1084 -0.000494604
1085 1085 -1
1131 1085 1
1086 1086 1
1132 1086 -1
1085 1087 -0.000494604
1086 1087 0.000494604
1087 1087 1
1131 1087 0
1132 1087 0
1088 1088 1
1088 1089 0.001
1089 1089 1
1090 1090 1
1090 1091 0.001
1091 1091 1
1089 1092 1
1091 1092 -1
1092 1092 0.00550482
1095 1092 -0.00101032
1131 1092 -0.0044945
1093 1093 1
1093 1094 0.001
1094 1094 1
1091 1095 1
1092 1095 -0.00101032
1094 1095 -1
1095 1095 0.00550482
1113 1095 -0.0044945
1131 1095 0
1096 1096 1
1096 1097 0.001
1097 1097 1
1098 1098 1
1098 1099 0.001
1099 1099 1
1097 1100 1
1099 1100 -1
1100 1100 0.00550482
1103 1100 -0.0044945
1111 1100 -0.00101032
1101 1101 1
1101 1102 0.001
1102 1102 1
1097 1103 -1
1100 1103 -0.0044945
1102 1103 1
1103 1103 0.00898901
1106 1103 -0.0044945
1111 1103 0
1104 1104 1
1104 1105 0.001
1105 1105 1
1102 1106 -1
1103 1106 -0.0044945
1105 1106 1
1106 1106 0.00550579
1111 1106 0
1112 1106 -0.00101129
1107 1107 1
1107 1108 0.001
1108 1108 1
1109 1109 1
1109 1110 0.001
1110 1110 1
1099 1111 1
1100 1111 -0.00101032
1103 1111 0
1106 1111 0
1108 1111 -1
1111 1111 0.00550482
1112 1111 0
1133 1111 -0.0044945
1105 1112 -1
1106 1112 -0.00101129
1110 1112 1
1111 1112 0
1112 1112 0.00550579
1133 1112 -0.0044945
1094 1113 1
1095 1113 -0.0044945
1113 1113 0.0064945
1131 1113 0
1133 1113 -0.002
1114 1114 1
1114 1115 0.001
1115 1115 1
1116 1116 1
1116 1117 0.001
1117 1117 1
1115 1118 1
1117 1118 -1
1118 1118 0.00550168
1121 1118 -0.00100717
1122 1118 -0.0044945
1119 1119 1
1119 1120 0.001
1120 1120 1
1117 1121 1
1118 1121 -0.00100717
1120 1121 -1
1121 1121 0.00550168
1122 1121 0
1131 1121 -0.0044945
1115 1122 -1
1118 1122 -0.0044945
1121 1122 0
1122 1122 0.0064945
1131 1122 0
1135 1122 -0.002
1123 1123 0.004
1131 1123 -0.001
1133 1123 -0.001
1135 1123 -0.002
1124 1124 0.004
1131 1124 -0.001
1133 1124 -0.001
1135 1124 -0.002
1125 1125 0.004
1131 1125 -0.001
1133 1125 -0.001
1135 1125 -0.002
1126 1126 0.004
1131 1126 -0.001
1133 1126 -0.001
1135 1126 -0.002
1127 1127 0.004
1131 1127 -0.001
1133 1127 -0.001
1135 1127 -0.002
1128 1128 0.004
1131 1128 -0.001
1133 1128 -0.001
1135 1128 -0.002
1129 1129 0.004
1131 1129 -0.001
1133 1129 -0.001
1135 1129 -0.002
1130 1130 0.004
1131 1130 -0.001
1133 1130 -0.001
1135 1130 -0.002
1084 1131 1
1085 1131 0
1086 1131 0
1089 1131 -1
1092 1131 -0.0044945
1095 1131 0
1113 1131 0
1120 1131 1
1121 1131 -0.0044945
1122 1131 0
1123 1131 -0.001
1124 1131 -0.001
1125 1131 -0.001
1126 1131 -0.001
1127 1131 -0.001
1128 1131 -0.001
1129 1131 -0.001
1130 1131 -0.001
1131 1131 0.024989
1132 1131 0
1133 1131 -0.008
1135 1131 0
1069 1132 -3.29736e-06
1083 1132 -0.002
1087 1132 -1
1131 1132 0
1132 1132 0.0040033
1133 1132 -0.001
1134 1132 -0.001
1135 1132 0
1133 1133 1
1134 1134 1
1134 1135 1
1135 1135 -1
666 1136 -1
667 1136 0
668 1136 0
671 1136 -6.59473e-06
1066 1136 -0.002
1133 1136 -0.001
1134 1136 -0.001
1135 1136 0
1136 1136 0.0040066
701 1137 -0.002
719 1137 -1
720 1137 -1
721 1137 0
722 1137 -0.003
725 1137 -0.00300001
726 1137 -0.001
727 1137 -0.001
728 1137 0
729 1137 -0.002
730 1137 -0.002
941 1137 -0.00200001
942 1137 -0.00200004
943 1137 -0.00200003
944 1137 0
945 1137 0
946 1137 -0.002
947 1137 1
948 1137 1
949 1137 -0.002
950 1137 -0.002
951 1137 -0.002
952 1137 -0.002
953 1137 -0.002
954 1137 -0.002
955 1137 -0.002
956 1137 -0.002
957 1137 -0.002
958 1137 -0.002
959 1137 -0.002
960 1137 -0.002
961 1137 -0.002
962 1137 -0.002
963 1137 -0.002
964 1137 -0.002
965 1137 -0.002
966 1137 -0.002
967 1137 -0.002
968 1137 -0.002
969 1137 -0.002
970 1137 -0.002
971 1137 -0.002
972 1137 -0.002
973 1137 -0.002
974 1137 -0.002
975 1137 -0.002
976 1137 -0.002
977 1137 -0.002
978 1137 -0.002
979 1137 -0.002
980 1137 -0.002
981 1137 -0.002
982 1137 -0.002
983 1137 -0.002
984 1137 -0.002
985 1137 -0.002
986 1137 -0.002
987 1137 -0.002
988 1137 -0.002
989 1137 -0.002
990 1137 -0.002
991 1137 -0.002
992 1137 -0.002
993 1137 -0.002
994 1137 -0.002
995 1137 -0.002
996 1137 -0.002
997 1137 -0.002
998 1137 -0.002
999 1137 -0.002
1000 1137 -0.002
1001 1137 -0.002
1002 1137 -0.002
1003 1137 -0.002
1004 1137 -0.002
1005 1137 -0.002
1006 1137 -0.002
1007 1137 -0.002
1008 1137 -0.002
1009 1137 -0.002
1010 1137 -0.002
1011 1137 -0.002
1012 1137 -0.002
1013 1137 -0.002
1014 1137 -0.002
1015 1137 -0.002
1016 1137 -0.002
1017 1137 -0.002
1018 1137 -0.002
1019 1137 -0.002
1020 1137 -0.002
1021 1137 -0.002
1022 1137 -0.002
1023 1137 -0.002
1024 1137 -0.002
1025 1137 -0.002
1026 1137 -0.002
1027 1137 -0.002
1028 1137 -0.002
1029 1137 -0.002
1030 1137 -0.002
1031 1137 -0.002
1032 1137 -0.002
1033 1137 -0.002
1063 1137 -1
1065 1137 0
1066 1137 -0.001
1078 1137 -0.001
1079 1137 -0.003
1080 1137 -0.002
1081 1137 -0.002
1082 1137 -0.002
1083 1137 -0.001
1132 1137 -0.001
1133 1137 0
1134 1137 1.206
1135 1137 0
1136 1137 -0.001
1137 1137 1
1139 1137 1
150 1138 -0.004
200 1138 -0.002
201 1138 -0.002
202 1138 -0.002
234 1138 -0.0524109
235 1138 -0.00399716
236 1138 -0.0524109
237 1138 -0.00399716
238 1138 -0.0524109
239 1138 -0.00399716
240 1138 -0.0524109
241 1138 -0.00399716
242 1138 -0.0524109
243 1138 -0.00399716
244 1138 -0.0524109
245 1138 -0.00399716
246 1138 -0.0524109
247 1138 -0.00399716
248 1138 -0.001
249 1138 -0.001
250 1138 -0.001
251 1138 -0.003
273 1138 1
422 1138 -0.004
423 1138 -1
424 1138 -0.000373552
425 1138 -0.000373552
426 1138 -1e-05
427 1138 1
428 1138 1
429 1138 1
430 1138 1
431 1138 1
432 1138 1
433 1138 1
434 1138 1
435 1138 1
436 1138 1
437 1138 1
438 1138 1
439 1138 1
440 1138 1
441 1138 1
442 1138 1
443 1138 1
444 1138 1
445 1138 1
446 1138 1
447 1138 1
448 1138 1
449 1138 1
450 1138 1
451 1138 1
452 1138 1
453 1138 1
454 1138 1
455 1138 1
456 1138 1
457 1138 1
458 1138 1
459 1138 1
460 1138 1
461 1138 1
462 1138 1
463 1138 1
464 1138 1
465 1138 1
466 1138 1
467 1138 1
468 1138 1
469 1138 1
470 1138 1
471 1138 1
472 1138 1
473 1138 1
474 1138 1
475 1138 1
476 1138 1
477 1138 1
478 1138 1
479 1138 1
480 1138 1
481 1138 1
482 1138 1
483 1138 1
484 1138 1
485 1138 1
486 1138 1
487 1138 1
488 1138 1
514 1138 -0.002
515 1138 0
516 1138 0
520 1138 -1
521 1138 -1
522 1138 0
523 1138 -0.003
525 1138 -0.003
532 1138 1
533 1138 -0.0104851
534 1138 -0.001
535 1138 -0.003
537 1138 -0.00200006
538 1138 -0.002
579 1138 -0.002
580 1138 -0.002
581 1138 -0.002
582 1138 -0.0524109
583 1138 -0.00399716
584 1138 0
585 1138 -0.001
586 1138 -0.004
587 1138 -0.001
588 1138 -0.002
589 1138 -0.002
590 1138 -0.002
591 1138 -0.00349607
592 1138 0
593 1138 -0.002
594 1138 -0.002
595 1138 -0.002
596 1138 -0.002
597 1138 -0.002
598 1138 -0.002
599 1138 -0.002
600 1138 -0.002
601 1138 -0.002
602 1138 -0.002
603 1138 -0.002
604 1138 -0.002
605 1138 -0.002
606 1138 -0.002
607 1138 -0.002
608 1138 -0.002
609 1138 -0.002
610 1138 -0.002
611 1138 -0.002
612 1138 -0.002
613 1138 -0.002
614 1138 -0.002
615 1138 -0.002
616 1138 -0.002
617 1138 -0.002
618 1138 -0.002
619 1138 -0.002
620 1138 -0.002
621 1138 -0.002
622 1138 -0.002
623 1138 -0.002
624 1138 -0.002
625 1138 -0.002
626 1138 -0.002
627 1138 -0.002
628 1138 -0.004
629 1138 -0.001
630 1138 -0.001
631 1138 -0.002
632 1138 -0.002
668 1138 -0.002
677 1138 -0.002
678 1138 -0.002
680 1138 -0.002
681 1138 -0.002
682 1138 -0.001
683 1138 -0.001
684 1138 -0.002
685 1138 -0.002
686 1138 -0.002
687 1138 -0.002
688 1138 0
690 1138 -0.003
691 1138 -0.001
692 1138 -0.004
693 1138 -0.002
694 1138 -0.002
695 1138 -0.002
696 1138 0
709 1138 -1.31895e-05
718 1138 -0.002
724 1138 -0.002
726 1138 0
727 1138 0
728 1138 0
729 1138 -0.002
730 1138 -0.002
811 1138 -1
822 1138 -0.002
913 1138 -0.002
918 1138 1
919 1138 0
920 1138 1
921 1138 1
922 1138 1
923 1138 1
924 1138 0
925 1138 1
926 1138 1
927 1138 1
928 1138 1
929 1138 0
930 1138 1
931 1138 1
932 1138 1
933 1138 1
934 1138 0
935 1138 1
936 1138 1
937 1138 1
938 1138 0
939 1138 0
940 1138 0
945 1138 0
946 1138 -0.002
949 1138 -0.002
950 1138 -0.002
951 1138 -0.002
952 1138 -0.002
953 1138 -0.002
954 1138 -0.002
955 1138 -0.002
956 1138 -0.002
957 1138 -0.002
958 1138 -0.002
959 1138 -0.002
960 1138 -0.002
961 1138 -0.002
962 1138 -0.002
963 1138 -0.002
964 1138 -0.002
965 1138 -0.002
966 1138 -0.002
967 1138 -0.002
968 1138 -0.002
969 1138 -0.002
970 1138 -0.002
971 1138 -0.002
972 1138 -0.002
973 1138 -0.002
974 1138 -0.002
975 1138 -0.002
976 1138 -0.002
977 1138 -0.002
978 1138 -0.002
979 1138 -0.002
980 1138 -0.002
981 1138 -0.002
982 1138 -0.002
983 1138 -0.002
984 1138 -0.002
985 1138 -0.002
986 1138 -0.002
987 1138 -0.002
988 1138 -0.002
989 1138 -0.002
990 1138 -0.002
991 1138 -0.002
992 1138 -0.002
993 1138 -0.002
994 1138 -0.002
995 1138 -0.002
996 1138 -0.002
997 1138 -0.002
998 1138 -0.002
999 1138 -0.002
1000 1138 -0.002
1001 1138 -0.002
1002 1138 -0.002
1003 1138 -0.002
1004 1138 -0.002
1005 1138 -0.002
1006 1138 -0.002
1007 1138 -0.002
1008 1138 -0.002
1009 1138 -0.002
1010 1138 -0.002
1011 1138 -0.002
1012 1138 -0.002
1013 1138 -0.002
1014 1138 -0.002
1015 1138 -0.002
1016 1138 -0.002
1017 1138 -0.002
1018 1138 -0.002
1019 1138 -0.002
1020 1138 -0.002
1021 1138 -0.002
1022 1138 -0.002
1023 1138 -0.002
1024 1138 -0.002
1025 1138 -0.002
1026 1138 -0.002
1027 1138 -0.002
1028 1138 -0.002
1029 1138 -0.002
1030 1138 -0.002
1031 1138 -0.002
1032 1138 -0.002
1033 1138 -0.002
1064 1138 -1
1065 1138 0
1066 1138 -0.001
1078 1138 -0.00300001
1079 1138 -0.003
1080 1138 -0.00400002
1081 1138 -0.001
1082 1138 -0.001
1083 1138 -0.003
1108 1138 1
1110 1138 -1
1111 1138 -0.0044945
1112 1138 -0.0044945
1113 1138 -0.002
1123 1138 -0.001
1124 1138 -0.001
1125 1138 -0.001
1126 1138 -0.001
1127 1138 -0.001
1128 1138 -0.001
1129 1138 -0.001
1130 1138 -0.001
1131 1138 -0.008
1132 1138 -0.001
1133 1138 2.86301
1134 1138 0
1135 1138 0
1136 1138 -0.001
1138 1138 1
252 1139 -0.003
253 1139 -0.003
254 1139 -0.003
255 1139 -0.003
256 1139 -0.003
271 1139 -0.002
291 1139 -0.003
292 1139 -0.003
293 1139 -0.003
294 1139 -0.003
295 1139 -0.003
296 1139 -0.003
517 1139 -0.003
518 1139 -0.002
519 1139 -0.002
524 1139 -0.003
536 1139 -0.003
537 1139 -0.001
538 1139 -0.004
539 1139 -0.003
540 1139 -0.003
541 1139 -0.003
542 1139 -0.003
543 1139 -0.003
544 1139 -0.003
584 1139 -0.006
585 1139 -0.004
586 1139 -0.001
587 1139 -0.002
588 1139 -0.001
589 1139 -0.005
590 1139 -0.001
591 1139 0
592 1139 -0.005
593 1139 -0.002
594 1139 -0.002
595 1139 -0.002
596 1139 -0.002
597 1139 -0.002
598 1139 -0.002
599 1139 -0.002
600 1139 -0.002
601 1139 -0.002
602 1139 -0.002
603 1139 -0.002
604 1139 -0.002
605 1139 -0.002
606 1139 -0.002
607 1139 -0.002
608 1139 -0.002
609 1139 -0.002
610 1139 -0.002
611 1139 -0.002
612 1139 -0.002
613 1139 -0.002
614 1139 -0.002
615 1139 -0.002
616 1139 -0.002
617 1139 -0.002
618 1139 -0.002
619 1139 -0.002
620 1139 -0.002
621 1139 -0.002
622 1139 -0.002
623 1139 -0.002
624 1139 -0.002
625 1139 -0.002
626 1139 -0.002
627 1139 -0.002
628 1139 -0.002
629 1139 -0.002
630 1139 -0.002
631 1139 -0.002
632 1139 -0.002
667 1139 -0.002
668 1139 -0.004
1122 1139 -0.002
1123 1139 -0.002
1124 1139 -0.002
1125 1139 -0.002
1126 1139 -0.002
1127 1139 -0.002
1128 1139 -0.002
1129 1139 -0.002
1130 1139 -0.002
1131 1139 0
1132 1139 0
1133 1139 0
1134 1139 0
1135 1139 0.2
1136 1139 0
1139 1139 -1
1140 1140 1
1141 1141 0.00200002
1145 1141 3
1140 1142 -1
1142 1142 1
1143 1143 1.002
1144 1143 -1
1143 1144 -1
1144 1144 1
1145 1144 -3
1142 1145 1e-06
1145 1145 1
1146 1146 0.001
1147 1146 -2.25
1145 1147 -1
1147 1147 1
1148 1148 1
1149 1149 1
1150 1150 -1
1150 1151 1
1151 1151 1
1152 1152 -1
1152 1153 1
1153 1153 1
1154 1154 -1
1154 1155 1
1155 1155 1
1156 1156 -1
1156 1157 1
1157 1157 1
