%%MatrixMarket matrix coordinate real general
1157 1157 4005
1 1 0.00969805
2 2 0.00969805
3 3 1
3 4 1
4 4 -1
5 5 1
5 6 1
6 6 -1
7 7 1
7 8 1
8 8 -1
9 9 1
9 10 1
10 10 -1
11 11 1
12 12 1
13 13 1
14 14 1
15 15 0.0104851
16 15 -1
18 15 -0.0104851
14 16 0.001
16 16 1
13 17 0.001
17 17 1
15 18 -0.0104851
16 18 1
17 18 -1
18 18 0.0120516
21 18 -0.00156657
19 19 0.0104851
20 19 1
21 19 -0.0104851
12 20 0.001
20 20 1
17 21 1
18 21 -0.00156657
19 21 -0.0104851
20 21 -1
21 21 0.0120516
22 22 1
23 23 1
24 24 1
25 25 1
26 26 0.0104851
27 26 -1
29 26 -0.0104851
25 27 0.001
27 27 1
24 28 0.001
28 28 1
26 29 -0.0104851
27 29 1
28 29 -1
29 29 0.0120516
32 29 -0.00156657
30 30 0.0104851
31 30 1
32 30 -0.0104851
23 31 0.001
31 31 1
28 32 1
29 32 -0.00156657
30 32 -0.0104851
31 32 -1
32 32 0.0120516
33 33 1
34 34 1
35 35 1
36 36 1
37 37 0.0104851
38 37 -1
40 37 -0.0104851
36 38 0.001
38 38 1
35 39 0.001
39 39 1
37 40 -0.0104851
38 40 1
39 40 -1
40 40 0.0120516
43 40 -0.00156657
41 41 0.0104851
42 41 1
43 41 -0.0104851
34 42 0.001
42 42 1
39 43 1
40 43 -0.00156657
41 43 -0.0104851
42 43 -1
43 43 0.0120516
44 44 1
45 45 1
46 46 1
47 47 1
48 48 0.0104851
49 48 -1
51 48 -0.0104851
47 49 0.001
49 49 1
46 50 0.001
50 50 1
48 51 -0.0104851
49 51 1
50 51 -1
51 51 0.0116223
54 51 -0.00113724
52 52 0.0104851
53 52 1
54 52 -0.0104851
45 53 0.001
53 53 1
50 54 1
51 54 -0.00113724
52 54 -0.0104851
53 54 -1
54 54 0.0116223
55 55 1
56 56 1
57 57 1
58 58 1
59 59 1
60 60 0.0104851
61 60 -1
63 60 -0.0104851
59 61 0.001
61 61 1
58 62 0.001
62 62 1
60 63 -0.0104851
61 63 1
62 63 -1
63 63 0.0120516
66 63 -0.00156657
64 64 0.0104851
65 64 1
66 64 -0.0104851
57 65 0.001
65 65 1
62 66 1
63 66 -0.00156657
64 66 -0.0104851
65 66 -1
66 66 0.0120516
67 67 1
68 68 1
69 69 1
69 70 0.001
70 70 1
71 71 1
71 72 0.001
72 72 1
70 73 1
72 73 -1
73 73 0.00550482
76 73 -0.00101032
77 73 -0.0044945
74 74 1
74 75 0.001
75 75 1
70 76 -1
73 76 -0.00101032
75 76 1
76 76 0.00550482
77 76 0
1067 76 -0.0044945
72 77 1
73 77 -0.0044945
76 77 0
77 77 0.0064945
1056 77 -0.002
1067 77 0
78 78 1
78 79 0.001
79 79 1
80 80 1
80 81 0.001
81 81 1
79 82 1
81 82 -1
82 82 0.00550168
85 82 -0.00100717
86 82 -0.0044945
83 83 1
83 84 0.001
84 84 1
81 85 1
82 85 -0.00100717
84 85 -1
85 85 0.00550168
86 85 0
1067 85 -0.0044945
79 86 -1
82 86 -0.0044945
85 86 0
86 86 0.0064945
1057 86 -0.002
1067 86 0
87 87 1
1053 87 -1
87 88 0.000494604
88 88 1
89 88 -0.000494604
1053 88 0
87 89 -0.000494604
89 89 0.000494604
1053 89 0
1064 89 -1
90 90 1
90 91 0.001
91 91 1
92 92 1
92 93 0.001
93 93 1
91 94 1
93 94 -1
94 94 0.00550267
97 94 -0.00100817
466 94 -0.0044945
95 95 1
95 96 0.001
96 96 1
93 97 1
94 97 -0.00100817
96 97 -1
97 97 0.00550267
107 97 -0.0044945
466 97 0
98 98 2.00963
111 98 -2.00963
99 99 1
99 100 0.001
100 100 1
101 101 1
101 102 0.001
102 102 1
100 103 1
102 103 -1
103 103 0.00551092
106 103 -0.00101642
107 103 -0.0044945
104 104 1
104 105 0.001
105 105 1
102 106 1
103 106 -0.00101642
105 106 -1
106 106 0.00551092
107 106 0
111 106 -0.0044945
96 107 1
97 107 -0.0044945
100 107 -1
103 107 -0.0044945
106 107 0
107 107 0.012989
111 107 -0.002
466 107 -0.002
108 108 1
1043 108 -1
108 109 0.000494604
109 109 1
110 109 -0.000494604
1043 109 0
108 110 -0.000494604
110 110 0.000494604
112 110 -1
1043 110 0
110 111 -1
111 111 1
112 111 0
1043 111 0
98 112 -2.00963
105 112 1
106 112 -0.0044945
107 112 -0.002
111 112 2.02013
112 112 1
466 112 -0.002
1043 112 0
1057 112 -0.002
113 113 8.99281e-05
114 113 -8.99281e-05
113 114 -8.99281e-05
114 114 8.99281e-05
465 114 1
115 115 1
115 116 0.001
116 116 1
117 117 1
117 118 0.001
118 118 1
116 119 1
118 119 -1
119 119 0.0120516
122 119 -0.00156657
466 119 -0.0104851
120 120 1
120 121 0.001
121 121 1
116 122 -1
119 122 -0.00156657
121 122 1
122 122 0.0120516
123 122 -0.0104851
466 122 0
114 123 1
123 123 -1
465 123 0
124 124 1
124 125 0.001
125 125 1
126 126 1
126 127 0.001
127 127 1
125 128 1
127 128 -1
128 128 0.0115778
132 128 -0.00109271
462 128 -0.0104851
129 129 1
130 130 0.0104851
131 130 1
132 130 -0.0104851
129 131 0.001
131 131 1
127 132 1
128 132 -0.00109271
130 132 -0.0104851
131 132 -1
132 132 0.0115778
462 132 0
133 133 0.00600235
461 133 -0.00100117
462 133 -0.00100117
1056 133 -0.004
134 134 1
134 135 0.001
135 135 1
136 136 1
136 137 0.001
137 137 1
135 138 1
137 138 -1
138 138 0.0116922
141 138 -0.00120716
424 138 -0.0104851
139 139 1
139 140 0.001
140 140 1
137 141 1
138 141 -0.00120716
140 141 -1
141 141 0.0116922
233 141 -0.0104851
424 141 0
142 142 1
142 143 0.001
143 143 1
144 144 1
144 145 0.001
145 145 1
143 146 1
145 146 -1
146 146 0.0116889
149 146 -0.00120378
424 146 -0.0104851
147 147 1
147 148 0.001
148 148 1
145 149 1
146 149 -0.00120378
148 149 -1
149 149 0.0116889
232 149 -0.0104851
424 149 0
150 150 1
150 151 0.001
151 151 1
152 152 1
152 153 0.001
153 153 1
151 154 1
153 154 -1
154 154 0.0115715
157 154 -0.00108646
160 154 -0.0104851
155 155 1
155 156 0.001
156 156 1
153 157 1
154 157 -0.00108646
156 157 -1
157 157 0.0115715
160 157 0
185 157 -0.0104851
158 158 1
158 159 0.001
159 159 1
151 160 -1
154 160 -0.0104851
157 160 0
159 160 1
160 160 0.0209702
166 160 -0.0104851
185 160 0
161 161 1
161 162 0.001
162 162 1
163 163 1
163 164 0.001
164 164 1
162 165 1
164 165 -1
165 165 0.0115715
166 165 -0.00108646
424 165 -0.0104851
159 166 -1
160 166 -0.0104851
164 166 1
165 166 -0.00108646
166 166 0.0115715
185 166 0
424 166 0
167 167 1
167 168 0.001
168 168 1
169 169 1
169 170 0.001
170 170 1
168 171 1
170 171 -1
171 171 0.0115715
174 171 -0.00108646
185 171 -0.0104851
172 172 1
172 173 0.001
173 173 1
170 174 1
171 174 -0.00108646
173 174 -1
174 174 0.0115715
184 174 -0.0104851
185 174 0
175 175 1
175 176 0.001
176 176 1
177 177 1
177 178 0.001
178 178 1
176 179 1
178 179 -1
179 179 0.0115136
182 179 -0.00102847
184 179 -0.0104851
180 180 1
180 181 0.001
181 181 1
178 182 1
179 182 -0.00102847
181 182 -1
182 182 0.0115136
183 182 -0.0104851
184 182 0
181 183 1
182 183 -0.0104851
183 183 0.0124851
184 183 0
1056 183 -0.002
173 184 1
174 184 -0.0104851
176 184 -1
179 184 -0.0104851
182 184 0
183 184 0
184 184 0.0229702
185 184 0
1056 184 -0.002
156 185 1
157 185 -0.0104851
160 185 0
166 185 0
168 185 -1
171 185 -0.0104851
174 185 0
184 185 0
185 185 0.0229702
424 185 0
1056 185 -0.002
186 186 1
186 187 0.001
187 187 1
188 188 1
188 189 0.001
189 189 1
187 190 1
189 190 -1
190 190 0.0116931
193 190 -0.00120802
424 190 -0.0104851
191 191 1
191 192 0.001
192 192 1
189 193 1
190 193 -0.00120802
192 193 -1
193 193 0.0116931
231 193 -0.0104851
424 193 0
194 194 1
194 195 0.001
195 195 1
196 196 1
196 197 0.001
197 197 1
195 198 1
197 198 -1
198 198 0.0116786
201 198 -0.00119353
424 198 -0.0104851
199 199 1
199 200 0.001
200 200 1
197 201 1
198 201 -0.00119353
200 201 -1
201 201 0.0116786
234 201 -0.0104851
424 201 0
202 202 1
202 203 0.001
203 203 1
204 204 1
204 205 0.001
205 205 1
203 206 1
205 206 -1
206 206 0.0116786
209 206 -0.00119353
424 206 -0.0104851
207 207 1
207 208 0.001
208 208 1
205 209 1
206 209 -0.00119353
208 209 -1
209 209 0.0116786
234 209 -0.0104851
424 209 0
210 210 0.115743
229 210 -6.90863e-23
230 210 -0.001
234 210 -0.114743
211 211 0.115743
227 211 -6.90863e-23
228 211 -0.001
234 211 -0.114743
212 212 0.115743
225 212 -6.90863e-23
226 212 -0.001
234 212 -0.114743
213 213 0.115743
223 213 -6.90863e-23
224 213 -0.001
234 213 -0.114743
214 214 0.115743
221 214 -6.90863e-23
222 214 -0.001
234 214 -0.114743
215 215 0.115743
219 215 -6.90863e-23
220 215 -0.001
234 215 -0.114743
216 216 0.115743
217 216 -6.90863e-23
218 216 -0.001
234 216 -0.114743
216 217 -7.02074e-23
217 217 0.0534109
218 217 -0.001
234 217 0
1056 217 -0.0524109
216 218 -0.001
217 218 -0.001
218 218 0.00599716
234 218 0
1056 218 -0.00399716
215 219 -7.02074e-23
219 219 0.0534109
220 219 -0.001
234 219 0
1056 219 -0.0524109
215 220 -0.001
219 220 -0.001
220 220 0.00599716
234 220 0
1056 220 -0.00399716
214 221 -7.02074e-23
221 221 0.0534109
222 221 -0.001
234 221 0
1056 221 -0.0524109
214 222 -0.001
221 222 -0.001
222 222 0.00599716
234 222 0
1056 222 -0.00399716
213 223 -7.02074e-23
223 223 0.0534109
224 223 -0.001
234 223 0
1056 223 -0.0524109
213 224 -0.001
223 224 -0.001
224 224 0.00599716
234 224 0
1056 224 -0.00399716
212 225 -7.02074e-23
225 225 0.0534109
226 225 -0.001
234 225 0
1056 225 -0.0524109
212 226 -0.001
225 226 -0.001
226 226 0.00599716
234 226 0
1056 226 -0.00399716
211 227 -7.02074e-23
227 227 0.0534109
228 227 -0.001
234 227 0
1056 227 -0.0524109
211 228 -0.001
227 228 -0.001
228 228 0.00599716
234 228 0
1056 228 -0.00399716
210 229 -7.02074e-23
229 229 0.0534109
230 229 -0.001
234 229 0
1056 229 -0.0524109
210 230 -0.001
229 230 -0.001
230 230 0.00599716
234 230 0
1056 230 -0.00399716
192 231 1
193 231 -0.0104851
231 231 0.0145206
234 231 -0.0030355
424 231 0
1056 231 -0.001
148 232 1
149 232 -0.0104851
232 232 0.0145206
234 232 -0.0030355
424 232 0
1056 232 -0.001
140 233 1
141 233 -0.0104851
233 233 0.0145206
234 233 -0.0030355
424 233 0
1056 233 -0.001
200 234 1
201 234 -0.0104851
208 234 1
209 234 -0.0104851
210 234 -0.114743
211 234 -0.114743
212 234 -0.114743
213 234 -0.114743
214 234 -0.114743
215 234 -0.114743
216 234 -0.114743
217 234 0
218 234 0
219 234 0
220 234 0
221 234 0
222 234 0
223 234 0
224 234 0
225 234 0
226 234 0
227 234 0
228 234 0
229 234 0
230 234 0
231 234 -0.0030355
232 234 -0.0030355
233 234 -0.0030355
234 234 0.836277
424 234 0
1056 234 -0.003
235 235 0.004
424 235 -0.001
1057 235 -0.003
236 236 0.004
424 236 -0.001
1057 236 -0.003
237 237 0.004
424 237 -0.001
1057 237 -0.003
238 238 0.004
424 238 -0.001
1057 238 -0.003
239 239 0.004
424 239 -0.001
1057 239 -0.003
240 240 1
240 241 0.001
241 241 1
242 242 1
242 243 0.001
243 243 1
241 244 1
243 244 -1
244 244 0.004504
247 244 -0.00349607
423 244 -0.00100793
245 245 1
245 246 0.001
246 246 1
241 247 -1
244 247 -0.00349607
246 247 1
247 247 0.00699215
253 247 -0.00349607
423 247 0
248 248 1
248 249 0.001
249 249 1
250 250 1
250 251 0.001
251 251 1
249 252 1
251 252 -1
252 252 0.004504
253 252 -0.00100793
254 252 -0.00349607
246 253 -1
247 253 -0.00349607
251 253 1
252 253 -0.00100793
253 253 0.004504
254 253 0
423 253 0
249 254 -1
252 254 -0.00349607
253 254 0
254 254 0.00549607
423 254 0
1057 254 -0.002
255 255 1
255 256 0.001
256 256 1
257 257 1
257 258 0.001
258 258 1
259 259 1
259 260 0.001
260 260 1
258 261 1
260 261 -1
261 261 0.00713686
264 261 -0.00164393
422 261 -0.00549293
262 262 1
262 263 0.001
263 263 1
260 264 1
261 264 -0.00164393
263 264 -1
264 264 0.00713686
273 264 -0.00549293
422 264 0
265 265 1
265 266 0.001
266 266 1
267 267 1
267 268 0.001
268 268 1
266 269 1
268 269 -1
269 269 0.00713686
272 269 -0.00164393
422 269 -0.00549293
270 270 1
270 271 0.001
271 271 1
268 272 1
269 272 -0.00164393
271 272 -1
272 272 0.00713686
273 272 -0.00549293
422 272 0
263 273 1
264 273 -0.00549293
271 273 1
272 273 -0.00549293
273 273 0.0109859
422 273 0
274 274 0.004
422 274 -0.001
1057 274 -0.003
275 275 0.004
421 275 -0.001
1057 275 -0.003
276 276 0.004
421 276 -0.001
1057 276 -0.003
277 277 0.004
421 277 -0.001
1057 277 -0.003
278 278 0.004
421 278 -0.001
1057 278 -0.003
279 279 0.004
421 279 -0.001
1057 279 -0.003
280 280 1
281 281 1
282 282 1
283 283 0.00549293
284 283 -1
286 283 -0.00549293
282 284 0.001
284 284 1
281 285 0.001
285 285 1
283 286 -0.00549293
284 286 1
285 286 -1
286 286 0.0065416
288 286 -0.00104867
280 287 0.001
287 287 1
285 288 1
286 288 -0.00104867
287 288 -1
288 288 0.0065416
324 288 -0.00549293
289 289 1
289 290 0.001
290 290 1
291 291 1
291 292 0.001
292 292 1
290 293 1
292 293 -1
293 293 0.00713686
304 293 -0.00164393
421 293 -0.00549293
294 294 1
294 295 0.001
295 295 1
296 296 1
296 297 0.001
297 297 1
298 298 1
298 299 0.001
299 299 1
297 300 1
299 300 -1
300 300 0.00713686
303 300 -0.00164393
421 300 -0.00549293
301 301 1
301 302 0.001
302 302 1
299 303 1
300 303 -0.00164393
302 303 -1
303 303 0.00713686
306 303 -0.00549293
421 303 0
292 304 1
293 304 -0.00164393
295 304 -1
304 304 0.00713686
306 304 -0.00549293
421 304 0
295 305 1
302 305 1
303 305 -0.00549293
304 305 -0.00549293
305 305 1
306 305 0.0109859
421 305 0
306 306 1
324 306 -1
307 307 1
307 308 0.001
308 308 1
309 309 1
309 310 0.001
310 310 1
308 311 1
310 311 -1
311 311 0.00550482
314 311 -0.0044945
322 311 -0.00101032
312 312 1
312 313 0.001
313 313 1
308 314 -1
311 314 -0.0044945
313 314 1
314 314 0.00898901
317 314 -0.0044945
322 314 0
315 315 1
315 316 0.001
316 316 1
313 317 -1
314 317 -0.0044945
316 317 1
317 317 0.00550579
322 317 0
323 317 -0.00101129
318 318 1
318 319 0.001
319 319 1
320 320 1
320 321 0.001
321 321 1
310 322 1
311 322 -0.00101032
314 322 0
317 322 0
319 322 -1
322 322 0.00550482
323 322 0
1056 322 -0.0044945
316 323 -1
317 323 -0.00101129
321 323 1
322 323 0
323 323 0.00550579
1056 323 -0.0044945
287 324 1
288 324 -0.00549293
305 324 -1
306 324 0
324 324 0.00749293
421 324 0
1056 324 -0.002
325 325 0.004
326 325 -0.001
1057 325 -0.003
325 326 -0.001
326 326 0.004
327 326 -0.001
1057 326 -0.002
326 327 -0.001
327 327 0.004
420 327 -0.001
1057 327 -0.002
328 328 0.002
351 328 -0.002
329 329 0.002
346 329 -0.002
330 330 0.002
341 330 -0.002
331 331 0.002
336 331 -0.002
332 332 -1e-06
336 332 -1
1056 332 1
333 333 -1e-06
336 333 -1
1056 333 1
334 334 -1e-06
336 334 -1
1056 334 1
335 335 -1e-06
336 335 -1
1056 335 1
331 336 -0.002
332 336 -1
333 336 -1
334 336 -1
335 336 -1
336 336 0.002
1056 336 0
337 337 -1e-06
341 337 -1
1056 337 1
338 338 -1e-06
341 338 -1
1056 338 1
339 339 -1e-06
341 339 -1
1056 339 1
340 340 -1e-06
341 340 -1
1056 340 1
330 341 -0.002
337 341 -1
338 341 -1
339 341 -1
340 341 -1
341 341 0.002
1056 341 0
342 342 -1e-06
346 342 -1
1056 342 1
343 343 -1e-06
346 343 -1
1056 343 1
344 344 -1e-06
346 344 -1
1056 344 1
345 345 -1e-06
346 345 -1
1056 345 1
329 346 -0.002
342 346 -1
343 346 -1
344 346 -1
345 346 -1
346 346 0.002
1056 346 0
347 347 -1e-06
351 347 -1
1056 347 1
348 348 -1e-06
351 348 -1
1056 348 1
349 349 -1e-06
351 349 -1
1056 349 1
350 350 -1e-06
351 350 -1
1056 350 1
328 351 -0.002
347 351 -1
348 351 -1
349 351 -1
350 351 -1
351 351 0.002
1056 351 0
352 352 1
353 352 -2.19298
354 352 2.19298
353 353 3.19298
354 353 -2.19298
1056 353 -1
354 354 1
1056 354 -1
355 355 0.004
419 355 -0.001
1056 355 -0.003
356 356 0.004
418 356 -0.001
1057 356 -0.003
357 357 0.004
417 357 -0.001
1056 357 -0.003
358 358 1
358 359 0.001
359 359 1
360 360 1
360 361 0.001
361 361 1
359 362 1
361 362 -1
362 362 0.0115263
365 362 -0.00104118
366 362 -0.0104851
363 363 1
363 364 0.001
364 364 1
361 365 1
362 365 -0.00104118
364 365 -1
365 365 0.0115263
366 365 0
1056 365 -0.0104851
359 366 -1
362 366 -0.0104851
365 366 0
366 366 0.0124851
370 366 -0.001
1056 366 -0.001
367 367 0.004
370 367 -0.001
1056 367 -0.003
368 368 0.004
369 368 -0.001
1057 368 -0.003
368 369 -0.001
369 369 0.00400006
1056 369 -0.00200006
1057 369 -0.001
366 370 -0.001
367 370 -0.001
370 370 0.008
1056 370 -0.002
1057 370 -0.004
371 371 0.004
416 371 -0.001
1057 371 -0.003
372 372 0.004
416 372 -0.001
1057 372 -0.003
373 373 0.004
416 373 -0.001
1057 373 -0.003
374 374 0.004
416 374 -0.001
1057 374 -0.003
375 375 0.004
416 375 -0.001
1057 375 -0.003
376 376 0.004
416 376 -0.001
1057 376 -0.003
377 377 0.115743
414 377 -6.90863e-23
415 377 -0.001
416 377 -0.114743
378 378 1
378 379 0.001
379 379 1
380 380 1
380 381 0.001
381 381 1
379 382 1
381 382 -1
382 382 0.0115715
385 382 -0.00108646
388 382 -0.0104851
383 383 1
383 384 0.001
384 384 1
381 385 1
382 385 -0.00108646
384 385 -1
385 385 0.0115715
388 385 0
413 385 -0.0104851
386 386 1
386 387 0.001
387 387 1
379 388 -1
382 388 -0.0104851
385 388 0
387 388 1
388 388 0.0209702
394 388 -0.0104851
413 388 0
389 389 1
389 390 0.001
390 390 1
391 391 1
391 392 0.001
392 392 1
390 393 1
392 393 -1
393 393 0.0115715
394 393 -0.00108646
416 393 -0.0104851
387 394 -1
388 394 -0.0104851
392 394 1
393 394 -0.00108646
394 394 0.0115715
413 394 0
416 394 0
395 395 1
395 396 0.001
396 396 1
397 397 1
397 398 0.001
398 398 1
396 399 1
398 399 -1
399 399 0.0115715
402 399 -0.00108646
413 399 -0.0104851
400 400 1
400 401 0.001
401 401 1
398 402 1
399 402 -0.00108646
401 402 -1
402 402 0.0115715
412 402 -0.0104851
413 402 0
403 403 1
403 404 0.001
404 404 1
405 405 1
405 406 0.001
406 406 1
404 407 1
406 407 -1
407 407 0.0115136
410 407 -0.00102847
412 407 -0.0104851
408 408 1
408 409 0.001
409 409 1
406 410 1
407 410 -0.00102847
409 410 -1
410 410 0.0115136
411 410 -0.0104851
412 410 0
409 411 1
410 411 -0.0104851
411 411 0.0124851
412 411 0
1056 411 -0.002
401 412 1
402 412 -0.0104851
404 412 -1
407 412 -0.0104851
410 412 0
411 412 0
412 412 0.0229702
413 412 0
1056 412 -0.002
384 413 1
385 413 -0.0104851
388 413 0
394 413 0
396 413 -1
399 413 -0.0104851
402 413 0
412 413 0
413 413 0.0229702
416 413 0
1056 413 -0.002
377 414 -7.02074e-23
414 414 0.0534109
415 414 -0.001
416 414 0
1056 414 -0.0524109
377 415 -0.001
414 415 -0.001
415 415 0.00599716
416 415 0
1056 415 -0.00399716
371 416 -0.001
372 416 -0.001
373 416 -0.001
374 416 -0.001
375 416 -0.001
376 416 -0.001
377 416 -0.114743
390 416 -1
393 416 -0.0104851
394 416 0
413 416 0
414 416 0
415 416 0
416 416 0.137228
1056 416 0
1057 416 -0.006
357 417 -0.001
417 417 0.006
1056 417 -0.001
1057 417 -0.004
356 418 -0.001
418 418 0.006
1056 418 -0.004
1057 418 -0.001
355 419 -0.001
419 419 0.004
1056 419 -0.001
1057 419 -0.002
327 420 -0.001
420 420 0.004
1056 420 -0.002
1057 420 -0.001
275 421 -0.001
276 421 -0.001
277 421 -0.001
278 421 -0.001
279 421 -0.001
290 421 -1
293 421 -0.00549293
297 421 -1
300 421 -0.00549293
303 421 0
304 421 0
306 421 0
324 421 0
421 421 0.0229859
1056 421 -0.002
1057 421 -0.005
258 422 -1
261 422 -0.00549293
264 422 0
266 422 -1
269 422 -0.00549293
272 422 0
273 422 0
274 422 -0.001
422 422 0.0149859
1056 422 -0.002
1057 422 -0.001
243 423 1
244 423 -0.00100793
247 423 0
253 423 0
254 423 0
256 423 -1
423 423 0.004504
1056 423 -0.00349607
1057 423 0
135 424 -1
138 424 -0.0104851
141 424 0
143 424 -1
146 424 -0.0104851
149 424 0
162 424 -1
165 424 -0.0104851
166 424 0
185 424 0
187 424 -1
190 424 -0.0104851
193 424 0
195 424 -1
198 424 -0.0104851
201 424 0
203 424 -1
206 424 -0.0104851
209 424 0
231 424 0
232 424 0
233 424 0
234 424 0
235 424 -0.001
236 424 -0.001
237 424 -0.001
238 424 -0.001
239 424 -0.001
424 424 0.0729105
1056 424 0
1057 424 -0.005
425 425 0.004
1056 425 -0.002
1057 425 -0.002
426 426 0.004
1056 426 -0.002
1057 426 -0.002
427 427 0.004
1056 427 -0.002
1057 427 -0.002
428 428 0.004
1056 428 -0.002
1057 428 -0.002
429 429 0.004
1056 429 -0.002
1057 429 -0.002
430 430 0.004
1056 430 -0.002
1057 430 -0.002
431 431 0.004
1056 431 -0.002
1057 431 -0.002
432 432 0.004
1056 432 -0.002
1057 432 -0.002
433 433 0.004
1056 433 -0.002
1057 433 -0.002
434 434 0.004
1056 434 -0.002
1057 434 -0.002
435 435 0.004
1056 435 -0.002
1057 435 -0.002
436 436 0.004
1056 436 -0.002
1057 436 -0.002
437 437 0.004
1056 437 -0.002
1057 437 -0.002
438 438 0.004
1056 438 -0.002
1057 438 -0.002
439 439 0.004
1056 439 -0.002
1057 439 -0.002
440 440 0.004
1056 440 -0.002
1057 440 -0.002
441 441 0.004
1056 441 -0.002
1057 441 -0.002
442 442 0.004
1056 442 -0.002
1057 442 -0.002
443 443 0.004
1056 443 -0.002
1057 443 -0.002
444 444 0.004
1056 444 -0.002
1057 444 -0.002
445 445 0.004
1056 445 -0.002
1057 445 -0.002
446 446 0.004
1056 446 -0.002
1057 446 -0.002
447 447 0.004
1056 447 -0.002
1057 447 -0.002
448 448 0.004
1056 448 -0.002
1057 448 -0.002
449 449 0.004
1056 449 -0.002
1057 449 -0.002
450 450 0.004
1056 450 -0.002
1057 450 -0.002
451 451 0.004
1056 451 -0.002
1057 451 -0.002
452 452 0.004
1056 452 -0.002
1057 452 -0.002
453 453 0.004
1056 453 -0.002
1057 453 -0.002
454 454 0.004
1056 454 -0.002
1057 454 -0.002
455 455 0.004
1056 455 -0.002
1057 455 -0.002
456 456 0.004
1056 456 -0.002
1057 456 -0.002
457 457 0.004
1056 457 -0.002
1057 457 -0.002
458 458 0.004
1056 458 -0.002
1057 458 -0.002
459 459 0.004
1056 459 -0.002
1057 459 -0.002
460 460 0.006
1056 460 -0.004
1057 460 -0.002
133 461 -0.00100117
461 461 0.00400117
462 461 0
1056 461 -0.001
1057 461 -0.002
125 462 -1
128 462 -0.0104851
132 462 0
133 462 -0.00100117
461 462 0
462 462 0.0144863
1056 462 -0.001
1057 462 -0.002
463 463 0.004
1056 463 -0.002
1057 463 -0.002
464 464 0.004
1056 464 -0.002
1057 464 -0.002
121 465 -1
122 465 -0.0104851
123 465 0.0164851
465 465 -1
466 465 0
1056 465 -0.002
1057 465 -0.004
91 466 -1
94 466 -0.0044945
97 466 0
107 466 -0.002
111 466 -0.002
112 466 0
118 466 1
119 466 -0.0104851
122 466 0
123 466 0
465 466 0
466 466 0.0189796
1043 466 0
1056 466 0
1057 466 0
467 467 1
468 467 0.002
482 467 -0.002
468 468 1
472 468 -1
469 469 1
470 469 0.002
482 469 -0.002
470 470 1
471 470 -1
469 471 -1
470 471 0
471 471 0.002
482 471 0
1056 471 -0.002
467 472 -1
468 472 0
472 472 0.002
482 472 0
1056 472 -0.002
473 473 0.004
482 473 -0.002
1056 473 -0.002
474 474 0.004
482 474 -0.002
1056 474 -0.002
475 475 0.004
482 475 -0.002
1056 475 -0.002
476 476 0.002
478 476 -1
1056 476 -0.002
476 477 -1
477 477 1
478 477 0
1056 477 0
477 478 0.004
478 478 1
479 478 -0.001
480 478 -0.001
1056 478 -0.002
477 479 -0.001
478 479 0
479 479 0.004
480 479 0
482 479 -0.002
1056 479 -0.001
477 480 -0.001
478 480 0
479 480 0
480 480 0.004
482 480 -0.002
1056 480 -0.001
481 481 0.004
482 481 -0.002
1056 481 -0.002
482 482 -1
1052 482 1
483 483 0.004
486 483 -0.001
490 483 -0.003
484 484 0.00400001
485 484 -0.001
1056 484 -0.003
484 485 -0.001
485 485 0.006
490 485 -0.004
1056 485 -0.001
483 486 -0.001
486 486 0.006
490 486 -0.001
1056 486 -0.004
487 487 0.004
490 487 -0.002
1056 487 -0.002
488 488 0.004
490 488 -0.002
1056 488 -0.002
489 489 0.004
490 489 -0.002
1056 489 -0.002
490 490 -1
1052 490 1
491 491 1e-05
716 491 -1e-05
492 492 1e-05
715 492 -1e-05
493 493 6.59473e-06
494 493 -6.59473e-06
493 494 -6.59473e-06
494 494 6.59473e-06
498 494 1
495 495 6.59473e-06
496 495 -6.59473e-06
496 496 1
501 496 -1
495 497 -6.59473e-06
496 497 6.59473e-06
497 497 1
501 497 0
497 498 -1
498 498 -1
500 498 -3.95684e-05
501 498 3.95684e-05
503 498 -1
499 499 1
500 499 3.95684e-05
501 499 -3.95684e-05
500 500 1
714 500 -1
494 501 1
498 501 0
500 501 0
501 501 -1
503 501 0
714 501 0
501 502 -1
502 502 1
503 502 0
714 502 0
502 503 1.31895e-05
503 503 1
714 503 0
1056 503 -1.31895e-05
504 504 0.002
505 504 -0.002
504 505 -0.002
505 505 0.002
690 505 -1
506 506 0.002
507 506 -0.002
506 507 -0.002
507 507 0.002
689 507 -1
508 508 0.002
509 508 -0.002
508 509 -0.002
509 509 0.002
688 509 -1
510 510 0.002
511 510 -0.002
510 511 -0.002
511 511 0.002
687 511 -1
512 512 0.002
513 512 -0.002
512 513 -0.002
513 513 0.002
686 513 -1
514 514 0.002
515 514 -0.002
514 515 -0.002
515 515 0.002
685 515 -1
516 516 0.002
517 516 -0.002
516 517 -0.002
517 517 0.002
684 517 -1
518 518 0.002
519 518 -0.002
518 519 -0.002
519 519 0.002
683 519 -1
520 520 0.002
521 520 -0.002
520 521 -0.002
521 521 0.002
682 521 -1
522 522 0.002
523 522 -0.002
522 523 -0.002
523 523 0.002
681 523 -1
524 524 0.002
525 524 -0.002
524 525 -0.002
525 525 0.002
680 525 -1
526 526 0.002
527 526 -0.002
526 527 -0.002
527 527 0.002
679 527 -1
528 528 0.002
529 528 -0.002
528 529 -0.002
529 529 0.002
678 529 -1
530 530 0.002
531 530 -0.002
530 531 -0.002
531 531 0.002
677 531 -1
532 532 0.002
533 532 -0.002
532 533 -0.002
533 533 0.002
676 533 -1
534 534 0.002
535 534 -0.002
534 535 -0.002
535 535 0.002
675 535 -1
536 536 0.002
537 536 -0.002
536 537 -0.002
537 537 0.002
674 537 -1
538 538 0.002
539 538 -0.002
538 539 -0.002
539 539 0.002
673 539 -1
540 540 0.002
541 540 -0.002
540 541 -0.002
541 541 0.002
672 541 -1
542 542 0.002
543 542 -0.002
542 543 -0.002
543 543 0.002
671 543 -1
544 544 0.002
545 544 -0.002
544 545 -0.002
545 545 0.002
670 545 -1
546 546 0.002
547 546 -0.002
546 547 -0.002
547 547 0.002
669 547 -1
548 548 0.002
549 548 -0.002
548 549 -0.002
549 549 0.002
668 549 -1
550 550 0.002
551 550 -0.002
550 551 -0.002
551 551 0.002
667 551 -1
552 552 0.002
553 552 -0.002
552 553 -0.002
553 553 0.002
666 553 -1
554 554 0.002
555 554 -0.002
554 555 -0.002
555 555 0.002
665 555 -1
556 556 0.002
557 556 -0.002
556 557 -0.002
557 557 0.002
664 557 -1
558 558 0.002
559 558 -0.002
558 559 -0.002
559 559 0.002
663 559 -1
560 560 0.002
561 560 -0.002
560 561 -0.002
561 561 0.002
662 561 -1
562 562 0.002
563 562 -0.002
562 563 -0.002
563 563 0.002
661 563 -1
564 564 0.002
565 564 -0.002
564 565 -0.002
565 565 0.002
660 565 -1
566 566 0.002
567 566 -0.002
566 567 -0.002
567 567 0.002
659 567 -1
568 568 0.002
569 568 -0.002
568 569 -0.002
569 569 0.002
658 569 -1
570 570 0.002
571 570 -0.002
570 571 -0.002
571 571 0.002
657 571 -1
572 572 0.002
573 572 -0.002
572 573 -0.002
573 573 0.002
656 573 -1
574 574 0.002
575 574 -0.002
574 575 -0.002
575 575 0.002
655 575 -1
576 576 0.002
577 576 -0.002
576 577 -0.002
577 577 0.002
654 577 -1
578 578 0.002
579 578 -0.002
578 579 -0.002
579 579 0.002
653 579 -1
580 580 0.002
581 580 -0.002
580 581 -0.002
581 581 0.002
652 581 -1
582 582 0.002
583 582 -0.002
582 583 -0.002
583 583 0.002
651 583 -1
584 584 0.002
585 584 -0.002
584 585 -0.002
585 585 0.002
650 585 -1
586 586 0.002
587 586 -0.002
586 587 -0.002
587 587 0.002
649 587 -1
588 588 0.002
589 588 -0.002
588 589 -0.002
589 589 0.002
648 589 -1
590 590 0.002
591 590 -0.002
590 591 -0.002
591 591 0.002
647 591 -1
592 592 0.002
593 592 -0.002
592 593 -0.002
593 593 0.002
646 593 -1
594 594 0.002
595 594 -0.002
594 595 -0.002
595 595 0.002
645 595 -1
596 596 0.002
597 596 -0.002
596 597 -0.002
597 597 0.002
644 597 -1
598 598 0.002
599 598 -0.002
598 599 -0.002
599 599 0.002
643 599 -1
600 600 0.002
601 600 -0.002
600 601 -0.002
601 601 0.002
642 601 -1
602 602 0.002
603 602 -0.002
602 603 -0.002
603 603 0.002
641 603 -1
604 604 0.002
605 604 -0.002
604 605 -0.002
605 605 0.002
640 605 -1
606 606 0.002
607 606 -0.002
606 607 -0.002
607 607 0.002
639 607 -1
608 608 0.002
609 608 -0.002
608 609 -0.002
609 609 0.002
638 609 -1
610 610 0.002
611 610 -0.002
610 611 -0.002
611 611 0.002
637 611 -1
612 612 0.002
613 612 -0.002
612 613 -0.002
613 613 0.002
636 613 -1
614 614 0.002
615 614 -0.002
614 615 -0.002
615 615 0.002
635 615 -1
616 616 0.002
617 616 -0.002
616 617 -0.002
617 617 0.002
634 617 -1
618 618 0.002
619 618 -0.002
618 619 -0.002
619 619 0.002
633 619 -1
620 620 0.002
621 620 -0.002
620 621 -0.002
621 621 0.002
632 621 -1
622 622 0.002
623 622 -0.002
622 623 -0.002
623 623 0.002
631 623 -1
624 624 0.002
625 624 -0.002
624 625 -0.002
625 625 0.002
630 625 -1
626 626 1
1056 626 -1
627 627 0.002
628 627 -0.002
627 628 -0.002
628 628 0.002
629 628 -1
628 629 -1
629 629 -1e-06
1056 629 1
625 630 -1
630 630 -1e-06
1056 630 1
623 631 -1
631 631 -1e-06
1056 631 1
621 632 -1
632 632 -1e-06
1056 632 1
619 633 -1
633 633 -1e-06
1056 633 1
617 634 -1
634 634 -1e-06
1056 634 1
615 635 -1
635 635 -1e-06
1056 635 1
613 636 -1
636 636 -1e-06
1056 636 1
611 637 -1
637 637 -1e-06
1056 637 1
609 638 -1
638 638 -1e-06
1056 638 1
607 639 -1
639 639 -1e-06
1056 639 1
605 640 -1
640 640 -1e-06
1056 640 1
603 641 -1
641 641 -1e-06
1056 641 1
601 642 -1
642 642 -1e-06
1056 642 1
599 643 -1
643 643 -1e-06
1056 643 1
597 644 -1
644 644 -1e-06
1056 644 1
595 645 -1
645 645 -1e-06
1056 645 1
593 646 -1
646 646 -1e-06
1056 646 1
591 647 -1
647 647 -1e-06
1056 647 1
589 648 -1
648 648 -1e-06
1056 648 1
587 649 -1
649 649 -1e-06
1056 649 1
585 650 -1
650 650 -1e-06
1056 650 1
583 651 -1
651 651 -1e-06
1056 651 1
581 652 -1
652 652 -1e-06
1056 652 1
579 653 -1
653 653 -1e-06
1056 653 1
577 654 -1
654 654 -1e-06
1056 654 1
575 655 -1
655 655 -1e-06
1056 655 1
573 656 -1
656 656 -1e-06
1056 656 1
571 657 -1
657 657 -1e-06
1056 657 1
569 658 -1
658 658 -1e-06
1056 658 1
567 659 -1
659 659 -1e-06
1056 659 1
565 660 -1
660 660 -1e-06
1056 660 1
563 661 -1
661 661 -1e-06
1056 661 1
561 662 -1
662 662 -1e-06
1056 662 1
559 663 -1
663 663 -1e-06
1056 663 1
557 664 -1
664 664 -1e-06
1056 664 1
555 665 -1
665 665 -1e-06
1056 665 1
553 666 -1
666 666 -1e-06
1056 666 1
551 667 -1
667 667 -1e-06
1056 667 1
549 668 -1
668 668 -1e-06
1056 668 1
547 669 -1
669 669 -1e-06
1056 669 1
545 670 -1
670 670 -1e-06
1056 670 1
543 671 -1
671 671 -1e-06
1056 671 1
541 672 -1
672 672 -1e-06
1056 672 1
539 673 -1
673 673 -1e-06
1056 673 1
537 674 -1
674 674 -1e-06
1056 674 1
535 675 -1
675 675 -1e-06
1056 675 1
533 676 -1
676 676 -1e-06
1056 676 1
531 677 -1
677 677 -1e-06
1056 677 1
529 678 -1
678 678 -1e-06
1056 678 1
527 679 -1
679 679 -1e-06
1056 679 1
525 680 -1
680 680 -1e-06
1056 680 1
523 681 -1
681 681 -1e-06
1056 681 1
521 682 -1
682 682 -1e-06
1056 682 1
519 683 -1
683 683 -1e-06
1056 683 1
517 684 -1
684 684 -1e-06
1056 684 1
515 685 -1
685 685 -1e-06
1056 685 1
513 686 -1
686 686 -1e-06
1056 686 1
511 687 -1
687 687 -1e-06
1056 687 1
509 688 -1
688 688 -1e-06
1056 688 1
507 689 -1
689 689 -1e-06
1056 689 1
505 690 -1
690 690 -1e-06
1056 690 1
691 691 0.004
1056 691 -0.004
692 692 1
1056 692 -1
693 693 0.000373552
1056 693 -0.000373552
694 694 0.000373552
1056 694 -0.000373552
695 695 1e-05
1056 695 -1e-05
696 696 1
696 697 0.001
697 697 1
698 698 1
698 699 0.001
699 699 1
697 700 1
699 700 -1
700 700 0.0065416
703 700 -0.00104867
713 700 -0.00549293
701 701 1
701 702 0.001
702 702 1
699 703 1
700 703 -0.00104867
702 703 -1
703 703 0.0065416
704 703 -0.00549293
713 703 0
702 704 1
703 704 -0.00549293
704 704 0.00749293
713 704 0
1056 704 -0.002
705 705 1
706 705 -2.19298
707 705 2.19298
706 706 3.19298
707 706 -2.19298
1052 706 -1
707 707 1
1052 707 -1
708 708 0.004
713 708 -0.001
1052 708 -0.003
709 709 -1
710 709 0.002
1056 709 -0.002
710 710 -1
712 710 1
711 711 0.00400001
712 711 -0.001
1052 711 -0.00300001
709 712 1
710 712 0
711 712 -0.001
712 712 0.002
1052 712 -0.001
1056 712 0
697 713 -1
700 713 -0.00549293
703 713 0
704 713 0
708 713 -0.001
713 713 0.00749293
1052 713 -0.001
1056 713 0
499 714 -1
500 714 0
501 714 0
503 714 0
714 714 0.002
1052 714 -0.002
1056 714 0
492 715 -1e-05
715 715 0.00401
1052 715 -0.002
1056 715 -0.002
491 716 -1e-05
716 716 0.00401
1052 716 -0.002
1056 716 -0.002
717 717 -1
808 717 1
718 718 -1
719 719 -1
720 720 -1
721 720 1
719 721 1
721 721 3.07797
723 721 -3.07797
721 722 -3.07797
722 722 -1
723 722 3.07797
723 723 -1
808 723 1
724 724 -1
725 725 -1
726 725 1
724 726 1
726 726 1.53899
728 726 -1.53899
726 727 -1.53899
727 727 -1
728 727 1.53899
728 728 -1
808 728 1
729 729 -1
730 730 -1
731 730 1
729 731 1
731 731 1.53899
733 731 -1.53899
731 732 -1.53899
732 732 -1
733 732 1.53899
733 733 -1
808 733 1
734 734 1
734 735 -1e-06
735 735 1
808 735 -1
736 736 1
736 737 -1e-06
737 737 1
808 737 -1
738 738 1
738 739 -1e-06
739 739 1
808 739 -1
740 740 1
740 741 -1e-06
741 741 1
808 741 -1
742 742 1
742 743 -1e-06
743 743 1
808 743 -1
744 744 1
744 745 -1e-06
745 745 1
808 745 -1
746 746 1
746 747 -1e-06
747 747 1
808 747 -1
748 748 1
748 749 -1e-06
749 749 1
808 749 -1
750 750 1
750 751 -1e-06
751 751 1
808 751 -1
752 752 1
752 753 -1e-06
753 753 1
808 753 -1
754 754 1
754 755 -1e-06
755 755 1
808 755 -1
756 756 1
756 757 -1e-06
757 757 1
808 757 -1
758 758 1
758 759 -1e-06
759 759 1
808 759 -1
760 760 1
760 761 -1e-06
761 761 1
808 761 -1
762 762 1
762 763 -1e-06
763 763 1
808 763 -1
764 764 1
764 765 -1e-06
765 765 1
808 765 -1
766 766 1
766 767 -1e-06
767 767 1
808 767 -1
768 768 1
768 769 -1e-06
769 769 1
808 769 -1
770 770 1
770 771 -1e-06
771 771 1
808 771 -1
772 772 1
772 773 -1e-06
773 773 1
808 773 -1
774 774 1
774 775 -1e-06
775 775 1
808 775 -1
776 776 1
776 777 -1e-06
777 777 1
808 777 -1
778 778 1
778 779 -1e-06
779 779 1
808 779 -1
780 780 1
780 781 -1e-06
781 781 1
808 781 -1
782 782 1
782 783 -1e-06
783 783 1
808 783 -1
784 784 1
784 785 -1e-06
785 785 1
808 785 -1
786 786 1
786 787 -1e-06
787 787 1
808 787 -1
788 788 1
788 789 -1e-06
789 789 1
808 789 -1
790 790 1
790 791 -1e-06
791 791 1
808 791 -1
792 792 1
792 793 -1e-06
793 793 1
808 793 -1
794 794 1
794 795 -1e-06
795 795 1
808 795 -1
796 796 0.0643993
901 796 -1
902 796 -0.0643993
797 797 1
798 798 -1e-06
799 798 1
808 798 -1
799 799 1
802 799 -1e-06
808 799 -1
799 800 1
800 800 -1e-06
802 800 0
808 800 -1
799 801 1
801 801 -1e-06
802 801 0
808 801 -1
798 802 1
799 802 0
800 802 1
801 802 1
802 802 1
808 802 0
803 803 -1e-06
804 803 1
808 803 -1
804 804 1
807 804 -1e-06
808 804 -1
804 805 1
805 805 -1e-06
807 805 0
808 805 -1
804 806 1
806 806 -1e-06
807 806 0
808 806 -1
803 807 1
804 807 0
805 807 1
806 807 1
807 807 1
808 807 0
796 808 -1
808 808 1
901 808 0
902 808 0
809 809 -1
899 809 1
810 810 -1
811 811 -1
812 812 -1
813 812 1
811 813 1
813 813 3.07797
815 813 -3.07797
813 814 -3.07797
814 814 -1
815 814 3.07797
815 815 -1
899 815 1
816 816 -1
817 817 -1
818 817 1
816 818 1
818 818 1.53899
820 818 -1.53899
818 819 -1.53899
819 819 -1
820 819 1.53899
820 820 -1
899 820 1
821 821 -1
822 822 -1
823 822 1
821 823 1
823 823 1.53899
825 823 -1.53899
823 824 -1.53899
824 824 -1
825 824 1.53899
825 825 -1
899 825 1
826 826 1
826 827 -1e-06
827 827 1
899 827 -1
828 828 1
828 829 -1e-06
829 829 1
899 829 -1
830 830 1
830 831 -1e-06
831 831 1
899 831 -1
832 832 1
832 833 -1e-06
833 833 1
899 833 -1
834 834 1
834 835 -1e-06
835 835 1
899 835 -1
836 836 1
836 837 -1e-06
837 837 1
899 837 -1
838 838 1
838 839 -1e-06
839 839 1
899 839 -1
840 840 1
840 841 -1e-06
841 841 1
899 841 -1
842 842 1
842 843 -1e-06
843 843 1
899 843 -1
844 844 1
844 845 -1e-06
845 845 1
899 845 -1
846 846 1
846 847 -1e-06
847 847 1
899 847 -1
848 848 1
848 849 -1e-06
849 849 1
899 849 -1
850 850 1
850 851 -1e-06
851 851 1
899 851 -1
852 852 1
852 853 -1e-06
853 853 1
899 853 -1
854 854 1
854 855 -1e-06
855 855 1
899 855 -1
856 856 1
856 857 -1e-06
857 857 1
899 857 -1
858 858 1
858 859 -1e-06
859 859 1
899 859 -1
860 860 1
860 861 -1e-06
861 861 1
899 861 -1
862 862 1
862 863 -1e-06
863 863 1
899 863 -1
864 864 1
864 865 -1e-06
865 865 1
899 865 -1
866 866 1
866 867 -1e-06
867 867 1
899 867 -1
868 868 1
868 869 -1e-06
869 869 1
899 869 -1
870 870 1
870 871 -1e-06
871 871 1
899 871 -1
872 872 1
872 873 -1e-06
873 873 1
899 873 -1
874 874 1
874 875 -1e-06
875 875 1
899 875 -1
876 876 1
876 877 -1e-06
877 877 1
899 877 -1
878 878 1
878 879 -1e-06
879 879 1
899 879 -1
880 880 1
880 881 -1e-06
881 881 1
899 881 -1
882 882 1
882 883 -1e-06
883 883 1
899 883 -1
884 884 1
884 885 -1e-06
885 885 1
899 885 -1
886 886 1
886 887 -1e-06
887 887 1
899 887 -1
888 888 0.0643993
900 888 -1
902 888 -0.0643993
889 889 -1e-06
890 889 1
899 889 -1
890 890 1
893 890 -1e-06
899 890 -1
890 891 1
891 891 -1e-06
893 891 0
899 891 -1
890 892 1
892 892 -1e-06
893 892 0
899 892 -1
889 893 1
890 893 0
891 893 1
892 893 1
893 893 1
899 893 0
894 894 -1e-06
895 894 1
899 894 -1
895 895 1
898 895 -1e-06
899 895 -1
895 896 1
896 896 -1e-06
898 896 0
899 896 -1
895 897 1
897 897 -1e-06
898 897 0
899 897 -1
894 898 1
895 898 0
896 898 1
897 898 1
898 898 1
899 898 0
888 899 -1
899 899 1
900 899 0
902 899 0
797 900 1
808 900 -0.0005
810 900 1
814 900 1
815 900 0
819 900 1
820 900 0
824 900 1
825 900 0
826 900 -1
828 900 -1
830 900 -1
832 900 -1
834 900 -1
836 900 -1
838 900 -1
840 900 -1
842 900 -1
844 900 -1
846 900 -1
848 900 -1
850 900 -1
852 900 -1
854 900 -1
856 900 -1
858 900 -1
860 900 -1
862 900 -1
864 900 -1
866 900 -1
868 900 -1
870 900 -1
872 900 -1
874 900 -1
876 900 -1
878 900 -1
880 900 -1
882 900 -1
884 900 -1
886 900 -1
889 900 -1
890 900 0
891 900 -1
892 900 -1
893 900 -1
894 900 -1
895 900 0
896 900 -1
897 900 -1
898 900 -1
899 900 0.0025
900 900 1
901 900 0
902 900 0
1056 900 -0.002
718 901 1
722 901 1
723 901 0
727 901 1
728 901 0
732 901 1
733 901 0
734 901 -1
736 901 -1
738 901 -1
740 901 -1
742 901 -1
744 901 -1
746 901 -1
748 901 -1
750 901 -1
752 901 -1
754 901 -1
756 901 -1
758 901 -1
760 901 -1
762 901 -1
764 901 -1
766 901 -1
768 901 -1
770 901 -1
772 901 -1
774 901 -1
776 901 -1
778 901 -1
780 901 -1
782 901 -1
784 901 -1
786 901 -1
788 901 -1
790 901 -1
792 901 -1
794 901 -1
797 901 -1
798 901 -1
799 901 0
800 901 -1
801 901 -1
802 901 -1
803 901 -1
804 901 0
805 901 -1
806 901 -1
807 901 -1
808 901 0.0025
899 901 -0.0005
900 901 0
901 901 1
902 901 0
1056 901 -0.002
796 902 -0.0643993
888 902 -0.0643993
900 902 0
901 902 0
902 902 0.128799
907 902 -1
1056 902 0
903 903 0.00400003
906 903 -0.00200001
1052 903 -0.00200001
904 904 0.00400009
906 904 -0.00200004
1052 904 -0.00200004
905 905 0.00400006
906 905 -0.00200003
1052 905 -0.00200003
902 906 -1
906 906 1
907 906 0
1056 906 0
903 907 -0.00200001
904 907 -0.00200004
905 907 -0.00200003
906 907 0.00600009
907 907 1
1052 907 0
1056 907 0
908 908 0.004
1052 908 -0.002
1056 908 -0.002
483 909 -0.003
485 909 -0.004
486 909 -0.001
487 909 -0.002
488 909 -0.002
489 909 -0.002
490 909 0.014
909 909 -1
1052 909 0
1056 909 0
468 910 -0.002
470 910 -0.002
471 910 0
472 910 0
473 910 -0.002
474 910 -0.002
475 910 -0.002
479 910 -0.002
480 910 -0.002
481 910 -0.002
482 910 0.016
910 910 -1
1052 910 0
1056 910 0
911 911 0.004
1052 911 -0.002
1056 911 -0.002
912 912 0.004
1052 912 -0.002
1056 912 -0.002
913 913 0.004
1052 913 -0.002
1056 913 -0.002
914 914 0.004
1052 914 -0.002
1056 914 -0.002
915 915 0.004
1052 915 -0.002
1056 915 -0.002
916 916 0.004
1052 916 -0.002
1056 916 -0.002
917 917 0.004
1052 917 -0.002
1056 917 -0.002
918 918 0.004
1052 918 -0.002
1056 918 -0.002
919 919 0.004
1052 919 -0.002
1056 919 -0.002
920 920 0.004
1052 920 -0.002
1056 920 -0.002
921 921 0.004
1052 921 -0.002
1056 921 -0.002
922 922 0.004
1052 922 -0.002
1056 922 -0.002
923 923 0.004
1052 923 -0.002
1056 923 -0.002
924 924 0.004
1052 924 -0.002
1056 924 -0.002
925 925 0.004
1052 925 -0.002
1056 925 -0.002
926 926 0.004
1052 926 -0.002
1056 926 -0.002
927 927 0.004
1052 927 -0.002
1056 927 -0.002
928 928 0.004
1052 928 -0.002
1056 928 -0.002
929 929 0.004
1052 929 -0.002
1056 929 -0.002
930 930 0.004
1052 930 -0.002
1056 930 -0.002
931 931 0.004
1052 931 -0.002
1056 931 -0.002
932 932 0.004
1052 932 -0.002
1056 932 -0.002
933 933 0.004
1052 933 -0.002
1056 933 -0.002
934 934 0.004
1052 934 -0.002
1056 934 -0.002
935 935 0.004
1052 935 -0.002
1056 935 -0.002
936 936 0.004
1052 936 -0.002
1056 936 -0.002
937 937 0.004
1052 937 -0.002
1056 937 -0.002
938 938 0.004
1052 938 -0.002
1056 938 -0.002
939 939 0.004
1052 939 -0.002
1056 939 -0.002
940 940 0.004
1052 940 -0.002
1056 940 -0.002
941 941 0.004
1052 941 -0.002
1056 941 -0.002
942 942 0.004
1052 942 -0.002
1056 942 -0.002
943 943 0.004
1052 943 -0.002
1056 943 -0.002
944 944 0.004
1052 944 -0.002
1056 944 -0.002
945 945 0.004
1052 945 -0.002
1056 945 -0.002
946 946 0.004
1052 946 -0.002
1056 946 -0.002
947 947 0.004
1052 947 -0.002
1056 947 -0.002
948 948 0.004
1052 948 -0.002
1056 948 -0.002
949 949 0.004
1052 949 -0.002
1056 949 -0.002
950 950 0.004
1052 950 -0.002
1056 950 -0.002
951 951 0.004
1052 951 -0.002
1056 951 -0.002
952 952 0.004
1052 952 -0.002
1056 952 -0.002
953 953 0.004
1052 953 -0.002
1056 953 -0.002
954 954 0.004
1052 954 -0.002
1056 954 -0.002
955 955 0.004
1052 955 -0.002
1056 955 -0.002
956 956 0.004
1052 956 -0.002
1056 956 -0.002
957 957 0.004
1052 957 -0.002
1056 957 -0.002
958 958 0.004
1052 958 -0.002
1056 958 -0.002
959 959 0.004
1052 959 -0.002
1056 959 -0.002
960 960 0.004
1052 960 -0.002
1056 960 -0.002
961 961 0.004
1052 961 -0.002
1056 961 -0.002
962 962 0.004
1052 962 -0.002
1056 962 -0.002
963 963 0.004
1052 963 -0.002
1056 963 -0.002
964 964 0.004
1052 964 -0.002
1056 964 -0.002
965 965 0.004
1052 965 -0.002
1056 965 -0.002
966 966 0.004
1052 966 -0.002
1056 966 -0.002
967 967 0.004
1052 967 -0.002
1056 967 -0.002
968 968 0.004
1052 968 -0.002
1056 968 -0.002
969 969 0.004
1052 969 -0.002
1056 969 -0.002
970 970 0.004
1052 970 -0.002
1056 970 -0.002
971 971 0.004
1052 971 -0.002
1056 971 -0.002
972 972 0.004
1052 972 -0.002
1056 972 -0.002
973 973 0.004
1052 973 -0.002
1056 973 -0.002
974 974 0.004
1052 974 -0.002
1056 974 -0.002
975 975 0.004
1052 975 -0.002
1056 975 -0.002
976 976 0.004
1052 976 -0.002
1056 976 -0.002
977 977 0.004
1052 977 -0.002
1056 977 -0.002
978 978 0.004
1052 978 -0.002
1056 978 -0.002
979 979 0.004
1052 979 -0.002
1056 979 -0.002
980 980 0.004
1052 980 -0.002
1056 980 -0.002
981 981 0.004
1052 981 -0.002
1056 981 -0.002
982 982 0.004
1052 982 -0.002
1056 982 -0.002
983 983 0.004
1052 983 -0.002
1056 983 -0.002
984 984 0.004
1052 984 -0.002
1056 984 -0.002
985 985 0.004
1052 985 -0.002
1056 985 -0.002
986 986 0.004
1052 986 -0.002
1056 986 -0.002
987 987 0.004
1052 987 -0.002
1056 987 -0.002
988 988 0.004
1052 988 -0.002
1056 988 -0.002
989 989 0.004
1052 989 -0.002
1056 989 -0.002
990 990 0.004
1052 990 -0.002
1056 990 -0.002
991 991 0.004
1052 991 -0.002
1056 991 -0.002
992 992 0.004
1052 992 -0.002
1056 992 -0.002
993 993 0.004
1052 993 -0.002
1056 993 -0.002
994 994 0.004
1052 994 -0.002
1056 994 -0.002
995 995 0.004
1052 995 -0.002
1056 995 -0.002
996 996 1
997 996 1e-09
997 997 1
1000 997 -1
998 998 6.59473e-06
999 998 1
1043 998 -6.59473e-06
996 999 -1
997 999 0
999 999 -1
1000 999 0.004
1043 999 -0.002
1052 999 -0.001
1056 999 -0.001
998 1000 1
999 1000 0
1000 1000 -1
1043 1000 0
1052 1000 0
1056 1000 0
1001 1001 0.004
1029 1001 -0.002
1032 1001 -0.002
1002 1002 0.004
1029 1002 -0.002
1032 1002 -0.002
1003 1003 0.004
1029 1003 -0.002
1032 1003 -0.002
1004 1004 0.004
1029 1004 -0.002
1032 1004 -0.002
1005 1005 0.004
1013 1005 -0.001
1032 1005 -0.003
1006 1006 0.004
1013 1006 -0.001
1015 1006 -0.003
1007 1007 0.004
1012 1007 -0.001
1032 1007 -0.003
1008 1008 0.004
1012 1008 -0.001
1015 1008 -0.003
1009 1009 0.004
1015 1009 -0.002
1032 1009 -0.002
1010 1010 0.004
1015 1010 -0.002
1032 1010 -0.002
1011 1011 0.008
1012 1011 -0.002
1015 1011 -0.003
1032 1011 -0.003
1007 1012 -0.001
1008 1012 -0.001
1011 1012 -0.002
1012 1012 0.008
1015 1012 -0.002
1032 1012 -0.002
1005 1013 -0.001
1006 1013 -0.001
1013 1013 0.008
1015 1013 -0.002
1016 1013 -0.002
1032 1013 -0.002
1006 1014 -0.003
1008 1014 -0.003
1009 1014 -0.002
1010 1014 -0.002
1011 1014 -0.003
1012 1014 -0.002
1013 1014 -0.002
1014 1014 -1
1015 1014 0.018
1016 1014 -0.001
1032 1014 0
1015 1015 -1
1029 1015 1
1013 1016 -0.002
1015 1016 -0.001
1016 1016 0.008
1029 1016 -0.002
1032 1016 -0.003
1017 1017 0.004
1025 1017 -0.001
1032 1017 -0.003
1018 1018 0.004
1025 1018 -0.001
1027 1018 -0.003
1019 1019 0.004
1024 1019 -0.001
1032 1019 -0.003
1020 1020 0.004
1024 1020 -0.001
1027 1020 -0.003
1021 1021 0.004
1027 1021 -0.002
1032 1021 -0.002
1022 1022 0.004
1027 1022 -0.002
1032 1022 -0.002
1023 1023 0.008
1024 1023 -0.002
1027 1023 -0.003
1032 1023 -0.003
1019 1024 -0.001
1020 1024 -0.001
1023 1024 -0.002
1024 1024 0.008
1027 1024 -0.002
1032 1024 -0.002
1017 1025 -0.001
1018 1025 -0.001
1025 1025 0.008
1027 1025 -0.002
1028 1025 -0.002
1032 1025 -0.002
1018 1026 -0.003
1020 1026 -0.003
1021 1026 -0.002
1022 1026 -0.002
1023 1026 -0.003
1024 1026 -0.002
1025 1026 -0.002
1026 1026 -1
1027 1026 0.018
1028 1026 -0.001
1032 1026 0
1027 1027 -1
1029 1027 1
1025 1028 -0.002
1027 1028 -0.001
1028 1028 0.008
1029 1028 -0.002
1032 1028 -0.003
1029 1029 1
1052 1029 -1
1001 1030 -0.002
1002 1030 -0.002
1003 1030 -0.002
1004 1030 -0.002
1014 1030 1
1015 1030 0
1016 1030 -0.002
1026 1030 1
1027 1030 0
1028 1030 -0.002
1029 1030 0.012
1030 1030 1
1032 1030 0
1052 1030 0
1001 1031 -0.002
1002 1031 -0.002
1003 1031 -0.002
1004 1031 -0.002
1005 1031 -0.003
1007 1031 -0.003
1009 1031 -0.002
1010 1031 -0.002
1011 1031 -0.003
1012 1031 -0.002
1013 1031 -0.002
1015 1031 0
1016 1031 -0.003
1017 1031 -0.003
1019 1031 -0.003
1021 1031 -0.002
1022 1031 -0.002
1023 1031 -0.003
1024 1031 -0.002
1025 1031 -0.002
1027 1031 0
1028 1031 -0.003
1029 1031 0
1031 1031 1
1032 1031 0.048
1052 1031 0
1032 1032 1
1056 1032 -1
1033 1033 1.02564
1042 1033 -1.02564
1034 1034 1.02564
1042 1034 -1.02564
1035 1035 0.512821
1040 1035 -0.512821
1036 1036 0.512821
1040 1036 -0.512821
1037 1037 0.512821
1041 1037 -0.512821
1038 1038 0.512821
1041 1038 -0.512821
1037 1039 -0.512821
1038 1039 -0.512821
1039 1039 1
1040 1039 -0.00200002
1041 1039 1.03764
1042 1039 -0.00400003
1052 1039 -0.003
1056 1039 -0.003
1035 1040 -0.512821
1036 1040 -0.512821
1040 1040 1.03164
1041 1040 -0.00200002
1052 1040 -0.001
1056 1040 -0.00300001
1041 1041 1
1033 1042 -1.02564
1034 1042 -1.02564
1041 1042 -0.00400003
1042 1042 2.06128
1052 1042 -0.002
1056 1042 -0.00400002
109 1043 -1
110 1043 0
112 1043 0
466 1043 0
998 1043 -6.59473e-06
999 1043 0
1000 1043 -0.002
1043 1043 0.0040066
1052 1043 -0.001
1056 1043 -0.001
1057 1043 0
1044 1044 0.00969805
1049 1044 1
1045 1045 1
1046 1045 3.29736e-06
1053 1045 -3.29736e-06
1046 1046 1
1047 1046 -1
1044 1047 1
1047 1047 -1
1049 1047 0
1047 1048 -0.001
1048 1048 0.004
1049 1048 0
1052 1048 -0.002
1056 1048 -0.001
1045 1049 -1
1046 1049 0
1047 1049 0.008
1048 1049 -0.001
1049 1049 -1
1050 1049 -0.001
1052 1049 -0.001
1053 1049 -0.002
1056 1049 -0.003
1047 1050 -0.001
1049 1050 0
1050 1050 0.004
1052 1050 -0.002
1053 1050 0
1056 1050 -0.001
705 1051 -1
706 1051 -1
707 1051 0
708 1051 -0.003
711 1051 -0.00300001
712 1051 -0.001
713 1051 -0.001
714 1051 -0.002
715 1051 -0.002
716 1051 -0.002
903 1051 -0.00200001
904 1051 -0.00200004
905 1051 -0.00200003
906 1051 0
907 1051 0
908 1051 -0.002
909 1051 1
910 1051 1
911 1051 -0.002
912 1051 -0.002
913 1051 -0.002
914 1051 -0.002
915 1051 -0.002
916 1051 -0.002
917 1051 -0.002
918 1051 -0.002
919 1051 -0.002
920 1051 -0.002
921 1051 -0.002
922 1051 -0.002
923 1051 -0.002
924 1051 -0.002
925 1051 -0.002
926 1051 -0.002
927 1051 -0.002
928 1051 -0.002
929 1051 -0.002
930 1051 -0.002
931 1051 -0.002
932 1051 -0.002
933 1051 -0.002
934 1051 -0.002
935 1051 -0.002
936 1051 -0.002
937 1051 -0.002
938 1051 -0.002
939 1051 -0.002
940 1051 -0.002
941 1051 -0.002
942 1051 -0.002
943 1051 -0.002
944 1051 -0.002
945 1051 -0.002
946 1051 -0.002
947 1051 -0.002
948 1051 -0.002
949 1051 -0.002
950 1051 -0.002
951 1051 -0.002
952 1051 -0.002
953 1051 -0.002
954 1051 -0.002
955 1051 -0.002
956 1051 -0.002
957 1051 -0.002
958 1051 -0.002
959 1051 -0.002
960 1051 -0.002
961 1051 -0.002
962 1051 -0.002
963 1051 -0.002
964 1051 -0.002
965 1051 -0.002
966 1051 -0.002
967 1051 -0.002
968 1051 -0.002
969 1051 -0.002
970 1051 -0.002
971 1051 -0.002
972 1051 -0.002
973 1051 -0.002
974 1051 -0.002
975 1051 -0.002
976 1051 -0.002
977 1051 -0.002
978 1051 -0.002
979 1051 -0.002
980 1051 -0.002
981 1051 -0.002
982 1051 -0.002
983 1051 -0.002
984 1051 -0.002
985 1051 -0.002
986 1051 -0.002
987 1051 -0.002
988 1051 -0.002
989 1051 -0.002
990 1051 -0.002
991 1051 -0.002
992 1051 -0.002
993 1051 -0.002
994 1051 -0.002
995 1051 -0.002
1000 1051 -0.001
1030 1051 -1
1032 1051 0
1040 1051 -0.001
1041 1051 -0.003
1042 1051 -0.002
1043 1051 -0.001
1047 1051 -0.001
1048 1051 -0.002
1049 1051 0
1050 1051 -0.002
1051 1051 1
1052 1051 1.206
1053 1051 -0.001
1056 1051 0
1057 1051 0
1065 1051 1
1052 1052 1
88 1053 -1
89 1053 0
1046 1053 -3.29736e-06
1047 1053 -0.002
1049 1053 0
1050 1053 0
1052 1053 -0.001
1053 1053 0.0040033
1056 1053 -0.001
1064 1053 0
1054 1054 0.004
1056 1054 -0.001
1057 1054 -0.002
1067 1054 -0.001
1055 1055 0.004
1056 1055 -0.001
1057 1055 -0.002
1067 1055 -0.001
1056 1056 1
1052 1057 1
1057 1057 -1
1056 1058 -0.001
1057 1058 -0.002
1058 1058 0.004
1067 1058 -0.001
1056 1059 -0.001
1057 1059 -0.002
1059 1059 0.004
1067 1059 -0.001
1056 1060 -0.001
1057 1060 -0.002
1060 1060 0.004
1067 1060 -0.001
1056 1061 -0.001
1057 1061 -0.002
1061 1061 0.004
1067 1061 -0.001
1056 1062 -0.001
1057 1062 -0.002
1062 1062 0.004
1067 1062 -0.001
1056 1063 -0.001
1057 1063 -0.002
1063 1063 0.004
1067 1063 -0.001
75 1064 -1
76 1064 -0.0044945
77 1064 0
84 1064 1
85 1064 -0.0044945
86 1064 0
1054 1064 -0.001
1055 1064 -0.001
1056 1064 -0.008
1057 1064 0
1058 1064 -0.001
1059 1064 -0.001
1060 1064 -0.001
1061 1064 -0.001
1062 1064 -0.001
1063 1064 -0.001
1064 1064 1
1067 1064 0.024989
86 1065 -0.002
111 1065 -0.002
112 1065 0
123 1065 -0.004
235 1065 -0.003
236 1065 -0.003
237 1065 -0.003
238 1065 -0.003
239 1065 -0.003
254 1065 -0.002
274 1065 -0.003
275 1065 -0.003
276 1065 -0.003
277 1065 -0.003
278 1065 -0.003
279 1065 -0.003
325 1065 -0.003
326 1065 -0.002
327 1065 -0.002
356 1065 -0.003
368 1065 -0.003
369 1065 -0.001
370 1065 -0.004
371 1065 -0.003
372 1065 -0.003
373 1065 -0.003
374 1065 -0.003
375 1065 -0.003
376 1065 -0.003
416 1065 -0.006
417 1065 -0.004
418 1065 -0.001
419 1065 -0.002
420 1065 -0.001
421 1065 -0.005
422 1065 -0.001
423 1065 0
424 1065 -0.005
425 1065 -0.002
426 1065 -0.002
427 1065 -0.002
428 1065 -0.002
429 1065 -0.002
430 1065 -0.002
431 1065 -0.002
432 1065 -0.002
433 1065 -0.002
434 1065 -0.002
435 1065 -0.002
436 1065 -0.002
437 1065 -0.002
438 1065 -0.002
439 1065 -0.002
440 1065 -0.002
441 1065 -0.002
442 1065 -0.002
443 1065 -0.002
444 1065 -0.002
445 1065 -0.002
446 1065 -0.002
447 1065 -0.002
448 1065 -0.002
449 1065 -0.002
450 1065 -0.002
451 1065 -0.002
452 1065 -0.002
453 1065 -0.002
454 1065 -0.002
455 1065 -0.002
456 1065 -0.002
457 1065 -0.002
458 1065 -0.002
459 1065 -0.002
460 1065 -0.002
461 1065 -0.002
462 1065 -0.002
463 1065 -0.002
464 1065 -0.002
465 1065 0
466 1065 0
1043 1065 0
1052 1065 0
1054 1065 -0.002
1055 1065 -0.002
1056 1065 0
1057 1065 0.2
1058 1065 -0.002
1059 1065 -0.002
1060 1065 -0.002
1061 1065 -0.002
1062 1065 -0.002
1063 1065 -0.002
1065 1065 -1
1067 1065 0
77 1066 -0.002
123 1066 -0.002
133 1066 -0.004
183 1066 -0.002
184 1066 -0.002
185 1066 -0.002
217 1066 -0.0524109
218 1066 -0.00399716
219 1066 -0.0524109
220 1066 -0.00399716
221 1066 -0.0524109
222 1066 -0.00399716
223 1066 -0.0524109
224 1066 -0.00399716
225 1066 -0.0524109
226 1066 -0.00399716
227 1066 -0.0524109
228 1066 -0.00399716
229 1066 -0.0524109
230 1066 -0.00399716
231 1066 -0.001
232 1066 -0.001
233 1066 -0.001
234 1066 -0.003
256 1066 1
319 1066 1
321 1066 -1
322 1066 -0.0044945
323 1066 -0.0044945
324 1066 -0.002
332 1066 1
333 1066 1
334 1066 1
335 1066 1
336 1066 0
337 1066 1
338 1066 1
339 1066 1
340 1066 1
341 1066 0
342 1066 1
343 1066 1
344 1066 1
345 1066 1
346 1066 0
347 1066 1
348 1066 1
349 1066 1
350 1066 1
351 1066 0
352 1066 -1
353 1066 -1
354 1066 0
355 1066 -0.003
357 1066 -0.003
364 1066 1
365 1066 -0.0104851
366 1066 -0.001
367 1066 -0.003
369 1066 -0.00200006
370 1066 -0.002
411 1066 -0.002
412 1066 -0.002
413 1066 -0.002
414 1066 -0.0524109
415 1066 -0.00399716
416 1066 0
417 1066 -0.001
418 1066 -0.004
419 1066 -0.001
420 1066 -0.002
421 1066 -0.002
422 1066 -0.002
423 1066 -0.00349607
424 1066 0
425 1066 -0.002
426 1066 -0.002
427 1066 -0.002
428 1066 -0.002
429 1066 -0.002
430 1066 -0.002
431 1066 -0.002
432 1066 -0.002
433 1066 -0.002
434 1066 -0.002
435 1066 -0.002
436 1066 -0.002
437 1066 -0.002
438 1066 -0.002
439 1066 -0.002
440 1066 -0.002
441 1066 -0.002
442 1066 -0.002
443 1066 -0.002
444 1066 -0.002
445 1066 -0.002
446 1066 -0.002
447 1066 -0.002
448 1066 -0.002
449 1066 -0.002
450 1066 -0.002
451 1066 -0.002
452 1066 -0.002
453 1066 -0.002
454 1066 -0.002
455 1066 -0.002
456 1066 -0.002
457 1066 -0.002
458 1066 -0.002
459 1066 -0.002
460 1066 -0.004
461 1066 -0.001
462 1066 -0.001
463 1066 -0.002
464 1066 -0.002
465 1066 0
466 1066 0
471 1066 -0.002
472 1066 -0.002
473 1066 -0.002
474 1066 -0.002
475 1066 -0.002
476 1066 -0.002
477 1066 -0.002
478 1066 0
479 1066 -0.001
480 1066 -0.001
481 1066 -0.002
482 1066 0
484 1066 -0.003
485 1066 -0.001
486 1066 -0.004
487 1066 -0.002
488 1066 -0.002
489 1066 -0.002
490 1066 0
502 1066 -1.31895e-05
503 1066 0
629 1066 1
630 1066 1
631 1066 1
632 1066 1
633 1066 1
634 1066 1
635 1066 1
636 1066 1
637 1066 1
638 1066 1
639 1066 1
640 1066 1
641 1066 1
642 1066 1
643 1066 1
644 1066 1
645 1066 1
646 1066 1
647 1066 1
648 1066 1
649 1066 1
650 1066 1
651 1066 1
652 1066 1
653 1066 1
654 1066 1
655 1066 1
656 1066 1
657 1066 1
658 1066 1
659 1066 1
660 1066 1
661 1066 1
662 1066 1
663 1066 1
664 1066 1
665 1066 1
666 1066 1
667 1066 1
668 1066 1
669 1066 1
670 1066 1
671 1066 1
672 1066 1
673 1066 1
674 1066 1
675 1066 1
676 1066 1
677 1066 1
678 1066 1
679 1066 1
680 1066 1
681 1066 1
682 1066 1
683 1066 1
684 1066 1
685 1066 1
686 1066 1
687 1066 1
688 1066 1
689 1066 1
690 1066 1
691 1066 -0.004
692 1066 -1
693 1066 -0.000373552
694 1066 -0.000373552
695 1066 -1e-05
704 1066 -0.002
710 1066 -0.002
712 1066 0
713 1066 0
714 1066 0
715 1066 -0.002
716 1066 -0.002
797 1066 -1
808 1066 -0.002
899 1066 -0.002
900 1066 0
901 1066 0
902 1066 0
907 1066 0
908 1066 -0.002
911 1066 -0.002
912 1066 -0.002
913 1066 -0.002
914 1066 -0.002
915 1066 -0.002
916 1066 -0.002
917 1066 -0.002
918 1066 -0.002
919 1066 -0.002
920 1066 -0.002
921 1066 -0.002
922 1066 -0.002
923 1066 -0.002
924 1066 -0.002
925 1066 -0.002
926 1066 -0.002
927 1066 -0.002
928 1066 -0.002
929 1066 -0.002
930 1066 -0.002
931 1066 -0.002
932 1066 -0.002
933 1066 -0.002
934 1066 -0.002
935 1066 -0.002
936 1066 -0.002
937 1066 -0.002
938 1066 -0.002
939 1066 -0.002
940 1066 -0.002
941 1066 -0.002
942 1066 -0.002
943 1066 -0.002
944 1066 -0.002
945 1066 -0.002
946 1066 -0.002
947 1066 -0.002
948 1066 -0.002
949 1066 -0.002
950 1066 -0.002
951 1066 -0.002
952 1066 -0.002
953 1066 -0.002
954 1066 -0.002
955 1066 -0.002
956 1066 -0.002
957 1066 -0.002
958 1066 -0.002
959 1066 -0.002
960 1066 -0.002
961 1066 -0.002
962 1066 -0.002
963 1066 -0.002
964 1066 -0.002
965 1066 -0.002
966 1066 -0.002
967 1066 -0.002
968 1066 -0.002
969 1066 -0.002
970 1066 -0.002
971 1066 -0.002
972 1066 -0.002
973 1066 -0.002
974 1066 -0.002
975 1066 -0.002
976 1066 -0.002
977 1066 -0.002
978 1066 -0.002
979 1066 -0.002
980 1066 -0.002
981 1066 -0.002
982 1066 -0.002
983 1066 -0.002
984 1066 -0.002
985 1066 -0.002
986 1066 -0.002
987 1066 -0.002
988 1066 -0.002
989 1066 -0.002
990 1066 -0.002
991 1066 -0.002
992 1066 -0.002
993 1066 -0.002
994 1066 -0.002
995 1066 -0.002
1000 1066 -0.001
1031 1066 -1
1032 1066 0
1040 1066 -0.00300001
1041 1066 -0.003
1042 1066 -0.00400002
1043 1066 -0.001
1047 1066 -0.003
1048 1066 -0.001
1049 1066 0
1050 1066 -0.001
1052 1066 0
1053 1066 -0.001
1054 1066 -0.001
1055 1066 -0.001
1056 1066 2.86301
1057 1066 0
1058 1066 -0.001
1059 1066 -0.001
1060 1066 -0.001
1061 1066 -0.001
1062 1066 -0.001
1063 1066 -0.001
1064 1066 0
1066 1066 1
1067 1066 -0.008
89 1067 -1
1053 1067 0
1056 1067 0
1064 1067 0
1067 1067 1
1068 1068 1
1069 1069 1
1070 1070 1
1071 1071 1
1072 1072 1
1073 1073 1
1074 1074 1
1075 1075 1
1076 1076 1
1077 1077 1
1078 1078 1
1079 1079 1
1080 1080 1
1081 1081 1
1082 1082 1
1083 1083 1
1084 1084 1
1085 1085 1
1086 1086 1
1087 1087 1
1088 1088 1
1089 1089 1
1090 1090 1
1091 1091 1
1092 1092 1
1093 1093 1
1094 1094 0.015735
1095 1095 0.015735
1096 1096 0.00843
1097 1097 0.00843
1098 1098 0.00843
1099 1099 0.00843
1100 1100 1
1101 1101 1
1102 1102 1
1103 1103 1
1104 1104 1
1105 1105 1
1106 1106 1
1107 1107 1
1108 1108 1
1109 1109 1
1110 1110 1
1111 1111 1
1112 1112 1
1113 1113 1
1114 1114 1
1115 1115 1
1116 1116 1
1117 1117 1
1118 1118 1
1119 1119 1
1120 1120 1
1121 1121 1
1122 1122 1
1123 1123 1
1124 1124 1
1125 1125 1
1126 1126 1
1127 1127 1
1128 1128 1
1129 1129 1
1130 1130 1
1131 1131 1
1132 1132 1
1133 1133 1
1134 1134 1
1135 1135 1
1136 1136 1
1137 1137 1
1138 1138 1
1139 1139 1
1140 1140 1
1141 1141 0.00200002
1145 1141 3
1140 1142 -1
1142 1142 1
1143 1143 1.002
1144 1143 -1
1143 1144 -1
1144 1144 1
1145 1144 -3
1142 1145 1e-06
1145 1145 1
1146 1146 0.001
1147 1146 -2.25
1145 1147 -1
1147 1147 1
1148 1148 1
1149 1149 1
1150 1150 -1
1150 1151 1
1151 1151 1
1152 1152 -1
1152 1153 1
1153 1153 1
1154 1154 -1
1154 1155 1
1155 1155 1
1156 1156 -1
1156 1157 1
1157 1157 1
