%%MatrixMarket matrix coordinate real general
1157 1157 4052
1 1 1.0001e-05
2 2 1.0001e-05
3 3 1.00001
3 4 1
4 4 -0.99999
5 5 1.00001
5 6 1
6 6 -0.99999
7 7 1.00001
7 8 1
8 8 -0.99999
9 9 1.00001
9 10 1
10 10 -0.99999
11 11 1.00001
12 12 1.00001
13 13 1.00001
14 14 1.00001
15 15 0.0104951
16 15 -95.2828
18 15 -0.999047
14 16 0.001
16 16 1.00001
13 17 0.001
17 17 1.00001
15 18 -0.0104851
16 18 0.000952899
17 18 -1
18 18 0.00158656
21 18 -0.987399
19 19 0.0104951
20 19 95.2828
21 19 -0.999047
12 20 0.001
20 20 1.00001
17 21 1
18 21 -0.00156657
19 21 -0.0104851
20 21 -0.000952899
21 21 3.9733e-05
22 22 1.00001
23 23 1.00001
24 24 1.00001
25 25 1.00001
26 26 0.0104951
27 26 -95.2828
29 26 -0.999047
25 27 0.001
27 27 1.00001
24 28 0.001
28 28 1.00001
26 29 -0.0104851
27 29 0.000952899
28 29 -1
29 29 0.00158656
32 29 -0.987399
30 30 0.0104951
31 30 95.2828
32 30 -0.999047
23 31 0.001
31 31 1.00001
28 32 1
29 32 -0.00156657
30 32 -0.0104851
31 32 -0.000952899
32 32 3.9733e-05
33 33 1.00001
34 34 1.00001
35 35 1.00001
36 36 1.00001
37 37 0.0104951
38 37 -95.2828
40 37 -0.999047
36 38 0.001
38 38 1.00001
35 39 0.001
39 39 1.00001
37 40 -0.0104851
38 40 0.000952899
39 40 -1
40 40 0.00158656
43 40 -0.987399
41 41 0.0104951
42 41 95.2828
43 41 -0.999047
34 42 0.001
42 42 1.00001
39 43 1
40 43 -0.00156657
41 43 -0.0104851
42 43 -0.000952899
43 43 3.9733e-05
44 44 1.00001
45 45 1.00001
46 46 1.00001
47 47 1.00001
48 48 0.0104951
49 48 -95.2828
51 48 -0.999047
47 49 0.001
49 49 1.00001
46 50 0.001
50 50 1.00001
48 51 -0.0104851
49 51 0.000952899
50 51 -1
51 51 0.00115723
54 51 -0.982724
52 52 0.0104951
53 52 95.2828
54 52 -0.999047
45 53 0.001
53 53 1.00001
50 54 1
51 54 -0.00113724
52 54 -0.0104851
53 54 -0.000952899
54 54 3.96398e-05
55 55 1.00001
56 56 1.00001
57 57 1.00001
58 58 1.00001
59 59 1.00001
60 60 0.0104951
61 60 -95.2828
63 60 -0.999047
59 61 0.001
61 61 1.00001
58 62 0.001
62 62 1.00001
60 63 -0.0104851
61 63 0.000952899
62 63 -1
63 63 0.00158656
66 63 -0.987399
64 64 0.0104951
65 64 95.2828
66 64 -0.999047
57 65 0.001
65 65 1.00001
62 66 1
63 66 -0.00156657
64 66 -0.0104851
65 66 -0.000952899
66 66 3.9733e-05
67 67 1.00001
68 68 1.00001
69 69 1.00001
70 70 1.00001
71 71 1.00001
72 72 1.00001
73 73 1.00001
74 74 1.00001
75 75 1.00001
76 76 1.00001
77 77 1.00001
78 78 1.00001
79 79 1.00001
80 80 1.00001
81 81 1.00001
82 82 1.00001
83 83 1.00001
84 84 1.00001
85 85 1.00001
86 86 1.00001
87 87 1.00001
88 88 1.00001
89 89 1.00001
90 90 1.00001
91 91 1.00001
92 92 1.00001
93 93 1.00001
94 94 1.00001
95 95 0.015745
96 96 0.015745
97 97 0.00844
98 98 0.00844
99 99 0.00844
100 100 0.00844
101 101 1.00001
102 102 1.00001
103 103 1.00001
104 104 1.00001
105 105 1.00001
106 106 1.00001
107 107 1.00001
108 108 1.00001
109 109 1.00001
110 110 1.00001
111 111 1.00001
112 112 1.00001
113 113 1.00001
114 114 1.00001
115 115 1.00001
116 116 1.00001
117 117 1.00001
118 118 1.00001
119 119 1.00001
120 120 1.00001
121 121 1.00001
122 122 1.00001
123 123 1.00001
124 124 1.00001
125 125 1.00001
126 126 1.00001
127 127 1.00001
128 128 1.00001
129 129 1.00001
130 130 1.00001
131 131 1.00001
132 132 1.00001
133 133 1.00001
134 134 1.00001
135 135 1.00001
136 136 1.00001
137 137 1.00001
138 138 1.00001
139 139 1.00001
140 140 1.00001
141 141 1.00001
141 142 0.001
142 142 1.00001
143 143 1.00001
143 144 0.001
144 144 1.00001
142 145 1
144 145 -1
145 145 0.0115878
149 145 -0.0942987
630 145 -0.904838
146 146 1.00001
147 147 0.0104951
148 147 95.2828
149 147 -0.999047
146 148 0.001
148 148 1.00001
144 149 1
145 149 -0.00109271
147 149 -0.0104851
148 149 -0.000952899
149 149 0.00100966
630 149 -0.979265
150 150 0.00601235
629 150 -0.166519
630 150 -0.166519
1133 150 -0.665298
151 151 1.00001
151 152 0.001
152 152 1.00001
153 153 1.00001
153 154 0.001
154 154 1.00001
152 155 1
154 155 -1
155 155 0.0117022
158 155 -0.103156
592 155 -0.895989
156 156 1.00001
156 157 0.001
157 157 1.00001
154 158 1
155 158 -0.00120716
157 158 -1
158 158 0.0115777
250 158 -0.905626
592 158 -0.0934208
159 159 1.00001
159 160 0.001
160 160 1.00001
161 161 1.00001
161 162 0.001
162 162 1.00001
160 163 1
162 163 -1
163 163 0.0116989
166 163 -0.102897
592 163 -0.896248
164 164 1.00001
164 165 0.001
165 165 1.00001
162 166 1
163 166 -0.00120378
165 166 -1
166 166 0.011575
249 166 -0.905839
592 166 -0.0932082
167 167 1.00001
167 168 0.001
168 168 1.00001
169 169 1.00001
169 170 0.001
170 170 1.00001
168 171 1
170 171 -1
171 171 0.0115815
174 171 -0.0938098
177 171 -0.905327
172 172 1.00001
172 173 0.001
173 173 1.00001
170 174 1
171 174 -0.00108646
173 174 -1
174 174 0.0114796
177 174 -0.0856826
202 174 -0.913365
175 175 1.00001
175 176 0.001
176 176 1.00001
168 177 -1
171 177 -0.0104851
174 177 -0.000983603
176 177 1
177 177 0.0114035
183 177 -0.919465
202 177 -0.0787821
178 178 1.00001
178 179 0.001
179 179 1.00001
180 180 1.00001
180 181 0.001
181 181 1.00001
179 182 1
181 182 -1
182 182 0.0115815
183 182 -0.0938098
592 182 -0.905327
176 183 -1
177 183 -0.0104851
181 183 1
182 183 -0.00108646
183 183 0.00183896
202 183 -0.449186
592 183 -0.534869
184 184 1.00001
184 185 0.001
185 185 1.00001
186 186 1.00001
186 187 0.001
187 187 1.00001
185 188 1
187 188 -1
188 188 0.0115815
191 188 -0.0938098
202 188 -0.905327
189 189 1.00001
189 190 0.001
190 190 1.00001
187 191 1
188 191 -0.00108646
190 191 -1
191 191 0.0114796
201 191 -0.913365
202 191 -0.0856826
192 192 1.00001
192 193 0.001
193 193 1.00001
194 194 1.00001
194 195 0.001
195 195 1.00001
193 196 1
195 196 -1
196 196 0.0115236
199 196 -0.0892497
201 196 -0.909882
197 197 1.00001
197 198 0.001
198 198 1.00001
195 199 1
196 199 -0.00102847
198 199 -1
199 199 0.0114318
200 199 -0.917188
201 199 -0.0818588
198 200 1
199 200 -0.0104851
200 200 0.00287829
201 200 -0.298197
1133 200 -0.694858
190 201 1
191 201 -0.0104851
193 201 -1
196 201 -0.0104851
199 201 -0.00093579
200 201 -0.000858296
201 201 0.00353073
202 201 -0.254448
1133 201 -0.735371
173 202 1
174 202 -0.0104851
177 202 -0.000898388
183 202 -0.000826036
185 202 -1
188 202 -0.0104851
191 202 -0.000983603
201 202 -0.000898388
202 202 0.00315635
592 202 -0.139979
1133 202 -0.842953
203 203 1.00001
203 204 0.001
204 204 1.00001
205 205 1.00001
205 206 0.001
206 206 1.00001
204 207 1
206 207 -1
207 207 0.0117031
210 207 -0.103222
592 207 -0.895923
208 208 1.00001
208 209 0.001
209 209 1.00001
206 210 1
207 210 -0.00120802
209 210 -1
210 210 0.0115784
248 210 -0.905572
592 210 -0.093475
211 211 1.00001
211 212 0.001
212 212 1.00001
213 213 1.00001
213 214 0.001
214 214 1.00001
212 215 1
214 215 -1
215 215 0.0116886
218 215 -0.10211
592 215 -0.897034
216 216 1.00001
216 217 0.001
217 217 1.00001
214 218 1
215 218 -0.00119353
217 218 -1
218 218 0.0115667
251 218 -0.906485
592 218 -0.0925616
219 219 1.00001
219 220 0.001
220 220 1.00001
221 221 1.00001
221 222 0.001
222 222 1.00001
220 223 1
222 223 -1
223 223 0.0116886
226 223 -0.10211
592 223 -0.897034
224 224 1.00001
224 225 0.001
225 225 1.00001
222 226 1
223 226 -0.00119353
225 226 -1
226 226 0.0115667
251 226 -0.906485
592 226 -0.0925616
227 227 0.115753
246 227 -5.96842e-22
247 227 -0.00863909
251 227 -0.991275
228 228 0.115753
244 228 -5.96842e-22
245 228 -0.00863909
251 228 -0.991275
229 229 0.115753
242 229 -5.96842e-22
243 229 -0.00863909
251 229 -0.991275
230 230 0.115753
240 230 -5.96842e-22
241 230 -0.00863909
251 230 -0.991275
231 231 0.115753
238 231 -5.96842e-22
239 231 -0.00863909
251 231 -0.991275
232 232 0.115753
236 232 -5.96842e-22
237 232 -0.00863909
251 232 -0.991275
233 233 0.115753
234 233 -5.96842e-22
235 233 -0.00863909
251 233 -0.991275
233 234 -7.02074e-23
234 234 0.0534209
235 234 -0.0187193
251 234 -1.30276e-21
1133 234 -0.981094
233 235 -0.001
234 235 -0.001
235 235 0.0059798
251 235 -0.165771
1133 235 -0.832511
232 236 -7.02074e-23
236 236 0.0534209
237 236 -0.0187193
251 236 -1.30276e-21
1133 236 -0.981094
232 237 -0.001
236 237 -0.001
237 237 0.0059798
251 237 -0.165771
1133 237 -0.832511
231 238 -7.02074e-23
238 238 0.0534209
239 238 -0.0187193
251 238 -1.30276e-21
1133 238 -0.981094
231 239 -0.001
238 239 -0.001
239 239 0.0059798
251 239 -0.165771
1133 239 -0.832511
230 240 -7.02074e-23
240 240 0.0534209
241 240 -0.0187193
251 240 -1.30276e-21
1133 240 -0.981094
230 241 -0.001
240 241 -0.001
241 241 0.0059798
251 241 -0.165771
1133 241 -0.832511
229 242 -7.02074e-23
242 242 0.0534209
243 242 -0.0187193
251 242 -1.30276e-21
1133 242 -0.981094
229 243 -0.001
242 243 -0.001
243 243 0.0059798
251 243 -0.165771
1133 243 -0.832511
228 244 -7.02074e-23
244 244 0.0534209
245 244 -0.0187193
251 244 -1.30276e-21
1133 244 -0.981094
228 245 -0.001
244 245 -0.001
245 245 0.0059798
251 245 -0.165771
1133 245 -0.832511
227 246 -7.02074e-23
246 246 0.0534209
247 246 -0.0187193
251 246 -1.30276e-21
1133 246 -0.981094
227 247 -0.001
246 247 -0.001
247 247 0.0059798
251 247 -0.165771
1133 247 -0.832511
209 248 1
210 248 -0.0104851
248 248 0.00503558
251 248 -0.60281
592 248 -0.194634
1133 248 -0.198587
165 249 1
166 249 -0.0104851
249 249 0.00503278
251 249 -0.603145
592 249 -0.194186
1133 249 -0.198697
157 250 1
158 250 -0.0104851
250 250 0.00503501
251 250 -0.602878
592 250 -0.194543
1133 250 -0.198609
217 251 1
218 251 -0.0104851
225 251 1
226 251 -0.0104851
227 251 -0.114743
228 251 -0.114743
229 251 -0.114743
230 251 -0.114743
231 251 -0.114743
232 251 -0.114743
233 251 -0.114743
234 251 -6.84834e-23
235 251 -0.000991274
236 251 -6.84834e-23
237 251 -0.000991274
238 251 -6.84834e-23
239 251 -0.000991274
240 251 -6.84834e-23
241 251 -0.000991274
242 251 -6.84834e-23
243 251 -0.000991274
244 251 -6.84834e-23
245 251 -0.000991274
246 251 -6.84834e-23
247 251 -0.000991274
248 251 -0.0030355
249 251 -0.0030355
250 251 -0.0030355
251 251 0.0144448
592 251 -0.256966
1133 251 -0.732827
252 252 0.00401
592 252 -0.249377
1135 252 -0.74813
253 253 0.00401
592 253 -0.249377
1135 253 -0.748129
254 254 0.00401
592 254 -0.249377
1135 254 -0.74813
255 255 0.00401
592 255 -0.249377
1135 255 -0.74813
256 256 0.00401
592 256 -0.249377
1135 256 -0.74813
257 257 1.00001
257 258 0.001
258 258 1.00001
259 259 1.00001
259 260 0.001
260 260 1.00001
258 261 1
260 261 -1
261 261 0.004514
264 261 -0.774496
591 261 -0.223289
262 262 1.00001
262 263 0.001
263 263 1.00001
258 264 -1
261 264 -0.00349607
263 264 1
264 264 0.00429445
270 264 -0.81409
591 264 -0.181777
265 265 1.00001
265 266 0.001
266 266 1.00001
267 267 1.00001
267 268 0.001
268 268 1.00001
266 269 1
268 269 -1
269 269 0.004514
270 269 -0.223289
271 269 -0.774496
263 270 -1
264 270 -0.00349607
268 270 1
269 270 -0.00100793
270 270 0.00144282
271 270 -0.541047
591 270 -0.440461
266 271 -1
269 271 -0.00349607
270 271 -0.000780634
271 271 0.00237602
591 271 -0.144712
1135 271 -0.841743
272 272 1.00001
272 273 0.001
273 273 1.00001
274 274 1.00001
274 275 0.001
275 275 1.00001
276 276 1.00001
276 277 0.001
277 277 1.00001
275 278 1
277 278 -1
278 278 0.00714686
281 278 -0.230021
590 278 -0.76858
279 279 1.00001
279 280 0.001
280 280 1.00001
277 281 1
278 281 -0.00164393
280 281 -1
281 281 0.00676872
290 281 -0.811517
590 281 -0.186666
282 282 1.00001
282 283 0.001
283 283 1.00001
284 284 1.00001
284 285 0.001
285 285 1.00001
283 286 1
285 286 -1
286 286 0.00714686
289 286 -0.230021
590 286 -0.76858
287 287 1.00001
287 288 0.001
288 288 1.00001
285 289 1
286 289 -0.00164393
288 289 -1
289 289 0.00676872
290 289 -0.811517
590 289 -0.186666
280 290 1
281 290 -0.00549293
288 290 1
289 290 -0.00549293
290 290 0.00208065
590 290 -0.985597
291 291 0.00401
590 291 -0.249377
1135 291 -0.74813
292 292 0.00401
589 292 -0.249377
1135 292 -0.74813
293 293 0.00401
589 293 -0.249377
1135 293 -0.74813
294 294 0.00401
589 294 -0.249377
1135 294 -0.74813
295 295 0.00401
589 295 -0.249377
1135 295 -0.74813
296 296 0.00401
589 296 -0.249377
1135 296 -0.74813
297 297 0.00201
298 297 -0.995025
298 298 -0.99999
488 298 1.00001e-06
1133 298 -1.00001
299 299 0.00201
300 299 -0.995025
300 300 -0.99999
487 300 1.00001e-06
1133 300 -1.00001
301 301 0.00201
302 301 -0.995025
302 302 -0.99999
486 302 1.00001e-06
1133 302 -1.00001
303 303 0.00201
304 303 -0.995025
304 304 -0.99999
485 304 1.00001e-06
1133 304 -1.00001
305 305 0.00201
306 305 -0.995025
306 306 -0.99999
484 306 1.00001e-06
1133 306 -1.00001
307 307 0.00201
308 307 -0.995025
308 308 -0.99999
483 308 1.00001e-06
1133 308 -1.00001
309 309 0.00201
310 309 -0.995025
310 310 -0.99999
482 310 1.00001e-06
1133 310 -1.00001
311 311 0.00201
312 311 -0.995025
312 312 -0.99999
481 312 1.00001e-06
1133 312 -1.00001
313 313 0.00201
314 313 -0.995025
314 314 -0.99999
480 314 1.00001e-06
1133 314 -1.00001
315 315 0.00201
316 315 -0.995025
316 316 -0.99999
479 316 1.00001e-06
1133 316 -1.00001
317 317 0.00201
318 317 -0.995025
318 318 -0.99999
478 318 1.00001e-06
1133 318 -1.00001
319 319 0.00201
320 319 -0.995025
320 320 -0.99999
477 320 1.00001e-06
1133 320 -1.00001
321 321 0.00201
322 321 -0.995025
322 322 -0.99999
476 322 1.00001e-06
1133 322 -1.00001
323 323 0.00201
324 323 -0.995025
324 324 -0.99999
475 324 1.00001e-06
1133 324 -1.00001
325 325 0.00201
326 325 -0.995025
326 326 -0.99999
474 326 1.00001e-06
1133 326 -1.00001
327 327 0.00201
328 327 -0.995025
328 328 -0.99999
473 328 1.00001e-06
1133 328 -1.00001
329 329 0.00201
330 329 -0.995025
330 330 -0.99999
472 330 1.00001e-06
1133 330 -1.00001
331 331 0.00201
332 331 -0.995025
332 332 -0.99999
471 332 1.00001e-06
1133 332 -1.00001
333 333 0.00201
334 333 -0.995025
334 334 -0.99999
470 334 1.00001e-06
1133 334 -1.00001
335 335 0.00201
336 335 -0.995025
336 336 -0.99999
469 336 1.00001e-06
1133 336 -1.00001
337 337 0.00201
338 337 -0.995025
338 338 -0.99999
468 338 1.00001e-06
1133 338 -1.00001
339 339 0.00201
340 339 -0.995025
340 340 -0.99999
467 340 1.00001e-06
1133 340 -1.00001
341 341 0.00201
342 341 -0.995025
342 342 -0.99999
466 342 1.00001e-06
1133 342 -1.00001
343 343 0.00201
344 343 -0.995025
344 344 -0.99999
465 344 1.00001e-06
1133 344 -1.00001
345 345 0.00201
346 345 -0.995025
346 346 -0.99999
464 346 1.00001e-06
1133 346 -1.00001
347 347 0.00201
348 347 -0.995025
348 348 -0.99999
463 348 1.00001e-06
1133 348 -1.00001
349 349 0.00201
350 349 -0.995025
350 350 -0.99999
462 350 1.00001e-06
1133 350 -1.00001
351 351 0.00201
352 351 -0.995025
352 352 -0.99999
461 352 1.00001e-06
1133 352 -1.00001
353 353 0.00201
354 353 -0.995025
354 354 -0.99999
460 354 1.00001e-06
1133 354 -1.00001
355 355 0.00201
356 355 -0.995025
356 356 -0.99999
459 356 1.00001e-06
1133 356 -1.00001
357 357 0.00201
358 357 -0.995025
358 358 -0.99999
458 358 1.00001e-06
1133 358 -1.00001
359 359 0.00201
360 359 -0.995025
360 360 -0.99999
457 360 1.00001e-06
1133 360 -1.00001
361 361 0.00201
362 361 -0.995025
362 362 -0.99999
456 362 1.00001e-06
1133 362 -1.00001
363 363 0.00201
364 363 -0.995025
364 364 -0.99999
455 364 1.00001e-06
1133 364 -1.00001
365 365 0.00201
366 365 -0.995025
366 366 -0.99999
454 366 1.00001e-06
1133 366 -1.00001
367 367 0.00201
368 367 -0.995025
368 368 -0.99999
453 368 1.00001e-06
1133 368 -1.00001
369 369 0.00201
370 369 -0.995025
370 370 -0.99999
452 370 1.00001e-06
1133 370 -1.00001
371 371 0.00201
372 371 -0.995025
372 372 -0.99999
451 372 1.00001e-06
1133 372 -1.00001
373 373 0.00201
374 373 -0.995025
374 374 -0.99999
450 374 1.00001e-06
1133 374 -1.00001
375 375 0.00201
376 375 -0.995025
376 376 -0.99999
449 376 1.00001e-06
1133 376 -1.00001
377 377 0.00201
378 377 -0.995025
378 378 -0.99999
448 378 1.00001e-06
1133 378 -1.00001
379 379 0.00201
380 379 -0.995025
380 380 -0.99999
447 380 1.00001e-06
1133 380 -1.00001
381 381 0.00201
382 381 -0.995025
382 382 -0.99999
446 382 1.00001e-06
1133 382 -1.00001
383 383 0.00201
384 383 -0.995025
384 384 -0.99999
445 384 1.00001e-06
1133 384 -1.00001
385 385 0.00201
386 385 -0.995025
386 386 -0.99999
444 386 1.00001e-06
1133 386 -1.00001
387 387 0.00201
388 387 -0.995025
388 388 -0.99999
443 388 1.00001e-06
1133 388 -1.00001
389 389 0.00201
390 389 -0.995025
390 390 -0.99999
442 390 1.00001e-06
1133 390 -1.00001
391 391 0.00201
392 391 -0.995025
392 392 -0.99999
441 392 1.00001e-06
1133 392 -1.00001
393 393 0.00201
394 393 -0.995025
394 394 -0.99999
440 394 1.00001e-06
1133 394 -1.00001
395 395 0.00201
396 395 -0.995025
396 396 -0.99999
439 396 1.00001e-06
1133 396 -1.00001
397 397 0.00201
398 397 -0.995025
398 398 -0.99999
438 398 1.00001e-06
1133 398 -1.00001
399 399 0.00201
400 399 -0.995025
400 400 -0.99999
437 400 1.00001e-06
1133 400 -1.00001
401 401 0.00201
402 401 -0.995025
402 402 -0.99999
436 402 1.00001e-06
1133 402 -1.00001
403 403 0.00201
404 403 -0.995025
404 404 -0.99999
435 404 1.00001e-06
1133 404 -1.00001
405 405 0.00201
406 405 -0.995025
406 406 -0.99999
434 406 1.00001e-06
1133 406 -1.00001
407 407 0.00201
408 407 -0.995025
408 408 -0.99999
433 408 1.00001e-06
1133 408 -1.00001
409 409 0.00201
410 409 -0.995025
410 410 -0.99999
432 410 1.00001e-06
1133 410 -1.00001
411 411 0.00201
412 411 -0.995025
412 412 -0.99999
431 412 1.00001e-06
1133 412 -1.00001
413 413 0.00201
414 413 -0.995025
414 414 -0.99999
430 414 1.00001e-06
1133 414 -1.00001
415 415 0.00201
416 415 -0.995025
416 416 -0.99999
429 416 1.00001e-06
1133 416 -1.00001
417 417 0.00201
418 417 -0.995025
418 418 -0.99999
428 418 1.00001e-06
1133 418 -1.00001
419 419 0.00201
420 419 -0.995025
420 420 -0.99999
427 420 1.00001e-06
1133 420 -1.00001
421 421 1.00001
1133 421 -0.99999
422 422 0.00401
1133 422 -0.997506
423 423 1.00001
1133 423 -0.99999
424 424 0.000383552
1133 424 -0.973928
425 425 0.000383552
1133 425 -0.973928
426 426 2e-05
1133 426 -0.5
419 427 -0.002
420 427 9.95002e-06
427 427 -0.99999
1133 427 -9.95022e-06
417 428 -0.002
418 428 9.95002e-06
428 428 -0.99999
1133 428 -9.95022e-06
415 429 -0.002
416 429 9.95002e-06
429 429 -0.99999
1133 429 -9.95022e-06
413 430 -0.002
414 430 9.95002e-06
430 430 -0.99999
1133 430 -9.95022e-06
411 431 -0.002
412 431 9.95002e-06
431 431 -0.99999
1133 431 -9.95022e-06
409 432 -0.002
410 432 9.95002e-06
432 432 -0.99999
1133 432 -9.95022e-06
407 433 -0.002
408 433 9.95002e-06
433 433 -0.99999
1133 433 -9.95022e-06
405 434 -0.002
406 434 9.95002e-06
434 434 -0.99999
1133 434 -9.95022e-06
403 435 -0.002
404 435 9.95002e-06
435 435 -0.99999
1133 435 -9.95022e-06
401 436 -0.002
402 436 9.95002e-06
436 436 -0.99999
1133 436 -9.95022e-06
399 437 -0.002
400 437 9.95002e-06
437 437 -0.99999
1133 437 -9.95022e-06
397 438 -0.002
398 438 9.95002e-06
438 438 -0.99999
1133 438 -9.95022e-06
395 439 -0.002
396 439 9.95002e-06
439 439 -0.99999
1133 439 -9.95022e-06
393 440 -0.002
394 440 9.95002e-06
440 440 -0.99999
1133 440 -9.95022e-06
391 441 -0.002
392 441 9.95002e-06
441 441 -0.99999
1133 441 -9.95022e-06
389 442 -0.002
390 442 9.95002e-06
442 442 -0.99999
1133 442 -9.95022e-06
387 443 -0.002
388 443 9.95002e-06
443 443 -0.99999
1133 443 -9.95022e-06
385 444 -0.002
386 444 9.95002e-06
444 444 -0.99999
1133 444 -9.95022e-06
383 445 -0.002
384 445 9.95002e-06
445 445 -0.99999
1133 445 -9.95022e-06
381 446 -0.002
382 446 9.95002e-06
446 446 -0.99999
1133 446 -9.95022e-06
379 447 -0.002
380 447 9.95002e-06
447 447 -0.99999
1133 447 -9.95022e-06
377 448 -0.002
378 448 9.95002e-06
448 448 -0.99999
1133 448 -9.95022e-06
375 449 -0.002
376 449 9.95002e-06
449 449 -0.99999
1133 449 -9.95022e-06
373 450 -0.002
374 450 9.95002e-06
450 450 -0.99999
1133 450 -9.95022e-06
371 451 -0.002
372 451 9.95002e-06
451 451 -0.99999
1133 451 -9.95022e-06
369 452 -0.002
370 452 9.95002e-06
452 452 -0.99999
1133 452 -9.95022e-06
367 453 -0.002
368 453 9.95002e-06
453 453 -0.99999
1133 453 -9.95022e-06
365 454 -0.002
366 454 9.95002e-06
454 454 -0.99999
1133 454 -9.95022e-06
363 455 -0.002
364 455 9.95002e-06
455 455 -0.99999
1133 455 -9.95022e-06
361 456 -0.002
362 456 9.95002e-06
456 456 -0.99999
1133 456 -9.95022e-06
359 457 -0.002
360 457 9.95002e-06
457 457 -0.99999
1133 457 -9.95022e-06
357 458 -0.002
358 458 9.95002e-06
458 458 -0.99999
1133 458 -9.95022e-06
355 459 -0.002
356 459 9.95002e-06
459 459 -0.99999
1133 459 -9.95022e-06
353 460 -0.002
354 460 9.95002e-06
460 460 -0.99999
1133 460 -9.95022e-06
351 461 -0.002
352 461 9.95002e-06
461 461 -0.99999
1133 461 -9.95022e-06
349 462 -0.002
350 462 9.95002e-06
462 462 -0.99999
1133 462 -9.95022e-06
347 463 -0.002
348 463 9.95002e-06
463 463 -0.99999
1133 463 -9.95022e-06
345 464 -0.002
346 464 9.95002e-06
464 464 -0.99999
1133 464 -9.95022e-06
343 465 -0.002
344 465 9.95002e-06
465 465 -0.99999
1133 465 -9.95022e-06
341 466 -0.002
342 466 9.95002e-06
466 466 -0.99999
1133 466 -9.95022e-06
339 467 -0.002
340 467 9.95002e-06
467 467 -0.99999
1133 467 -9.95022e-06
337 468 -0.002
338 468 9.95002e-06
468 468 -0.99999
1133 468 -9.95022e-06
335 469 -0.002
336 469 9.95002e-06
469 469 -0.99999
1133 469 -9.95022e-06
333 470 -0.002
334 470 9.95002e-06
470 470 -0.99999
1133 470 -9.95022e-06
331 471 -0.002
332 471 9.95002e-06
471 471 -0.99999
1133 471 -9.95022e-06
329 472 -0.002
330 472 9.95002e-06
472 472 -0.99999
1133 472 -9.95022e-06
327 473 -0.002
328 473 9.95002e-06
473 473 -0.99999
1133 473 -9.95022e-06
325 474 -0.002
326 474 9.95002e-06
474 474 -0.99999
1133 474 -9.95022e-06
323 475 -0.002
324 475 9.95002e-06
475 475 -0.99999
1133 475 -9.95022e-06
321 476 -0.002
322 476 9.95002e-06
476 476 -0.99999
1133 476 -9.95022e-06
319 477 -0.002
320 477 9.95002e-06
477 477 -0.99999
1133 477 -9.95022e-06
317 478 -0.002
318 478 9.95002e-06
478 478 -0.99999
1133 478 -9.95022e-06
315 479 -0.002
316 479 9.95002e-06
479 479 -0.99999
1133 479 -9.95022e-06
313 480 -0.002
314 480 9.95002e-06
480 480 -0.99999
1133 480 -9.95022e-06
311 481 -0.002
312 481 9.95002e-06
481 481 -0.99999
1133 481 -9.95022e-06
309 482 -0.002
310 482 9.95002e-06
482 482 -0.99999
1133 482 -9.95022e-06
307 483 -0.002
308 483 9.95002e-06
483 483 -0.99999
1133 483 -9.95022e-06
305 484 -0.002
306 484 9.95002e-06
484 484 -0.99999
1133 484 -9.95022e-06
303 485 -0.002
304 485 9.95002e-06
485 485 -0.99999
1133 485 -9.95022e-06
301 486 -0.002
302 486 9.95002e-06
486 486 -0.99999
1133 486 -9.95022e-06
299 487 -0.002
300 487 9.95002e-06
487 487 -0.99999
1133 487 -9.95022e-06
297 488 -0.002
298 488 9.95002e-06
488 488 -0.99999
1133 488 -9.95022e-06
489 489 1.00001
489 490 0.001
490 490 1.00001
491 491 1.00001
491 492 0.001
492 492 1.00001
490 493 1
492 493 -1
493 493 0.00714686
496 493 -0.230021
589 493 -0.76858
494 494 1.00001
494 495 0.001
495 495 1.00001
492 496 1
493 496 -0.00164393
495 496 -1
496 496 0.00676872
515 496 -0.811517
589 496 -0.186666
497 497 1.00001
497 498 0.001
498 498 1.00001
499 499 1.00001
499 500 0.001
500 500 1.00001
498 501 1
500 501 -1
501 501 0.00714686
504 501 -0.230021
589 501 -0.76858
502 502 1.00001
502 503 0.001
503 503 1.00001
500 504 1
501 504 -0.00164393
503 504 -1
504 504 0.00676872
515 504 -0.811517
589 504 -0.186666
505 505 1.00001
506 506 1.00001
507 507 1.00001
508 508 0.00550293
509 508 -181.721
511 508 -0.998183
507 509 0.001
509 509 1.00001
506 510 0.001
510 510 1.00001
508 511 -0.00549293
509 511 0.00181741
510 511 -1
511 511 0.00106865
513 511 -0.9813
505 512 0.001
512 512 1.00001
510 513 1
511 513 -0.00104867
512 513 -1
513 513 0.00552254
514 513 -0.994638
514 514 -0.99999
515 514 -1.00001
495 515 1
496 515 -0.00549293
503 515 1
504 515 -0.00549293
515 515 0.00208065
516 515 480.619
589 515 -0.985598
512 516 1
513 516 -0.00549293
514 516 0.00202945
515 516 0.00202947
516 516 -1.97539
589 516 -0.00101258
1133 516 0.00101246
517 517 0.00401
518 517 -0.249377
1135 517 -0.74813
517 518 -0.001
518 518 0.00376062
519 518 -0.265913
1135 518 -0.730764
518 519 -0.001
519 519 0.00374409
588 519 -0.267088
1135 519 -0.729354
520 520 1.00001
521 520 -2.19296
522 520 2.19296
521 521 3.19299
522 521 -0.686811
1133 521 -0.313186
522 522 1.00001
1133 522 -0.99999
523 523 0.00401
587 523 -0.249377
1133 523 -0.74813
524 524 0.00401
586 524 -0.249377
1135 524 -0.74813
525 525 0.00401
585 525 -0.249377
1133 525 -0.74813
526 526 1.00001
526 527 0.001
527 527 1.00001
528 528 1.00001
528 529 0.001
529 529 1.00001
527 530 1
529 530 -1
530 530 0.0115363
533 530 -0.090253
534 530 -0.90888
531 531 1.00001
531 532 0.001
532 532 1.00001
529 533 1
530 533 -0.00104118
532 533 -1
533 533 0.0114423
534 533 -0.0827028
1133 533 -0.916344
527 534 -1
530 534 -0.0104851
533 534 -0.000946309
534 534 0.00288714
538 534 -0.346364
1133 534 -0.646712
535 535 0.00401
538 535 -0.249377
1133 535 -0.74813
536 536 0.00401
537 536 -0.249377
1135 536 -0.74813
536 537 -0.001
537 537 0.00376068
1133 537 -0.531834
1135 537 -0.464844
534 538 -0.001
535 538 -0.001
538 538 0.00741426
1133 538 -0.45788
1135 538 -0.539501
539 539 0.00401
584 539 -0.249377
1135 539 -0.748129
540 540 0.00401
584 540 -0.249377
1135 540 -0.74813
541 541 0.00401
584 541 -0.249377
1135 541 -0.74813
542 542 0.00401
584 542 -0.249377
1135 542 -0.74813
543 543 0.00401
584 543 -0.249377
1135 543 -0.74813
544 544 0.00401
584 544 -0.249377
1135 544 -0.74813
545 545 0.115753
582 545 -5.96842e-22
583 545 -0.00863909
584 545 -0.991275
546 546 1.00001
546 547 0.001
547 547 1.00001
548 548 1.00001
548 549 0.001
549 549 1.00001
547 550 1
549 550 -1
550 550 0.0115815
553 550 -0.0938098
556 550 -0.905327
551 551 1.00001
551 552 0.001
552 552 1.00001
549 553 1
550 553 -0.00108646
552 553 -1
553 553 0.0114796
556 553 -0.0856826
581 553 -0.913365
554 554 1.00001
554 555 0.001
555 555 1.00001
547 556 -1
550 556 -0.0104851
553 556 -0.000983603
555 556 1
556 556 0.0114035
562 556 -0.919465
581 556 -0.0787821
557 557 1.00001
557 558 0.001
558 558 1.00001
559 559 1.00001
559 560 0.001
560 560 1.00001
558 561 1
560 561 -1
561 561 0.0115815
562 561 -0.0938098
584 561 -0.905327
555 562 -1
556 562 -0.0104851
560 562 1
561 562 -0.00108646
562 562 0.00183896
581 562 -0.449186
584 562 -0.534869
563 563 1.00001
563 564 0.001
564 564 1.00001
565 565 1.00001
565 566 0.001
566 566 1.00001
564 567 1
566 567 -1
567 567 0.0115815
570 567 -0.0938098
581 567 -0.905327
568 568 1.00001
568 569 0.001
569 569 1.00001
566 570 1
567 570 -0.00108646
569 570 -1
570 570 0.0114796
580 570 -0.913365
581 570 -0.0856826
571 571 1.00001
571 572 0.001
572 572 1.00001
573 573 1.00001
573 574 0.001
574 574 1.00001
572 575 1
574 575 -1
575 575 0.0115236
578 575 -0.0892497
580 575 -0.909882
576 576 1.00001
576 577 0.001
577 577 1.00001
574 578 1
575 578 -0.00102847
577 578 -1
578 578 0.0114318
579 578 -0.917188
580 578 -0.0818588
577 579 1
578 579 -0.0104851
579 579 0.00287829
580 579 -0.298197
1133 579 -0.694858
569 580 1
570 580 -0.0104851
572 580 -1
575 580 -0.0104851
578 580 -0.00093579
579 580 -0.000858296
580 580 0.00353073
581 580 -0.254448
1133 580 -0.735371
552 581 1
553 581 -0.0104851
556 581 -0.000898388
562 581 -0.000826036
564 581 -1
567 581 -0.0104851
570 581 -0.000983603
580 581 -0.000898388
581 581 0.00315635
584 581 -0.139979
1133 581 -0.842953
545 582 -7.02074e-23
582 582 0.0534209
583 582 -0.0187193
584 582 -1.30276e-21
1133 582 -0.981094
545 583 -0.001
582 583 -0.001
583 583 0.0059798
584 583 -0.165771
1133 583 -0.832511
539 584 -0.001
540 584 -0.001
541 584 -0.001
542 584 -0.001
543 584 -0.001
544 584 -0.001
545 584 -0.114743
558 584 -1
561 584 -0.0104851
562 584 -0.000983603
581 584 -0.000441821
582 584 -6.84834e-23
583 584 -0.000991274
584 584 0.0117553
1133 584 -0.101884
1135 584 -0.892258
525 585 -0.001
585 585 0.00576062
1133 585 -0.303462
1135 585 -0.694369
524 586 -0.001
586 586 0.00576062
1133 586 -0.694369
1135 586 -0.303462
523 587 -0.001
587 587 0.00376062
1133 587 -0.464851
1135 587 -0.531827
519 588 -0.001
588 588 0.00374291
1133 588 -0.534343
1135 588 -0.462034
292 589 -0.001
293 589 -0.001
294 589 -0.001
295 589 -0.001
296 589 -0.001
490 589 -1
493 589 -0.00549293
496 589 -0.00126349
498 589 -1
501 589 -0.00549293
504 589 -0.00126349
515 589 -0.00205069
516 589 0.985598
589 589 0.0118106
1133 589 -0.253829
1135 589 -0.740067
275 590 -1
278 590 -0.00549293
281 590 -0.00126349
283 590 -1
286 590 -0.00549293
289 590 -0.00126349
290 590 -0.00205069
291 590 -0.001
590 590 0.00381012
1133 590 -0.524917
1135 590 -0.458812
260 591 1
261 591 -0.00100793
264 591 -0.000780634
270 591 -0.000635507
271 591 -0.000343839
273 591 -1
591 591 0.00381737
1133 591 -0.915834
1135 591 -0.0758177
152 592 -1
155 592 -0.0104851
158 592 -0.0010816
160 592 -1
163 592 -0.0104851
166 592 -0.00107888
179 592 -1
182 592 -0.0104851
183 592 -0.000983603
202 592 -0.000441821
204 592 -1
207 592 -0.0104851
210 592 -0.00108229
212 592 -1
215 592 -0.0104851
218 592 -0.00107064
220 592 -1
223 592 -0.0104851
226 592 -0.00107064
248 592 -0.000980093
249 592 -0.000977296
250 592 -0.000979524
251 592 -0.00371182
252 592 -0.001
253 592 -0.001
254 592 -0.001
255 592 -0.001
256 592 -0.001
592 592 0.0125708
1133 592 -0.292417
1135 592 -0.695312
593 593 0.00401
1133 593 -0.498753
1135 593 -0.498753
594 594 0.00401
1133 594 -0.498753
1135 594 -0.498753
595 595 0.00401
1133 595 -0.498753
1135 595 -0.498753
596 596 0.00401
1133 596 -0.498753
1135 596 -0.498753
597 597 0.00401
1133 597 -0.498753
1135 597 -0.498753
598 598 0.00401
1133 598 -0.498753
1135 598 -0.498753
599 599 0.00401
1133 599 -0.498753
1135 599 -0.498753
600 600 0.00401
1133 600 -0.498753
1135 600 -0.498753
601 601 0.00401
1133 601 -0.498753
1135 601 -0.498753
602 602 0.00401
1133 602 -0.498753
1135 602 -0.498753
603 603 0.00401
1133 603 -0.498753
1135 603 -0.498753
604 604 0.00401
1133 604 -0.498753
1135 604 -0.498753
605 605 0.00401
1133 605 -0.498753
1135 605 -0.498753
606 606 0.00401
1133 606 -0.498753
1135 606 -0.498753
607 607 0.00401
1133 607 -0.498753
1135 607 -0.498753
608 608 0.00401
1133 608 -0.498753
1135 608 -0.498753
609 609 0.00401
1133 609 -0.498753
1135 609 -0.498753
610 610 0.00401
1133 610 -0.498753
1135 610 -0.498753
611 611 0.00401
1133 611 -0.498753
1135 611 -0.498753
612 612 0.00401
1133 612 -0.498753
1135 612 -0.498753
613 613 0.00401
1133 613 -0.498753
1135 613 -0.498753
614 614 0.00401
1133 614 -0.498753
1135 614 -0.498753
615 615 0.00401
1133 615 -0.498753
1135 615 -0.498753
616 616 0.00401
1133 616 -0.498753
1135 616 -0.498753
617 617 0.00401
1133 617 -0.498753
1135 617 -0.498753
618 618 0.00401
1133 618 -0.498753
1135 618 -0.498753
619 619 0.00401
1133 619 -0.498753
1135 619 -0.498753
620 620 0.00401
1133 620 -0.498753
1135 620 -0.498753
621 621 0.00401
1133 621 -0.498753
1135 621 -0.498753
622 622 0.00401
1133 622 -0.498753
1135 622 -0.498753
623 623 0.00401
1133 623 -0.498753
1135 623 -0.498753
624 624 0.00401
1133 624 -0.498753
1135 624 -0.498753
625 625 0.00401
1133 625 -0.498753
1135 625 -0.498753
626 626 0.00401
1133 626 -0.498753
1135 626 -0.498753
627 627 0.00401
1133 627 -0.498753
1135 627 -0.498753
628 628 0.00601
1133 628 -0.665557
1135 628 -0.332779
150 629 -0.00100117
629 629 0.00384446
630 629 -0.0433649
1133 629 -0.433371
1135 629 -0.520229
142 630 -1
145 630 -0.0104851
149 630 -0.000988729
150 630 -0.00100117
629 630 -0.000166715
630 630 0.00386678
1133 630 -0.449554
1135 630 -0.539656
631 631 0.00401
1133 631 -0.498753
1135 631 -0.498753
632 632 0.00401
1133 632 -0.498753
1135 632 -0.498753
633 633 9.99281e-05
635 633 -0.899928
633 634 -8.99281e-05
634 634 1.00001
635 634 8.99919e-06
635 635 1.00001
668 635 -0.99999
636 636 1.00001
636 637 0.001
637 637 1.00001
638 638 1.00001
638 639 0.001
639 639 1.00001
637 640 1
639 640 -1
640 640 0.00551267
643 640 -0.182882
656 640 -0.815304
641 641 1.00001
641 642 0.001
642 642 1.00001
639 643 1
640 643 -0.00100817
642 643 -1
643 643 0.0053283
653 643 -0.843516
656 643 -0.154264
644 644 1.00001
644 645 0.001
645 645 1.00001
646 646 1.00001
646 647 0.001
647 647 1.00001
645 648 1
647 648 -1
648 648 0.00552092
652 648 -0.184103
653 648 -0.814086
649 649 2.00964
667 649 -0.999995
650 650 1.00001
650 651 0.001
651 651 1.00001
647 652 1
648 652 -0.00101642
651 652 -1
652 652 0.0053338
653 652 -0.155134
667 652 -0.842646
642 653 1
643 653 -0.0044945
645 653 -1
648 653 -0.0044945
652 653 -0.000827451
653 653 0.00542055
656 653 -0.496876
667 653 -0.497597
654 654 1.00001
654 655 0.001
655 655 1.00001
637 656 -1
640 656 -0.0044945
643 656 -0.000821965
653 656 -0.00269334
655 656 1
656 656 0.0138601
662 656 -0.756491
667 656 -0.240993
657 657 1.00001
657 658 0.001
658 658 1.00001
659 659 1.00001
659 660 0.001
660 660 1.00001
658 661 1
660 661 -1
661 661 0.0120616
662 661 -0.12988
668 661 -0.869291
655 662 -1
656 662 -0.0104851
660 662 1
661 662 -0.00156657
662 662 0.00392631
667 662 -0.643564
668 662 -0.346841
663 663 -0.99999
664 663 -0.000494609
665 663 0.000494609
664 664 -0.99999
667 664 -1.00001
665 665 1.00001
1136 665 -0.99999
664 666 -0.000494604
665 666 0.000494604
666 666 1.00001
667 666 -0.000494604
1136 666 0.000494595
649 667 -2.00963
651 667 1
652 667 -0.0044945
653 667 -0.00269725
656 667 -0.0033402
662 667 -0.00252683
663 667 1
664 667 0.000494609
665 667 -0.000494609
667 667 0.00344855
668 667 -0.254139
1135 667 -0.579955
1136 667 -0.143424
634 668 -1
635 668 8.99919e-06
658 668 -1
661 668 -0.0104851
662 668 -0.0013618
667 668 -0.000876409
668 668 0.00669444
1133 668 -0.298755
1135 668 -0.673436
1136 668 -0.0187765
669 669 1.00001
1066 669 -0.99999
669 670 1e-09
670 670 1.00001
1066 670 9.9998e-10
671 671 1.00001
1066 671 -0.99999
671 672 6.59473e-06
672 672 1.00001
1066 672 6.59459e-06
1136 672 -6.59466e-06
673 673 1.00001
674 673 0.00199998
688 673 -0.00199998
674 674 1.00001
678 674 -0.99999
675 675 1.00001
676 675 0.00199998
688 675 -0.00199998
676 676 1.00001
677 676 -0.99999
675 677 -1
676 677 0.00199998
677 677 0.00400996
688 677 -0.498753
1133 677 -0.498758
673 678 -1
674 678 0.00199998
678 678 0.00400996
688 678 -0.498753
1133 678 -0.498758
679 679 -0.99999
680 679 -0.00200002
1133 679 0.00200002
680 680 -0.99999
681 680 -1.00001
679 681 1
680 681 0.00200002
681 681 0.00601004
682 681 -0.166388
683 681 -0.166388
1133 681 -0.665556
681 682 -0.001
682 682 0.00384361
683 682 -0.0432896
688 682 -0.520344
1133 682 -0.433331
681 683 -0.001
682 683 -0.000166388
683 683 0.00383641
688 683 -0.543889
1133 683 -0.452939
684 684 0.00401
688 684 -0.498753
1133 684 -0.498753
685 685 0.00401
688 685 -0.498753
1133 685 -0.498753
686 686 0.00401
688 686 -0.498753
1133 686 -0.498753
687 687 0.00401
688 687 -0.498753
1133 687 -0.498753
688 688 -0.99999
1134 688 -1.00001
689 689 0.00401
692 689 -0.249376
696 689 -0.74813
690 690 0.00401001
691 690 -0.249376
1133 690 -0.74813
690 691 -0.001
691 691 0.00576062
696 691 -0.694369
1133 691 -0.303462
689 692 -0.001
692 692 0.00576063
696 692 -0.303462
1133 692 -0.694369
693 693 0.00401
696 693 -0.498753
1133 693 -0.498753
694 694 0.00401
696 694 -0.498753
1133 694 -0.498753
695 695 0.00401
696 695 -0.498753
1133 695 -0.498753
696 696 -0.99999
1134 696 -1.00001
697 697 2e-05
730 697 -0.5
698 698 2e-05
729 698 -0.5
699 699 1.00001
701 699 -0.99999
699 700 3.95684e-05
700 700 1.00001
701 700 3.95676e-05
728 700 -3.9568e-05
700 701 -1
701 701 0.00204957
728 701 -0.0193055
1134 701 -0.975816
702 702 1.65947e-05
707 702 -0.397399
703 703 1.65947e-05
705 703 -0.397399
703 704 -6.59473e-06
704 704 1.00001
705 704 3.97395e-06
705 705 1.00001
728 705 -0.99999
702 706 -6.59473e-06
706 706 1.00001
707 706 3.97395e-06
707 707 1.00001
728 707 -0.99999
708 708 1.00001
709 708 1.31893e-05
1133 708 -1.31893e-05
709 709 1.00001
728 709 -0.99999
710 710 1.00001
710 711 0.001
711 711 1.00001
712 712 1.00001
712 713 0.001
713 713 1.00001
711 714 1
713 714 -1
714 714 0.0065516
717 714 -0.160063
727 714 -0.838411
715 715 1.00001
715 716 0.001
716 716 1.00001
713 717 1
714 717 -0.00104867
716 717 -1
717 717 0.00638375
718 717 -0.860456
727 717 -0.137727
716 718 1
717 718 -0.00549293
718 718 0.00277651
727 718 -0.272473
1133 718 -0.72033
719 719 1.00001
720 719 -2.19296
721 719 2.19296
720 720 3.19299
721 720 -0.686811
1134 720 -0.313186
721 721 1.00001
1134 721 -0.99999
722 722 0.00401
727 722 -0.249377
1134 722 -0.74813
723 723 -0.99999
724 723 -0.00200002
1133 723 0.00200002
724 724 -0.99999
726 724 -1.00001
725 725 0.00401001
726 725 -0.249377
1134 725 -0.748129
723 726 1
724 726 0.00200002
725 726 -0.001
726 726 0.00376067
1133 726 -0.531826
1134 726 -0.464846
711 727 -1
714 727 -0.00549293
717 727 -0.000879213
718 727 -0.000756524
722 727 -0.001
727 727 0.002321
1133 727 -0.23479
1134 727 -0.75318
699 728 -3.95684e-05
701 728 -3.9568e-05
704 728 -1
705 728 3.97395e-06
706 728 -1
707 728 3.97395e-06
708 728 -1
709 728 1.31893e-05
728 728 6.99415e-05
1133 728 -0.188577
1134 728 -0.552048
698 729 -1e-05
729 729 0.004015
1133 729 -0.498132
1134 729 -0.498132
697 730 -1e-05
730 730 0.004015
1133 730 -0.498132
1134 730 -0.498132
731 731 -0.99999
822 731 -1.00001
732 732 -0.99999
735 732 -1.00001
733 733 -0.99999
734 734 -0.99999
735 735 -3.07796
736 735 -1
939 735 0.32489
733 736 1
735 736 3.07797
736 736 2.00272e-05
939 736 -49932.4
737 737 -0.99999
738 738 -0.99999
739 738 -1.00001
737 739 1
739 739 1.539
741 739 -0.999994
739 740 -1.53899
740 740 -0.99999
741 740 -9.89447e-06
741 741 -0.99999
822 741 -1.00001
742 742 -0.99999
743 743 -0.99999
744 743 -1.00001
742 744 1
744 744 1.539
746 744 -0.999994
744 745 -1.53899
745 745 -0.99999
746 745 -9.89447e-06
746 746 -0.99999
822 746 -1.00001
747 747 1.00001
747 748 -1e-06
748 748 1.00001
822 748 -0.99999
749 749 1.00001
749 750 -1e-06
750 750 1.00001
822 750 -0.99999
751 751 1.00001
751 752 -1e-06
752 752 1.00001
822 752 -0.99999
753 753 1.00001
753 754 -1e-06
754 754 1.00001
822 754 -0.99999
755 755 1.00001
755 756 -1e-06
756 756 1.00001
822 756 -0.99999
757 757 1.00001
757 758 -1e-06
758 758 1.00001
822 758 -0.99999
759 759 1.00001
759 760 -1e-06
760 760 1.00001
822 760 -0.99999
761 761 1.00001
761 762 -1e-06
762 762 1.00001
822 762 -0.99999
763 763 1.00001
763 764 -1e-06
764 764 1.00001
822 764 -0.99999
765 765 1.00001
765 766 -1e-06
766 766 1.00001
822 766 -0.99999
767 767 1.00001
767 768 -1e-06
768 768 1.00001
822 768 -0.99999
769 769 1.00001
769 770 -1e-06
770 770 1.00001
822 770 -0.99999
771 771 1.00001
771 772 -1e-06
772 772 1.00001
822 772 -0.99999
773 773 1.00001
773 774 -1e-06
774 774 1.00001
822 774 -0.99999
775 775 1.00001
775 776 -1e-06
776 776 1.00001
822 776 -0.99999
777 777 1.00001
777 778 -1e-06
778 778 1.00001
822 778 -0.99999
779 779 1.00001
779 780 -1e-06
780 780 1.00001
822 780 -0.99999
781 781 1.00001
781 782 -1e-06
782 782 1.00001
822 782 -0.99999
783 783 1.00001
783 784 -1e-06
784 784 1.00001
822 784 -0.99999
785 785 1.00001
785 786 -1e-06
786 786 1.00001
822 786 -0.99999
787 787 1.00001
787 788 -1e-06
788 788 1.00001
822 788 -0.99999
789 789 1.00001
789 790 -1e-06
790 790 1.00001
822 790 -0.99999
791 791 1.00001
791 792 -1e-06
792 792 1.00001
822 792 -0.99999
793 793 1.00001
793 794 -1e-06
794 794 1.00001
822 794 -0.99999
795 795 1.00001
795 796 -1e-06
796 796 1.00001
822 796 -0.99999
797 797 1.00001
797 798 -1e-06
798 798 1.00001
822 798 -0.99999
799 799 1.00001
799 800 -1e-06
800 800 1.00001
822 800 -0.99999
801 801 1.00001
801 802 -1e-06
802 802 1.00001
822 802 -0.99999
803 803 1.00001
803 804 -1e-06
804 804 1.00001
822 804 -0.99999
805 805 1.00001
805 806 -1e-06
806 806 1.00001
822 806 -0.99999
807 807 1.00001
807 808 -1e-06
808 808 1.00001
822 808 -0.99999
809 809 -0.99999
810 809 -0.0643999
940 809 0.0643999
810 810 -0.99999
822 810 -1.00001
811 811 1.00001
812 812 9e-06
813 812 111111
822 812 -111111
813 813 1.00001
816 813 -9.9999e-07
822 813 -0.99999
813 814 1
814 814 9e-06
816 814 0.11111
822 814 -1.11262
813 815 1
815 815 9e-06
816 815 0.11111
822 815 -1.11262
812 816 1
813 816 -111111
814 816 1
815 816 1
816 816 0.66668
822 816 4.99209
817 817 9e-06
818 817 111111
822 817 -111111
818 818 1.00001
821 818 -9.9999e-07
822 818 -0.99999
818 819 1
819 819 9e-06
821 819 0.11111
822 819 -1.11262
818 820 1
820 820 9e-06
821 820 0.11111
822 820 -1.11262
817 821 1
818 821 -111111
819 821 1
820 821 1
821 821 0.66668
822 821 5.00182
736 822 -1
822 822 1.00001
939 822 -49931.9
823 823 -0.99999
913 823 -1.00001
824 824 -0.99999
827 824 -1.00001
825 825 -0.99999
826 826 -0.99999
827 827 -3.07796
828 827 -1
938 827 0.32489
825 828 1
827 828 3.07797
828 828 2.00272e-05
938 828 -49932.4
829 829 -0.99999
830 830 -0.99999
831 830 -1.00001
829 831 1
831 831 1.539
833 831 -0.999994
831 832 -1.53899
832 832 -0.99999
833 832 -9.89447e-06
833 833 -0.99999
913 833 -1.00001
834 834 -0.99999
835 835 -0.99999
836 835 -1.00001
834 836 1
836 836 1.539
838 836 -0.999994
836 837 -1.53899
837 837 -0.99999
838 837 -9.89447e-06
838 838 -0.99999
913 838 -1.00001
839 839 1.00001
839 840 -1e-06
840 840 1.00001
913 840 -0.99999
841 841 1.00001
841 842 -1e-06
842 842 1.00001
913 842 -0.99999
843 843 1.00001
843 844 -1e-06
844 844 1.00001
913 844 -0.99999
845 845 1.00001
845 846 -1e-06
846 846 1.00001
913 846 -0.99999
847 847 1.00001
847 848 -1e-06
848 848 1.00001
913 848 -0.99999
849 849 1.00001
849 850 -1e-06
850 850 1.00001
913 850 -0.99999
851 851 1.00001
851 852 -1e-06
852 852 1.00001
913 852 -0.99999
853 853 1.00001
853 854 -1e-06
854 854 1.00001
913 854 -0.99999
855 855 1.00001
855 856 -1e-06
856 856 1.00001
913 856 -0.99999
857 857 1.00001
857 858 -1e-06
858 858 1.00001
913 858 -0.99999
859 859 1.00001
859 860 -1e-06
860 860 1.00001
913 860 -0.99999
861 861 1.00001
861 862 -1e-06
862 862 1.00001
913 862 -0.99999
863 863 1.00001
863 864 -1e-06
864 864 1.00001
913 864 -0.99999
865 865 1.00001
865 866 -1e-06
866 866 1.00001
913 866 -0.99999
867 867 1.00001
867 868 -1e-06
868 868 1.00001
913 868 -0.99999
869 869 1.00001
869 870 -1e-06
870 870 1.00001
913 870 -0.99999
871 871 1.00001
871 872 -1e-06
872 872 1.00001
913 872 -0.99999
873 873 1.00001
873 874 -1e-06
874 874 1.00001
913 874 -0.99999
875 875 1.00001
875 876 -1e-06
876 876 1.00001
913 876 -0.99999
877 877 1.00001
877 878 -1e-06
878 878 1.00001
913 878 -0.99999
879 879 1.00001
879 880 -1e-06
880 880 1.00001
913 880 -0.99999
881 881 1.00001
881 882 -1e-06
882 882 1.00001
913 882 -0.99999
883 883 1.00001
883 884 -1e-06
884 884 1.00001
913 884 -0.99999
885 885 1.00001
885 886 -1e-06
886 886 1.00001
913 886 -0.99999
887 887 1.00001
887 888 -1e-06
888 888 1.00001
913 888 -0.99999
889 889 1.00001
889 890 -1e-06
890 890 1.00001
913 890 -0.99999
891 891 1.00001
891 892 -1e-06
892 892 1.00001
913 892 -0.99999
893 893 1.00001
893 894 -1e-06
894 894 1.00001
913 894 -0.99999
895 895 1.00001
895 896 -1e-06
896 896 1.00001
913 896 -0.99999
897 897 1.00001
897 898 -1e-06
898 898 1.00001
913 898 -0.99999
899 899 1.00001
899 900 -1e-06
900 900 1.00001
913 900 -0.99999
901 901 -0.99999
902 901 -0.0643999
940 901 0.0643999
902 902 -0.99999
913 902 -1.00001
903 903 9e-06
904 903 111111
913 903 -111111
904 904 1.00001
907 904 -9.9999e-07
913 904 -0.99999
904 905 1
905 905 9e-06
907 905 0.11111
913 905 -1.11262
904 906 1
906 906 9e-06
907 906 0.11111
913 906 -1.11262
903 907 1
904 907 -111111
905 907 1
906 907 1
907 907 0.66668
913 907 4.99209
908 908 9e-06
909 908 111111
913 908 -111111
909 909 1.00001
912 909 -9.9999e-07
913 909 -0.99999
909 910 1
910 910 9e-06
912 910 0.11111
913 910 -1.11262
909 911 1
911 911 9e-06
912 911 0.11111
913 911 -1.11262
908 912 1
909 912 -111111
910 912 1
911 912 1
912 912 0.66668
913 912 4.99209
828 913 -1
913 913 1.00001
938 913 -49931.9
914 914 0.00201
934 914 -0.995025
915 915 0.00201
929 915 -0.995025
916 916 0.00201
924 916 -0.995025
917 917 0.00201
919 917 -0.995025
918 918 9e-06
919 918 -111111
1133 918 111111
919 919 -0.99999
922 919 1.00001e-06
1133 919 -1.00001
919 920 -1
920 920 9e-06
922 920 0.111112
1133 920 -1.11262
919 921 -1
921 921 9e-06
922 921 0.111112
1133 921 -1.11262
917 922 -0.002
918 922 -1
919 922 -111111
920 922 -1
921 922 -1
922 922 -0.666653
1133 922 5.00401
923 923 9e-06
924 923 -111111
1133 923 111111
924 924 -0.99999
927 924 1.00001e-06
1133 924 -1.00001
924 925 -1
925 925 9e-06
927 925 0.111112
1133 925 -1.11262
924 926 -1
926 926 9e-06
927 926 0.111112
1133 926 -1.11262
916 927 -0.002
923 927 -1
924 927 -111111
925 927 -1
926 927 -1
927 927 -0.666653
1133 927 4.99229
928 928 9e-06
929 928 -111111
1133 928 111111
929 929 -0.99999
932 929 1.00001e-06
1133 929 -1.00001
929 930 -1
930 930 9e-06
932 930 0.111112
1133 930 -1.11262
929 931 -1
931 931 9e-06
932 931 0.111112
1133 931 -1.11262
915 932 -0.002
928 932 -1
929 932 -111111
930 932 -1
931 932 -1
932 932 -0.666653
1133 932 4.99229
933 933 9e-06
934 933 -111111
1133 933 111111
934 934 -0.99999
937 934 1.00001e-06
1133 934 -1.00001
934 935 -1
935 935 9e-06
937 935 0.111112
1133 935 -1.11262
934 936 -1
936 936 9e-06
937 936 0.111112
1133 936 -1.11262
914 937 -0.002
933 937 -1
934 937 -111111
935 937 -1
936 937 -1
937 937 -0.666653
1133 937 4.99229
811 938 1
822 938 -0.0005
826 938 1
832 938 1
833 938 9.89447e-06
837 938 1
838 938 9.89447e-06
839 938 -1
841 938 -1
843 938 -1
845 938 -1
847 938 -1
849 938 -1
851 938 -1
853 938 -1
855 938 -1
857 938 -1
859 938 -1
861 938 -1
863 938 -1
865 938 -1
867 938 -1
869 938 -1
871 938 -1
873 938 -1
875 938 -1
877 938 -1
879 938 -1
881 938 -1
883 938 -1
885 938 -1
887 938 -1
889 938 -1
891 938 -1
893 938 -1
895 938 -1
897 938 -1
899 938 -1
901 938 1
902 938 0.0643999
903 938 -1
904 938 111111
905 938 -1
906 938 -1
907 938 -0.66667
908 938 -1
909 938 111111
910 938 -1
911 938 -1
912 938 -0.66667
913 938 0.0610757
938 938 3050.62
939 938 -0.00818388
940 938 -2.11104e-05
1133 938 -6.55605e-07
734 939 1
740 939 1
741 939 9.89447e-06
745 939 1
746 939 9.89447e-06
747 939 -1
749 939 -1
751 939 -1
753 939 -1
755 939 -1
757 939 -1
759 939 -1
761 939 -1
763 939 -1
765 939 -1
767 939 -1
769 939 -1
771 939 -1
773 939 -1
775 939 -1
777 939 -1
779 939 -1
781 939 -1
783 939 -1
785 939 -1
787 939 -1
789 939 -1
791 939 -1
793 939 -1
795 939 -1
797 939 -1
799 939 -1
801 939 -1
803 939 -1
805 939 -1
807 939 -1
809 939 1
810 939 0.0643999
811 939 -1
812 939 -1
813 939 111111
814 939 -1
815 939 -1
816 939 -0.66667
817 939 -1
818 939 111111
819 939 -1
820 939 -1
821 939 -0.66667
822 939 0.0578307
913 939 -0.0005
938 939 -24.9659
939 939 2888.39
940 939 -2.24786e-05
1133 939 -6.98096e-07
810 940 -0.0643993
822 940 -0.0643999
902 940 -0.0643993
913 940 -0.0643999
938 940 -3215.61
939 940 -3241.92
940 940 -0.0119482
945 940 83.6948
1133 940 0.365859
941 941 0.00401003
944 941 -0.498753
1134 941 -0.498753
942 942 0.00401009
944 942 -0.498753
1134 942 -0.498753
943 943 0.00401006
944 943 -0.498753
1134 943 -0.498753
940 944 -1
944 944 1.00001
945 944 83.6939
1133 944 0.365855
941 945 -0.00200001
942 945 -0.00200004
943 945 -0.00200003
944 945 0.00300753
945 945 0.748298
1133 945 -0.00147043
1134 945 -0.00399916
946 946 0.00401
1133 946 -0.498753
1134 946 -0.498753
689 947 -0.003
691 947 -0.004
692 947 -0.00174813
693 947 -0.002
694 947 -0.002
695 947 -0.002
696 947 0.00545513
947 947 -0.99999
1133 947 0.00542027
1134 947 -0.00545524
674 948 -0.002
676 948 -0.002
677 948 -0.00199998
678 948 -0.00199998
682 948 -0.002
683 948 -0.00208658
684 948 -0.002
685 948 -0.002
686 948 -0.002
687 948 -0.002
688 948 0.00783943
948 948 -0.99999
1133 948 0.00779687
1134 948 -0.00783959
949 949 0.00401
1133 949 -0.498753
1134 949 -0.498753
950 950 0.00401
1133 950 -0.498753
1134 950 -0.498753
951 951 0.00401
1133 951 -0.498753
1134 951 -0.498753
952 952 0.00401
1133 952 -0.498753
1134 952 -0.498753
953 953 0.00401
1133 953 -0.498753
1134 953 -0.498753
954 954 0.00401
1133 954 -0.498753
1134 954 -0.498753
955 955 0.00401
1133 955 -0.498753
1134 955 -0.498753
956 956 0.00401
1133 956 -0.498753
1134 956 -0.498753
957 957 0.00401
1133 957 -0.498753
1134 957 -0.498753
958 958 0.00401
1133 958 -0.498753
1134 958 -0.498753
959 959 0.00401
1133 959 -0.498753
1134 959 -0.498753
960 960 0.00401
1133 960 -0.498753
1134 960 -0.498753
961 961 0.00401
1133 961 -0.498753
1134 961 -0.498753
962 962 0.00401
1133 962 -0.498753
1134 962 -0.498753
963 963 0.00401
1133 963 -0.498753
1134 963 -0.498753
964 964 0.00401
1133 964 -0.498753
1134 964 -0.498753
965 965 0.00401
1133 965 -0.498753
1134 965 -0.498753
966 966 0.00401
1133 966 -0.498753
1134 966 -0.498753
967 967 0.00401
1133 967 -0.498753
1134 967 -0.498753
968 968 0.00401
1133 968 -0.498753
1134 968 -0.498753
969 969 0.00401
1133 969 -0.498753
1134 969 -0.498753
970 970 0.00401
1133 970 -0.498753
1134 970 -0.498753
971 971 0.00401
1133 971 -0.498753
1134 971 -0.498753
972 972 0.00401
1133 972 -0.498753
1134 972 -0.498753
973 973 0.00401
1133 973 -0.498753
1134 973 -0.498753
974 974 0.00401
1133 974 -0.498753
1134 974 -0.498753
975 975 0.00401
1133 975 -0.498753
1134 975 -0.498753
976 976 0.00401
1133 976 -0.498753
1134 976 -0.498753
977 977 0.00401
1133 977 -0.498753
1134 977 -0.498753
978 978 0.00401
1133 978 -0.498753
1134 978 -0.498753
979 979 0.00401
1133 979 -0.498753
1134 979 -0.498753
980 980 0.00401
1133 980 -0.498753
1134 980 -0.498753
981 981 0.00401
1133 981 -0.498753
1134 981 -0.498753
982 982 0.00401
1133 982 -0.498753
1134 982 -0.498753
983 983 0.00401
1133 983 -0.498753
1134 983 -0.498753
984 984 0.00401
1133 984 -0.498753
1134 984 -0.498753
985 985 0.00401
1133 985 -0.498753
1134 985 -0.498753
986 986 0.00401
1133 986 -0.498753
1134 986 -0.498753
987 987 0.00401
1133 987 -0.498753
1134 987 -0.498753
988 988 0.00401
1133 988 -0.498753
1134 988 -0.498753
989 989 0.00401
1133 989 -0.498753
1134 989 -0.498753
990 990 0.00401
1133 990 -0.498753
1134 990 -0.498753
991 991 0.00401
1133 991 -0.498753
1134 991 -0.498753
992 992 0.00401
1133 992 -0.498753
1134 992 -0.498753
993 993 0.00401
1133 993 -0.498753
1134 993 -0.498753
994 994 0.00401
1133 994 -0.498753
1134 994 -0.498753
995 995 0.00401
1133 995 -0.498753
1134 995 -0.498753
996 996 0.00401
1133 996 -0.498753
1134 996 -0.498753
997 997 0.00401
1133 997 -0.498753
1134 997 -0.498753
998 998 0.00401
1133 998 -0.498753
1134 998 -0.498753
999 999 0.00401
1133 999 -0.498753
1134 999 -0.498753
1000 1000 0.00401
1133 1000 -0.498753
1134 1000 -0.498753
1001 1001 0.00401
1133 1001 -0.498753
1134 1001 -0.498753
1002 1002 0.00401
1133 1002 -0.498753
1134 1002 -0.498753
1003 1003 0.00401
1133 1003 -0.498753
1134 1003 -0.498753
1004 1004 0.00401
1133 1004 -0.498753
1134 1004 -0.498753
1005 1005 0.00401
1133 1005 -0.498753
1134 1005 -0.498753
1006 1006 0.00401
1133 1006 -0.498753
1134 1006 -0.498753
1007 1007 0.00401
1133 1007 -0.498753
1134 1007 -0.498753
1008 1008 0.00401
1133 1008 -0.498753
1134 1008 -0.498753
1009 1009 0.00401
1133 1009 -0.498753
1134 1009 -0.498753
1010 1010 0.00401
1133 1010 -0.498753
1134 1010 -0.498753
1011 1011 0.00401
1133 1011 -0.498753
1134 1011 -0.498753
1012 1012 0.00401
1133 1012 -0.498753
1134 1012 -0.498753
1013 1013 0.00401
1133 1013 -0.498753
1134 1013 -0.498753
1014 1014 0.00401
1133 1014 -0.498753
1134 1014 -0.498753
1015 1015 0.00401
1133 1015 -0.498753
1134 1015 -0.498753
1016 1016 0.00401
1133 1016 -0.498753
1134 1016 -0.498753
1017 1017 0.00401
1133 1017 -0.498753
1134 1017 -0.498753
1018 1018 0.00401
1133 1018 -0.498753
1134 1018 -0.498753
1019 1019 0.00401
1133 1019 -0.498753
1134 1019 -0.498753
1020 1020 0.00401
1133 1020 -0.498753
1134 1020 -0.498753
1021 1021 0.00401
1133 1021 -0.498753
1134 1021 -0.498753
1022 1022 0.00401
1133 1022 -0.498753
1134 1022 -0.498753
1023 1023 0.00401
1133 1023 -0.498753
1134 1023 -0.498753
1024 1024 0.00401
1133 1024 -0.498753
1134 1024 -0.498753
1025 1025 0.00401
1133 1025 -0.498753
1134 1025 -0.498753
1026 1026 0.00401
1133 1026 -0.498753
1134 1026 -0.498753
1027 1027 0.00401
1133 1027 -0.498753
1134 1027 -0.498753
1028 1028 0.00401
1133 1028 -0.498753
1134 1028 -0.498753
1029 1029 0.00401
1133 1029 -0.498753
1134 1029 -0.498753
1030 1030 0.00401
1133 1030 -0.498753
1134 1030 -0.498753
1031 1031 0.00401
1133 1031 -0.498753
1134 1031 -0.498753
1032 1032 0.00401
1133 1032 -0.498753
1134 1032 -0.498753
1033 1033 0.00401
1133 1033 -0.498753
1134 1033 -0.498753
1034 1034 0.00401
1062 1034 -0.498753
1065 1034 -0.498753
1035 1035 0.00401
1062 1035 -0.498753
1065 1035 -0.498753
1036 1036 0.00401
1062 1036 -0.498753
1065 1036 -0.498753
1037 1037 0.00401
1062 1037 -0.498753
1065 1037 -0.498753
1038 1038 0.00401
1046 1038 -0.249377
1065 1038 -0.74813
1039 1039 0.00401
1046 1039 -0.249377
1048 1039 -0.74813
1040 1040 0.00401
1045 1040 -0.249377
1065 1040 -0.74813
1041 1041 0.00401
1045 1041 -0.249377
1048 1041 -0.74813
1042 1042 0.00401
1048 1042 -0.498753
1065 1042 -0.498753
1043 1043 0.00401
1048 1043 -0.498753
1065 1043 -0.498753
1044 1044 0.00801
1045 1044 -0.249688
1048 1044 -0.374532
1065 1044 -0.374532
1040 1045 -0.001
1041 1045 -0.001
1044 1045 -0.002
1045 1045 0.00701187
1048 1045 -0.498753
1065 1045 -0.498753
1038 1046 -0.001
1039 1046 -0.001
1046 1046 0.00751125
1048 1046 -0.365869
1049 1046 -0.266267
1065 1046 -0.365869
1039 1047 -0.003
1041 1047 -0.003
1042 1047 -0.002
1043 1047 -0.002
1044 1047 -0.003
1045 1047 -0.00349719
1046 1047 -0.00274813
1047 1047 -0.99999
1048 1047 -0.007643
1049 1047 0.00173175
1065 1047 0.00586836
1048 1048 -0.99999
1062 1048 -1.00001
1046 1049 -0.002
1048 1049 -0.00173174
1049 1049 0.00747747
1062 1049 -0.499067
1065 1049 -0.499064
1050 1050 0.00401
1058 1050 -0.249377
1065 1050 -0.74813
1051 1051 0.00401
1058 1051 -0.249377
1060 1051 -0.74813
1052 1052 0.00401
1057 1052 -0.249377
1065 1052 -0.74813
1053 1053 0.00401
1057 1053 -0.249377
1060 1053 -0.74813
1054 1054 0.00401
1060 1054 -0.498753
1065 1054 -0.498753
1055 1055 0.00401
1060 1055 -0.498753
1065 1055 -0.498753
1056 1056 0.00801
1057 1056 -0.249688
1060 1056 -0.374532
1065 1056 -0.374532
1052 1057 -0.001
1053 1057 -0.001
1056 1057 -0.002
1057 1057 0.00701187
1060 1057 -0.498753
1065 1057 -0.498753
1050 1058 -0.001
1051 1058 -0.001
1058 1058 0.00751125
1060 1058 -0.365869
1061 1058 -0.266267
1065 1058 -0.365869
1051 1059 -0.003
1053 1059 -0.003
1054 1059 -0.002
1055 1059 -0.002
1056 1059 -0.003
1057 1059 -0.00349719
1058 1059 -0.00274813
1059 1059 -0.99999
1060 1059 -0.007643
1061 1059 0.00173175
1065 1059 0.00586836
1060 1060 -0.99999
1062 1060 -1.00001
1058 1061 -0.002
1060 1061 -0.00173174
1061 1061 0.00747747
1062 1061 -0.499067
1065 1061 -0.499064
1062 1062 1.00001
1134 1062 -0.99999
1034 1063 -0.002
1035 1063 -0.002
1036 1063 -0.002
1037 1063 -0.002
1047 1063 1
1048 1063 0.007643
1049 1063 -0.00373175
1059 1063 1
1060 1063 0.007643
1061 1063 -0.00373175
1062 1063 0.0195713
1063 1063 1.00001
1065 1063 -0.0194513
1134 1063 0.019571
1034 1064 -0.002
1035 1064 -0.002
1036 1064 -0.002
1037 1064 -0.002
1038 1064 -0.003
1040 1064 -0.003
1042 1064 -0.002
1043 1064 -0.002
1044 1064 -0.003
1045 1064 -0.00349719
1046 1064 -0.00274813
1048 1064 -0.0058683
1049 1064 -0.00373174
1050 1064 -0.003
1052 1064 -0.003
1054 1064 -0.002
1055 1064 -0.002
1056 1064 -0.003
1057 1064 -0.00349719
1058 1064 -0.00274813
1060 1064 -0.0058683
1061 1064 -0.00373174
1062 1064 -0.0194515
1064 1064 1.00001
1065 1064 0.0195709
1134 1064 -0.0194511
1065 1065 1.00001
1133 1065 -0.99999
670 1066 -1
672 1066 -1
1066 1066 0.0040166
1133 1066 -0.248967
1134 1066 -0.248967
1136 1066 -0.499576
1067 1067 1.00001
1083 1067 -0.99999
1067 1068 1e-09
1068 1068 1.00001
1083 1068 9.9998e-10
1069 1069 1.00001
1083 1069 -0.99999
1069 1070 3.29736e-06
1070 1070 1.00001
1083 1070 3.2973e-06
1132 1070 -3.29733e-06
1071 1071 1.02565
1080 1071 -0.99999
1072 1072 1.02565
1080 1072 -0.99999
1073 1073 0.51283
1078 1073 -0.999981
1074 1074 0.51283
1078 1074 -0.999981
1075 1075 0.51283
1079 1075 -0.999981
1076 1076 0.51283
1079 1076 -0.999981
1075 1077 -0.512821
1076 1077 -0.512821
1077 1077 1.00001
1078 1077 -0.002
1079 1077 0.0120198
1080 1077 -0.00399999
1133 1077 -0.00299997
1134 1077 -0.00299997
1073 1078 -0.512821
1074 1078 -0.512821
1078 1078 0.00602984
1079 1078 -0.331686
1133 1078 -0.497527
1134 1078 -0.165842
1079 1079 1.00001
1071 1080 -1.02564
1072 1080 -1.02564
1079 1080 -0.00400003
1080 1080 0.0100298
1133 1080 -0.398814
1134 1080 -0.199406
1081 1081 0.00401
1083 1081 -0.249377
1133 1081 -0.249377
1134 1081 -0.498753
1082 1082 0.00401
1083 1082 -0.249377
1133 1082 -0.249377
1134 1082 -0.498753
1068 1083 -1
1070 1083 -1
1081 1083 -0.001
1082 1083 -0.001
1083 1083 0.00751455
1132 1083 -0.26659
1133 1083 -0.465597
1134 1083 -0.265819
1084 1084 -0.99999
1085 1084 -0.000494609
1086 1084 0.000494609
1085 1085 -0.99999
1131 1085 -1.00001
1086 1086 1.00001
1132 1086 -0.99999
1085 1087 -0.000494604
1086 1087 0.000494604
1087 1087 1.00001
1131 1087 -0.000494604
1132 1087 0.000494595
1088 1088 1.00001
1088 1089 0.001
1089 1089 1.00001
1090 1090 1.00001
1090 1091 0.001
1091 1091 1.00001
1089 1092 1
1091 1092 -1
1092 1092 0.00551482
1095 1092 -0.183201
1131 1092 -0.814986
1093 1093 1.00001
1093 1094 0.001
1094 1094 1.00001
1091 1095 1
1092 1095 -0.00101032
1094 1095 -1
1095 1095 0.00532973
1113 1095 -0.843289
1131 1095 -0.154491
1096 1096 1.00001
1096 1097 0.001
1097 1097 1.00001
1098 1098 1.00001
1098 1099 0.001
1099 1099 1.00001
1097 1100 1
1099 1100 -1
1100 1100 0.00551482
1103 1100 -0.814986
1111 1100 -0.183201
1101 1101 1.00001
1101 1102 0.001
1102 1102 1.00001
1097 1103 -1
1100 1103 -0.0044945
1102 1103 1
1103 1103 0.00533605
1106 1103 -0.84229
1111 1103 -0.154308
1104 1104 1.00001
1104 1105 0.001
1105 1105 1.00001
1102 1106 -1
1103 1106 -0.0044945
1105 1106 1
1106 1106 0.00173011
1111 1106 -0.400863
1112 1106 -0.58452
1107 1107 1.00001
1107 1108 0.001
1108 1108 1.00001
1109 1109 1.00001
1109 1110 0.001
1110 1110 1.00001
1099 1111 1
1100 1111 -0.00101032
1103 1111 -0.000823396
1106 1111 -0.000693539
1108 1111 -1
1111 1111 0.00492466
1112 1111 -0.0823178
1133 1111 -0.912652
1105 1112 -1
1106 1112 -0.00101129
1110 1112 1
1111 1112 -0.000405387
1112 1112 0.0048913
1133 1112 -0.994516
1094 1113 1
1095 1113 -0.0044945
1113 1113 0.00271434
1131 1113 -0.255812
1133 1113 -0.736828
1114 1114 1.00001
1114 1115 0.001
1115 1115 1.00001
1116 1116 1.00001
1116 1117 0.001
1117 1117 1.00001
1115 1118 1
1117 1118 -1
1118 1118 0.00551168
1121 1118 -0.182735
1122 1118 -0.815451
1119 1119 1.00001
1119 1120 0.001
1120 1120 1.00001
1117 1121 1
1118 1121 -0.00100717
1120 1121 -1
1121 1121 0.00532763
1122 1121 -0.154159
1131 1121 -0.843621
1115 1122 -1
1118 1122 -0.0044945
1121 1122 -0.000821301
1122 1122 0.00271285
1131 1122 -0.255402
1135 1122 -0.737233
1123 1123 0.00401
1131 1123 -0.249377
1133 1123 -0.249377
1135 1123 -0.498753
1124 1124 0.00401
1131 1124 -0.249377
1133 1124 -0.249377
1135 1124 -0.498753
1125 1125 0.00401
1131 1125 -0.249377
1133 1125 -0.249377
1135 1125 -0.498753
1126 1126 0.00401
1131 1126 -0.249377
1133 1126 -0.249377
1135 1126 -0.498753
1127 1127 0.00401
1131 1127 -0.249377
1133 1127 -0.249377
1135 1127 -0.498753
1128 1128 0.00401
1131 1128 -0.249377
1133 1128 -0.249377
1135 1128 -0.498753
1129 1129 0.00401
1131 1129 -0.249377
1133 1129 -0.249377
1135 1129 -0.498753
1130 1130 0.00401
1131 1130 -0.249377
1133 1130 -0.249377
1135 1130 -0.498753
1084 1131 1
1085 1131 0.000494609
1086 1131 -0.000494609
1089 1131 -1
1092 1131 -0.0044945
1095 1131 -0.000823396
1113 1131 -0.000694361
1120 1131 1
1121 1131 -0.0044945
1122 1131 -0.000692867
1123 1131 -0.001
1124 1131 -0.001
1125 1131 -0.001
1126 1131 -0.001
1127 1131 -0.001
1128 1131 -0.001
1129 1131 -0.001
1130 1131 -0.001
1131 1131 0.0155622
1132 1131 -0.0317824
1133 1131 -0.675138
1135 1131 -0.289215
1069 1132 -3.29736e-06
1083 1132 -0.0020033
1087 1132 -1
1131 1132 -0.000494604
1132 1132 0.00395812
1133 1132 -0.572661
1134 1132 -0.387183
1135 1132 -0.0361402
1133 1133 1.00001
1134 1134 1.00001
1134 1135 1
1135 1135 -0.99999
666 1136 -1
667 1136 -0.000494604
668 1136 -0.000125698
671 1136 -6.59473e-06
1066 1136 -0.0020066
1133 1136 -0.00153713
1134 1136 -0.00149958
1135 1136 -0.000371498
1136 1136 0.00343545
701 1137 -0.002
719 1137 -1
720 1137 -3.19296
721 1137 0
722 1137 -0.003
725 1137 -0.00300001
726 1137 -0.00174813
727 1137 -0.00174813
728 1137 -3.8611e-05
729 1137 -0.002
730 1137 -0.002
941 1137 -0.00200001
942 1137 -0.00200004
943 1137 -0.00200003
944 1137 -0.00299256
945 1137 0.250459
946 1137 -0.002
947 1137 1
948 1137 1
949 1137 -0.002
950 1137 -0.002
951 1137 -0.002
952 1137 -0.002
953 1137 -0.002
954 1137 -0.002
955 1137 -0.002
956 1137 -0.002
957 1137 -0.002
958 1137 -0.002
959 1137 -0.002
960 1137 -0.002
961 1137 -0.002
962 1137 -0.002
963 1137 -0.002
964 1137 -0.002
965 1137 -0.002
966 1137 -0.002
967 1137 -0.002
968 1137 -0.002
969 1137 -0.002
970 1137 -0.002
971 1137 -0.002
972 1137 -0.002
973 1137 -0.002
974 1137 -0.002
975 1137 -0.002
976 1137 -0.002
977 1137 -0.002
978 1137 -0.002
979 1137 -0.002
980 1137 -0.002
981 1137 -0.002
982 1137 -0.002
983 1137 -0.002
984 1137 -0.002
985 1137 -0.002
986 1137 -0.002
987 1137 -0.002
988 1137 -0.002
989 1137 -0.002
990 1137 -0.002
991 1137 -0.002
992 1137 -0.002
993 1137 -0.002
994 1137 -0.002
995 1137 -0.002
996 1137 -0.002
997 1137 -0.002
998 1137 -0.002
999 1137 -0.002
1000 1137 -0.002
1001 1137 -0.002
1002 1137 -0.002
1003 1137 -0.002
1004 1137 -0.002
1005 1137 -0.002
1006 1137 -0.002
1007 1137 -0.002
1008 1137 -0.002
1009 1137 -0.002
1010 1137 -0.002
1011 1137 -0.002
1012 1137 -0.002
1013 1137 -0.002
1014 1137 -0.002
1015 1137 -0.002
1016 1137 -0.002
1017 1137 -0.002
1018 1137 -0.002
1019 1137 -0.002
1020 1137 -0.002
1021 1137 -0.002
1022 1137 -0.002
1023 1137 -0.002
1024 1137 -0.002
1025 1137 -0.002
1026 1137 -0.002
1027 1137 -0.002
1028 1137 -0.002
1029 1137 -0.002
1030 1137 -0.002
1031 1137 -0.002
1032 1137 -0.002
1033 1137 -0.002
1063 1137 -1
1065 1137 -0.0194513
1066 1137 -0.001
1078 1137 -0.001
1079 1137 -0.00333169
1080 1137 -0.002
1081 1137 -0.002
1082 1137 -0.002
1083 1137 -0.00199751
1132 1137 -0.00153251
1133 1137 -0.12468
1134 1137 0.136583
1135 1137 -5.53854e-05
1136 1137 -0.00149958
1137 1137 1.00001
1139 1137 0.99999
150 1138 -0.004
200 1138 -0.002
201 1138 -0.0025964
202 1138 -0.00266065
234 1138 -0.0524109
235 1138 -0.00497825
236 1138 -0.0524109
237 1138 -0.00497825
238 1138 -0.0524109
239 1138 -0.00497825
240 1138 -0.0524109
241 1138 -0.00497825
242 1138 -0.0524109
243 1138 -0.00497825
244 1138 -0.0524109
245 1138 -0.00497825
246 1138 -0.0524109
247 1138 -0.00497825
248 1138 -0.001
249 1138 -0.001
250 1138 -0.001
251 1138 -0.0105856
273 1138 1
422 1138 -0.004
423 1138 -1
424 1138 -0.000373552
425 1138 -0.000373552
426 1138 -1e-05
427 1138 1
428 1138 1
429 1138 1
430 1138 1
431 1138 1
432 1138 1
433 1138 1
434 1138 1
435 1138 1
436 1138 1
437 1138 1
438 1138 1
439 1138 1
440 1138 1
441 1138 1
442 1138 1
443 1138 1
444 1138 1
445 1138 1
446 1138 1
447 1138 1
448 1138 1
449 1138 1
450 1138 1
451 1138 1
452 1138 1
453 1138 1
454 1138 1
455 1138 1
456 1138 1
457 1138 1
458 1138 1
459 1138 1
460 1138 1
461 1138 1
462 1138 1
463 1138 1
464 1138 1
465 1138 1
466 1138 1
467 1138 1
468 1138 1
469 1138 1
470 1138 1
471 1138 1
472 1138 1
473 1138 1
474 1138 1
475 1138 1
476 1138 1
477 1138 1
478 1138 1
479 1138 1
480 1138 1
481 1138 1
482 1138 1
483 1138 1
484 1138 1
485 1138 1
486 1138 1
487 1138 1
488 1138 1
514 1138 -0.002
515 1138 -0.00200002
516 1138 0.961247
520 1138 -1
521 1138 -3.19296
522 1138 0
523 1138 -0.003
525 1138 -0.003
532 1138 1
533 1138 -0.0104851
534 1138 -0.00186715
535 1138 -0.003
537 1138 -0.00200006
538 1138 -0.00339484
579 1138 -0.002
580 1138 -0.0025964
581 1138 -0.00266065
582 1138 -0.0524109
583 1138 -0.00497825
584 1138 -0.00119768
585 1138 -0.00174813
586 1138 -0.004
587 1138 -0.00174813
588 1138 -0.002
589 1138 -0.00299788
590 1138 -0.002
591 1138 -0.00349607
592 1138 -0.00367592
593 1138 -0.002
594 1138 -0.002
595 1138 -0.002
596 1138 -0.002
597 1138 -0.002
598 1138 -0.002
599 1138 -0.002
600 1138 -0.002
601 1138 -0.002
602 1138 -0.002
603 1138 -0.002
604 1138 -0.002
605 1138 -0.002
606 1138 -0.002
607 1138 -0.002
608 1138 -0.002
609 1138 -0.002
610 1138 -0.002
611 1138 -0.002
612 1138 -0.002
613 1138 -0.002
614 1138 -0.002
615 1138 -0.002
616 1138 -0.002
617 1138 -0.002
618 1138 -0.002
619 1138 -0.002
620 1138 -0.002
621 1138 -0.002
622 1138 -0.002
623 1138 -0.002
624 1138 -0.002
625 1138 -0.002
626 1138 -0.002
627 1138 -0.002
628 1138 -0.004
629 1138 -0.00166608
630 1138 -0.00173833
631 1138 -0.002
632 1138 -0.002
668 1138 -0.002
677 1138 -0.002
678 1138 -0.002
680 1138 -0.002
681 1138 -0.00400002
682 1138 -0.00166556
683 1138 -0.00173766
684 1138 -0.002
685 1138 -0.002
686 1138 -0.002
687 1138 -0.002
688 1138 -0.00779679
690 1138 -0.003
691 1138 -0.00174813
692 1138 -0.004
693 1138 -0.002
694 1138 -0.002
695 1138 -0.002
696 1138 -0.00542022
709 1138 -1.31895e-05
718 1138 -0.002
724 1138 -0.002
726 1138 -0.00200002
727 1138 -0.000544946
728 1138 -1.31893e-05
729 1138 -0.002
730 1138 -0.002
811 1138 -1
822 1138 -0.002
913 1138 -0.002
918 1138 1
919 1138 111111
920 1138 1
921 1138 1
922 1138 0.666663
923 1138 1
924 1138 111111
925 1138 1
926 1138 1
927 1138 0.666663
928 1138 1
929 1138 111111
930 1138 1
931 1138 1
932 1138 0.666663
933 1138 1
934 1138 111111
935 1138 1
936 1138 1
937 1138 0.666663
938 1138 -99.8639
939 1138 -100.681
940 1138 -0.00437134
945 1138 0.365859
946 1138 -0.002
949 1138 -0.002
950 1138 -0.002
951 1138 -0.002
952 1138 -0.002
953 1138 -0.002
954 1138 -0.002
955 1138 -0.002
956 1138 -0.002
957 1138 -0.002
958 1138 -0.002
959 1138 -0.002
960 1138 -0.002
961 1138 -0.002
962 1138 -0.002
963 1138 -0.002
964 1138 -0.002
965 1138 -0.002
966 1138 -0.002
967 1138 -0.002
968 1138 -0.002
969 1138 -0.002
970 1138 -0.002
971 1138 -0.002
972 1138 -0.002
973 1138 -0.002
974 1138 -0.002
975 1138 -0.002
976 1138 -0.002
977 1138 -0.002
978 1138 -0.002
979 1138 -0.002
980 1138 -0.002
981 1138 -0.002
982 1138 -0.002
983 1138 -0.002
984 1138 -0.002
985 1138 -0.002
986 1138 -0.002
987 1138 -0.002
988 1138 -0.002
989 1138 -0.002
990 1138 -0.002
991 1138 -0.002
992 1138 -0.002
993 1138 -0.002
994 1138 -0.002
995 1138 -0.002
996 1138 -0.002
997 1138 -0.002
998 1138 -0.002
999 1138 -0.002
1000 1138 -0.002
1001 1138 -0.002
1002 1138 -0.002
1003 1138 -0.002
1004 1138 -0.002
1005 1138 -0.002
1006 1138 -0.002
1007 1138 -0.002
1008 1138 -0.002
1009 1138 -0.002
1010 1138 -0.002
1011 1138 -0.002
1012 1138 -0.002
1013 1138 -0.002
1014 1138 -0.002
1015 1138 -0.002
1016 1138 -0.002
1017 1138 -0.002
1018 1138 -0.002
1019 1138 -0.002
1020 1138 -0.002
1021 1138 -0.002
1022 1138 -0.002
1023 1138 -0.002
1024 1138 -0.002
1025 1138 -0.002
1026 1138 -0.002
1027 1138 -0.002
1028 1138 -0.002
1029 1138 -0.002
1030 1138 -0.002
1031 1138 -0.002
1032 1138 -0.002
1033 1138 -0.002
1064 1138 -1
1065 1138 0.0195709
1066 1138 -0.001
1078 1138 -0.00300001
1079 1138 -0.00399506
1080 1138 -0.00400002
1081 1138 -0.001
1082 1138 -0.001
1083 1138 -0.00349875
1108 1138 1
1110 1138 -1
1111 1138 -0.0044945
1112 1138 -0.00486448
1113 1138 -0.002
1123 1138 -0.001
1124 1138 -0.001
1125 1138 -0.001
1126 1138 -0.001
1127 1138 -0.001
1128 1138 -0.001
1129 1138 -0.001
1130 1138 -0.001
1131 1138 -0.0105066
1132 1138 -0.00226666
1133 1138 0.437356
1134 1138 -0.12468
1135 1138 -0.0625698
1136 1138 -0.00153713
1138 1138 1.00001
252 1139 -0.003
253 1139 -0.003
254 1139 -0.003
255 1139 -0.003
256 1139 -0.003
271 1139 -0.002
291 1139 -0.003
292 1139 -0.003
293 1139 -0.003
294 1139 -0.003
295 1139 -0.003
296 1139 -0.003
517 1139 -0.003
518 1139 -0.00274813
519 1139 -0.00273076
524 1139 -0.003
536 1139 -0.003
537 1139 -0.00174813
538 1139 -0.004
539 1139 -0.003
540 1139 -0.003
541 1139 -0.003
542 1139 -0.003
543 1139 -0.003
544 1139 -0.003
584 1139 -0.0104888
585 1139 -0.004
586 1139 -0.00174813
587 1139 -0.002
588 1139 -0.00172935
589 1139 -0.00874065
590 1139 -0.00174813
591 1139 -0.000289424
592 1139 -0.00874065
593 1139 -0.002
594 1139 -0.002
595 1139 -0.002
596 1139 -0.002
597 1139 -0.002
598 1139 -0.002
599 1139 -0.002
600 1139 -0.002
601 1139 -0.002
602 1139 -0.002
603 1139 -0.002
604 1139 -0.002
605 1139 -0.002
606 1139 -0.002
607 1139 -0.002
608 1139 -0.002
609 1139 -0.002
610 1139 -0.002
611 1139 -0.002
612 1139 -0.002
613 1139 -0.002
614 1139 -0.002
615 1139 -0.002
616 1139 -0.002
617 1139 -0.002
618 1139 -0.002
619 1139 -0.002
620 1139 -0.002
621 1139 -0.002
622 1139 -0.002
623 1139 -0.002
624 1139 -0.002
625 1139 -0.002
626 1139 -0.002
627 1139 -0.002
628 1139 -0.002
629 1139 -0.002
630 1139 -0.00208673
631 1139 -0.002
632 1139 -0.002
667 1139 -0.002
668 1139 -0.00450828
1122 1139 -0.002
1123 1139 -0.002
1124 1139 -0.002
1125 1139 -0.002
1126 1139 -0.002
1127 1139 -0.002
1128 1139 -0.002
1129 1139 -0.002
1130 1139 -0.002
1131 1139 -0.00450083
1132 1139 -0.000143047
1133 1139 -0.0625698
1134 1139 -5.53854e-05
1135 1139 0.0638615
1136 1139 -0.000371498
1139 1139 -0.99999
1140 1140 1.00001
1141 1141 0.00201002
1145 1141 1492.52
1140 1142 -1
1142 1142 1.00001
1143 1143 1.00201
1144 1143 -0.997994
1143 1144 -1
1144 1144 0.00201595
1145 1144 -1488.13
1142 1145 1e-06
1145 1145 1.00001
1146 1146 0.00101
1147 1146 -2227.72
1145 1147 -1
1147 1147 1.00001
1148 1148 1.00001
1149 1149 1.00001
1150 1150 -0.99999
1150 1151 1
1151 1151 1.00001
1152 1152 -0.99999
1152 1153 1
1153 1153 1.00001
1154 1154 -0.99999
1154 1155 1
1155 1155 1.00001
1156 1156 -0.99999
1156 1157 1
1157 1157 1.00001
