%MatrixMarket matrix coordinate real general
180 180 1475
1 1 1.0000000000000000e+00
2 2 1.0000000000000000e+00
3 3 1.0000000000000000e+00
4 4 1.0000000000000000e+00
5 5 1.0000000000000000e+00
5 6 1.1177294000000000e+01
6 6 1.0000000000000000e+00
47 6 -4.4903079999999997e+00
177 6 -3.7038519999999999e+00
178 6 -2.9831340000000002e+00
7 7 -1.4282850000000000e+00
24 7 3.8900480000000002e+00
177 7 -9.1187900000000000e-01
178 7 -1.5498840000000000e+00
8 8 1.1169805999999999e+01
54 8 -4.5930439999999999e+00
177 8 -3.1864949999999999e+00
178 8 -3.3902670000000001e+00
9 9 -3.6000000000000000e+04
155 9 3.7194664627999999e+04
177 9 -1.1946646280000000e+03
10 10 1.0000000000000000e+00
10 11 -5.3752299999999997e-01
11 11 1.9605720000000000e+00
60 11 -5.2123799999999998e-01
178 11 -9.0181199999999995e-01
10 12 5.1780140000000001e+00
11 12 -5.3659299999999999e-01
12 12 1.0000000000000000e+00
30 12 -1.9327030000000001e+00
177 12 -1.3990370000000001e+00
178 12 -1.3096800000000000e+00
13 13 -2.7696519999999998e+00
23 13 1.5136029000000001e+01
178 13 -1.2366376000000001e+01
13 14 -2.1455787999999998e+01
14 14 2.4283335999999998e+01
48 14 4.7678969999999996e+00
177 14 -7.5954439999999996e+00
15 15 1.0000000000000000e+00
15 16 4.4026969999999999e+00
16 16 1.0000000000000000e+00
17 16 -6.6571100000000005e-01
40 16 -4.0160600000000002e-01
41 16 -3.3051300000000000e-01
149 16 -7.3211899999999996e-01
177 16 -5.4962800000000001e-01
178 16 -1.7231200000000000e+00
15 17 -6.3924000000000003e-01
17 17 4.6459530000000004e+00
40 17 -3.3051300000000000e-01
41 17 -5.9111100000000005e-01
149 17 -9.2162500000000003e-01
177 17 -4.4168900000000000e-01
178 17 -1.7217739999999999e+00
4 18 4.5085790000000001e+00
18 18 1.0000000000000000e+00
19 18 -7.3415200000000003e-01
20 18 -3.3051300000000000e-01
21 18 -7.3205900000000002e-01
144 18 -4.0154600000000001e-01
177 18 -6.2295100000000003e-01
178 18 -1.6873579999999999e+00
4 19 -7.1152499999999996e-01
19 19 4.8670640000000001e+00
20 19 -4.0154499999999999e-01
21 19 -9.5324900000000001e-01
144 19 -5.5170300000000005e-01
177 19 -7.0638699999999999e-01
178 19 -1.5426540000000000e+00
4 20 -3.2173900000000000e-01
19 20 -4.0119600000000000e-01
20 20 4.7402319999999998e+00
145 20 -5.6917700000000004e-01
177 20 -9.9705500000000002e-01
178 20 -2.4510649999999998e+00
4 21 -7.2653100000000004e-01
19 21 -9.4415800000000005e-01
21 21 6.2242800000000003e+00
22 21 -7.3415200000000003e-01
144 21 9.7543000000000005e-02
177 21 -1.0350619999999999e+00
178 21 -2.8819210000000002e+00
21 22 -7.1152499999999996e-01
22 22 7.6839130000000004e+00
29 22 -2.0613990000000002e+00
177 22 -2.0317479999999999e+00
178 22 -2.8792420000000001e+00
13 23 5.4254683999999997e+01
14 23 -2.5590986000000001e+01
23 23 -2.9667330000000001e+00
48 23 -1.4154883999999999e+01
151 23 -7.2060900000000006e-01
177 23 -3.2310770000000000e+00
178 23 -7.5903950000000000e+00
7 24 7.9838180000000003e+00
24 24 -1.5031239999999999e+00
82 24 -1.2897449999999999e+00
177 24 -1.9404619999999999e+00
178 24 -3.2504879999999998e+00
25 25 1.4106401999999999e+01
152 25 -8.1052140000000001e+00
177 25 -5.7941299999999996e-01
178 25 -5.4217750000000002e+00
26 26 1.7676245999999999e+01
152 26 6.1490060000000000e+00
153 26 -1.7017001000000000e+01
177 26 -6.1466099999999999e+00
178 26 -6.6164100000000003e-01
27 27 1.7702071000000000e+01
153 27 -1.0875226000000000e+01
177 27 -6.1650660000000004e+00
178 27 -6.6178000000000003e-01
28 28 2.0529151500000000e+02
127 28 3.5897700200000003e+02
151 28 -4.3157344100000000e+02
178 28 -1.3269507700000000e+02
22 29 -1.9542850000000000e+00
29 29 1.6270392999999999e+01
136 29 -4.4903079999999997e+00
177 29 -4.9300210000000000e+00
178 29 -4.8957800000000002e+00
3 30 -1.1345930000000000e+00
11 30 -5.3659299999999999e-01
30 30 -1.3961100000000000e+00
60 30 8.4045850000000009e+00
177 30 -2.2363350000000000e+00
178 30 -3.1009530000000001e+00
31 31 6.9997509999999998e+00
34 31 -1.9554769999999999e+00
150 31 -6.2422100000000003e-01
177 31 -1.5417600000000000e+00
178 31 -2.8782920000000001e+00
32 32 1.0429731000000000e+01
39 32 -3.6663899999999998e+00
150 32 -3.8939400000000002e-01
177 32 -2.5798079999999999e+00
178 32 -3.7941379999999998e+00
32 33 -3.8371559999999998e+00
33 33 -2.7907160000000002e+00
39 33 1.7116465999999999e+01
177 33 -5.3739309999999998e+00
178 33 -5.1146630000000002e+00
31 34 -2.0236869999999998e+00
33 34 1.2730700000000000e-01
34 34 8.6639630000000007e+00
177 34 -2.8126319999999998e+00
178 34 -3.9549509999999999e+00
35 35 -2.0236869999999998e+00
38 35 8.6639630000000007e+00
130 35 1.2730700000000000e-01
177 35 -2.8126319999999998e+00
178 35 -3.9549509999999999e+00
36 36 -3.8371559999999998e+00
42 36 1.7116465999999999e+01
130 36 -2.7907160000000002e+00
177 36 -5.3739309999999998e+00
178 36 -5.1146630000000002e+00
36 37 1.1093464000000001e+01
37 37 -6.8388800000000005e-01
42 37 -3.6663899999999998e+00
177 37 -3.2651590000000001e+00
178 37 -3.4780259999999998e+00
35 38 6.6180990000000000e+00
37 38 -4.7104200000000002e-01
38 38 -1.9554769999999999e+00
177 38 -2.1122529999999999e+00
178 38 -2.0793270000000001e+00
33 39 1.9650473000000002e+01
34 39 6.4114000000000004e-02
39 39 -2.8910410000000000e+00
137 39 -3.6663899999999998e+00
177 39 -6.1444099999999997e+00
178 39 -7.0127459999999999e+00
15 40 -3.9939799999999998e-01
17 40 -3.3582400000000001e-01
40 40 4.8811929999999997e+00
49 40 -6.3215500000000002e-01
149 40 -1.9999999999999999e-06
177 40 -1.4496720000000001e+00
178 40 -2.0641409999999998e+00
15 41 -3.3383000000000002e-01
17 41 -5.8633100000000005e-01
41 41 5.0320910000000003e+00
50 41 -6.3215500000000002e-01
149 41 7.2131000000000001e-02
177 41 -1.4857700000000000e+00
178 41 -2.0661350000000001e+00
38 42 6.4114000000000004e-02
42 42 -2.8910410000000000e+00
123 42 -3.6663899999999998e+00
130 42 1.9650473000000002e+01
177 42 -6.1444099999999997e+00
178 42 -7.0127459999999999e+00
5 43 -4.3321990000000001e+00
43 43 -1.8171150000000000e+00
47 43 2.0120464999999999e+01
58 43 -3.7208139999999998e+00
177 43 -5.9299359999999997e+00
178 43 -4.3204010000000004e+00
44 44 3.8756630999999999e+01
45 44 -1.0448157000000000e+01
118 44 -4.8422330000000002e+00
177 44 -1.1506900000000000e+01
178 44 -1.1959341000000000e+01
44 45 -9.7667380000000001e+00
45 45 2.8256216999999999e+01
46 45 -5.3660399999999997e-01
61 45 -1.9327099999999999e+00
177 45 -7.5507640000000000e+00
178 45 -8.4694009999999995e+00
3 46 -7.9864599999999997e-01
45 46 -5.3494299999999995e-01
46 46 2.2308970000000001e+00
61 46 6.9999999999999999e-06
178 46 -8.9731600000000000e-01
43 47 5.0363129999999998e+00
47 47 -1.8505100000000001e+00
58 47 3.3492600000000000e-01
137 47 -1.6094880000000000e+00
178 47 -1.9112410000000000e+00
13 48 -1.4579262999999999e+01
14 48 5.0011479999999997e+00
48 48 1.4367488000000000e+01
154 48 -2.2891240000000002e+00
177 48 -2.5002499999999999e+00
2 49 -7.2653100000000004e-01
40 49 -6.5186299999999997e-01
49 49 5.9799199999999999e+00
51 49 -8.9207599999999998e-01
57 49 5.0382000000000003e-02
177 49 -9.7103899999999999e-01
178 49 -2.7887940000000002e+00
2 50 -7.2653100000000004e-01
41 50 -6.5186299999999997e-01
50 50 5.9799199999999999e+00
53 50 -8.9207599999999998e-01
64 50 5.0382000000000003e-02
177 50 -9.7103899999999999e-01
178 50 -2.7887940000000002e+00
2 51 -7.1152499999999996e-01
49 51 -9.5324900000000001e-01
51 51 4.8670640000000001e+00
57 51 -5.5170300000000005e-01
98 51 -4.0154499999999999e-01
177 51 -7.0638699999999999e-01
178 51 -1.5426540000000000e+00
2 52 9.0171589999999995e+00
49 52 -7.3205900000000002e-01
50 52 -7.3205900000000002e-01
51 52 -7.3415200000000003e-01
52 52 1.0000000000000000e+00
53 52 -7.3415200000000003e-01
57 52 -4.0154600000000001e-01
64 52 -4.0154600000000001e-01
92 52 -3.3051300000000000e-01
98 52 -3.3051300000000000e-01
177 52 -1.2459020000000001e+00
178 52 -3.3747170000000000e+00
2 53 -7.1152499999999996e-01
50 53 -9.5324900000000001e-01
53 53 4.8670640000000001e+00
64 53 -5.5170300000000005e-01
92 53 -4.0154499999999999e-01
177 53 -7.0638699999999999e-01
178 53 -1.5426540000000000e+00
8 54 -4.8134860000000002e+00
54 54 1.6101476999999999e+01
146 54 -1.3365039999999999e+00
177 54 -4.9496490000000000e+00
178 54 -5.0018390000000004e+00
55 55 5.0224299999999999e-01
68 55 -1.6066800000000001e-01
146 55 -1.0057300000000000e-01
178 55 -2.4100300000000000e-01
56 56 5.4439599999999999e-01
66 56 1.1000000000000000e-05
67 56 -1.3096099999999999e-01
68 56 -1.3164899999999999e-01
177 56 -2.8179700000000002e-01
2 57 -4.0130500000000002e-01
49 57 9.7543000000000005e-02
51 57 -5.4799600000000004e-01
57 57 4.9173549999999997e+00
112 57 -5.6917700000000004e-01
177 57 -9.9694600000000000e-01
178 57 -2.4994730000000001e+00
58 58 -7.7049900000000004e-01
73 58 -7.9729300000000003e-01
140 58 2.8705419999999999e+00
178 58 -1.3027500000000001e+00
30 59 -1.6094880000000000e+00
59 59 5.0363129999999998e+00
61 59 -1.8505110000000000e+00
146 59 3.3492600000000000e-01
178 59 -1.9112410000000000e+00
10 60 -1.8680960000000000e+00
30 60 1.6354498000000000e+01
59 60 -1.8171150000000000e+00
60 60 -1.3458220000000001e+00
146 60 -1.9036990000000000e+00
177 60 -3.6853300000000000e+00
178 60 -5.7344350000000004e+00
3 61 -9.4055999999999995e-01
45 61 -1.8681749999999999e+00
46 61 -9.9999999999999995e-07
59 61 -1.8171150000000000e+00
61 61 1.6004928000000000e+01
146 61 -3.7208139999999998e+00
177 61 -3.7410280000000000e+00
178 61 -3.9172349999999998e+00
28 62 1.5326099850000001e+03
62 62 -8.6099599999999998e-01
125 62 -3.2794924999999999e+01
127 62 6.6550000000000003e-03
151 62 -3.1413092899999998e+02
177 62 -1.1319961160000000e+03
178 62 -5.2833674000000002e+01
28 63 -1.3018150000000000e+01
63 63 -3.0469892000000002e+01
125 63 1.1866117600000000e+02
177 63 -1.4238515000000000e+01
178 63 -6.0934618999999998e+01
2 64 -4.0130500000000002e-01
50 64 9.7543000000000005e-02
53 64 -5.4799600000000004e-01
64 64 4.9173549999999997e+00
94 64 -5.6917700000000004e-01
177 64 -9.9694600000000000e-01
178 64 -2.4994730000000001e+00
29 65 -4.3321990000000001e+00
65 65 -1.8171150000000000e+00
136 65 2.0120463999999998e+01
139 65 -3.7208139999999998e+00
177 65 -5.9299359999999997e+00
178 65 -4.3204010000000004e+00
55 66 -1.7085100000000000e-01
56 66 -1.3248199999999999e-01
66 66 -1.1877000000000000e+00
67 66 -2.5127200000000000e-01
68 66 4.9132429999999996e+00
115 66 8.3999999999999995e-05
146 66 -2.0098500000000000e-01
177 66 -8.7604800000000005e-01
178 66 -2.0939890000000001e+00
56 67 -1.3247900000000001e-01
66 67 -3.5246800000000000e-01
67 67 3.8493149999999998e+00
68 67 -2.5408999999999998e-01
114 67 -2.1999400000000000e-01
115 67 -2.5405499999999998e-01
146 67 -5.5158900000000000e-01
177 67 -5.4884699999999997e-01
178 67 -1.5357940000000001e+00
66 68 6.3388749999999998e+00
67 68 -3.3558199999999999e-01
68 68 -1.2278849999999999e+00
113 68 -3.0377500000000002e-01
114 68 2.1845000000000000e-02
146 68 -2.6762599999999998e-01
177 68 -1.7336450000000001e+00
178 68 -2.4922070000000001e+00
58 69 -1.0886920000000000e+00
69 69 4.4352530000000003e+00
70 69 -1.6094889999999999e+00
71 69 1.5915299999999999e-01
137 69 1.4000000000000000e-05
178 69 -1.8962390000000000e+00
33 70 -3.8371559999999998e+00
43 70 -1.8171150000000000e+00
58 70 -5.2914930000000000e+00
69 70 -3.0000000000000001e-06
70 70 -1.6289320000000000e+00
72 70 -1.6289320000000000e+00
137 70 3.7849992000000000e+01
177 70 -1.2743345000000000e+01
178 70 -1.0903017000000000e+01
69 71 3.3492499999999997e-01
70 71 -1.8505080000000000e+00
71 71 5.0363170000000004e+00
72 71 -1.6094889999999999e+00
178 71 -1.9112439999999999e+00
70 72 -7.9864500000000005e-01
72 72 -9.0153799999999995e-01
73 72 1.6179600000000000e-01
142 72 2.5229879999999998e+00
178 72 -9.8460099999999995e-01
70 73 -3.8336039999999998e+00
72 73 -1.7391690000000000e+00
73 73 1.3492115999999999e+01
140 73 -7.9419399999999996e-01
142 73 7.9954999999999998e-02
177 73 -3.1274760000000001e+00
178 73 -4.0776279999999998e+00
74 74 5.0224299999999999e-01
76 74 -1.6066800000000001e-01
81 74 -1.0057300000000000e-01
178 74 -2.4100300000000000e-01
75 75 5.4439599999999999e-01
76 75 -1.3164899999999999e-01
77 75 -1.3096099999999999e-01
78 75 1.1000000000000000e-05
177 75 -2.8179700000000002e-01
74 76 -1.7085100000000000e-01
75 76 -1.3248199999999999e-01
76 76 4.9132429999999996e+00
77 76 -2.5127200000000000e-01
78 76 -1.1877000000000000e+00
81 76 -2.0098500000000000e-01
82 76 8.3999999999999995e-05
177 76 -8.7604800000000005e-01
178 76 -2.0939890000000001e+00
75 77 -1.3247900000000001e-01
76 77 -2.5408999999999998e-01
77 77 3.8493149999999998e+00
78 77 -3.5246800000000000e-01
79 77 -2.1999400000000000e-01
81 77 -5.5158900000000000e-01
82 77 -2.5405499999999998e-01
177 77 -5.4884699999999997e-01
178 77 -1.5357940000000001e+00
76 78 -1.2278849999999999e+00
77 78 -3.3558199999999999e-01
78 78 6.3388749999999998e+00
79 78 2.1845000000000000e-02
81 78 -2.6762599999999998e-01
83 78 -3.0377500000000002e-01
177 78 -1.7336450000000001e+00
178 78 -2.4922070000000001e+00
77 79 -2.1048200000000000e-01
78 79 3.7326999999999999e-02
79 79 2.4959099999999999e+00
80 79 2.7133999999999998e-02
81 79 -1.6592999999999999e-01
83 79 -2.5802100000000000e-01
93 79 -2.6935399999999998e-01
177 79 -2.8205400000000003e-01
178 79 -1.3745300000000000e+00
79 80 4.8058999999999998e-02
80 80 8.4901000000000004e-01
83 80 -2.7216499999999999e-01
93 80 -2.5802100000000000e-01
178 80 -3.6688300000000001e-01
74 81 -1.0235400000000000e-01
76 81 -2.0539600000000000e-01
77 81 -5.6804100000000002e-01
78 81 -2.6953899999999997e-01
79 81 -1.6718600000000000e-01
81 81 7.4837629999999997e+00
82 81 -2.0539800000000000e-01
96 81 -1.4282850000000000e+00
177 81 -1.3354999999999999e+00
178 81 -3.2020650000000002e+00
1 82 -1.6506199999999999e-01
7 82 -1.3023750000000001e+00
76 82 -9.9999999999999995e-07
77 82 -2.5214300000000001e-01
81 82 -2.0308599999999999e-01
82 82 9.8101640000000003e+00
93 82 -1.6449530000000001e+00
177 82 -2.0809430000000000e+00
178 82 -4.1616010000000001e+00
1 83 -5.3015900000000005e-01
78 83 -3.0614900000000000e-01
79 83 -2.8142099999999998e-01
80 83 -2.8142099999999998e-01
83 83 3.5903220000000000e+00
177 83 -8.3836800000000000e-01
178 83 -1.3528039999999999e+00
81 84 -1.5031239999999999e+00
84 84 -1.2897449999999999e+00
96 84 7.9838180000000003e+00
177 84 -1.9404619999999999e+00
178 84 -3.2504879999999998e+00
85 85 5.0224299999999999e-01
89 85 -1.0057300000000000e-01
90 85 -1.6066800000000001e-01
178 85 -2.4100300000000000e-01
86 86 5.4439599999999999e-01
87 86 1.1000000000000000e-05
90 86 -1.3164899999999999e-01
91 86 -1.3096099999999999e-01
177 86 -2.8179700000000002e-01
87 87 6.3388749999999998e+00
88 87 -3.0377500000000002e-01
89 87 -2.6762599999999998e-01
90 87 -1.2278849999999999e+00
91 87 -3.3558199999999999e-01
95 87 2.1845000000000000e-02
177 87 -1.7336450000000001e+00
178 87 -2.4922070000000001e+00
1 88 -5.3015900000000005e-01
87 88 -3.0614900000000000e-01
88 88 3.5903220000000000e+00
95 88 -2.8142099999999998e-01
97 88 -2.8142099999999998e-01
177 88 -8.3836800000000000e-01
178 88 -1.3528039999999999e+00
84 89 -2.5405499999999998e-01
86 89 -1.3247900000000001e-01
87 89 -3.5246800000000000e-01
89 89 -5.5158900000000000e-01
90 89 -2.5408999999999998e-01
91 89 3.8493149999999998e+00
95 89 -2.1999400000000000e-01
177 89 -5.4884699999999997e-01
178 89 -1.5357940000000001e+00
84 90 8.3999999999999995e-05
85 90 -1.7085100000000000e-01
86 90 -1.3248199999999999e-01
87 90 -1.1877000000000000e+00
89 90 -2.0098500000000000e-01
90 90 4.9132429999999996e+00
91 90 -2.5127200000000000e-01
177 90 -8.7604800000000005e-01
178 90 -2.0939890000000001e+00
84 91 -2.0539800000000000e-01
85 91 -1.0235400000000000e-01
87 91 -2.6953899999999997e-01
89 91 7.4837629999999997e+00
90 91 -2.0539600000000000e-01
91 91 -5.6804100000000002e-01
95 91 -1.6718600000000000e-01
110 91 -1.4282850000000000e+00
177 91 -1.3354999999999999e+00
178 91 -3.2020650000000002e+00
2 92 -3.2173900000000000e-01
53 92 -4.0119600000000000e-01
92 92 4.7402319999999998e+00
93 92 -5.6917700000000004e-01
177 92 -9.9705500000000002e-01
178 92 -2.4510649999999998e+00
79 93 -2.7141999999999999e-01
80 93 -2.8142099999999998e-01
82 93 -1.5900440000000000e+00
92 93 -5.9158599999999995e-01
93 93 8.0612759999999994e+00
177 93 -2.0257130000000001e+00
178 93 -3.3010920000000001e+00
64 94 -5.9158599999999995e-01
84 94 -1.5900440000000000e+00
94 94 8.0612759999999994e+00
95 94 -2.7141999999999999e-01
97 94 -2.8142099999999998e-01
177 94 -2.0257130000000001e+00
178 94 -3.3010920000000001e+00
87 95 3.7326999999999999e-02
88 95 -2.5802100000000000e-01
89 95 -1.6592999999999999e-01
91 95 -2.1048200000000000e-01
94 95 -2.6935399999999998e-01
95 95 2.4959099999999999e+00
97 95 2.7133999999999998e-02
177 95 -2.8205400000000003e-01
178 95 -1.3745300000000000e+00
1 96 -1.6506199999999999e-01
84 96 9.8101640000000003e+00
89 96 -2.0308599999999999e-01
90 96 -9.9999999999999995e-07
91 96 -2.5214300000000001e-01
94 96 -1.6449530000000001e+00
96 96 -1.3023750000000001e+00
177 96 -2.0809430000000000e+00
178 96 -4.1616010000000001e+00
88 97 -2.7216499999999999e-01
94 97 -2.5802100000000000e-01
95 97 4.8058999999999998e-02
97 97 8.4901000000000004e-01
178 97 -3.6688300000000001e-01
2 98 -3.2173900000000000e-01
51 98 -4.0119600000000000e-01
98 98 4.7402319999999998e+00
105 98 -5.6917700000000004e-01
177 98 -9.9705500000000002e-01
178 98 -2.4510649999999998e+00
99 99 5.0224299999999999e-01
102 99 -1.0057300000000000e-01
103 99 -1.6066800000000001e-01
178 99 -2.4100300000000000e-01
100 100 5.4440000000000000e-01
101 100 1.1000000000000000e-05
103 100 -1.3164899999999999e-01
104 100 -1.3096099999999999e-01
177 100 -2.8179999999999999e-01
99 101 -1.7085100000000000e-01
100 101 -1.3248199999999999e-01
101 101 -1.1877000000000000e+00
102 101 -2.0098500000000000e-01
103 101 4.9132429999999996e+00
104 101 -2.5127200000000000e-01
108 101 8.3999999999999995e-05
177 101 -8.7604800000000005e-01
178 101 -2.0939890000000001e+00
100 102 -1.3247900000000001e-01
101 102 -3.5246800000000000e-01
102 102 -5.5158900000000000e-01
103 102 -2.5408999999999998e-01
104 102 3.8493149999999998e+00
107 102 -2.1999400000000000e-01
108 102 -2.5405499999999998e-01
177 102 -5.4884699999999997e-01
178 102 -1.5357940000000001e+00
101 103 6.3388749999999998e+00
102 103 -2.6762599999999998e-01
103 103 -1.2278849999999999e+00
104 103 -3.3558199999999999e-01
106 103 -3.0377500000000002e-01
107 103 2.1845000000000000e-02
177 103 -1.7336450000000001e+00
178 103 -2.4922070000000001e+00
99 104 -1.0235400000000000e-01
101 104 -2.6953899999999997e-01
102 104 7.4837629999999997e+00
103 104 -2.0539600000000000e-01
104 104 -5.6804100000000002e-01
107 104 -1.6718600000000000e-01
108 104 -2.0539800000000000e-01
117 104 -1.4282850000000000e+00
177 104 -1.3354999999999999e+00
178 104 -3.2020650000000002e+00
98 105 -5.9158599999999995e-01
105 105 8.0612759999999994e+00
107 105 -2.7141999999999999e-01
108 105 -1.5900440000000000e+00
109 105 -2.8142099999999998e-01
177 105 -2.0257130000000001e+00
178 105 -3.3010920000000001e+00
1 106 -5.3015900000000005e-01
101 106 -3.0614900000000000e-01
106 106 3.5903220000000000e+00
107 106 -2.8142099999999998e-01
109 106 -2.8142099999999998e-01
177 106 -8.3836800000000000e-01
178 106 -1.3528039999999999e+00
101 107 3.7326999999999999e-02
102 107 -1.6592999999999999e-01
104 107 -2.1048200000000000e-01
105 107 -2.6935399999999998e-01
106 107 -2.5802100000000000e-01
107 107 2.4959099999999999e+00
109 107 2.7133999999999998e-02
177 107 -2.8205400000000003e-01
178 107 -1.3745300000000000e+00
1 108 -1.6506199999999999e-01
102 108 -2.0308599999999999e-01
103 108 -9.9999999999999995e-07
104 108 -2.5214300000000001e-01
105 108 -1.6449530000000001e+00
108 108 9.8101640000000003e+00
110 108 -1.3023750000000001e+00
177 108 -2.0809430000000000e+00
178 108 -4.1616010000000001e+00
105 109 -2.5802100000000000e-01
106 109 -2.7216499999999999e-01
107 109 4.8058999999999998e-02
109 109 8.4901000000000004e-01
178 109 -3.6688300000000001e-01
89 110 -1.5031239999999999e+00
108 110 -1.2897449999999999e+00
110 110 7.9838180000000003e+00
177 110 -1.9404619999999999e+00
178 110 -3.2504879999999998e+00
1 111 9.7496329999999993e+00
82 111 -1.6859299999999999e-01
83 111 -5.4596100000000003e-01
84 111 -1.6859299999999999e-01
88 111 -5.4596100000000003e-01
106 111 -5.4596100000000003e-01
108 111 -1.6859299999999999e-01
111 111 1.0000000000000000e+00
113 111 -5.4596100000000003e-01
115 111 -1.6859299999999999e-01
177 111 -1.6011320000000000e+00
178 111 -5.2902849999999999e+00
57 112 -5.9158599999999995e-01
112 112 8.0612759999999994e+00
114 112 -2.7141999999999999e-01
115 112 -1.5900440000000000e+00
116 112 -2.8142099999999998e-01
177 112 -2.0257130000000001e+00
178 112 -3.3010920000000001e+00
1 113 -5.3015900000000005e-01
66 113 -3.0614900000000000e-01
113 113 3.5903220000000000e+00
114 113 -2.8142099999999998e-01
116 113 -2.8142099999999998e-01
177 113 -8.3836800000000000e-01
178 113 -1.3528039999999999e+00
66 114 3.7326999999999999e-02
67 114 -2.1048200000000000e-01
112 114 -2.6935399999999998e-01
113 114 -2.5802100000000000e-01
114 114 2.4959099999999999e+00
116 114 2.7133999999999998e-02
146 114 -1.6592999999999999e-01
177 114 -2.8205400000000003e-01
178 114 -1.3745300000000000e+00
1 115 -1.6506199999999999e-01
67 115 -2.5214300000000001e-01
68 115 -9.9999999999999995e-07
112 115 -1.6449530000000001e+00
115 115 9.8101640000000003e+00
117 115 -1.3023750000000001e+00
146 115 -2.0308599999999999e-01
177 115 -2.0809430000000000e+00
178 115 -4.1616010000000001e+00
112 116 -2.5802100000000000e-01
113 116 -2.7216499999999999e-01
114 116 4.8058999999999998e-02
116 116 8.4901000000000004e-01
178 116 -3.6688300000000001e-01
102 117 -1.5031239999999999e+00
115 117 -1.2897449999999999e+00
117 117 7.9838180000000003e+00
177 117 -1.9404619999999999e+00
178 117 -3.2504879999999998e+00
118 118 -9.7319980000000008e+00
124 118 7.6007493999999994e+01
157 118 -1.0518198999999999e+01
177 118 -1.2582069000000001e+01
178 118 -4.3175227999999997e+01
119 119 -1.1345930000000000e+00
143 119 -1.9072199999999999e+00
147 119 -2.1494160000000000e+00
148 119 8.7557729999999996e+00
177 119 -8.4129699999999996e-01
178 119 -2.7232470000000002e+00
44 120 -6.0297780000000003e+00
118 120 5.6859358999999998e+01
120 120 -1.0518198999999999e+01
124 120 -6.5040139999999997e+00
154 120 -3.7909399999999999e-01
177 120 -1.7026446000000000e+01
178 120 -1.6401828999999999e+01
3 121 1.9175947000000001e+01
46 121 -8.9569900000000002e-01
60 121 -1.1792720000000001e+00
61 121 -9.4851600000000003e-01
121 121 1.0000000000000000e+00
154 121 -4.0447730000000002e+00
177 121 -4.9634419999999997e+00
178 121 -7.1442449999999997e+00
122 122 2.8705419999999999e+00
134 122 -7.9729300000000003e-01
139 122 -7.7049900000000004e-01
178 122 -1.3027500000000001e+00
65 123 5.0363129999999998e+00
123 123 -1.6094880000000000e+00
136 123 -1.8505100000000001e+00
139 123 3.3492600000000000e-01
178 123 -1.9112410000000000e+00
62 124 -4.6722799999999998e-01
63 124 -2.8192000000000000e-01
124 124 -1.3573445000000000e+01
157 124 6.2895077999999998e+01
160 124 -6.7760199999999999e+00
177 124 -2.3224813000000001e+01
178 124 -1.8571650999999999e+01
63 125 7.2482039000000000e+01
120 125 1.6918979999999999e+00
125 125 -1.0069955999999999e+01
126 125 -1.1197279000000000e+01
157 125 1.6918979999999999e+00
160 125 -1.1197279000000000e+01
178 125 -4.3401322000000000e+01
62 126 -4.6722799999999998e-01
63 126 -2.8192000000000000e-01
118 126 -1.3573445000000000e+01
120 126 6.2895077999999998e+01
126 126 -6.7760199999999999e+00
177 126 -2.3224813000000001e+01
178 126 -1.8571650999999999e+01
13 127 -7.1083399999999997e-01
28 127 -2.2720970800000001e+02
127 127 -2.9240636000000001e+02
151 127 7.9294228399999997e+02
153 127 -3.0164192000000000e+01
154 127 -7.0873299999999995e-01
177 127 -2.8395806000000000e+01
178 127 -2.1334665000000001e+02
70 128 -3.7496900000000002e+00
128 128 -3.2311459999999999e+00
132 128 6.8182699999999996e-01
138 128 1.0063561999999999e+01
178 128 -3.7645520000000001e+00
72 129 -1.6094889999999999e+00
128 129 -1.8505080000000000e+00
129 129 5.0363170000000004e+00
131 129 3.3492499999999997e-01
178 129 -1.9112439999999999e+00
65 130 -1.8171150000000000e+00
72 130 -1.6289320000000000e+00
123 130 3.7849992000000000e+01
128 130 -1.6289320000000000e+00
130 130 -3.8371559999999998e+00
131 130 -3.0000000000000001e-06
139 130 -5.2914930000000000e+00
177 130 -1.2743345000000000e+01
178 130 -1.0903017000000000e+01
123 131 1.4000000000000000e-05
128 131 -1.6094889999999999e+00
129 131 1.5915299999999999e-01
131 131 4.4352530000000003e+00
139 131 -1.0886920000000000e+00
178 131 -1.8962390000000000e+00
70 132 -3.2311459999999999e+00
132 132 8.8438979999999994e+00
135 132 9.9999999999999995e-07
138 132 3.1753700000000001e-01
139 132 -2.1998929999999999e+00
178 132 -3.7303959999999998e+00
72 133 -9.0153799999999995e-01
128 133 -7.9864500000000005e-01
133 133 2.5229879999999998e+00
134 133 1.6179600000000000e-01
178 133 -9.8460099999999995e-01
72 134 -1.7391690000000000e+00
122 134 -7.9419399999999996e-01
128 134 -3.8336039999999998e+00
133 134 7.9954999999999998e-02
134 134 1.3492115999999999e+01
177 134 -3.1274760000000001e+00
178 134 -4.0776279999999998e+00
58 135 -2.2077559999999998e+00
135 135 7.7546960000000000e+00
139 135 -2.1235629999999999e+00
178 135 -3.4233769999999999e+00
65 136 1.5915199999999999e-01
119 136 -4.1433260000000001e+00
122 136 -7.9419399999999996e-01
123 136 -5.3939640000000004e+00
128 136 -2.0988859999999998e+00
131 136 -1.0886140000000000e+00
132 136 -2.1925940000000002e+00
135 136 -2.1925940000000002e+00
136 136 -3.4965160000000002e+00
139 136 4.3938170999999997e+01
177 136 -1.0659973000000001e+01
178 136 -1.2036664000000000e+01
58 137 -2.0223529999999998e+00
69 137 -1.8171150000000000e+00
70 137 4.0039183999999999e+01
71 137 -1.8171150000000000e+00
73 137 -3.7431489999999998e+00
119 137 -2.8149560000000000e+00
132 137 -3.6599469999999998e+00
137 137 -1.6430050000000000e+00
138 137 -3.6599469999999998e+00
142 137 -8.9569900000000002e-01
177 137 -8.5708500000000001e+00
178 137 -9.3950479999999992e+00
119 138 -2.8149560000000000e+00
123 138 -1.6430050000000000e+00
128 138 4.0039183999999999e+01
129 138 -1.8171150000000000e+00
131 138 -1.8171150000000000e+00
133 138 -8.9569900000000002e-01
134 138 -3.7431489999999998e+00
138 138 -3.6599469999999998e+00
139 138 -2.0223529999999998e+00
177 138 -8.5708500000000001e+00
178 138 -1.3054995999999999e+01
58 139 -6.1190300000000004e+00
70 139 -2.7905570000000002e+00
119 139 4.3213011999999999e+01
128 139 -2.7905570000000002e+00
139 139 -3.9904220000000001e+00
148 139 -1.1792720000000001e+00
177 139 -1.7490257000000000e+01
178 139 -8.8529180000000007e+00
43 140 1.5915199999999999e-01
47 140 -3.4965160000000002e+00
58 140 4.3888502000000003e+01
69 140 -1.0886140000000000e+00
70 140 -2.0988859999999998e+00
119 140 -6.3359199999999998e+00
135 140 -2.1925940000000002e+00
137 140 -5.3939640000000004e+00
140 140 -7.9419399999999996e-01
177 140 -1.0659973000000001e+01
178 140 -1.1986995000000000e+01
72 141 -4.4903079999999997e+00
141 141 1.7265249000000001e+01
147 141 -2.3845139999999998e+00
177 141 -5.3656480000000002e+00
178 141 -5.0247789999999997e+00
71 142 -1.8171150000000000e+00
72 142 3.8615896999999997e+01
73 142 -1.8443400000000001e+00
123 142 -1.6430050000000000e+00
129 142 -1.8171150000000000e+00
133 142 -8.9569900000000002e-01
134 142 -1.8443400000000001e+00
137 142 -1.6430050000000000e+00
141 142 -4.3321990000000001e+00
142 142 -8.9569900000000002e-01
177 142 -9.9083579999999998e+00
178 142 -1.1975021999999999e+01
3 143 -3.8346290000000001e+00
48 143 -2.3320110000000001e+00
62 143 -9.0269359999999992e+00
118 143 -3.8939400000000002e-01
143 143 -1.9072199999999999e+00
147 143 -2.4219700000000000e-01
151 143 -7.2061699999999995e-01
154 143 4.6039608000000001e+01
177 143 -1.3733463000000000e+01
178 143 -1.3853142000000000e+01
4 144 -4.0130500000000002e-01
19 144 -4.9591499999999999e-01
21 144 5.0382000000000003e-02
144 144 4.8701939999999997e+00
149 144 -5.6917700000000004e-01
177 144 -9.9694600000000000e-01
178 144 -2.4572330000000000e+00
20 145 -5.9158599999999995e-01
145 145 4.0232770000000002e+00
146 145 -6.3215500000000002e-01
177 145 -9.8104700000000000e-01
178 145 -1.8184890000000000e+00
30 146 -1.8870279999999999e+00
54 146 -1.3827510000000001e+00
55 146 -1.0235400000000000e-01
59 146 1.5915199999999999e-01
61 146 -3.4965160000000002e+00
66 146 -2.6953899999999997e-01
67 146 -5.6804100000000002e-01
68 146 -2.0539600000000000e-01
114 146 -1.6718600000000000e-01
115 146 -2.0539800000000000e-01
145 146 -6.5186299999999997e-01
146 146 2.0674927000000000e+01
177 146 -4.0505630000000004e+00
178 146 -7.8474449999999996e+00
141 147 -2.4955159999999998e+00
143 147 2.2319900000000001e-01
147 147 1.2539255000000001e+01
148 147 -2.0745399999999998e+00
154 147 -2.3669599999999999e-01
177 147 -4.0695870000000003e+00
178 147 -3.8861150000000002e+00
143 148 5.5374280000000002e+00
147 148 2.3607900000000001e-01
148 148 -1.8983980000000000e+00
154 148 -1.8378440000000000e+00
177 148 -2.0372659999999998e+00
15 149 -7.2347399999999995e-01
17 149 -8.9256400000000002e-01
40 149 3.6999999999999998e-05
41 149 6.9800000000000001e-02
144 149 -5.9158599999999995e-01
149 149 5.9188340000000004e+00
177 149 -1.1392789999999999e+00
178 149 -2.6417670000000002e+00
25 150 -1.1558327000000000e+01
26 150 -5.5500000000000005e-04
150 150 -1.8246290000000001e+00
152 150 5.3061767499999996e+02
153 150 -4.3337139999999996e+00
175 150 -1.8246169999999999e+00
177 150 -4.7549869999999999e+00
178 150 -5.0632084600000002e+02
26 151 -1.2313580000000000e+01
27 151 -1.2332651000000000e+01
37 151 -4.3345219999999998e+00
151 151 -2.2119680000000002e+00
152 151 -9.6607900000000004e+00
153 151 5.5005158600000004e+02
175 151 -4.3342179999999999e+00
177 151 -4.9153368200000000e+02
178 151 -1.3330174000000000e+01
31 152 -6.0019500000000003e-01
32 152 -3.7903700000000001e-01
150 152 8.1659980000000001e+00
152 152 -1.3778850000000000e+00
175 152 2.3000000000000000e-05
178 152 -5.8089029999999999e+00
35 153 -4.6722200000000003e-01
36 153 -6.7154899999999995e-01
37 153 1.6365127999999999e+01
153 153 -4.0821509999999996e+00
175 153 7.2700000000000000e-04
177 153 -8.8789339999999992e+00
178 153 -2.2660000000000000e+00
28 154 -8.6233400000000004e-01
62 154 2.7830086000000001e+01
120 154 -4.7104900000000000e-01
154 154 -8.7085500000000007e+00
157 154 -4.7104900000000000e-01
175 154 -4.7105399999999997e-01
177 154 -1.0032114000000000e+01
178 154 -6.8139370000000001e+00
9 155 5.4102231614999997e+04
155 155 -3.6000000000000000e+04
175 155 -2.0599999999999999e-04
178 155 -1.8102231409000000e+04
156 156 3.0995659799999999e+03
175 156 -3.0000100000000002e+03
177 156 -9.9555980000000005e+01
63 157 -9.4308010000000007e+00
157 157 -8.7487279999999998e+00
160 157 4.6256269000000003e+01
163 157 -6.1115000000000003e-02
173 157 -2.5291750000000000e+00
175 157 -1.2115900999999999e+01
177 157 -3.2019510000000002e+00
178 157 -1.0168597000000000e+01
63 158 -9.4308010000000007e+00
120 158 -8.7487279999999998e+00
126 158 4.6256269000000003e+01
158 158 -2.5291750000000000e+00
163 158 -6.1115000000000003e-02
175 158 -1.2115900999999999e+01
177 158 -3.2019510000000002e+00
178 158 -1.0168597000000000e+01
126 159 -5.8870940000000003e+00
158 159 5.4746219000000004e+01
159 159 -7.4855590000000003e+00
163 159 -7.4855590000000003e+00
166 159 -6.1115000000000003e-02
169 159 -2.5291750000000000e+00
170 159 -5.8870940000000003e+00
175 159 -1.2115900999999999e+01
177 159 -3.2019510000000002e+00
178 159 -1.0092770000000000e+01
159 160 -7.4855590000000003e+00
160 160 -5.8870940000000003e+00
161 160 -2.5291750000000000e+00
163 160 -7.4855590000000003e+00
166 160 -6.1115000000000003e-02
173 160 5.4746219000000004e+01
175 160 -1.2115900999999999e+01
176 160 -5.8870940000000003e+00
177 160 -3.2019510000000002e+00
178 160 -1.0092770000000000e+01
158 161 3.4045670000000001e+00
161 161 -9.9194150000000008e+00
162 161 -3.3492668000000002e+01
166 161 1.1127985400000000e+02
169 161 -9.9194150000000008e+00
173 161 3.4045670000000001e+00
178 161 -6.4757491000000002e+01
158 162 -9.9194150000000008e+00
159 162 1.1127985400000000e+02
162 162 -3.3492668000000002e+01
170 162 3.4045670000000001e+00
173 162 -9.9194150000000008e+00
176 162 3.4045670000000001e+00
178 162 -6.4757491000000002e+01
126 163 3.4045670000000001e+00
158 163 -9.9194150000000008e+00
160 163 3.4045670000000001e+00
162 163 -3.3492668000000002e+01
163 163 1.1127985400000000e+02
173 163 -9.9194150000000008e+00
178 163 -6.4757491000000002e+01
9 164 -2.0599999999999999e-04
37 164 9.9999999999999995e-07
62 164 -4.6723300000000001e-01
126 164 -1.8822880000000001e+01
152 164 -1.8235950000000001e+00
153 164 -4.3329279999999999e+00
156 164 -3.0000100000000002e+03
158 164 -1.8822880000000001e+01
160 164 -1.8822880000000001e+01
161 164 -1.8822880000000001e+01
162 164 -1.2608165000000000e+01
164 164 -1.8822880000000001e+01
168 164 -1.8822880000000001e+01
169 164 -1.8822880000000001e+01
170 164 -1.8822880000000001e+01
171 164 -1.8822880000000001e+01
173 164 -1.8822880000000001e+01
174 164 -1.8822880000000001e+01
175 164 5.0573884360000002e+03
176 164 -1.8822880000000001e+01
177 164 -2.7750980700000002e+02
178 164 -1.5337619480000001e+03
161 165 3.4045670000000001e+00
162 165 -3.3492668000000002e+01
164 165 -9.9194150000000008e+00
165 165 1.1127985400000000e+02
168 165 -9.9194150000000008e+00
169 165 3.4045670000000001e+00
178 165 -6.4757491000000002e+01
159 166 -5.7573349800000005e+02
162 166 9.7399268470000006e+03
163 166 -5.7573349800000005e+02
165 166 -5.7573349800000005e+02
166 166 -5.7573349800000005e+02
167 166 -5.7573349800000005e+02
172 166 -5.7573349800000005e+02
175 166 -2.6273049999999998e+00
177 166 -2.8418939999999999e+00
178 166 -6.2800566609999996e+03
162 167 -3.3492668000000002e+01
167 167 1.1127985400000000e+02
170 167 -9.9194150000000008e+00
171 167 3.4045670000000001e+00
174 167 3.4045670000000001e+00
176 167 -9.9194150000000008e+00
178 167 -6.4757491000000002e+01
162 168 -3.3492668000000002e+01
164 168 3.4045670000000001e+00
168 168 3.4045670000000001e+00
171 168 -9.9194150000000008e+00
172 168 1.1127985400000000e+02
174 168 -9.9194150000000008e+00
178 168 -6.4757491000000002e+01
158 169 -5.8870940000000003e+00
165 169 -6.1115000000000003e-02
166 169 -7.4855590000000003e+00
168 169 -2.5291750000000000e+00
169 169 3.8938831000000000e+01
175 169 -1.2115900999999999e+01
177 169 -3.2019510000000002e+00
178 169 -7.6580349999999999e+00
158 170 -2.5291750000000000e+00
159 170 -6.1115000000000003e-02
167 170 -7.4855590000000003e+00
170 170 3.8938831000000000e+01
171 170 -5.8870940000000003e+00
175 170 -1.2115900999999999e+01
177 170 -3.2019510000000002e+00
178 170 -7.6580349999999999e+00
165 171 -7.4855590000000003e+00
168 171 3.8938831000000000e+01
169 171 -5.8870940000000003e+00
171 171 -2.5291750000000000e+00
172 171 -6.1115000000000003e-02
175 171 -1.2115900999999999e+01
177 171 -3.2019510000000002e+00
178 171 -7.6580349999999999e+00
167 172 -6.1115000000000003e-02
168 172 -5.8870940000000003e+00
170 172 -2.5291750000000000e+00
171 172 3.8938831000000000e+01
172 172 -7.4855590000000003e+00
175 172 -1.2115900999999999e+01
177 172 -3.2019510000000002e+00
178 172 -7.6580349999999999e+00
161 173 3.8938831000000000e+01
164 173 -2.5291750000000000e+00
165 173 -6.1115000000000003e-02
166 173 -7.4855590000000003e+00
173 173 -5.8870940000000003e+00
175 173 -1.2115900999999999e+01
177 173 -3.2019510000000002e+00
178 173 -7.6580349999999999e+00
159 174 -6.1115000000000003e-02
167 174 -7.4855590000000003e+00
173 174 -2.5291750000000000e+00
174 174 -5.8870940000000003e+00
175 174 -1.2115900999999999e+01
176 174 3.8938831000000000e+01
177 174 -3.2019510000000002e+00
178 174 -7.6580349999999999e+00
161 175 -5.8870940000000003e+00
164 175 3.8938831000000000e+01
165 175 -7.4855590000000003e+00
172 175 -6.1115000000000003e-02
174 175 -2.5291750000000000e+00
175 175 -1.2115900999999999e+01
177 175 -3.2019510000000002e+00
178 175 -7.6580349999999999e+00
164 176 -5.8870940000000003e+00
167 176 -6.1115000000000003e-02
172 176 -7.4855590000000003e+00
174 176 3.8938831000000000e+01
175 176 -1.2115900999999999e+01
176 176 -2.5291750000000000e+00
177 176 -3.2019510000000002e+00
178 176 -7.6580349999999999e+00
177 177 1.0000000000000000e+00
178 178 1.0000000000000000e+00
1 179 -1.6536390000000001e+00
2 179 -1.2923929999999999e+00
3 179 -4.9989090000000003e+00
4 179 -6.4619599999999999e-01
5 179 -3.8400509999999999e+00
7 179 -1.9289190000000001e+00
8 179 -3.1589350000000000e+00
10 179 -1.4493240000000001e+00
13 179 -6.9418959999999998e+00
14 179 -3.6934979999999999e+00
15 179 -5.5805000000000005e-01
17 179 -4.6365299999999998e-01
19 179 -6.9281899999999996e-01
20 179 -9.9402199999999996e-01
21 179 -1.0452770000000000e+00
22 179 -2.0225070000000001e+00
24 179 -9.0461599999999998e-01
25 179 -6.4978499999999995e-01
26 179 -4.6693499999999997e+00
27 179 -4.6766459999999999e+00
28 179 -1.4220256720000000e+03
29 179 -5.0561579999999999e+00
30 179 -3.6014260000000000e+00
31 179 -1.4867010000000001e+00
32 179 -2.5576930000000000e+00
33 179 -6.2832090000000003e+00
34 179 -2.8622010000000002e+00
35 179 -2.0610140000000001e+00
36 179 -3.2553830000000001e+00
37 179 -8.6096760000000003e+00
38 179 -2.8622010000000002e+00
39 179 -5.3099660000000002e+00
40 179 -1.4305790000000000e+00
41 179 -1.4617340000000001e+00
42 179 -5.3099660000000002e+00
44 179 -1.1078920999999999e+01
45 179 -7.4387270000000001e+00
47 179 -5.8104079999999998e+00
48 179 -2.6484890000000001e+00
49 179 -9.7887700000000000e-01
50 179 -9.7887700000000000e-01
51 179 -6.9281899999999996e-01
53 179 -6.9281899999999996e-01
54 179 -4.9364610000000004e+00
56 179 -2.7943499999999999e-01
57 179 -9.9402199999999996e-01
58 179 -1.0944535999999999e+01
60 179 -2.2800600000000002e+00
61 179 -3.6994509999999998e+00
62 179 -9.7846010000000003e+00
64 179 -9.9402199999999996e-01
66 179 -1.7635650000000000e+00
67 179 -5.4280099999999998e-01
68 179 -8.4038000000000002e-01
70 179 -8.4643730000000001e+00
72 179 -9.8165399999999998e+00
73 179 -3.1877749999999998e+00
75 179 -2.7943499999999999e-01
76 179 -8.4038000000000002e-01
77 179 -5.4280099999999998e-01
78 179 -1.7635650000000000e+00
79 179 -2.7873300000000001e-01
81 179 -1.3430979999999999e+00
82 179 -2.1429659999999999e+00
83 179 -8.2761499999999999e-01
84 179 -2.1429659999999999e+00
86 179 -2.7943499999999999e-01
87 179 -1.7635650000000000e+00
88 179 -8.2761499999999999e-01
89 179 -1.3430979999999999e+00
90 179 -8.4038000000000002e-01
91 179 -5.4280099999999998e-01
92 179 -9.9402199999999996e-01
93 179 -1.9854220000000000e+00
94 179 -1.9854220000000000e+00
95 179 -2.7873300000000001e-01
96 179 -1.9289190000000001e+00
98 179 -9.9402199999999996e-01
100 179 -2.7943800000000002e-01
101 179 -1.7635650000000000e+00
102 179 -1.3430979999999999e+00
103 179 -8.4038000000000002e-01
104 179 -5.4280099999999998e-01
105 179 -1.9854220000000000e+00
106 179 -8.2761499999999999e-01
107 179 -2.7873300000000001e-01
108 179 -2.1429659999999999e+00
110 179 -1.9289190000000001e+00
112 179 -1.9854220000000000e+00
113 179 -8.2761499999999999e-01
114 179 -2.7873300000000001e-01
115 179 -2.1429659999999999e+00
117 179 -1.9289190000000001e+00
118 179 -1.4561507000000001e+01
119 179 -1.7142213000000002e+01
120 179 -2.6276239000000000e+01
123 179 -1.2665518000000000e+01
124 179 -9.5268219999999992e+00
125 179 5.5382590000000000e+00
126 179 3.5050270000000001e+00
128 179 -8.4643730000000001e+00
130 179 -6.2832090000000003e+00
134 179 -3.1877749999999998e+00
136 179 -5.8104079999999998e+00
137 179 -1.2665518000000000e+01
139 179 -1.0944535999999999e+01
141 179 -5.4878980000000004e+00
143 179 -1.9461880000000000e+00
144 179 -9.9402199999999996e-01
145 179 -9.6680600000000005e-01
146 179 -4.0897530000000000e+00
147 179 -4.0270400000000004e+00
148 179 -9.1293100000000005e-01
149 179 -1.1208570000000000e+00
151 179 2.4185831300000001e+02
152 179 -5.5774730000000003e+00
153 179 -4.9386842400000000e+02
154 179 -1.4085089999999999e+01
155 179 -1.1946646280000000e+03
156 179 -9.9555980000000005e+01
157 179 -2.6276239000000000e+01
158 179 3.5050270000000001e+00
160 179 3.5050270000000001e+00
161 179 3.5050270000000001e+00
162 179 7.1389659999999999e+00
164 179 3.5050270000000001e+00
168 179 3.5050270000000001e+00
169 179 3.5050270000000001e+00
170 179 3.5050270000000001e+00
171 179 3.5050270000000001e+00
173 179 3.5050270000000001e+00
174 179 3.5050270000000001e+00
175 179 -3.6797001999999998e+02
176 179 3.5050270000000001e+00
177 179 3.7935290829999999e+03
178 179 -8.8729866000000001e+01
179 179 1.0000000000000000e+00
1 180 -5.3151109999999999e+00
2 180 -3.4025660000000002e+00
3 180 -7.4686100000000000e+00
4 180 -1.7012830000000001e+00
5 180 -3.0050450000000000e+00
7 180 -3.3242389999999999e+00
8 180 -3.1973850000000001e+00
9 180 -1.8102231409000000e+04
10 180 -1.3230710000000001e+00
11 180 -8.8738499999999998e-01
13 180 -7.7972489999999999e+00
15 180 -1.7487040000000000e+00
17 180 -1.7018700000000000e+00
19 180 -1.5988249999999999e+00
20 180 -2.4225650000000001e+00
21 180 -2.8325529999999999e+00
22 180 -2.9729700000000001e+00
23 180 -1.2169295999999999e+01
24 180 -1.4823080000000000e+00
25 180 -1.8982910000000000e+00
26 180 -6.9276099999999996e-01
27 180 -6.9277400000000000e-01
28 180 -7.4785636999999994e+01
29 180 -4.8206369999999996e+00
30 180 -5.9277420000000003e+00
31 180 -2.8891680000000002e+00
32 180 -3.6558440000000001e+00
33 180 -6.8666989999999997e+00
34 180 -3.9103990000000000e+00
35 180 -2.0661770000000002e+00
36 180 -3.3293759999999999e+00
37 180 -2.2660000000000000e+00
38 180 -3.9103990000000000e+00
39 180 -5.2490680000000003e+00
40 180 -2.0666690000000001e+00
41 180 -2.0666690000000001e+00
42 180 -5.2490680000000003e+00
43 180 -1.5612360000000001e+00
44 180 -1.1881194000000001e+01
45 180 -7.9662139999999999e+00
46 180 -7.9859300000000000e-01
47 180 -4.4727220000000001e+00
49 180 -2.7811230000000000e+00
50 180 -2.7811230000000000e+00
51 180 -1.5988249999999999e+00
53 180 -1.5988249999999999e+00
54 180 -5.1892199999999997e+00
55 180 -2.2903899999999999e-01
57 180 -2.4288799999999999e+00
58 180 -1.2058256000000000e+01
59 180 -1.5612360000000001e+00
60 180 -3.0781930000000002e+00
61 180 -4.0772329999999997e+00
62 180 -6.7558639999999999e+00
63 180 -2.2586704999999998e+01
64 180 -2.4288799999999999e+00
65 180 -1.5612360000000001e+00
66 180 -2.4967910000000000e+00
67 180 -1.5580330000000000e+00
68 180 -2.0931739999999999e+00
69 180 -1.8644470000000000e+00
70 180 -9.9833540000000003e+00
71 180 -1.5612400000000000e+00
72 180 -1.2550792000000000e+01
73 180 -4.0813550000000003e+00
74 180 -2.2903899999999999e-01
76 180 -2.0931739999999999e+00
77 180 -1.5580330000000000e+00
78 180 -2.4967910000000000e+00
79 180 -1.3470620000000000e+00
80 180 -3.1330000000000002e-01
81 180 -3.1477529999999998e+00
82 180 -4.1594480000000003e+00
83 180 -1.3827860000000001e+00
84 180 -4.1594480000000003e+00
85 180 -2.2903899999999999e-01
87 180 -2.4967910000000000e+00
88 180 -1.3827860000000001e+00
89 180 -3.1477529999999998e+00
90 180 -2.0931739999999999e+00
91 180 -1.5580330000000000e+00
92 180 -2.4225650000000001e+00
93 180 -3.3343500000000001e+00
94 180 -3.3343500000000001e+00
95 180 -1.3470620000000000e+00
96 180 -3.3242389999999999e+00
97 180 -3.1330000000000002e-01
98 180 -2.4225650000000001e+00
99 180 -2.2903899999999999e-01
101 180 -2.4967910000000000e+00
102 180 -3.1477529999999998e+00
103 180 -2.0931739999999999e+00
104 180 -1.5580330000000000e+00
105 180 -3.3343500000000001e+00
106 180 -1.3827860000000001e+00
107 180 -1.3470620000000000e+00
108 180 -4.1594480000000003e+00
109 180 -3.1330000000000002e-01
110 180 -3.3242389999999999e+00
112 180 -3.3343500000000001e+00
113 180 -1.3827860000000001e+00
114 180 -1.3470620000000000e+00
115 180 -4.1594480000000003e+00
116 180 -3.1330000000000002e-01
117 180 -3.3242389999999999e+00
118 180 -1.3760781000000000e+01
119 180 -8.8270490000000006e+00
120 180 -1.8572761000000000e+01
122 180 -1.2821549999999999e+00
123 180 -1.1228637000000001e+01
124 180 -4.6403212000000003e+01
125 180 -8.1334553999999997e+01
126 180 -1.0482590999999999e+01
127 180 -6.6577297000000002e+01
128 180 -1.3733045000000001e+01
129 180 -1.5612400000000000e+00
130 180 -6.8666989999999997e+00
131 180 -1.8644470000000000e+00
132 180 -3.6731829999999999e+00
133 180 -8.1154599999999999e-01
134 180 -4.0813550000000003e+00
135 180 -3.3695089999999999e+00
136 180 -4.4727220000000001e+00
137 180 -1.1228637000000001e+01
138 180 -3.0612040000000000e+00
139 180 -1.2120834000000000e+01
140 180 -1.2821549999999999e+00
141 180 -4.9496359999999999e+00
142 180 -8.1154599999999999e-01
144 180 -2.4288799999999999e+00
145 180 -1.8354320000000000e+00
146 180 -7.8371399999999998e+00
147 180 -3.9721669999999998e+00
148 180 -2.6906319999999999e+00
149 180 -2.6471849999999999e+00
150 180 -5.3277549999999998e+00
151 180 -2.8544303300000001e+02
152 180 -5.1022172399999999e+02
153 180 1.4622050000000000e+01
154 180 -1.3749703999999999e+01
157 180 -1.8572761000000000e+01
158 180 -1.2048660999999999e+01
159 180 4.7954699299999999e+02
160 180 -1.0482590999999999e+01
161 180 -8.6898619999999998e+00
162 180 -9.5335016400000004e+03
163 180 4.7954699299999999e+02
164 180 -8.6898619999999998e+00
165 180 4.7954699299999999e+02
166 180 4.7954699299999999e+02
167 180 4.7954699299999999e+02
168 180 -8.6898619999999998e+00
169 180 -8.6898619999999998e+00
170 180 -8.6898619999999998e+00
171 180 -8.6898619999999998e+00
172 180 4.7954699299999999e+02
173 180 -1.2048660999999999e+01
174 180 -8.6898619999999998e+00
175 180 -1.5337609480000001e+03
176 180 -8.6898619999999998e+00
177 180 -8.8876808999999994e+01
178 180 2.8073467004999999e+04
180 180 1.0000000000000000e+00
