%%MatrixMarket matrix coordinate real general
180 180 2086
1 1 4.02328
2 1 -0.147041
158 1 -0.157124
177 1 -0.243843
178 1 -0.451992
1 2 -0.569177
2 2 4.65654
3 2 -0.0861575
5 2 -0.069094
158 2 -0.0192056
177 2 -0.243925
178 2 -0.581618
2 3 -0.401545
3 3 4.83247
5 3 -0.15298
6 3 -0.114166
92 3 -0.197259
158 3 -0.00159585
177 3 -0.166444
178 3 -0.367555
2 4 -0.330513
3 4 -0.762628
4 4 1
5 4 4.36908
6 4 -0.488612
92 4 -0.882494
158 4 -0.00756474
177 4 -0.830506
178 4 -2.1599
5 5 1
3 6 -0.495915
5 6 -0.47717
6 6 4.81358
92 6 -0.00985583
158 6 -0.000164411
159 6 -0.118244
177 6 -0.224259
178 6 -0.548347
7 7 1
7 8 5.17801
8 8 1
9 8 -0.536593
17 8 -1.9327
177 8 -1.39904
178 8 -1.30968
7 9 -0.537523
9 9 1.96057
10 9 -0.26586
178 9 -0.459974
9 10 -0.536593
10 10 8.26193
12 10 -0.137328
17 10 -0.168981
177 10 -0.27068
178 10 -0.405205
10 11 -1.17927
11 11 1
12 11 19.014
13 11 -0.895699
17 11 -0.199275
18 11 -0.948516
85 11 -4.04477
177 11 -5.28265
178 11 -7.62209
12 12 1
12 13 -0.798646
13 13 2.2309
14 13 -0.239788
18 13 3.13775e-06
178 13 -0.402222
13 14 -0.536604
14 14 28.1275
15 14 -0.34723
18 14 -0.0687123
177 14 -0.268447
178 14 -0.30878
14 15 -10.4482
15 15 35.1287
18 15 -0.0204368
19 15 -0.137843
177 15 -0.407407
178 15 -0.432283
16 16 5.03631
17 16 -0.319577
18 16 -0.367434
158 16 0.0665022
178 16 -0.379492
7 17 -1.8681
10 17 -1.34582
12 17 -0.184819
16 17 -1.81711
17 17 15.5464
18 17 -0.0429469
158 17 -0.11468
177 17 -0.260486
178 17 -0.448294
12 18 -0.94056
13 18 -1e-06
14 18 -1.86818
15 18 -0.648687
16 18 -1.81711
17 18 -0.580707
18 18 15.1707
19 18 -0.00589404
158 18 -0.241687
177 18 -0.307045
178 18 -0.377334
15 19 -6.02978
18 19 -0.123229
19 19 56.0275
20 19 -0.116086
85 19 -0.00676622
86 19 -0.187733
158 19 -0.000531577
177 19 -0.348416
178 19 -0.340099
19 20 -9.732
20 20 74.8777
85 20 -0.000879418
86 20 -0.0244
88 20 -0.140472
158 20 -6.90901e-05
177 20 -0.213319
178 20 -0.620813
21 21 11.1698
22 21 -0.411202
177 21 -0.285278
178 21 -0.303521
21 22 -4.81349
22 22 14.1222
158 22 -0.0946388
177 22 -0.447724
178 22 -0.457638
23 23 15.136
25 23 -0.182984
178 23 -0.817016
24 24 24.2833
25 24 -0.88356
26 24 0.196344
177 24 -0.312784
23 25 -2.96673
24 25 -25.591
25 25 31.1006
26 25 -0.293571
28 25 -0.0231702
177 25 -0.361264
178 25 -0.321995
24 26 5.00115
25 26 -10.1604
26 26 10.4027
28 26 -0.0226306
85 26 -0.22005
177 26 -0.442823
178 26 -0.314496
27 27 358.977
28 27 -1.20223
29 27 0.571879
178 27 -0.369648
25 28 -0.710834
26 28 -0.20868
27 28 -292.406
28 28 441.381
29 28 -0.135911
83 28 -0.0683405
85 28 -0.00170975
177 28 -0.0651252
178 28 -0.728914
27 29 0.006655
28 29 -314.123
29 29 1489.91
30 29 -0.0220113
83 29 -0.0144084
84 29 -0.000577883
85 29 -0.000360473
177 29 -0.773504
178 29 -0.189138
29 30 -13.0182
30 30 118.375
83 30 -0.00158456
84 30 -6.35522e-05
85 30 -3.96427e-05
87 30 -0.257402
177 30 -0.205349
178 30 -0.535561
31 31 5.03632
35 31 0.066502
74 31 -0.319577
75 31 -0.367433
178 31 -0.379492
32 32 2.87054
34 32 -0.27775
76 32 -0.268416
178 32 -0.453834
33 33 2.52299
34 33 0.0641287
74 33 -0.357329
75 33 -0.316547
178 33 -0.390252
32 34 -0.794194
33 34 0.079955
34 34 13.2664
74 34 -0.128942
75 34 -0.287063
76 34 -0.0160687
177 34 -0.235744
178 34 -0.332182
31 35 0.159153
35 35 4.42467
36 35 3.16408e-06
74 35 0.011495
75 35 -0.350537
76 35 -0.24605
178 35 -0.41491
35 36 -3e-06
36 36 37.85
37 36 -0.0480083
74 36 -0.0430365
75 36 -0.0430366
76 36 -0.139802
77 36 -0.101378
177 36 -0.33668
178 36 -0.288059
36 37 -1.60949
37 37 4.95904
38 37 -0.373159
74 37 -0.0139678
75 37 -0.0139678
76 37 0.0221649
77 37 -0.0329028
177 37 -0.109272
178 37 -0.478896
37 38 -1.81711
38 38 19.4424
39 38 -0.222822
74 38 -0.00130545
75 38 -0.00130545
76 38 -0.189305
77 38 -0.00307515
177 38 -0.315213
178 38 -0.266974
38 39 -4.49031
39 39 15.2699
40 39 -0.127983
74 39 -0.000383885
75 39 -0.000383885
76 39 -0.0556676
77 39 -0.000904289
177 39 -0.415552
178 39 -0.399125
39 40 -2.0614
40 40 7.42009
74 40 -0.000106648
75 40 -0.000106648
76 40 -0.0154652
77 40 -0.000251224
92 40 -0.0958917
177 40 -0.389263
178 40 -0.498915
41 41 5.53743
42 41 -0.34283
43 41 0.0426333
85 41 -0.331895
177 41 -0.367908
41 42 -1.90722
42 42 8.10192
43 42 -0.255261
73 42 -0.14004
85 42 -0.0781292
177 42 -0.190446
178 42 -0.336124
41 43 0.223199
42 43 -1.99802
43 43 12.0197
44 43 -0.207618
73 43 -0.0232786
85 43 -0.0265165
177 43 -0.363402
178 43 -0.379185
43 44 -2.38451
44 44 16.7702
73 44 -0.00330994
74 44 -0.267756
85 44 -0.00377032
177 44 -0.371623
178 44 -0.353541
45 45 10.0636
46 45 0.0677521
71 45 -0.372601
75 45 -0.321074
178 45 -0.374077
45 46 0.317537
46 46 8.82238
47 46 1.13348e-07
71 46 -0.352833
75 46 0.0115562
76 46 -0.249354
178 46 -0.409369
47 47 7.7547
72 47 -0.284699
76 47 -0.273842
178 47 -0.441459
48 48 14.1064
70 48 -0.574577
177 48 -0.0410745
178 48 -0.384349
49 49 17.7021
83 49 -0.614348
177 49 -0.348268
178 49 -0.0373843
50 50 37194.7
51 50 -0.967881
177 50 -0.0321192
50 51 -36000
51 51 19258.5
171 51 -1.06966e-08
177 51 -0.0600406
178 51 -0.939959
52 52 3099.57
171 52 -0.967881
177 52 -0.0321193
53 53 1
53 54 11.1773
54 54 1
55 54 -4.49031
177 54 -3.70385
178 54 -2.98313
53 55 -4.3322
55 55 20.1205
56 55 -0.0903118
72 55 -0.184927
177 55 -0.294722
178 55 -0.214727
55 56 -1.85051
56 56 4.86919
60 56 -0.330545
72 56 -0.00149572
177 56 -0.112007
178 56 -0.474123
57 57 2.87054
59 57 -0.27775
72 57 -0.268416
178 57 -0.453834
58 58 2.52299
59 58 0.0641287
71 58 -0.316547
74 58 -0.357329
178 58 -0.390252
57 59 -0.794194
58 59 0.079955
59 59 13.2664
71 59 -0.287063
72 59 -0.0160687
74 59 -0.128942
177 59 -0.235744
178 59 -0.332182
56 60 -1.81711
60 60 37.2494
62 60 -8.05383e-08
63 60 -0.103013
71 60 -0.0437305
72 60 -0.142129
74 60 -0.0437305
177 60 -0.347573
178 60 -0.315832
61 61 5.03632
62 61 0.066502
71 61 -0.367433
74 61 -0.319577
178 61 -0.379492
60 62 1.4e-05
61 62 0.159153
62 62 4.42467
63 62 3.2594e-07
71 62 -0.350537
72 62 -0.24605
74 62 0.0114951
177 62 1.09975e-06
178 62 -0.414909
60 63 -3.66639
62 63 -2.95285e-07
63 63 19.2728
64 63 -0.150006
67 63 0.00332666
71 63 -0.00831914
72 63 -0.0270381
74 63 -0.00831914
177 63 -0.384934
178 63 -0.423951
63 64 -2.79072
64 64 16.6978
65 64 -0.2298
67 64 0.000555986
71 64 -0.00139038
72 64 -0.00451889
74 64 -0.00139038
177 64 -0.386168
178 64 -0.377162
64 65 -3.66639
65 65 9.5872
67 65 0.000212623
68 65 -0.040616
71 65 -0.000531717
72 65 -0.00172814
74 65 -0.000531717
177 65 -0.416769
178 65 -0.539987
66 66 6.99975
67 66 -0.279364
68 66 -0.0891776
177 66 -0.220259
178 66 -0.411199
63 67 0.127307
64 67 0.0190969
65 67 0.00438845
66 67 -2.02369
67 67 8.09818
68 67 -0.0222629
71 67 0.000134347
72 67 0.000436644
74 67 0.000134347
177 67 -0.39517
178 67 -0.583284
65 68 -0.379037
66 68 -0.600195
67 68 -0.167592
68 68 8.09335
70 68 -0.170249
71 68 -2.212e-05
72 68 -7.18925e-05
74 68 -2.212e-05
171 68 2.84184e-06
177 68 -0.0440358
178 68 -0.7856
69 69 17.6762
70 69 0.347868
83 69 -0.962704
177 69 -0.347733
178 69 -0.0374311
48 70 -11.5583
68 70 -1.82463
69 70 -0.000555
70 70 523.666
71 70 -7.70736e-08
72 70 -2.50498e-07
74 70 -7.70736e-08
83 70 -0.00827674
171 70 -0.0034843
177 70 -0.0101406
178 70 -0.978098
45 71 -3.65995
46 71 -3.41198
47 71 3.86741e-07
58 71 -0.895699
59 71 -3.68571
60 71 -1.64301
61 71 -1.81711
62 71 -1.69627
63 71 -0.16925
64 71 -0.0253886
65 71 -0.00583428
67 71 0.000578393
68 71 -0.000224089
70 71 -3.81509e-05
71 71 34.7945
72 71 -0.0786666
73 71 -0.0809023
74 71 -0.0410929
75 71 -0.0326398
76 71 -0.0244518
83 71 -9.07514e-09
171 71 -3.80211e-09
177 71 -0.28993
178 71 -0.452124
47 72 -2.19259
55 72 -3.49652
56 72 -0.156625
57 72 -0.794194
59 72 -0.220587
60 72 -5.44574
62 72 -1.08861
63 72 -0.56098
64 72 -0.0841505
65 72 -0.0193377
67 72 0.00191709
68 72 -0.000742743
70 72 -0.000126451
71 72 -2.78675
72 72 41.1241
73 72 -0.159551
74 72 -0.00907945
75 72 -0.00221181
76 72 -0.0162573
83 72 -2.60649e-08
171 72 -1.09201e-08
177 72 -0.357857
178 72 -0.435873
42 73 -1.17927
43 73 -0.301022
44 73 -0.0624978
71 73 -2.79056
72 73 -6.33855
73 73 41.8036
74 73 -0.00452011
75 73 -0.0692682
76 73 -0.0995538
83 73 -4.55795e-09
85 73 -0.00240059
171 73 -1.90959e-09
177 73 -0.500551
178 73 -0.320787
31 74 -1.81711
33 74 -0.895699
34 74 -1.7869
35 74 0.120842
36 74 -1.64301
37 74 -0.0788779
38 74 -0.029434
39 74 -0.00655855
40 74 -0.000839384
44 74 -4.3322
58 74 -0.895699
59 74 -1.7869
60 74 -1.64301
61 74 -1.81711
62 74 0.120842
63 74 -0.16925
64 74 -0.0253886
65 74 -0.0058343
67 74 0.000578395
68 74 -0.000224089
70 74 -3.8151e-05
71 74 -1.49509
72 74 -0.354814
73 74 -0.191906
74 74 34.9801
75 74 -0.0444973
76 74 -0.00841357
77 74 -0.00483865
83 74 -9.70428e-09
85 74 -0.000480115
92 74 -2.30102e-06
171 74 -4.06569e-09
177 74 -0.407078
178 74 -0.53428
31 75 -1.81711
33 75 -0.895699
34 75 -3.68571
35 75 -1.69627
36 75 -1.643
37 75 -0.0788777
38 75 -0.0294339
39 75 -0.00655853
40 75 -0.000839381
45 75 -3.65995
46 75 0.247969
47 75 -2.81068e-08
71 75 -1.27621
72 75 -0.100395
73 75 -2.93422
74 75 -1.49498
75 75 35.8739
76 75 -0.0838644
77 75 -0.00491973
83 75 -1.17301e-09
85 75 -0.000216359
92 75 -2.33958e-06
171 75 -4.91441e-10
177 75 -0.348362
178 75 -0.562319
32 76 -0.794194
34 76 -0.220587
35 76 -1.08861
36 76 -5.39396
37 76 -0.0998031
38 76 -3.53376
39 76 -0.7874
40 76 -0.100774
46 76 -2.19259
47 76 -2.19259
71 76 -0.77362
72 76 -0.685088
73 76 -4.31522
74 76 -0.311903
75 76 -3.09648
76 76 40.1183
77 76 -0.0144189
83 76 -1.27635e-09
85 76 -0.000278646
92 76 -0.000241071
171 76 -5.34738e-10
177 76 -0.445043
178 76 -0.539346
36 77 -3.66639
37 77 -0.176017
38 77 -0.0656824
39 77 -0.0146355
40 77 -0.0018731
74 77 -0.160339
75 77 -0.167474
76 77 -0.537338
77 77 19.2634
78 77 -0.150079
81 77 0.00332828
83 77 -1.26574e-10
85 77 -1.36498e-05
92 77 -1.60881e-05
171 77 -5.30293e-11
177 77 -0.404306
178 77 -0.448889
77 78 -2.79072
78 78 16.6976
79 78 -0.229802
81 78 0.000556263
83 78 -2.11546e-11
85 78 -2.28133e-06
92 78 -2.68884e-06
171 78 -8.86292e-12
177 78 -0.38941
178 78 -0.381334
78 79 -3.66639
79 79 10.2509
81 79 0.000198955
82 79 -0.0667148
83 79 -7.56627e-12
85 79 -8.1595e-07
92 79 -9.61704e-07
171 79 -3.16995e-12
177 79 -0.457802
178 79 -0.475679
80 80 6.6181
81 80 -0.295474
82 80 -0.0711748
177 80 -0.319163
178 80 -0.314188
77 81 0.127307
78 81 0.0191061
79 81 0.00439064
80 81 -2.02369
81 81 8.06558
82 81 -0.0178217
83 81 2.05208e-12
85 81 2.21297e-07
92 81 2.60827e-07
171 81 8.59735e-13
177 81 -0.421246
178 81 -0.560933
79 82 -0.671549
80 82 -0.467222
81 82 -0.137918
82 82 16.2846
83 82 -0.250675
85 82 -3.17741e-08
92 82 -3.745e-08
171 82 4.46434e-05
177 82 -0.576838
178 82 -0.172531
28 83 -2.21197
29 83 -0.300631
30 83 -0.00661727
49 83 -12.3327
69 83 -12.3136
70 83 -5.37729
71 83 -4.14447e-07
72 83 -1.3796e-06
73 83 -2.53646e-07
74 83 -4.4515e-07
75 83 -5.39564e-08
76 83 -6.60843e-08
77 83 -3.37224e-09
78 83 -5.06103e-10
79 83 -1.16304e-10
81 83 1.15284e-11
82 83 -4.33452
83 83 529.334
84 83 -3.28998e-07
85 83 -7.35017e-06
87 83 -3.21782e-06
92 83 -3.06696e-10
171 83 -0.00822309
177 83 -0.950332
178 83 -0.0414336
29 84 -0.862334
30 84 -0.0189811
83 84 -0.012455
84 84 27.8296
85 84 -0.312935
86 84 -0.0169262
87 84 -0.000175562
88 84 -0.0169262
92 84 -1.3726e-13
171 84 -0.0169301
177 84 -0.385017
178 84 -0.25109
12 85 -3.83463
19 85 -0.389394
20 85 -0.0452032
26 85 -2.33201
28 85 -0.773392
29 85 -0.105112
30 85 -0.00231366
41 85 -1.90722
42 85 -0.653853
43 85 -0.327789
44 85 -0.068055
73 85 -0.0994213
74 85 -0.0186715
75 85 -0.00771757
76 85 -0.0107021
77 85 -0.000282625
78 85 -4.24162e-05
79 85 -9.74734e-06
81 85 9.66189e-07
82 85 -6.33073e-07
83 85 -0.0543723
84 85 -9.027
85 85 42.0043
86 85 -0.00540416
87 85 -5.19117e-05
88 85 -0.00378872
92 85 -6.29858e-08
158 85 -5.00226e-06
171 85 -0.00364903
177 85 -0.466771
178 85 -0.429028
19 86 -13.5734
20 86 -1.57569
84 86 -0.467228
85 86 -0.239439
86 86 60.2992
87 86 -0.00467691
88 86 -0.00381688
90 86 -0.112373
92 86 -2.50108e-10
158 86 -0.000121484
171 86 -0.000145672
177 86 -0.473999
178 86 -0.40442
30 87 -10.07
83 87 -0.0159564
84 87 -0.000639973
85 87 -0.000599588
86 87 1.69188
87 87 69.8979
88 87 0.0242975
89 87 -0.160195
90 87 -0.157475
92 87 5.44357e-12
158 87 2.94049e-06
171 87 1.46251e-06
177 87 -0.0183352
178 87 -0.688307
20 88 -13.5734
84 88 -0.467228
85 88 -0.158149
86 88 -0.339955
87 88 -0.2836
88 88 60.9855
89 88 -0.111854
90 88 -0.00135871
92 88 -1.64706e-10
158 88 -1.60538e-05
171 88 -0.000139974
177 88 -0.435191
178 88 -0.451191
87 89 -9.4308
88 89 -8.51958
89 89 43.7926
90 89 -0.0341768
91 89 -0.00139556
92 89 -3.08703e-11
158 89 -2.48993e-06
162 89 -0.0577535
171 89 -0.276693
177 89 -0.161729
178 89 -0.468204
86 90 -8.74873
87 90 -9.47172
88 90 0.196746
89 90 -1.49531
90 90 43.7307
91 90 -0.00144525
92 90 -4.91718e-11
158 90 -2.368e-05
160 90 -0.0578352
162 90 -0.0019748
171 90 -0.286546
177 90 -0.175591
178 90 -0.476497
89 91 3.40457
90 91 3.52092
91 91 111.29
92 91 2.50006e-12
158 91 8.25347e-07
160 91 -0.0873017
162 91 -0.0873022
168 91 -0.30095
171 91 0.0175302
177 91 0.0105028
178 91 -0.552484
3 92 -0.944158
5 92 -0.870968
6 92 -0.0102476
40 92 -0.734152
74 92 -7.8296e-05
75 92 -8.17801e-05
76 92 -0.0113613
77 92 -0.000349035
78 92 -5.23829e-05
79 92 -1.20377e-05
81 92 1.19322e-06
82 92 -7.81828e-07
83 92 -1.96001e-07
84 92 -6.44839e-14
85 92 -3.22597e-06
86 92 -1.74336e-08
87 92 -2.49632e-10
88 92 -1.22828e-08
89 92 -1.41386e-09
90 92 -2.06339e-09
91 92 -4.95524e-12
92 92 5.96753
158 92 -0.000252772
159 92 -0.000203052
160 92 -2.00702e-11
162 92 -1.44386e-11
168 92 -2.49899e-13
171 92 -2.40326e-09
177 92 -0.248943
178 92 -0.604479
93 93 0.502243
95 93 -0.319901
98 93 -0.200248
178 93 -0.479853
94 94 0.544396
95 94 -0.241826
96 94 -0.240562
97 94 2.02059e-05
177 94 -0.517632
93 95 -0.170851
94 95 -0.132482
95 95 4.82655
96 95 -0.0586635
97 95 -0.246076
98 95 -0.0487299
104 95 1.74037e-05
177 95 -0.195714
178 95 -0.450834
94 96 -0.132479
95 96 -0.286127
96 96 3.80066
97 96 -0.111263
98 96 -0.148798
101 96 -0.0578831
104 96 -0.0668437
177 96 -0.177185
178 96 -0.438026
95 97 -1.22789
96 97 -0.407614
97 97 5.99137
98 97 -0.0647787
101 97 -0.000291913
103 97 -0.0507021
104 97 -0.00454404
177 97 -0.341522
178 97 -0.538162
93 98 -0.102354
95 98 -0.238139
96 98 -0.582011
97 98 -0.392896
98 98 7.33961
99 98 -0.1946
101 98 -0.0273842
103 98 -0.00271413
104 98 -0.0335281
177 98 -0.22064
178 98 -0.521134
98 99 -1.50312
99 99 7.69131
101 99 -0.00535173
103 99 -0.000530426
104 99 -0.00655244
118 99 -0.167689
177 99 -0.295413
178 99 -0.524464
100 100 0.84901
101 100 0.0566059
102 100 -0.303908
103 100 -0.320567
178 100 -0.43213
96 101 -0.210482
97 101 0.0139081
98 101 -0.196348
99 101 -0.0382093
100 101 0.027134
101 101 2.47661
102 101 -0.105429
103 101 -0.100609
104 101 -0.00841461
118 101 -0.00258711
177 101 -0.149078
178 101 -0.633882
100 102 -0.281421
101 102 -0.25549
102 102 7.94881
103 102 -0.0145832
104 102 -0.200306
118 102 -8.31546e-05
143 102 -0.0744244
177 102 -0.259636
178 102 -0.450967
97 103 -0.306149
98 103 -0.0198319
99 103 -0.00385929
100 103 -0.281421
101 103 -0.266144
102 103 -0.113586
103 103 3.4561
104 103 -0.00783332
118 103 -0.00038921
140 103 -0.153398
143 103 -0.00244598
177 103 -0.294438
178 103 -0.541495
95 104 -1e-06
96 104 -0.252143
97 104 -0.0280545
98 104 -0.242422
99 104 -0.0471752
101 104 -0.021494
102 104 -1.64722
103 104 -0.0282896
104 104 9.4544
106 104 -0.137753
118 104 -0.00085826
140 104 -0.0179178
143 104 -0.0129741
177 104 -0.279429
178 104 -0.551067
105 105 3.89005
106 105 -0.367164
177 105 -0.234413
178 105 -0.398423
104 106 -1.28974
105 106 -1.50312
106 106 7.25426
118 106 -0.000152591
140 106 -0.00318562
143 106 -0.00230669
177 106 -0.365745
178 106 -0.62861
107 107 0.502243
109 107 -0.319901
112 107 -0.200248
178 107 -0.479853
108 108 0.544396
109 108 -0.241826
110 108 -0.240562
111 108 2.02059e-05
177 108 -0.517632
107 109 -0.170851
108 109 -0.132482
109 109 4.82655
110 109 -0.0586635
111 109 -0.246076
112 109 -0.0487299
118 109 1.74037e-05
177 109 -0.195714
178 109 -0.450834
108 110 -0.132479
109 110 -0.286127
110 110 3.80066
111 110 -0.111263
112 110 -0.148798
115 110 -0.0578831
118 110 -0.0668437
177 110 -0.177185
178 110 -0.438026
109 111 -1.22789
110 111 -0.407614
111 111 5.99137
112 111 -0.0647787
115 111 -0.000291913
117 111 -0.0507021
118 111 -0.00454404
177 111 -0.341522
178 111 -0.538162
107 112 -0.102354
109 112 -0.238139
110 112 -0.582011
111 112 -0.392896
112 112 7.33961
113 112 -0.1946
115 112 -0.0273842
117 112 -0.00271413
118 112 -0.0335281
177 112 -0.22064
178 112 -0.521134
112 113 -1.50312
113 113 7.69131
115 113 -0.00535173
117 113 -0.000530426
118 113 -0.00655244
142 113 -0.167689
177 113 -0.295413
178 113 -0.524464
114 114 0.84901
115 114 0.0566059
116 114 -0.303908
117 114 -0.320567
178 114 -0.43213
110 115 -0.210482
111 115 0.0139081
112 115 -0.196348
113 115 -0.0382093
114 115 0.027134
115 115 2.47661
116 115 -0.105429
117 115 -0.100609
118 115 -0.00841461
142 115 -0.00258711
177 115 -0.149078
178 115 -0.633882
114 116 -0.281421
115 116 -0.25549
116 116 7.94881
117 116 -0.0145832
118 116 -0.200306
142 116 -8.31546e-05
144 116 -0.0744244
177 116 -0.259636
178 116 -0.450967
111 117 -0.306149
112 117 -0.0198319
113 117 -0.00385929
114 117 -0.281421
115 117 -0.266144
116 117 -0.113586
117 117 3.4561
118 117 -0.00783332
140 117 -0.153398
142 117 -0.00038921
144 117 -0.00244598
177 117 -0.294438
178 117 -0.541495
99 118 -1.30237
101 118 -0.00696996
102 118 -0.000734839
103 118 -0.00140277
104 118 -0.00875056
106 118 -0.00120542
109 118 -1e-06
110 118 -0.252143
111 118 -0.0280545
112 118 -0.242422
113 118 -0.0471752
115 118 -0.021494
116 118 -1.64722
117 118 -0.0282896
118 118 9.23598
140 118 -0.0183822
142 118 -0.000878557
143 118 -1.88862e-05
144 118 -0.013281
177 118 -0.328184
178 118 -0.639255
119 119 0.502243
121 119 -0.319901
124 119 -0.200248
178 119 -0.479853
120 120 0.5444
121 120 -0.241824
122 120 -0.24056
123 120 2.02057e-05
177 120 -0.517634
119 121 -0.170851
120 121 -0.132482
121 121 4.82655
122 121 -0.0586634
123 121 -0.246076
124 121 -0.0487299
142 121 1.74037e-05
177 121 -0.195714
178 121 -0.450834
120 122 -0.132479
121 122 -0.286127
122 122 3.80066
123 122 -0.111263
124 122 -0.148798
127 122 -0.0578831
142 122 -0.0668436
177 122 -0.177185
178 122 -0.438026
121 123 -1.22789
122 123 -0.407614
123 123 5.99137
124 123 -0.0647787
127 123 -0.000291913
129 123 -0.0507021
142 123 -0.00454404
177 123 -0.341522
178 123 -0.538162
119 124 -0.102354
121 124 -0.238139
122 124 -0.582011
123 124 -0.392896
124 124 7.33961
125 124 -0.1946
127 124 -0.0273842
129 124 -0.00271413
142 124 -0.0335281
177 124 -0.22064
178 124 -0.521134
124 125 -1.50312
125 125 7.69131
127 125 -0.00535173
129 125 -0.000530426
139 125 -0.167689
142 125 -0.00655244
177 125 -0.295413
178 125 -0.524464
126 126 0.84901
127 126 0.0566059
128 126 -0.303908
129 126 -0.320567
178 126 -0.43213
122 127 -0.210482
123 127 0.0139081
124 127 -0.196348
125 127 -0.0382093
126 127 0.027134
127 127 2.47661
128 127 -0.105429
129 127 -0.100609
139 127 -0.00258711
142 127 -0.00841461
177 127 -0.149078
178 127 -0.633882
126 128 -0.281421
127 128 -0.25549
128 128 7.94881
129 128 -0.0145832
139 128 -8.31546e-05
142 128 -0.200306
148 128 -0.0744244
177 128 -0.259636
178 128 -0.450967
123 129 -0.306149
124 129 -0.0198319
125 129 -0.00385929
126 129 -0.281421
127 129 -0.266144
128 129 -0.113586
129 129 3.4561
139 129 -0.00038921
140 129 -0.153398
142 129 -0.00783332
148 129 -0.00244598
177 129 -0.294438
178 129 -0.541495
130 130 0.502243
132 130 -0.319901
158 130 -0.200248
178 130 -0.479853
131 131 0.544396
132 131 -0.241826
133 131 -0.240562
134 131 2.02059e-05
177 131 -0.517632
130 132 -0.170851
131 132 -0.132482
132 132 4.82655
133 132 -0.0586635
134 132 -0.246076
139 132 1.74037e-05
158 132 -0.0487299
177 132 -0.195714
178 132 -0.450834
131 133 -0.132479
132 133 -0.286127
133 133 3.80066
134 133 -0.111263
136 133 -0.0578831
139 133 -0.0668437
158 133 -0.148798
177 133 -0.177185
178 133 -0.438026
132 134 -1.22789
133 134 -0.407614
134 134 5.99137
136 134 -0.000291913
138 134 -0.0507021
139 134 -0.00454404
158 134 -0.0647787
177 134 -0.341522
178 134 -0.538162
135 135 0.84901
136 135 0.0566059
137 135 -0.303908
138 135 -0.320567
178 135 -0.43213
133 136 -0.210482
134 136 0.0139081
135 136 0.027134
136 136 2.48219
137 136 -0.105192
138 136 -0.10016
139 136 -0.00564266
158 136 -0.0791028
177 136 -0.126742
178 136 -0.58316
135 137 -0.281421
136 137 -0.25549
137 137 7.94887
138 137 -0.0145687
139 137 -0.200215
149 137 -0.0744239
158 137 -0.00254249
177 137 -0.258916
178 137 -0.449333
134 138 -0.306149
135 138 -0.281421
136 138 -0.26558
137 138 -0.113463
138 138 3.45633
139 138 -0.00740866
140 138 -0.153388
149 138 -0.00244316
158 138 -0.0118995
177 138 -0.291049
178 138 -0.533812
125 139 -1.30237
127 139 -0.00696996
128 139 -0.000734839
129 139 -0.00140277
132 139 -1e-06
133 139 -0.252143
134 139 -0.0280545
136 139 -0.014603
137 139 -1.64649
138 139 -0.0268722
139 139 9.24484
140 139 -0.0183236
142 139 -0.000946535
148 139 -6.28687e-06
149 139 -0.0132619
158 139 -0.0268348
177 139 -0.319914
178 139 -0.620713
140 140 1
103 141 -0.545961
104 141 -0.17287
106 141 -0.0238134
117 141 -0.545961
118 141 -0.173234
129 141 -0.545961
138 141 -0.545961
139 141 -0.17285
140 141 9.40511
141 141 1
142 141 -0.173398
143 141 -0.00363644
144 141 -0.00363612
148 141 -0.0013365
149 141 -0.00362619
158 141 -0.011135
177 141 -2.41145
178 141 -6.79689
113 142 -1.30237
115 142 -0.00696996
116 142 -0.000734839
117 142 -0.00140277
118 142 -0.00875056
121 142 -1e-06
122 142 -0.252143
123 142 -0.0280545
124 142 -0.242422
125 142 -0.0471752
127 142 -0.021494
128 142 -1.64722
129 142 -0.0282896
139 142 -0.00811433
140 142 -0.169926
142 142 9.23597
143 142 -1.78936e-08
144 142 -1.88759e-05
148 142 -0.013281
149 142 -1.16513e-05
158 142 -2.35759e-05
177 142 -0.328464
178 142 -0.639802
102 143 -0.569177
103 143 -0.00830042
104 143 -0.114074
106 143 -0.0157141
118 143 -0.000150864
140 143 -0.00337006
142 143 -1.32542e-07
143 143 4.69633
144 143 -4.26634e-07
145 143 -0.0854275
146 143 -0.0685085
148 143 -3.74822e-10
149 143 -3.28829e-13
158 143 -6.65371e-13
177 143 -0.252314
178 143 -0.593032
116 144 -0.569177
117 144 -0.00830042
118 144 -0.114074
140 144 -0.00337021
142 144 -0.000150781
143 144 -2.15444e-06
144 144 4.87346
145 144 -0.112445
146 144 -0.082345
148 144 -4.10903e-07
149 144 -3.60483e-10
152 144 0.0200151
158 144 -7.29421e-10
177 144 -0.243083
178 144 -0.581449
143 145 -0.401545
144 145 -0.551703
145 145 4.77072
146 145 -0.164433
148 145 -4.75498e-08
149 145 -4.17152e-11
152 145 -0.197498
158 145 -8.44088e-11
177 145 -0.197415
178 145 -0.440514
146 146 1
146 147 -0.711525
147 147 4.86706
148 147 -0.0825025
149 147 -0.113354
151 147 -0.195857
177 147 -0.145136
178 147 -0.316958
128 148 -0.569177
129 148 -0.00830042
139 148 -5.05603e-05
140 148 -0.0012742
142 148 -0.114075
143 148 -2.04121e-09
144 148 -2.15326e-06
145 148 -2.42297e-07
146 148 -0.321739
147 148 -0.401196
148 148 4.66324
149 148 -0.00975274
151 148 -0.0168503
152 148 -1.01976e-09
158 148 -8.67677e-07
177 148 -0.266551
178 148 -0.624549
137 149 -0.569177
138 149 -0.00829214
139 149 -0.114019
140 149 -0.00336116
142 149 -0.000107923
143 149 -1.93114e-12
144 149 -2.03715e-09
145 149 -2.29232e-10
146 149 -0.401305
147 149 -0.547996
148 149 -0.0452132
149 149 4.8109
151 149 -0.00219247
152 149 -1.05189e-11
158 149 -0.000957309
177 149 -0.264987
178 149 -0.630323
143 150 -0.330513
144 150 -0.401546
145 150 -0.807539
146 150 8.82866
147 150 -0.734152
148 150 -0.391083
149 150 -0.488579
150 150 1
151 150 -0.883509
152 150 -0.883509
158 150 -0.000468061
177 150 -1.92659
178 150 -4.94484
146 151 -0.726531
147 151 -0.892076
148 151 -0.0735985
149 151 -0.0514565
151 151 5.80385
152 151 -1.30248e-11
155 151 -0.112316
158 151 -8.49844e-06
177 151 -0.195347
178 151 -0.542734
144 152 0.050382
145 152 -0.886411
146 152 -0.868137
148 152 -2.14466e-08
149 152 -2.27978e-10
151 152 -3.61881e-10
152 152 5.80385
155 152 -7.00311e-12
157 152 -0.112316
158 152 -6.60098e-12
177 152 -0.19535
178 152 -0.542739
153 153 1
153 154 -0.63924
154 154 4.64595
155 154 -0.07114
157 154 -0.127231
159 154 -0.198372
177 154 -0.0950696
178 154 -0.370596
151 155 -0.632155
152 155 -8.23372e-12
153 155 -0.399398
154 155 -0.335824
155 155 4.7863
157 155 -0.00892701
158 155 -1.12244e-06
159 155 -0.0139189
177 155 -0.33535
178 155 -0.528945
153 156 4.4027
154 156 -0.665711
155 156 -0.448965
156 156 1
157 156 -0.41922
158 156 -5.03935e-07
159 156 -0.870426
177 156 -0.763477
178 156 -2.20731
152 157 -0.632155
153 157 -0.33383
154 157 -0.586331
155 157 -0.0417116
157 157 4.88612
158 157 -9.58283e-09
159 157 -0.00916085
177 157 -0.343625
178 157 -0.542063
1 158 -0.651863
2 158 -0.0958505
3 158 -0.00825824
5 158 -0.00788604
6 158 -0.000942809
16 158 0.159152
17 158 -1.83617
18 158 -3.5169
19 158 -0.0207287
20 158 -0.00240632
22 158 -1.38275
85 158 -0.000142371
86 158 -0.00395095
87 158 -1.84856e-05
88 158 -0.00035319
89 158 -4.24669e-05
90 158 -0.000448823
91 158 -7.07926e-07
92 158 -0.00163831
130 158 -0.102354
132 158 -0.238139
133 158 -0.582011
134 158 -0.392896
136 158 -0.200989
137 158 -0.0211425
138 158 -0.0403598
139 158 -0.251749
140 158 -0.0108037
142 158 -0.000238289
143 158 -4.26386e-12
144 158 -4.49792e-09
145 158 -5.06133e-10
146 158 -4.53898e-10
148 158 -4.74743e-06
149 158 -0.00501082
151 158 -1.10661e-05
152 158 -9.9912e-12
155 158 -1.24289e-06
157 158 -1.10964e-08
158 158 19.2013
159 158 -5.82418e-06
160 158 -1.35509e-06
162 158 -1.77111e-07
168 158 -1.10956e-08
171 158 -7.36882e-06
177 158 -0.355736
178 158 -0.617993
6 159 -0.591586
92 159 -0.00583057
153 159 -0.723474
154 159 -0.892564
155 159 -0.06346
157 159 -0.0443287
158 159 -9.8809e-05
159 159 5.67053
160 159 -2.36332e-11
162 159 -3.101e-12
168 159 -1.93598e-13
171 159 -1.30873e-10
177 159 -0.245974
178 159 -0.592206
90 160 -5.88709
91 160 -7.49407
92 160 -2.70744e-10
158 160 -0.000133221
159 160 -7.75959e-10
160 160 53.7515
161 160 -0.139262
162 160 -0.012388
163 160 -0.00113699
165 160 -0.0470531
168 160 -0.0419587
169 160 -0.109524
171 160 -0.254346
177 160 -0.0773376
178 160 -0.316984
160 161 -9.91942
161 161 109.898
162 161 -0.091378
163 161 -0.000102625
165 161 -0.00424701
168 161 -0.308547
169 161 0.0210936
171 161 -0.0229572
173 161 0.0309792
177 161 -0.00698047
178 161 -0.617859
89 162 -5.88709
90 162 -0.201202
91 162 -7.49407
92 162 -1.72894e-10
158 162 -1.32377e-05
159 162 -7.71338e-11
160 162 -0.665881
161 162 -7.57829
162 162 53.0508
163 162 -0.00118094
164 162 -0.0476746
165 162 -0.00119728
168 162 -0.0871154
169 162 0.00163848
171 162 -0.26417
173 162 -0.106545
177 162 -0.0794537
178 162 -0.414296
160 163 3.40457
161 163 0.474128
162 163 3.49007
163 163 111.288
164 163 -0.0876378
165 163 -0.0876378
168 163 -0.295625
169 163 0.00320936
171 163 0.0161634
173 163 0.00320936
177 163 0.00488741
178 163 -0.556569
162 164 -5.88709
163 164 -7.49251
164 164 38.0015
165 164 -0.0174644
166 164 -0.00160822
168 164 -0.0717821
169 164 0.000886599
171 164 -0.356564
172 164 -0.0665545
173 164 -0.015873
177 164 -0.0956036
178 164 -0.375436
160 165 -5.88709
161 165 -0.81985
162 165 -0.147846
163 165 -7.49251
164 165 -0.663676
165 165 37.99
166 165 -0.00163681
167 165 -0.0665748
168 165 -0.073058
169 165 -0.0158623
171 165 -0.362903
172 165 -0.00116269
173 165 0.000609574
177 165 -0.0974348
178 165 -0.381975
164 166 3.40457
165 166 3.46403
166 166 111.291
167 166 -0.0870582
168 166 -0.296477
169 166 0.000466606
171 166 0.0222035
172 166 -0.0870582
173 166 0.000466605
177 166 0.00595741
178 166 -0.558501
165 167 -5.88709
166 167 -7.49519
167 167 37.8944
168 167 -0.0699906
169 167 -0.00237201
170 167 -0.0667427
171 167 -0.371715
172 167 -0.0174
173 167 0.000186991
175 167 -0.00161277
177 167 -0.0984554
178 167 -0.371898
91 168 -575.734
92 168 1.43937e-09
158 168 0.00047518
159 168 2.76783e-09
160 168 -50.2625
161 168 -582.733
162 168 -104.134
163 168 -575.973
164 168 -55.4416
165 168 -56.4099
166 168 -575.915
167 168 -53.8936
168 168 9022.79
169 168 0.000897875
170 168 -0.000398658
171 168 -0.00935206
172 168 -0.00607699
173 168 0.000913159
175 168 -0.0638185
176 168 -0.0638088
177 168 -0.00253586
178 168 -0.85582
160 169 -2.52918
161 169 -0.413334
162 169 -0.0691011
163 169 -0.00299967
164 169 -0.00355725
165 169 -0.121169
166 169 -0.000204051
167 169 -0.00808455
168 169 -0.250295
169 169 38.669
170 169 -0.15226
171 169 -0.331984
172 169 -5.31979e-05
173 169 0.000147393
175 169 -0.000413418
176 169 -0.193994
177 169 -0.0884298
178 169 -0.233013
167 170 -5.88709
168 170 -0.412041
169 170 -2.54277
170 170 38.1586
171 170 -0.397086
172 170 -0.00275364
173 170 4.85312e-05
175 170 -0.197135
176 170 -0.0152178
177 170 -0.105021
178 170 -0.282834
51 171 -0.000206
52 171 -3000.01
70 171 -1.8236
71 171 -1.40551e-07
72 171 -4.67863e-07
73 171 -8.60188e-08
74 171 -1.50963e-07
75 171 -1.82982e-08
76 171 -2.24111e-08
77 171 -1.14362e-09
78 171 -1.71634e-10
79 171 -3.94419e-11
81 171 3.90962e-12
82 171 9.99997e-07
83 171 -4.34802
84 171 -0.467234
85 171 -0.146246
86 171 -0.00869884
87 171 -0.000144295
88 171 -0.00849228
89 171 -18.8239
90 171 -19.4672
91 171 -0.0544047
92 171 -1.20926e-08
158 171 -0.000509734
159 171 -2.97124e-09
160 171 -19.9535
161 171 -2.77877
162 171 -20.4543
163 171 -0.0471275
164 171 -19.8022
165 171 -20.148
166 171 -0.0648248
167 171 -20.1699
168 171 -20.4393
169 171 -21.2475
170 171 -23.4124
171 171 2093.95
172 171 -0.00989071
173 171 -0.0101202
174 171 -0.00898918
175 171 -0.00284683
176 171 -0.00276147
177 171 -0.190146
178 171 -0.77476
164 172 -5.88709
165 172 -0.102815
166 172 -7.49519
167 172 -0.659363
168 172 -2.6984
169 172 0.00794472
170 172 -0.0438738
171 172 -14.371
172 172 37.7242
173 172 -0.00616939
174 172 -0.0704682
175 172 -0.00752683
176 172 -0.00559304
177 172 -0.173321
178 172 -0.736737
161 173 -0.061115
162 173 -2.53476
163 173 -0.00299967
164 173 -0.121106
165 173 -0.00567232
166 173 -0.000204051
167 173 -0.000395398
168 173 -0.249756
169 173 0.00569273
170 173 0.000740817
171 173 -12.8324
172 173 -0.136528
173 173 38.5383
174 173 -0.156003
175 173 -0.00138435
176 173 -0.195561
177 173 -0.152567
178 173 -0.494322
171 174 -12.1159
172 174 -6.00693
173 174 -2.68885
174 174 37.9872
175 174 -0.199251
176 174 -0.0172164
177 174 -0.183143
178 174 -0.600193
167 175 3.40457
168 175 -33.2544
169 175 0.0379339
170 175 -9.69967
171 175 -2.88447
172 175 3.20648
173 175 0.0207855
174 175 -9.71615
175 175 105.331
176 175 -0.0229317
177 175 -0.0240522
178 175 -0.95299
168 176 -33.4927
169 176 -9.88934
170 176 1.88546
171 176 -2.84763
172 176 -0.227034
173 176 -9.91769
174 176 1.81579
175 176 -1.4316
176 176 105.303
177 176 -0.0242847
178 176 -0.97569
177 177 1
178 178 1
1 179 -0.966806
2 179 -1.13618
3 179 -0.79071
5 179 -0.845662
6 179 -1.08429
7 179 -1.44932
10 179 -2.28006
12 179 -5.31203
14 179 -7.43873
15 179 -13.6619
17 179 -3.98671
18 179 -4.661
19 179 -16.4722
20 179 -11.439
21 179 -3.15894
22 179 -6.23542
24 179 -3.6935
25 179 -10.2053
26 179 -4.91928
28 179 241.511
29 179 -1389.2
30 179 -25.0399
34 179 -3.18777
36 179 -12.6655
37 179 -0.60805
38 179 -6.03731
39 179 -6.4014
40 179 -2.84178
41 179 -1.94619
42 179 -1.58014
43 179 -4.34742
44 179 -6.3905
48 179 -0.649785
49 179 -4.67665
50 179 -1194.66
51 179 -1156.29
52 179 -99.556
53 179 -3.84005
55 179 -5.81041
56 179 -0.524748
59 179 -3.18777
60 179 -12.839
62 179 -1.03403e-06
63 179 -7.60579
64 179 -6.45088
65 179 -4.0401
66 179 -1.4867
67 179 -3.24778
68 179 -0.368979
69 179 -4.66935
70 179 -4.38932
71 179 -10.0149
72 179 -14.9241
73 179 -20.6772
74 179 -14.1898
75 179 -12.3673
76 179 -17.9987
77 179 -8.00131
78 179 -6.5108
79 179 -4.75158
80 179 -2.06101
81 179 -3.43998
82 179 -9.13468
83 179 -507.114
84 179 -10.5892
85 179 -19.6684
86 179 -29.9332
87 179 -6.58982
88 179 -28.091
89 179 -0.692709
90 179 -0.958241
91 179 -0.00235161
92 179 -1.48899
94 179 -0.279435
95 179 -0.907955
96 179 -0.663286
97 179 -2.06078
98 179 -1.61953
99 179 -2.24408
101 179 -0.374087
102 179 -2.02486
103 179 -1.00485
104 179 -2.68227
105 179 -0.904616
106 179 -2.63055
108 179 -0.279435
109 179 -0.907955
110 179 -0.663286
111 179 -2.06078
112 179 -1.61953
113 179 -2.24408
115 179 -0.374087
116 179 -2.02486
117 179 -1.00485
118 179 -3.0628
120 179 -0.279438
121 179 -0.907955
122 179 -0.663286
123 179 -2.06078
124 179 -1.61953
125 179 -2.24408
127 179 -0.374087
128 179 -2.02486
129 179 -1.00485
131 179 -0.279435
132 179 -0.907955
133 179 -0.663286
134 179 -2.06078
136 179 -0.317728
137 179 -2.01884
138 179 -0.993337
139 179 -2.98784
140 179 -2.43592
142 179 -3.06562
143 179 -1.1881
144 179 -1.18791
145 179 -0.927891
146 179 -1.62418
147 179 -0.692819
148 179 -1.24507
149 179 -1.27704
151 179 -1.13835
152 179 -1.13836
153 179 -0.55805
154 179 -0.463653
155 179 -1.59142
157 179 -1.66279
158 179 -6.85286
159 179 -1.37877
160 179 3.44939
161 179 0.48037
162 179 3.54955
163 179 0.00816303
164 179 3.67497
165 179 3.73852
166 179 0.0120294
167 179 3.75497
168 179 8.54615
169 179 3.92412
170 179 4.35654
171 179 -460.238
172 179 -0.667594
173 179 -0.746775
174 179 -0.795675
175 179 -0.0629102
176 179 -0.0629766
177 179 1871.65
178 179 -1848.96
179 179 1
1 180 -1.83543
2 180 -2.69245
3 180 -1.8308
5 180 -2.16739
6 180 -2.63789
7 180 -1.32307
9 180 -0.887385
10 180 -3.31411
12 180 -7.92373
13 180 -0.798593
14 180 -8.15771
15 180 -14.7138
16 180 -1.56124
17 180 -6.9867
18 180 -5.81218
19 180 -15.8232
20 180 -48.2401
21 180 -3.19739
22 180 -6.50399
23 180 -12.1693
25 180 -10.024
26 180 -2.94276
27 180 -66.5773
28 180 -365.783
29 180 -86.4254
30 180 -83.2369
31 180 -1.56124
32 180 -1.28216
33 180 -0.811546
34 180 -4.38543
35 180 -1.76062
36 180 -11.2286
37 180 -2.1003
38 180 -5.25647
39 180 -5.9919
40 180 -3.73983
42 180 -2.69063
43 180 -4.65898
44 180 -5.91693
45 180 -3.0612
46 180 -3.46578
47 180 -3.36951
48 180 -1.89829
49 180 -0.692774
51 180 -18102.2
53 180 -3.00504
55 180 -4.47272
56 180 -1.96518
57 180 -1.28216
58 180 -0.811546
59 180 -4.38543
60 180 -11.8782
61 180 -1.56124
62 180 -1.76062
63 180 -8.09031
64 180 -6.46267
65 180 -5.14096
66 180 -2.88917
67 180 -4.68593
68 180 -5.89853
69 180 -0.692761
70 180 -512.076
71 180 -15.6514
72 180 -17.8703
73 180 -13.4493
74 180 -18.7897
75 180 -20.2227
76 180 -21.5315
77 180 -8.59753
78 180 -6.53938
79 180 -4.83214
80 180 -2.06618
81 180 -4.48769
82 180 -2.81541
83 180 -17.7895
84 180 -6.8111
85 180 -17.746
86 180 -22.9315
87 180 -44.1215
88 180 -24.5471
89 180 -20.2963
90 180 -20.7345
91 180 479.489
92 180 -3.58375
93 180 -0.229039
95 180 -2.16644
96 180 -1.68512
97 180 -3.21739
98 180 -3.75835
99 180 -4.05561
100 180 -0.3133
101 180 -1.55243
102 180 -3.59324
103 180 -1.86729
104 180 -5.18669
105 180 -1.48231
106 180 -4.58297
107 180 -0.229039
109 180 -2.16644
110 180 -1.68512
111 180 -3.21739
112 180 -3.75835
113 180 -4.05561
114 180 -0.3133
115 180 -1.55243
116 180 -3.59324
117 180 -1.86729
118 180 -5.87696
119 180 -0.229039
121 180 -2.16644
122 180 -1.68512
123 180 -3.21739
124 180 -3.75835
125 180 -4.05561
126 180 -0.3133
127 180 -1.55243
128 180 -3.59324
129 180 -1.86729
130 180 -0.229039
132 180 -2.16644
133 180 -1.68512
134 180 -3.21739
135 180 -0.3133
136 180 -1.42781
137 180 -3.57976
138 180 -1.84151
139 180 -5.71021
140 180 -6.77709
142 180 -5.88238
143 180 -2.77253
144 180 -2.77904
145 180 -2.14816
146 180 -4.17458
147 180 -1.59882
148 180 -2.90462
149 180 -2.98516
151 180 -3.14975
152 180 -3.14976
153 180 -1.7487
154 180 -1.70187
155 180 -2.54151
157 180 -2.65966
158 180 -11.8258
159 180 -3.35724
160 180 28.6123
161 180 483.532
162 180 73.1372
163 180 479.716
164 180 36.8381
165 180 37.4821
166 180 479.668
167 180 35.5645
168 180 -8940.54
169 180 -8.96502
170 180 -11.2454
171 180 -1587.64
172 180 -33.8826
173 180 -25.1954
174 180 -29.2797
175 180 -103.831
176 180 -105.235
177 180 -1849.02
178 180 1886.44
180 180 1
