%MatrixMarket matrix coordinate real general
2395 2395 13151
1 1 3.9792375753597099e-02
4 1 -9.0991118645234296e-10
47 1 -1.9554890371581401e-05
2 2 5.6188865273904001e-02
3 2 -4.7689589306417401e-04
47 2 -1.2675714616593601e-04
2 3 -4.8194840807150801e-04
3 3 4.7675887578205997e-02
14 3 -4.6904315196998100e-02
47 3 -1.2674503839484299e-04
1 4 -8.0319391274938600e-12
4 4 5.4991277081555399e-02
14 4 -5.4945054945054903e-02
47 4 -1.8974139146184600e-05
5 5 5.0940743444874800e-02
6 5 -3.9599725124785100e-10
14 5 -3.5173246505327303e-05
5 6 -1.6066389728161500e-12
6 6 4.0766243814252798e-02
14 6 -3.5153090543172901e-05
2381 6 -4.0650406504064998e-02
7 7 5.0940743354186399e-02
8 7 -2.1531964135392500e-10
2377 7 -3.5171632214644601e-05
7 8 -8.7175811427140297e-13
8 8 4.0766243832402502e-02
2377 8 -3.5152531226476597e-05
2381 8 -4.0650406504064998e-02
9 9 2.8715156703816203e-01
10 9 -1.2398157774233000e-03
2377 9 -1.2471266693342900e-04
9 10 -1.2445109796510700e-03
10 10 1.0355016301441200e-01
11 10 -1.0204081632653100e-01
2377 10 -1.2468814346141901e-04
10 11 -1.0204081632653100e-01
11 11 2.6078100372129598e-01
12 11 -1.5873015873015900e-01
14 11 -4.9830318518561402e-06
11 12 -1.5873015873015900e-01
12 12 1.6019361575863200e-01
13 12 -1.2201188587371899e-03
14 12 -1.2470813995286301e-04
12 13 -1.2249446959970700e-03
13 13 2.8712629231013798e-01
14 13 -1.2469267185726999e-04
2381 13 -2.8571428571428598e-01
3 14 -4.6904315196998100e-02
4 14 -5.4945054945054903e-02
5 14 -3.5144465395865903e-05
6 14 -3.5143828112476703e-05
11 14 -4.9830318518561402e-06
12 14 -1.2419995468575899e-04
13 14 -1.2367267347737100e-04
14 14 1.0245657288539800e-01
47 14 -9.8909426205184702e-07
2377 14 -2.8796415224294300e-06
2381 14 -7.0864221812828501e-06
15 15 6.8754984152968698e-02
16 15 -6.1487642054876995e-04
2374 15 -6.2704942622318906e-05
15 16 -6.1411959356058100e-04
16 16 5.3662316366876101e-02
47 16 -5.2910052910052900e-02
2374 16 -6.2744584625207194e-05
17 17 6.8731817935794401e-02
18 17 -5.9165292936908204e-04
2375 17 -6.2703639132928601e-05
17 18 -5.9096055754083096e-04
18 18 5.3639104970216102e-02
47 18 -5.2910052910052900e-02
2375 18 -6.2745614333327803e-05
19 19 2.0343573495490300e-01
20 19 -4.0724145722076701e-09
2375 19 -7.0353673327820998e-05
19 20 -2.2676253848406899e-09
20 20 8.7447593040318600e-02
21 20 -8.7108013937282194e-02
2375 20 -7.0351967044667899e-05
20 21 -8.7108013937282194e-02
21 21 2.0907633601608400e-01
22 21 -1.2195121951219499e-01
2374 21 -1.2056933852606700e-05
21 22 -1.2195121951219499e-01
22 22 1.2223576735130900e-01
23 22 -4.0037192412416998e-10
2374 22 -7.0343828471572202e-05
22 23 -1.6298343364917400e-12
23 23 2.0338943284614600e-01
47 23 -2.0325203252032500e-01
2374 23 -7.0305805337392597e-05
24 24 4.0495819201277997e-02
27 24 -6.5229319249000698e-04
2377 24 -6.5821537738751197e-05
25 25 5.5603064974051597e-02
26 25 -2.4295219072152598e-10
2377 25 -3.9191264956478298e-05
25 26 -9.8437184875586607e-13
26 26 4.7033352284078900e-02
46 26 -4.6904315196998100e-02
2377 26 -3.9169962044123202e-05
24 27 -6.5020568455824304e-04
27 27 5.5740191396275299e-02
46 27 -5.4945054945054903e-02
2377 27 -6.5835071510200304e-05
28 28 6.8091355003698895e-02
29 28 -8.5915838995742400e-10
46 28 -1.8575703836862799e-05
28 29 -9.4720323262239510e-10
29 29 5.2994363257419401e-02
46 29 -1.8737962010128700e-05
2376 29 -5.2910052910052900e-02
30 30 6.8731825098345606e-02
31 30 -5.9165661815418602e-04
2375 30 -6.2708254297164906e-05
30 31 -5.9067459344387099e-04
31 31 5.3638795206738699e-02
2375 31 -6.2743444755458298e-05
2376 31 -5.2910052910052900e-02
32 32 6.8091355042191298e-02
40 32 -9.0290793459685103e-10
33 33 6.8532684430772400e-02
39 33 -3.7319201211336001e-04
34 34 2.0385629577912701e-01
35 34 -2.4243559719356399e-04
34 35 -2.5527818953948898e-04
35 35 8.7898374069775104e-02
36 35 -8.7108013937282194e-02
35 36 -8.7108013937282194e-02
36 36 2.0907633601608400e-01
37 36 -1.2195121951219499e-01
36 37 -1.2195121951219499e-01
37 37 1.2329874116662901e-01
38 37 -8.6386781084849202e-04
37 38 -8.3078444460660695e-04
38 38 2.0443562814257901e-01
2375 38 -2.0325203252032500e-01
33 39 -2.2552904713877701e-05
39 39 5.2976468729267000e-02
2375 39 -5.2910052910052900e-02
32 40 -8.0649324977500298e-12
40 40 5.2954351929961598e-02
2375 40 -5.2910052910052900e-02
41 41 2.0343573372994400e-01
42 41 -2.8474662283815399e-09
2375 41 -7.0353726481427501e-05
41 42 -1.1492222098113200e-11
42 42 8.7348015163647999e-02
43 42 -8.7108013937282194e-02
2375 42 -7.0310885043841501e-05
42 43 -8.7108013937282194e-02
43 43 2.0907633601608400e-01
44 43 -1.2195121951219499e-01
46 43 -1.2056933852606700e-05
43 44 -1.2195121951219499e-01
44 44 1.2215684148903000e-01
45 44 -1.4630277391847900e-08
46 44 -7.0361326054355606e-05
44 45 -6.1948838414797206e-11
45 45 2.0338943658058400e-01
46 45 -7.0353263535853901e-05
2376 45 -2.0325203252032500e-01
26 46 -4.6904315196998100e-02
27 46 -5.4945054945054903e-02
28 46 -1.7728530139740999e-05
29 46 -1.7728621127737900e-05
43 46 -1.2056933852606700e-05
44 46 -7.0301505113598602e-05
45 46 -7.0275081903086703e-05
46 46 1.0234469418998800e-01
2370 46 -9.8909426205184702e-07
2375 46 -7.9064940061486307e-06
2376 46 -5.5652202466081803e-06
2377 46 -1.9719284338375401e-06
2381 46 -1.9719284338375401e-06
1 47 -1.8615767527474899e-05
2 47 -1.2549778297917899e-04
3 47 -1.2535771306329999e-04
4 47 -1.8614241303377899e-05
14 47 -9.8909426205184702e-07
16 47 -5.2910052910052900e-02
18 47 -5.2910052910052900e-02
23 47 -2.0325203252032500e-01
47 47 3.0982916153732298e-01
2369 47 -1.9719284338375401e-06
2370 47 -9.8909426205184702e-07
2374 47 -4.5823860748224796e-06
2375 47 -9.8909426205184702e-07
2376 47 -9.8909426205184702e-07
2377 47 -9.8909426205184702e-07
2378 47 -2.9610226958893901e-06
2380 47 -1.9719284338375401e-06
2381 47 -9.8909426205184702e-07
2382 47 -1.9719284338375401e-06
2383 47 -1.9719284338375401e-06
2388 47 -1.9719284338375401e-06
48 48 4.0489324318157598e-02
51 48 -6.4578200831442599e-04
2374 48 -6.5820832227770994e-05
49 49 5.5603064705642899e-02
50 49 -3.5989417834541998e-10
2374 49 -3.9192338027489599e-05
49 50 -1.4602028854213301e-12
50 50 4.3686453077535700e-02
66 50 -4.3554006968641097e-02
2374 50 -3.9170366204633803e-05
48 51 -6.4374984415556998e-04
51 51 5.3701204181794700e-02
66 51 -5.2910052910052900e-02
2374 51 -6.5835395542312305e-05
52 52 1.0292850839896200e-01
53 52 -8.5756185999474096e-04
2389 52 -2.2646549034595001e-04
52 53 -8.6661048422648202e-04
53 53 7.7615296207766804e-02
2389 53 -2.2643425648472901e-04
2390 53 -7.6219512195121894e-02
54 54 1.4292840124999601e-01
55 54 -1.1128190087990700e-11
2389 54 -3.6140804670608197e-05
2390 54 -1.4285714285714299e-01
54 55 -1.2437932117912899e-09
55 55 1.3001867187401500e-01
65 55 -1.2987012987013000e-01
2389 55 -3.7220568956852002e-05
56 56 1.4298556729496201e-01
57 56 -1.7041533284508099e-09
243 56 -3.7153407165956802e-05
56 57 -1.1774976590701700e-09
57 57 1.0221131695452000e-01
65 57 -1.0204081632653100e-01
243 57 -3.7129036438717098e-05
58 58 1.4298556729903400e-01
59 58 -1.7313563812865700e-09
66 58 -3.7156108720944297e-05
58 59 -1.1963160248891400e-09
59 59 1.0221131692838099e-01
65 59 -1.0204081632653100e-01
66 59 -3.7131720108753498e-05
60 60 1.0292710576925100e-01
61 60 -8.5617291567288397e-04
66 60 -2.2646035056361700e-04
60 61 -8.6528033882348702e-04
61 61 7.7614009673350706e-02
62 61 -7.6219512195121894e-02
66 61 -2.2643939755370601e-04
61 62 -7.6219512195121894e-02
62 62 1.7787602135497099e-01
63 62 -1.0162601626016300e-01
243 62 -2.0695858419894999e-05
62 63 -1.0162601626016300e-01
63 63 1.0292722217888500e-01
64 63 -8.5634175581925803e-04
243 63 -2.2645500883248401e-04
63 64 -8.6551597192693495e-04
64 64 1.0291788409305000e-01
243 64 -2.2644474008480300e-04
2390 64 -1.0162601626016300e-01
55 65 -1.2987012987013000e-01
57 65 -1.0204081632653100e-01
59 65 -1.0204081632653100e-01
65 65 3.3399070028464700e-01
66 65 -4.1441797561919198e-06
243 65 -3.9814174092719904e-06
2389 65 -6.5230140573292702e-06
50 66 -4.3554006968641097e-02
51 66 -5.2910052910052900e-02
58 66 -3.5457599696767603e-05
59 66 -3.5456702838190100e-05
60 66 -2.2524961115241799e-04
61 66 -2.2500382368221500e-04
65 66 -4.1441797561919198e-06
66 66 9.7231833184775504e-02
243 66 -6.4478929741354603e-07
2379 66 -2.7481796268402599e-06
67 67 6.8751321369775104e-02
68 67 -6.1119748288870305e-04
90 67 -6.2715494821100800e-05
67 68 -6.0975067403035198e-04
68 68 5.1770609874239898e-02
90 68 -6.2739957704859302e-05
243 68 -5.1020408163265300e-02
69 69 6.8731414216772105e-02
70 69 -5.9123982042229002e-04
2378 69 -6.2714720638266898e-05
69 70 -5.8985154866916995e-04
70 70 5.1750666105591203e-02
243 70 -5.1020408163265300e-02
2378 70 -6.2740417434799305e-05
71 71 2.0343573494878200e-01
72 71 -4.0924432711025597e-09
2378 71 -7.0353820320714997e-05
71 72 -2.1537073718230999e-09
72 72 7.6569160818253199e-02
73 72 -7.6219512195121894e-02
2378 72 -7.0351990195018798e-05
72 73 -7.6219512195121894e-02
73 73 1.9818783427392400e-01
74 73 -1.2195121951219499e-01
90 73 -1.2056933852606700e-05
73 74 -1.2195121951219499e-01
74 74 1.2223558295803000e-01
75 74 -4.8715172771757198e-10
90 74 -7.0345066266791606e-05
74 75 -1.9846057529490402e-12
75 75 2.0338944170795800e-01
90 75 -7.0306234715571104e-05
243 75 -2.0325203252032500e-01
76 76 3.9792375801723699e-02
79 76 -9.8105748283960895e-10
89 76 -1.9561735839825000e-05
77 77 5.6188038077064600e-02
78 77 -4.7606079091347799e-04
89 77 -1.2677203778174500e-04
77 78 -4.8091224584488298e-04
78 78 4.4330276173960799e-02
89 78 -1.2673013990037601e-04
90 78 -4.3554006968641097e-02
76 79 -8.6722293245326697e-12
79 79 5.2956901909902702e-02
89 79 -1.8976825064396601e-05
90 79 -5.2910052910052900e-02
80 80 5.0940743358356300e-02
81 80 -2.1179428667458601e-10
2382 80 -3.5171599643929901e-05
80 81 -8.5744465263894697e-13
81 81 3.8228645311855401e-02
89 81 -3.8109756097561003e-02
2382 81 -3.5152514945896801e-05
82 82 5.0940743432959200e-02
83 82 -3.9677255066492800e-10
2387 82 -3.5173244090640499e-05
82 83 -1.6098187207207600e-12
83 83 3.8228645286949602e-02
89 83 -3.8109756097561003e-02
2387 83 -3.5153091419496797e-05
84 84 2.8713225130689402e-01
85 84 -1.2205478434116699e-03
2387 84 -1.2470947318461400e-04
84 85 -1.2253295132408500e-03
85 85 1.0353576333185500e-01
86 85 -1.0204081632653100e-01
2387 85 -1.2469133827503999e-04
85 86 -1.0204081632653100e-01
86 86 2.6078100372129598e-01
87 86 -1.5873015873015900e-01
2382 86 -4.9830318518561402e-06
86 87 -1.5873015873015900e-01
87 87 1.6021356217158500e-01
88 87 -1.2399960394718799e-03
2382 87 -1.2470472415220400e-04
87 88 -1.2449997857692499e-03
88 88 2.8714632888401098e-01
89 88 -2.8571428571428598e-01
2382 88 -1.2469608830227699e-04
76 89 -1.8615827375320298e-05
77 89 -1.2567019063422299e-04
78 89 -1.2518651956223699e-04
79 89 -1.8614181455532601e-05
81 89 -3.8109756097561003e-02
83 89 -3.8109756097561003e-02
88 89 -2.8571428571428598e-01
89 89 3.6254884080041599e-01
90 89 -9.8909426205184702e-07
2382 89 -7.0864221812828501e-06
2387 89 -9.8909426205184702e-07
2390 89 -1.9719284338375401e-06
67 90 -6.1402973037845602e-05
68 90 -6.2534365432331904e-05
73 90 -1.2056933852606700e-05
74 90 -7.0288689431162105e-05
75 90 -7.0287897585523200e-05
78 90 -4.3554006968641097e-02
79 90 -5.2910052910052900e-02
89 90 -9.8909426205184702e-07
90 90 9.7097713462801397e-02
243 90 -5.5652202466081803e-06
2369 90 -9.8909426205184702e-07
2371 90 -1.9719284338375401e-06
2378 90 -7.9064940061486307e-06
2383 90 -9.8909426205184702e-07
2390 90 -1.9719284338375401e-06
2392 90 -1.9719284338375401e-06
2393 90 -1.9719284338375401e-06
91 91 2.8712703357677899e-01
92 91 -1.2256287882963801e-03
2390 91 -1.2466684005520300e-04
91 92 -1.2227180292568700e-03
92 92 1.0354371146542000e-01
93 92 -1.0204081632653100e-01
2390 92 -1.2472453683817300e-04
92 93 -1.0204081632653100e-01
93 93 2.2109748746467500e-01
95 93 -1.1904761904761900e-01
242 93 -1.0016144425841501e-06
2390 93 -3.0048433277524500e-06
94 94 2.8715671673579202e-01
95 94 -1.2449811981491399e-03
242 94 -2.8571428571428598e-01
2377 94 -1.2472166608215200e-04
93 95 -1.1904761904761900e-01
94 95 -1.2471898702302300e-03
95 95 1.2054749159115800e-01
2377 95 -1.2465736428744699e-04
96 96 1.0189245452357901e-01
97 96 -1.2652046847047001e-09
2390 96 -7.0346557310295400e-05
96 97 -9.1884671843095703e-10
97 97 7.6570794916684295e-02
113 97 -7.6219512195121894e-02
2390 97 -7.0345648791991300e-05
98 98 2.8665739071352297e-01
99 98 -7.5525852842196100e-04
98 99 -7.7731588804408097e-04
99 99 1.0309474740031099e-01
100 99 -1.0204081632653100e-01
99 100 -1.0204081632653100e-01
100 100 2.6078100372129598e-01
101 100 -1.5873015873015900e-01
100 101 -1.5873015873015900e-01
101 101 1.5886902568473399e-01
106 101 -5.4892995684997603e-09
102 102 5.1459959784167203e-02
105 102 -4.3100777562382202e-04
103 103 5.1148852739216599e-02
104 103 -1.1958002491232600e-04
103 104 -1.2992803232816200e-04
104 104 4.1049638588048901e-02
2377 104 -4.0650406504064998e-02
102 105 -4.3833408116901901e-04
105 105 4.1358595309576397e-02
2377 105 -4.0650406504064998e-02
101 106 -3.2227623279662003e-11
106 106 2.8577231547937298e-01
2377 106 -2.8571428571428598e-01
107 107 1.0189245415878601e-01
108 107 -6.8334863877872300e-10
2377 107 -7.0343317372652600e-05
107 108 -4.9602553434870400e-10
108 108 7.6570794897659902e-02
113 108 -7.6219512195121894e-02
2377 108 -7.0342037508009297e-05
109 109 1.2048625289730300e-01
110 109 -1.1861241678517600e-03
2375 109 -1.2462063437004999e-04
109 110 -1.1861694102420200e-03
110 110 1.0350734182678700e-01
242 110 -1.0204081632653100e-01
2375 110 -1.2475822292933500e-04
111 111 1.0181205713782100e-01
112 111 -8.9000842702747992e-12
242 111 -1.0162601626016300e-01
2375 111 -7.0308384338120999e-05
111 112 -2.1760793177221002e-09
112 112 1.5270263775093201e-01
113 112 -1.5243902439024401e-01
2375 112 -7.0352712599033201e-05
97 113 -7.6219512195121894e-02
108 113 -7.6219512195121894e-02
112 113 -1.5243902439024401e-01
113 113 3.0493383244485001e-01
2375 113 -1.9637903164915501e-05
2377 113 -5.9721261139079898e-06
2390 113 -3.9814174092719904e-06
114 114 5.0940743366972498e-02
115 114 -4.9552549442806503e-10
2374 114 -3.5172569852939001e-05
114 115 -4.8745065579490995e-10
115 115 3.8286375536276902e-02
241 115 -3.8109756097561003e-02
2374 115 -3.5172546062079297e-05
116 116 5.1466794381952799e-02
117 116 -4.2817886090876402e-04
2389 116 -1.1389745503046800e-04
116 117 -4.3264094161609101e-04
117 117 3.8807661252688898e-02
241 117 -3.8109756097561003e-02
2389 117 -1.1387601003664300e-04
118 118 2.8580466193511400e-01
119 118 -1.6588658547040000e-09
2389 118 -3.7235056643827600e-05
118 119 -1.5640322866310200e-11
119 119 1.0213313074997400e-01
120 119 -1.0204081632653100e-01
2389 119 -3.6187900654180601e-05
119 120 -1.0204081632653100e-01
120 120 2.6078100372129598e-01
121 120 -1.5873015873015900e-01
2374 120 -4.9830318518561402e-06
120 121 -1.5873015873015900e-01
121 121 1.5881277953002901e-01
122 121 -2.3680488619331900e-08
2374 121 -3.8104015474295503e-05
121 122 -5.3984892104270800e-10
122 122 2.8577242383133100e-01
241 122 -2.8571428571428598e-01
2374 122 -3.7917971136734698e-05
123 123 5.1465854506437203e-02
124 123 -4.2725412819927797e-04
2394 123 -1.1388777373183001e-04
123 124 -4.3183674252422999e-04
124 124 4.1344397959317498e-02
240 124 -4.0650406504064998e-02
2394 124 -1.1388569350191700e-04
125 125 5.0940743655056700e-02
126 125 -6.1960536952558705e-10
241 125 -3.5173228047604099e-05
125 126 -6.1862249449073905e-10
126 126 4.0823899054590697e-02
240 126 -4.0650406504064998e-02
241 126 -3.5173225692264197e-05
127 127 2.8712698560287597e-01
128 127 -1.2255552685945300e-03
241 127 -1.2469954448471500e-04
127 128 -1.2204798839459000e-03
128 128 1.0353640643297200e-01
129 128 -1.0204081632653100e-01
241 128 -1.2470102489957701e-04
128 129 -1.0204081632653100e-01
129 129 2.6078100372129598e-01
130 129 -1.5873015873015900e-01
2394 129 -4.9830318518561402e-06
129 130 -1.5873015873015900e-01
130 130 1.5886655620743700e-01
131 130 -1.9698466319262098e-09
2394 130 -3.7268204957762503e-05
130 131 -1.7494606537436801e-11
131 131 2.8577242119948498e-01
240 131 -2.8571428571428598e-01
2394 131 -3.6147066501257102e-05
132 132 4.0481776806372702e-02
135 132 -6.3823820322952605e-04
2386 132 -6.5764585700893698e-05
133 133 5.5603061841526302e-02
134 133 -5.6843349587794699e-10
2386 133 -3.9193830670417199e-05
133 134 -2.3103554749985699e-12
134 134 4.3684306793679899e-02
145 134 -4.3554006968641097e-02
2386 134 -3.9170809630471999e-05
132 135 -6.3984689077216698e-04
135 135 5.3695056958065500e-02
145 135 -5.2910052910052900e-02
2386 135 -6.5861838452192399e-05
136 136 5.0940743398010101e-02
137 136 -5.3852344823128703e-10
193 136 -3.5172815398683999e-05
136 137 -5.2379223478722902e-10
137 137 4.0823813359033102e-02
193 137 -3.5172774905807200e-05
238 137 -4.0650406504064998e-02
138 138 5.1467186217449702e-02
139 138 -4.2856105047592302e-04
145 138 -1.1390482771824900e-04
138 139 -4.3292885543320399e-04
139 139 4.1345376147290600e-02
145 139 -1.1386863330557699e-04
238 139 -4.0650406504064998e-02
140 140 2.8580466186267101e-01
141 140 -1.5881752582984301e-09
145 140 -3.7227474241544501e-05
140 141 -1.4966962100148300e-11
141 141 1.0212993521952300e-01
142 141 -1.0204081632653100e-01
145 141 -3.6185022439360598e-05
141 142 -1.0204081632653100e-01
142 142 2.6078100372129598e-01
143 142 -1.5873015873015900e-01
193 142 -4.9830318518561402e-06
142 143 -1.5873015873015900e-01
143 143 1.5881278831030701e-01
144 143 -2.2332991647795002e-08
193 143 -3.8102482863200598e-05
143 144 -5.0871738669529303e-10
144 144 2.8577242540631298e-01
193 144 -3.7915993780514598e-05
238 144 -2.8571428571428598e-01
134 145 -4.3554006968641097e-02
135 145 -5.2910052910052900e-02
138 145 -1.1277281365219900e-04
139 145 -1.1235494177835700e-04
140 145 -3.5458488829864301e-05
141 145 -3.5455813705093498e-05
145 145 9.7008366562817194e-02
193 145 -6.2350499050863301e-06
146 146 2.8580466159073697e-01
147 146 -1.3373616022218300e-09
146 147 -1.8158811258844201e-11
147 147 1.0215216733466299e-01
148 147 -1.0204081632653100e-01
147 148 -1.0204081632653100e-01
148 148 2.6078100372129598e-01
149 148 -1.5873015873015900e-01
148 149 -1.5873015873015900e-01
149 149 1.5915865296385401e-01
154 149 -2.0165407121736301e-04
150 150 5.1153656705111503e-02
153 150 -1.2168140474086600e-04
151 151 5.1461022806399297e-02
152 151 -4.3171276681052101e-04
151 152 -4.2974649275373398e-04
152 152 4.1351587882717998e-02
193 152 -4.0650406504064998e-02
150 153 -1.2303140265395600e-04
153 153 4.1042201066801301e-02
193 153 -4.0650406504064998e-02
149 154 -5.9910392255329703e-06
154 154 2.8577704118213498e-01
193 154 -2.8571428571428598e-01
155 155 1.0187648040393300e-01
156 155 -7.3750118303508404e-10
193 155 -7.0345807608705204e-05
155 156 -3.0012743667208501e-12
156 156 7.6453466859685001e-02
193 156 -7.0305957005359506e-05
2373 156 -7.6219512195121894e-02
157 157 1.4431609252933900e-01
158 157 -1.2333900937961800e-03
193 157 -1.2469202193983700e-04
2373 157 -1.4285714285714299e-01
157 158 -1.2289329504647599e-03
158 158 1.3135678030339601e-01
177 158 -1.2987012987013000e-01
193 158 -1.2469168970573601e-04
159 159 1.4430777996683700e-01
160 159 -1.2254877467705000e-03
2395 159 -1.2464018530718301e-04
159 160 -1.2243346206461400e-03
160 160 1.0354061022638200e-01
177 160 -1.0204081632653100e-01
2395 160 -1.2474366651253800e-04
161 161 1.4430049058940400e-01
162 161 -1.2181743583007500e-03
2386 161 -1.2463944396196800e-04
161 162 -1.2170632558858999e-03
162 162 1.0353332882343300e-01
177 162 -1.0204081632653100e-01
2386 162 -1.2474403741463301e-04
163 163 6.8534417978081602e-02
171 163 -3.7494615660458599e-04
164 164 6.8091355051902794e-02
170 164 -9.1261974310104602e-10
165 165 2.0447304158360399e-01
166 165 -8.6256973533101904e-04
165 166 -8.8436969833772204e-04
166 166 7.7647363063004904e-02
167 166 -7.6219512195121894e-02
166 167 -7.6219512195121894e-02
167 167 1.9818783427392400e-01
168 167 -1.2195121951219499e-01
167 168 -1.2195121951219499e-01
168 168 1.2269830951936200e-01
169 168 -2.6205532497384397e-04
168 169 -2.2994765858418300e-04
169 169 2.0383539827356500e-01
2386 169 -2.0325203252032500e-01
164 170 -8.0762119515161593e-12
170 170 5.1063508187599201e-02
2386 170 -5.1020408163265300e-02
163 171 -2.2425761308980798e-05
171 171 5.1085503313392400e-02
2386 171 -5.1020408163265300e-02
172 172 1.0187647706932899e-01
173 172 -1.5423307026505700e-09
2386 172 -7.0347942326224805e-05
172 173 -9.8061388607327597e-10
173 173 7.6563770889786401e-02
174 173 -7.6219512195121894e-02
2386 173 -7.0346677601887002e-05
173 174 -7.6219512195121894e-02
174 174 1.7787602135497099e-01
175 174 -1.0162601626016300e-01
2395 174 -2.0695858419894999e-05
174 175 -1.0162601626016300e-01
175 175 1.0187468879832400e-01
176 175 -5.5474680340180600e-10
2395 175 -7.0345403778652703e-05
175 176 -2.2596636967446099e-12
176 176 1.0180242187371701e-01
2373 176 -1.0162601626016300e-01
2395 176 -7.0306212900432595e-05
158 177 -1.2987012987013000e-01
160 177 -1.0204081632653100e-01
162 177 -1.0204081632653100e-01
177 177 3.3399070028464700e-01
193 177 -6.5230140573292702e-06
2386 177 -4.1441797561919198e-06
2395 177 -3.9814174092719904e-06
178 178 1.0187648086892100e-01
179 178 -8.4060685032436201e-10
239 178 -7.0346579547381406e-05
178 179 -3.4220829642925299e-12
179 179 7.6453514632819797e-02
180 179 -7.6219512195121894e-02
239 179 -7.0306205954703203e-05
179 180 -7.6219512195121894e-02
180 180 3.2083755121730201e-01
181 180 -1.4285714285714299e-01
192 180 -1.0162601626016300e-01
239 180 -1.6839642815946000e-05
180 181 -1.4285714285714299e-01
181 181 1.4431371099081200e-01
182 181 -1.2210951352978499e-03
239 181 -1.2470061495871800e-04
181 182 -1.2261024670443799e-03
182 182 1.3134349708593199e-01
191 182 -1.2987012987013000e-01
239 182 -1.2469864843526901e-04
183 183 1.4298556732203499e-01
184 183 -1.7143295602850000e-09
242 183 -3.7143855533488298e-05
183 184 -1.7278784901182700e-09
184 184 1.0220892143173300e-01
191 184 -1.0204081632653100e-01
242 184 -3.7170508704255503e-05
185 185 1.4430760046216201e-01
186 185 -1.2252661452375399e-03
238 185 -1.2469672428779300e-04
185 186 -1.2203784664882400e-03
186 186 1.0353632071799899e-01
191 186 -1.0204081632653100e-01
238 186 -1.2470304655599101e-04
187 187 1.0187648083549600e-01
188 187 -8.2122523075013496e-10
238 187 -7.0346682457828795e-05
187 188 -3.2993445399283799e-12
188 188 7.6462214362469902e-02
189 188 -7.6219512195121894e-02
238 188 -7.0308506773656505e-05
188 189 -7.6219512195121894e-02
189 189 1.7787602135497099e-01
190 189 -1.0162601626016300e-01
242 189 -2.0695858419894999e-05
189 190 -1.0162601626016300e-01
190 190 1.0180816018826300e-01
192 190 -1.9191291266169999e-08
242 190 -7.0361575248836100e-05
182 191 -1.2987012987013000e-01
184 191 -1.0204081632653100e-01
186 191 -1.0204081632653100e-01
191 191 3.3399070028464700e-01
238 191 -4.1441797561919198e-06
239 191 -6.5230140573292702e-06
242 191 -3.9814174092719904e-06
180 192 -1.0162601626016300e-01
190 192 -8.1272576976628802e-11
192 192 1.0180245312945500e-01
242 192 -7.0353348778618896e-05
136 193 -3.5144158622596999e-05
137 193 -3.5144134885745701e-05
142 193 -4.9830318518561402e-06
143 193 -3.5478000224120203e-05
144 193 -3.5436302310837500e-05
145 193 -6.2350499050863301e-06
152 193 -4.0650406504064998e-02
153 193 -4.0650406504064998e-02
154 193 -2.8571428571428598e-01
155 193 -7.0288890954575404e-05
156 193 -7.0287696062109901e-05
157 193 -1.2364884974241100e-04
158 193 -1.2422383495290799e-04
177 193 -6.5230140573292702e-06
193 193 3.6811429063852602e-01
238 193 -8.0692563530685507e-06
239 193 -9.8909426205184702e-07
242 193 -9.8909426205184702e-07
2373 193 -1.6839642815946000e-05
2386 193 -1.9719284338375401e-06
2395 193 -1.2269776921655799e-06
194 194 1.0187648086797700e-01
195 194 -8.3868141866066396e-10
240 194 -7.0346568395534897e-05
194 195 -3.4141986095871499e-12
195 195 7.6453517567863200e-02
196 195 -7.6219512195121894e-02
240 195 -7.0306202587013206e-05
195 196 -7.6219512195121894e-02
196 196 3.2083755121730201e-01
197 196 -1.4285714285714299e-01
208 196 -1.0162601626016300e-01
240 196 -1.6839642815946000e-05
196 197 -1.4285714285714299e-01
197 197 1.4431358308066200e-01
198 197 -1.2209743708045701e-03
240 197 -1.2470034871665201e-04
197 198 -1.2260579656414199e-03
198 198 1.3134343841122001e-01
207 198 -1.2987012987013000e-01
240 198 -1.2469972774188700e-04
199 199 1.4298556739061999e-01
200 199 -1.7997937514451400e-09
243 199 -3.7152242605892399e-05
199 200 -1.8071361001093299e-09
200 200 1.0220890508537300e-01
207 200 -1.0204081632653100e-01
243 200 -3.7165985553101803e-05
201 201 1.4430788976053699e-01
202 201 -1.2255548155510200e-03
241 201 -1.2469850163558801e-04
201 202 -1.2205486300454500e-03
202 202 1.0353648125631700e-01
207 202 -1.0204081632653100e-01
241 202 -1.2470177121483799e-04
203 203 1.0187648082291401e-01
204 203 -8.1372366336001802e-10
241 203 -7.0346628990184095e-05
203 204 -3.2690517663971099e-12
204 204 7.6462227131621596e-02
205 204 -7.6219512195121894e-02
241 204 -7.0308491700029100e-05
204 205 -7.6219512195121894e-02
205 205 1.7787602135497099e-01
206 205 -1.0162601626016300e-01
243 205 -2.0695858419894999e-05
205 206 -1.0162601626016300e-01
206 206 1.0180816783378800e-01
208 206 -1.8477198479051101e-08
243 206 -7.0361548040093300e-05
198 207 -1.2987012987013000e-01
200 207 -1.0204081632653100e-01
202 207 -1.0204081632653100e-01
207 207 3.3399070028464700e-01
240 207 -6.5230140573292702e-06
241 207 -4.1441797561919198e-06
243 207 -3.9814174092719904e-06
196 208 -1.0162601626016300e-01
206 208 -7.8246445364117304e-11
208 208 1.0180245504924500e-01
243 208 -7.0353316243852403e-05
209 209 6.8751351392705495e-02
210 209 -6.1121576378222098e-04
2385 209 -6.2731533656051701e-05
209 210 -6.0872110864659400e-04
210 210 5.1767035986024897e-02
237 210 -5.1020408163265300e-02
2385 210 -6.2732791425573794e-05
211 211 6.8751575583492305e-02
212 211 -6.1144049954642700e-04
2387 211 -6.2731534551211895e-05
211 212 -6.0894527066149100e-04
212 212 5.1767260671037200e-02
237 212 -5.1020408163265300e-02
2387 212 -6.2732791732753599e-05
213 213 2.0343573324751599e-01
214 213 -1.2296608797186000e-09
2387 213 -7.0346550508014303e-05
213 214 -8.1186813976591295e-10
214 214 7.6563974711808799e-02
215 214 -7.6219512195121894e-02
2387 214 -7.0345404165420496e-05
214 215 -7.6219512195121894e-02
215 215 1.9818783427392400e-01
216 215 -1.2195121951219499e-01
2385 215 -1.2056933852606700e-05
215 216 -1.2195121951219499e-01
216 216 1.2223641420891300e-01
217 216 -5.7746076361080205e-10
2385 216 -7.0345544445682296e-05
216 217 -2.3519527613560002e-12
217 217 2.0338945498055300e-01
237 217 -2.0325203252032500e-01
2385 217 -7.0306242064170006e-05
218 218 4.0485622362427302e-02
221 218 -6.4206667012095401e-04
2395 218 -6.5830129855027106e-05
219 219 5.5603065033353702e-02
220 219 -4.5021595698801202e-10
2395 219 -3.9193074427056297e-05
219 220 -1.8279869968721002e-12
220 220 4.3684378004048403e-02
236 220 -4.3554006968641097e-02
2395 220 -3.9170594995657899e-05
218 221 -6.3942989619886995e-04
221 221 5.3694274273681702e-02
236 221 -5.2910052910052900e-02
2395 221 -6.5831118835987993e-05
222 222 1.0187648134575600e-01
223 222 -1.3314508706075000e-09
238 222 -7.0346630152871406e-05
222 223 -1.3256126368155700e-09
223 223 7.6566478749416605e-02
238 223 -7.0346617033282603e-05
239 223 -7.6219512195121894e-02
224 224 1.4292839998899401e-01
225 224 -6.5966444274251102e-10
238 224 -3.7911222280246201e-05
239 224 -1.4285714285714299e-01
224 225 -2.9337125836270600e-08
225 225 1.2995643155064601e-01
235 225 -1.2987012987013000e-01
238 225 -3.8110389138344601e-05
226 226 1.4298556738580301e-01
227 226 -1.8150193015094700e-09
237 226 -3.7250732622293598e-05
226 227 -1.7212984620574501e-11
227 227 1.0213013907798400e-01
235 227 -1.0204081632653100e-01
237 227 -3.6198088705782697e-05
228 228 1.4298556738698401e-01
229 228 -1.8158960369119400e-09
236 228 -3.7250816167715901e-05
228 229 -1.7221440054589401e-11
229 229 1.0213013907803201e-01
235 229 -1.0204081632653100e-01
236 229 -3.6198123217569701e-05
230 230 1.0292675047894000e-01
231 230 -8.5582765468362901e-04
236 230 -2.2645227782159099e-04
230 231 -8.6503968602299596e-04
231 231 7.7607483865488394e-02
232 231 -7.6219512195121894e-02
236 231 -2.2644747129316799e-04
231 232 -7.6219512195121894e-02
232 232 1.7787602135497099e-01
233 232 -1.0162601626016300e-01
237 232 -2.0695858419894999e-05
232 233 -1.0162601626016300e-01
233 233 1.0292671300036001e-01
234 233 -8.5580065438774602e-04
237 233 -2.2645314079094501e-04
233 234 -8.6499986383140504e-04
234 234 1.0291740960944000e-01
237 234 -2.2644660827688000e-04
239 234 -1.0162601626016300e-01
225 235 -1.2987012987013000e-01
227 235 -1.0204081632653100e-01
229 235 -1.0204081632653100e-01
235 235 3.3399070028464700e-01
236 235 -4.1441797561919198e-06
237 235 -3.9814174092719904e-06
238 235 -6.5230140573292702e-06
220 236 -4.3554006968641097e-02
221 236 -5.2910052910052900e-02
228 236 -3.5458681029077199e-05
229 236 -3.5455621505880498e-05
230 236 -2.2515456083408499e-04
231 236 -2.2509820299257801e-04
235 236 -4.1441797561919198e-06
236 236 9.7228173724307296e-02
237 236 -6.4478929741354603e-07
240 236 -2.7481796268402599e-06
210 237 -5.1020408163265300e-02
212 237 -5.1020408163265300e-02
217 237 -2.0325203252032500e-01
226 237 -3.5458680288299500e-05
227 237 -3.5455622246658298e-05
232 237 -2.0695858419894999e-05
233 237 -2.2516471415112300e-04
234 237 -2.2508812143741901e-04
235 237 -3.9814174092719904e-06
236 237 -6.4478929741354603e-07
237 237 3.0613714303104100e-01
238 237 -1.2269776921655799e-06
239 237 -1.2645382337624900e-06
240 237 -1.9719284338375401e-06
2385 237 -5.5652202466081803e-06
2387 237 -9.8909426205184702e-07
137 238 -4.0650406504064998e-02
139 238 -4.0650406504064998e-02
144 238 -2.8571428571428598e-01
185 238 -1.2381062232448700e-04
186 238 -1.2406167922247101e-04
187 238 -7.0288959084270798e-05
188 238 -7.0287627932414493e-05
191 238 -4.1441797561919198e-06
193 238 -8.0692563530685507e-06
222 238 -7.0288298247507205e-05
223 238 -7.0288288769178100e-05
224 238 -3.5429762338651003e-05
225 238 -3.5484540196306802e-05
235 238 -6.5230140573292702e-06
237 238 -1.2269776921655799e-06
238 238 3.6826729456087598e-01
239 238 -1.7828737077997899e-05
240 238 -9.8909426205184702e-07
241 238 -9.8909426205184702e-07
242 238 -1.6276234691992399e-06
243 238 -9.8909426205184702e-07
2372 238 -2.9610226958893901e-06
2373 238 -9.8909426205184702e-07
2386 238 -9.8909426205184702e-07
2395 238 -1.9719284338375401e-06
178 239 -7.0288974742167002e-05
179 239 -7.0287612274518303e-05
180 239 -1.6839642815946000e-05
181 239 -1.2399604108360600e-04
182 239 -1.2387610485071701e-04
191 239 -6.5230140573292702e-06
193 239 -9.8909426205184702e-07
223 239 -7.6219512195121894e-02
224 239 -1.4285714285714299e-01
234 239 -1.0162601626016300e-01
237 239 -1.2645382337624900e-06
238 239 -1.7828737077997899e-05
239 239 3.2153876573159901e-01
240 239 -9.8909426205184702e-07
241 239 -9.8909426205184702e-07
243 239 -9.8909426205184702e-07
2372 239 -1.9719284338375401e-06
2373 239 -9.8909426205184702e-07
2386 239 -9.8909426205184702e-07
2395 239 -1.9719284338375401e-06
124 240 -4.0650406504064998e-02
126 240 -4.0650406504064998e-02
131 240 -2.8571428571428598e-01
194 240 -7.0288973177051004e-05
195 240 -7.0287613839634301e-05
196 240 -1.6839642815946000e-05
197 240 -1.2395917924374600e-04
198 240 -1.2391287928911399e-04
207 240 -6.5230140573292702e-06
236 240 -2.7481796268402599e-06
237 240 -1.9719284338375401e-06
238 240 -9.8909426205184702e-07
239 240 -9.8909426205184702e-07
240 240 3.6783560945417898e-01
241 240 -9.8909426205184702e-07
2383 240 -9.8909426205184702e-07
2385 240 -9.8909426205184702e-07
2387 240 -9.8909426205184702e-07
2392 240 -9.8909426205184702e-07
2394 240 -7.0864221812828501e-06
2395 240 -9.8909426205184702e-07
115 241 -3.8109756097561003e-02
117 241 -3.8109756097561003e-02
122 241 -2.8571428571428598e-01
125 241 -3.5144147546340300e-05
126 241 -3.5144145962002299e-05
127 241 -1.2390664671305999e-04
128 241 -1.2396542664490601e-04
201 241 -1.2387112772443301e-04
202 241 -1.2400103004398601e-04
203 241 -7.0288952986819695e-05
204 241 -7.0287634029865596e-05
207 241 -4.1441797561919198e-06
238 241 -9.8909426205184702e-07
239 241 -9.8909426205184702e-07
240 241 -9.8909426205184702e-07
241 241 3.6330584896216500e-01
242 241 -9.8909426205184702e-07
243 241 -2.6167177312510901e-06
2372 241 -1.9719284338375401e-06
2374 241 -7.7875522910917595e-06
2375 241 -9.8909426205184702e-07
2383 241 -1.9719284338375401e-06
2385 241 -9.8909426205184702e-07
2387 241 -1.9719284338375401e-06
2389 241 -9.8909426205184702e-07
2392 241 -1.9719284338375401e-06
2394 241 -2.8045204392356201e-06
2395 241 -1.9719284338375401e-06
93 242 -1.0016144425841501e-06
94 242 -2.8571428571428598e-01
110 242 -1.0204081632653100e-01
111 242 -1.0162601626016300e-01
183 242 -3.5457144228079400e-05
184 242 -3.5457158306878297e-05
189 242 -2.0695858419894999e-05
190 242 -7.0305622866581295e-05
191 242 -3.9814174092719904e-06
192 242 -7.0270964150103996e-05
193 242 -9.8909426205184702e-07
238 242 -1.6276234691992399e-06
241 242 -9.8909426205184702e-07
242 242 4.9016650068280798e-01
243 242 -1.9719284338375401e-06
2372 242 -1.9719284338375401e-06
2373 242 -9.8909426205184702e-07
2374 242 -9.8909426205184702e-07
2375 242 -4.1880003880549696e-06
2377 242 -4.2130407491195804e-06
2383 242 -1.9719284338375401e-06
2385 242 -1.0391749841810499e-06
2386 242 -9.8909426205184702e-07
2387 242 -9.8909426205184702e-07
2389 242 -1.9907087046359999e-06
2390 242 -3.1989061260031302e-06
2392 242 -1.9719284338375401e-06
2395 242 -9.8909426205184702e-07
56 243 -3.5457592640694999e-05
57 243 -3.5456709894262800e-05
62 243 -2.0695858419894999e-05
63 243 -2.2518673954125700e-04
64 243 -2.2506625131887899e-04
65 243 -3.9814174092719904e-06
66 243 -6.4478929741354603e-07
68 243 -5.1020408163265300e-02
70 243 -5.1020408163265300e-02
75 243 -2.0325203252032500e-01
90 243 -5.5652202466081803e-06
199 243 -3.5457147452177898e-05
200 243 -3.5457155082779900e-05
205 243 -2.0695858419894999e-05
206 243 -7.0304977636557493e-05
207 243 -3.9814174092719904e-06
208 243 -7.0271609380127798e-05
238 243 -9.8909426205184702e-07
239 243 -9.8909426205184702e-07
241 243 -2.6167177312510901e-06
242 243 -1.9719284338375401e-06
243 243 3.0677675811951099e-01
2372 243 -1.9719284338375401e-06
2374 243 -1.9719284338375401e-06
2375 243 -1.9719284338375401e-06
2376 243 -9.8909426205184702e-07
2383 243 -2.9610226958893901e-06
2385 243 -9.8909426205184702e-07
2387 243 -9.8909426205184702e-07
2389 243 -2.2160719542174299e-06
2390 243 -2.2536324958143402e-06
2392 243 -2.9610226958893901e-06
2395 243 -1.9719284338375401e-06
244 244 4.0498807802627601e-02
247 244 -6.4986526576490998e-04
2382 244 -6.5830914021066799e-05
245 245 5.5603064981115002e-02
246 245 -2.3893850830779902e-10
2382 245 -3.9191229065194098e-05
245 246 -9.6801791341293896e-13
246 246 4.3686464391886101e-02
2382 246 -3.9169947220675801e-05
2388 246 -4.3554006968641097e-02
244 247 -6.5256687894347002e-04
247 247 5.3704566656357901e-02
2382 247 -6.5830697027889398e-05
2388 247 -5.2910052910052900e-02
248 248 6.8091355022872294e-02
249 248 -8.7641500926188695e-10
2388 248 -1.8577410563143899e-05
248 249 -9.6702387930124492e-10
249 249 5.1107095737433897e-02
324 249 -5.1020408163265300e-02
2388 249 -1.8740808599421300e-05
250 250 6.8731404291375503e-02
251 250 -5.9123488887046795e-04
2378 250 -6.2708019853984501e-05
250 251 -5.9026744680600897e-04
251 251 5.1751119036159497e-02
324 251 -5.1020408163265300e-02
2378 251 -6.2743559480702400e-05
252 252 6.8091355041935905e-02
260 252 -9.0265247832956796e-10
253 253 6.8532638438158003e-02
259 253 -3.7314549699201999e-04
254 254 2.0385643460246200e-01
255 254 -2.4249652327244000e-04
254 255 -2.5507285402602499e-04
255 255 8.7898091163236797e-02
256 255 -8.7108013937282194e-02
255 256 -8.7108013937282194e-02
256 256 2.0907633601608400e-01
257 256 -1.2195121951219499e-01
256 257 -1.2195121951219499e-01
257 257 1.2329838863966100e-01
258 257 -8.6347803900535601e-04
257 258 -8.3010890055615902e-04
258 258 2.0443483556841099e-01
2378 258 -2.0325203252032500e-01
253 259 -2.2556367944489701e-05
259 259 5.2976478062421700e-02
2378 259 -5.2910052910052900e-02
252 260 -8.0646478345361803e-12
260 260 5.2954357924145198e-02
2378 260 -5.2910052910052900e-02
261 261 2.0343573378106700e-01
262 261 -2.9247381411372600e-09
2378 261 -7.0353873425937704e-05
261 262 -1.1805150320595900e-11
262 262 7.6465957021479403e-02
263 262 -7.6219512195121894e-02
2378 262 -7.0310936531259495e-05
262 263 -7.6219512195121894e-02
263 263 1.9818783427392400e-01
264 263 -1.2195121951219499e-01
2388 263 -1.2056933852606700e-05
263 264 -1.2195121951219499e-01
264 264 1.2215684319667300e-01
265 264 -1.4365285518945799e-08
2388 264 -7.0361312271663795e-05
264 265 -6.0826077594106101e-11
265 265 2.0338943641561799e-01
324 265 -2.0325203252032500e-01
2388 265 -7.0353248722951898e-05
266 266 6.8731372685782902e-02
267 266 -5.9121896833742198e-04
2378 266 -6.2687083714625406e-05
266 267 -5.9156166293170497e-04
267 267 5.1752530405483700e-02
323 267 -5.1020408163265300e-02
2378 267 -6.2753437337282003e-05
268 268 6.8751512022243097e-02
269 268 -6.1140828115265598e-04
2387 268 -6.2688866330054495e-05
268 269 -6.1169171593785895e-04
269 269 5.1772704577068902e-02
323 269 -5.1020408163265300e-02
2387 269 -6.2751971273639596e-05
270 270 2.0343573313177099e-01
271 270 -1.1139178171684901e-09
2387 270 -7.0346550911831894e-05
270 271 -5.6109579768086800e-10
271 271 7.6568993435693594e-02
272 271 -7.6219512195121894e-02
2387 271 -7.0344849796232097e-05
271 272 -7.6219512195121894e-02
272 272 1.9818783427392400e-01
273 272 -1.2195121951219499e-01
2378 272 -1.2056933852606700e-05
272 273 -1.2195121951219499e-01
273 273 1.2223544849211000e-01
274 273 -1.6890551181258299e-09
2378 273 -7.0351964825398995e-05
273 274 -6.9102550928370897e-12
274 274 2.0338941954633000e-01
323 274 -2.0325203252032500e-01
2378 274 -7.0308427242682806e-05
275 275 3.9792375783085997e-02
278 275 -8.7864131925011504e-10
323 275 -1.9551726292299698e-05
276 276 5.6189228464673897e-02
277 276 -4.7725499985391498e-04
323 276 -1.2675907460138201e-04
276 277 -4.8228460388559000e-04
277 277 4.4328192974014101e-02
322 277 -4.3554006968641097e-02
323 277 -1.2674310949641399e-04
275 278 -7.7514203437324605e-12
278 278 5.2955263017256900e-02
322 278 -5.2910052910052900e-02
323 278 -1.8972926784837900e-05
279 279 5.0940743441624900e-02
280 279 -3.9688192113762201e-10
322 279 -3.5173244761258601e-05
279 280 -1.6102892586859899e-12
280 280 4.0767413242396501e-02
322 280 -3.5153090549765799e-05
2394 280 -4.0650406504064998e-02
281 281 2.8665739071352297e-01
282 281 -7.5525852842202703e-04
281 282 -7.7731588804148800e-04
282 282 1.0309474740030800e-01
283 282 -1.0204081632653100e-01
282 283 -1.0204081632653100e-01
283 283 2.6078100372129598e-01
284 283 -1.5873015873015900e-01
283 284 -1.5873015873015900e-01
284 284 1.5886902568561001e-01
289 284 -5.4901762368843803e-09
285 285 5.1459922850898801e-02
288 285 -4.3098335998839003e-04
286 286 5.1148689176994999e-02
287 286 -1.1950881093527800e-04
286 287 -1.3016145647727601e-04
287 287 4.1049962310187801e-02
2382 287 -4.0650406504064998e-02
285 288 -4.3862100687618900e-04
288 288 4.1358903838555998e-02
2382 288 -4.0650406504064998e-02
284 289 -3.2228313871295799e-11
289 289 2.8577231260857699e-01
2382 289 -2.8571428571428598e-01
290 290 5.0940743358366201e-02
291 290 -2.1180409104488600e-10
2382 290 -3.5171599647440798e-05
290 291 -8.5749801795956602e-13
291 291 4.0767413263329298e-02
2382 291 -3.5152513941332402e-05
2394 291 -4.0650406504064998e-02
292 292 2.8715210113296102e-01
293 292 -1.2403542511876000e-03
2382 292 -1.2470535204860500e-04
292 293 -1.2453388607907600e-03
293 293 1.0355089710004900e-01
294 293 -1.0204081632653100e-01
2382 293 -1.2469546031491899e-04
293 294 -1.0204081632653100e-01
294 294 2.6078100372129598e-01
295 294 -1.5873015873015900e-01
322 294 -4.9830318518561402e-06
294 295 -1.5873015873015900e-01
295 295 1.6019391083193699e-01
296 295 -1.2203633533717801e-03
322 295 -1.2470053626970301e-04
295 296 -1.2254881042006601e-03
296 296 2.8712689907050698e-01
322 296 -1.2470027647608001e-04
2394 296 -2.8571428571428598e-01
297 297 1.0187648086522000e-01
298 297 -8.4234164160372896e-10
321 297 -7.0346591430407897e-05
297 298 -3.4291570629571500e-12
298 298 7.6453516586743403e-02
299 298 -7.6219512195121894e-02
321 298 -7.0306210184333494e-05
298 299 -7.6219512195121894e-02
299 299 3.2083755121730201e-01
300 299 -1.4285714285714299e-01
320 299 -1.0162601626016300e-01
321 299 -1.6839642815946000e-05
299 300 -1.4285714285714299e-01
300 300 1.4431351261929601e-01
301 300 -1.2209016825562101e-03
321 300 -1.2470057466874501e-04
300 301 -1.2259507704594299e-03
301 301 1.3134333499563899e-01
319 301 -1.2987012987013000e-01
321 301 -1.2469922993748700e-04
302 302 1.4298556738032001e-01
303 302 -1.7745660665168300e-09
324 302 -3.7149811000356701e-05
302 303 -1.7835515616848501e-09
303 303 1.0220890930936100e-01
319 303 -1.0204081632653100e-01
324 303 -3.7166887270154900e-05
304 304 1.4430803387345101e-01
305 304 -1.2256996059559801e-03
2387 304 -1.2469804644297400e-04
304 305 -1.2207232917872200e-03
305 305 1.0353665890509400e-01
319 305 -1.0204081632653100e-01
2387 305 -1.2470209759695599e-04
306 306 5.1466384274517600e-02
307 306 -4.2777708323939401e-04
324 306 -1.1389129918268000e-04
306 307 -4.3231717580174999e-04
307 307 4.1344852926439302e-02
321 307 -4.0650406504064998e-02
324 307 -1.1388216767507300e-04
308 308 5.0940743653045600e-02
309 308 -6.1684193276552900e-10
2387 308 -3.5173214592781801e-05
308 309 -6.1255724151210995e-10
309 309 4.0823881458098600e-02
321 309 -4.0650406504064998e-02
2387 309 -3.5173204258785298e-05
310 310 2.8712712965061898e-01
311 310 -1.2256999820663701e-03
2387 310 -1.2469912832211200e-04
310 311 -1.2206518703591299e-03
311 311 1.0353658116976901e-01
312 311 -1.0204081632653100e-01
2387 311 -1.2470132377704100e-04
311 312 -1.0204081632653100e-01
312 312 2.6078100372129598e-01
313 312 -1.5873015873015900e-01
324 312 -4.9830318518561402e-06
312 313 -1.5873015873015900e-01
313 313 1.5886655867107199e-01
314 313 -1.8625328418665899e-09
324 313 -3.7260994430871299e-05
313 314 -1.6516086606905398e-11
314 314 2.8577242196481800e-01
321 314 -2.8571428571428598e-01
324 314 -3.6143311840058803e-05
315 315 1.0187648082064400e-01
316 315 -8.0999031068101599e-10
2387 315 -7.0346601967767903e-05
315 316 -3.2540110191732202e-12
316 316 7.6462224737670004e-02
317 316 -7.6219512195121894e-02
2387 316 -7.0308481699719695e-05
316 317 -7.6219512195121894e-02
317 317 1.7787602135497099e-01
318 317 -1.0162601626016300e-01
324 317 -2.0695858419894999e-05
317 318 -1.0162601626016300e-01
318 318 1.0180816648955900e-01
320 318 -1.8706236498103801e-08
324 318 -7.0361557210855499e-05
301 319 -1.2987012987013000e-01
303 319 -1.0204081632653100e-01
305 319 -1.0204081632653100e-01
319 319 3.3399070028464700e-01
321 319 -6.5230140573292702e-06
324 319 -3.9814174092719904e-06
2387 319 -4.1441797561919198e-06
299 320 -1.0162601626016300e-01
318 320 -7.9217022917927598e-11
320 320 1.0180245440501100e-01
324 320 -7.0353325564777403e-05
297 321 -7.0288976152248404e-05
298 321 -7.0287610864436901e-05
299 321 -1.6839642815946000e-05
300 321 -1.2397617677278901e-04
301 321 -1.2389592206909800e-04
307 321 -4.0650406504064998e-02
309 321 -4.0650406504064998e-02
314 321 -2.8571428571428598e-01
319 321 -6.5230140573292702e-06
321 321 3.6782609968965602e-01
322 321 -2.1722513223543700e-06
323 321 -9.8909426205184702e-07
324 321 -8.5137227619652705e-06
2382 321 -9.8909426205184702e-07
2384 321 -1.9719284338375401e-06
2387 321 -9.8909426205184702e-07
2390 321 -2.3725742108711999e-06
2391 321 -1.9719284338375401e-06
2394 321 -9.8909426205184702e-07
277 322 -4.3554006968641097e-02
278 322 -5.2910052910052900e-02
279 322 -3.5144466110350100e-05
280 322 -3.5143827397992601e-05
294 322 -4.9830318518561402e-06
295 322 -1.2394043627145400e-04
296 322 -1.2393157781574000e-04
321 322 -2.1722513223543700e-06
322 322 9.7133270251106602e-02
323 322 -9.8909426205184702e-07
324 322 -1.9719284338375401e-06
2371 322 -1.9719284338375401e-06
2382 322 -2.8045204392356201e-06
2384 322 -2.1722513223543700e-06
2387 322 -1.9719284338375401e-06
2390 322 -2.1722513223543700e-06
2391 322 -1.9719284338375401e-06
2392 322 -1.9719284338375401e-06
2393 322 -1.9719284338375401e-06
2394 322 -7.0864221812828501e-06
267 323 -5.1020408163265300e-02
269 323 -5.1020408163265300e-02
274 323 -2.0325203252032500e-01
275 323 -1.8615741216704300e-05
276 323 -1.2552025337279600e-04
277 323 -1.2533540056950800e-04
278 323 -1.8614267614148501e-05
321 323 -9.8909426205184702e-07
322 323 -9.8909426205184702e-07
323 323 3.0589731816653398e-01
324 323 -1.3897400390855100e-06
2371 323 -9.8909426205184702e-07
2378 323 -4.5823860748224796e-06
2384 323 -9.8909426205184702e-07
2387 323 -9.8909426205184702e-07
2390 323 -1.9719284338375401e-06
2391 323 -9.8909426205184702e-07
2392 323 -9.8909426205184702e-07
2393 323 -2.2911930374112398e-06
249 324 -5.1020408163265300e-02
251 324 -5.1020408163265300e-02
265 324 -2.0325203252032500e-01
302 324 -3.5457146598538297e-05
303 324 -3.5457155936419399e-05
306 324 -1.1261593318980800e-04
307 324 -1.1251072163033600e-04
312 324 -4.9830318518561402e-06
313 324 -3.5458721098456200e-05
314 324 -3.5455581436501497e-05
317 324 -2.0695858419894999e-05
318 324 -7.0305184561938295e-05
319 324 -3.9814174092719904e-06
320 324 -7.0271402454746997e-05
321 324 -8.5137227619652705e-06
322 324 -1.9719284338375401e-06
323 324 -1.3897400390855100e-06
324 324 3.0639600336236600e-01
2382 324 -9.8909426205184702e-07
2384 324 -9.8909426205184702e-07
2387 324 -4.4384039987010096e-06
2388 324 -4.5823860748224796e-06
2390 324 -2.9610226958893901e-06
2391 324 -1.9719284338375401e-06
2392 324 -9.8909426205184702e-07
2393 324 -1.0391749841810499e-06
2394 324 -9.8909426205184702e-07
325 325 5.1465839835243797e-02
326 325 -4.2723329303140199e-04
2394 325 -1.1389452818802200e-04
325 326 -4.3172737458894398e-04
326 326 4.1344247618969598e-02
357 326 -4.0650406504064998e-02
2394 326 -1.1387893791033099e-04
327 327 5.1466800771111300e-02
328 327 -4.2818790872210398e-04
2389 327 -1.1389453203917500e-04
327 328 -4.3268840484574100e-04
328 328 4.1345201169804897e-02
357 328 -4.0650406504064998e-02
2389 328 -1.1387893405803699e-04
329 329 2.8580466168806501e-01
330 329 -1.4118081151157901e-09
2389 329 -3.7144087866562600e-05
329 330 -6.8982910172700299e-10
330 330 1.0220485427510000e-01
331 330 -1.0204081632653100e-01
2389 330 -3.7103201510434702e-05
330 331 -1.0204081632653100e-01
331 331 2.6078100372129598e-01
332 331 -1.5873015873015900e-01
2394 331 -4.9830318518561402e-06
331 332 -1.5873015873015900e-01
332 332 1.5886388459391301e-01
333 332 -1.0713913842797900e-09
2394 332 -3.7221070010363400e-05
332 333 -9.6539287051993099e-12
333 333 2.8577242265539299e-01
357 333 -2.8571428571428598e-01
2394 333 -3.6147904834511602e-05
334 334 2.8712706643120001e-01
335 334 -1.2256507693987899e-03
357 334 -1.2468093753442700e-04
334 335 -1.2218079942743201e-03
335 335 1.0353784281232400e-01
336 335 -1.0204081632653100e-01
357 335 -1.2471439750940300e-04
335 336 -1.0204081632653100e-01
336 336 2.2109748746467500e-01
338 336 -1.1904761904761900e-01
357 336 -3.0048433277524500e-06
378 336 -1.0016144425841501e-06
337 337 2.8714095164875197e-01
338 337 -1.2292483104269401e-03
378 337 -2.8571428571428598e-01
2374 337 -1.2469982860446001e-04
336 338 -1.1904761904761900e-01
337 338 -1.2338851888999199e-03
338 338 1.2053411834381300e-01
2374 338 -1.2469345300209400e-04
339 339 1.0189245408870400e-01
340 339 -8.0923673239852796e-10
357 339 -7.0346611271153398e-05
339 340 -3.2492566827796598e-12
340 340 7.6462664130604305e-02
356 340 -7.6219512195121894e-02
357 340 -7.0308601849665894e-05
341 341 2.8580466159030099e-01
342 341 -1.3369258050968700e-09
341 342 -1.8161619142897399e-11
342 342 1.0215376980448200e-01
343 342 -1.0204081632653100e-01
342 343 -1.0204081632653100e-01
343 343 2.6078100372129598e-01
344 343 -1.5873015873015900e-01
343 344 -1.5873015873015900e-01
344 344 1.5915964245409900e-01
349 344 -2.0261722330452099e-04
345 345 5.1152801520828399e-02
348 345 -1.2130545027172300e-04
346 346 5.1460836675697300e-02
347 346 -4.3158895277324799e-04
346 347 -4.3129604929114502e-04
347 347 4.1351151468542999e-02
2374 347 -4.0650406504064998e-02
345 348 -1.2426293505380900e-04
348 348 4.1041838655565398e-02
2374 348 -4.0650406504064998e-02
344 349 -6.0172686277115998e-06
349 349 2.8577705458432501e-01
2374 349 -2.8571428571428598e-01
350 350 1.0189245355942500e-01
351 350 -6.4918861325805704e-10
2374 350 -7.0345307181155205e-05
350 351 -2.6046419154577099e-12
351 351 7.6462664030346295e-02
356 351 -7.6219512195121894e-02
2374 351 -7.0308149152336903e-05
352 352 1.1920331415245800e-01
353 352 -1.7759090867375600e-09
2376 352 -3.7149794898055899e-05
352 353 -1.8791420807998402e-09
353 353 1.0220913186081700e-01
378 353 -1.0204081632653100e-01
2376 353 -3.7339729258564197e-05
354 354 1.0181209461762900e-01
355 354 -1.2306841853615999e-10
378 354 -1.0162601626016300e-01
2376 354 -7.0353303614030099e-05
354 355 -2.9054360720648302e-08
355 355 1.5263137853735001e-01
356 355 -1.5243902439024401e-01
2376 355 -7.0361986100866896e-05
340 356 -7.6219512195121894e-02
351 356 -7.6219512195121894e-02
355 356 -1.5243902439024401e-01
356 356 3.0493383244485001e-01
357 356 -3.9814174092719904e-06
2374 356 -5.9721261139079898e-06
2376 356 -1.9637903164915501e-05
326 357 -4.0650406504064998e-02
328 357 -4.0650406504064998e-02
333 357 -2.8571428571428598e-01
334 357 -1.2327274515306900e-04
335 357 -1.2460082976472901e-04
336 357 -3.0048433277524500e-06
339 357 -7.0288949343327503e-05
340 357 -7.0287637673357802e-05
356 357 -3.9814174092719904e-06
357 357 3.6773461386572498e-01
378 357 -2.2160719542174299e-06
2374 357 -9.8909426205184702e-07
2394 357 -6.0973279192310098e-06
358 358 2.8712709225906202e-01
359 358 -1.2256624947305601e-03
2390 358 -1.2469913734380601e-04
358 359 -1.2206138705684599e-03
359 359 1.0353654302856501e-01
360 359 -1.0204081632653100e-01
2390 359 -1.2470131731608301e-04
359 360 -1.0204081632653100e-01
360 360 2.2109748746467500e-01
362 360 -1.1904761904761900e-01
377 360 -1.0016144425841501e-06
2390 360 -3.0048433277524500e-06
361 361 2.8577242312930801e-01
362 361 -1.6523068791257301e-11
377 361 -2.8571428571428598e-01
2376 361 -3.6143387181326303e-05
360 362 -1.1904761904761900e-01
361 362 -1.8631726265567699e-09
362 362 1.1920332416935800e-01
2376 362 -3.7261006057830501e-05
363 363 1.0189245457343800e-01
364 363 -1.3150480260826699e-09
2390 363 -7.0346556691259598e-05
363 364 -1.2979630921933999e-09
364 364 7.6566421803656096e-02
376 364 -7.6219512195121894e-02
2390 364 -7.0346517717912100e-05
365 365 1.0294362400880600e-01
366 365 -8.5670859972517802e-04
2376 365 -2.2646673428162699e-04
365 366 -8.6573496467795303e-04
366 366 7.7608082934448194e-02
376 366 -7.6219512195121894e-02
2376 366 -2.2643301216144999e-04
367 367 5.5603065044800302e-02
368 367 -4.4946048856278902e-10
377 367 -3.9193068946275402e-05
367 368 -1.8249067760032298e-12
368 368 4.3684378408632797e-02
369 368 -4.3554006968641097e-02
377 368 -3.9170593411073900e-05
368 369 -4.3554006968641097e-02
369 369 9.6566731619149193e-02
371 369 -5.2910052910052900e-02
370 370 4.0485650204140501e-02
371 370 -6.4209440349486996e-04
377 370 -6.5830501383245805e-05
369 371 -5.2910052910052900e-02
370 371 -6.3943318414971004e-04
371 371 5.3694275567166001e-02
377 371 -6.5830947372076998e-05
372 372 1.1920331423375401e-01
373 372 -1.8968587990744999e-09
378 372 -3.7256690275412700e-05
372 373 -1.6859247648305499e-11
373 373 1.0212692794928600e-01
377 373 -1.0204081632653100e-01
378 373 -3.6144810332017197e-05
374 374 1.0293364718282599e-01
375 374 -8.6532150165473496e-04
377 374 -1.0162601626016300e-01
378 374 -2.2644721996731800e-04
374 375 -8.5611909793103505e-04
375 375 1.5375452377301099e-01
376 375 -1.5243902439024401e-01
378 375 -2.2645252913524699e-04
364 376 -7.6219512195121894e-02
366 376 -7.6219512195121894e-02
375 376 -1.5243902439024401e-01
376 376 3.0493383244485001e-01
378 376 -1.9637903164915501e-05
2376 376 -5.9721261139079898e-06
2390 376 -3.9814174092719904e-06
360 377 -1.0016144425841501e-06
361 377 -2.8571428571428598e-01
367 377 -3.9160982864415599e-05
368 377 -3.9160258473451902e-05
370 377 -6.5056219944074802e-05
371 377 -6.5076606154005595e-05
373 377 -1.0204081632653100e-01
374 377 -1.0162601626016300e-01
377 377 4.8994140667135899e-01
378 377 -2.2160719542174299e-06
2371 377 -9.8909426205184702e-07
2376 377 -4.2130407491195804e-06
2384 377 -9.8909426205184702e-07
2390 377 -4.1880003880549696e-06
2391 377 -1.9719284338375401e-06
2394 377 -1.9719284338375401e-06
336 378 -1.0016144425841501e-06
337 378 -2.8571428571428598e-01
353 378 -1.0204081632653100e-01
354 378 -1.0162601626016300e-01
357 378 -2.2160719542174299e-06
372 378 -3.5458753085845900e-05
373 378 -3.5455549449111797e-05
374 378 -2.2509525361615699e-04
375 378 -2.2515753100887099e-04
376 378 -1.9637903164915501e-05
377 378 -2.2160719542174299e-06
378 378 4.9026015791904998e-01
2369 378 -9.8909426205184702e-07
2374 378 -4.2130407491195804e-06
2376 378 -4.1880003880549696e-06
2389 378 -1.9719284338375401e-06
2390 378 -9.8909426205184702e-07
2391 378 -9.8909426205184702e-07
2393 378 -9.8909426205184702e-07
2394 378 -1.9719284338375401e-06
379 379 4.0473465599006803e-02
391 379 -6.2989031792140700e-04
440 379 -6.5784634765072203e-05
380 380 6.8533555290223702e-02
388 380 -3.7407380426774902e-04
381 381 6.8091355047068494e-02
387 381 -9.0778535804794799e-10
382 382 2.0447348068410201e-01
383 382 -8.6286227945413599e-04
382 383 -8.8112333925592905e-04
383 383 8.8528089763510301e-02
384 383 -8.7108013937282194e-02
383 384 -8.7108013937282194e-02
384 384 2.0907633601608400e-01
385 384 -1.2195121951219499e-01
384 385 -1.2195121951219499e-01
385 385 1.2269037361759000e-01
386 385 -2.4933453246926999e-04
385 386 -2.1179914694781200e-04
386 386 2.0380935760634500e-01
440 386 -2.0325203252032500e-01
381 387 -8.0704867571104195e-12
387 387 5.2954238476953401e-02
440 387 -5.2910052910052900e-02
380 388 -2.2487533328850701e-05
388 388 5.2976292337131699e-02
440 388 -5.2910052910052900e-02
389 389 5.5603060980567103e-02
390 389 -9.4137416737983199e-10
440 389 -3.9195436583098598e-05
389 390 -3.8324085127220400e-12
390 390 4.3686413048228900e-02
440 390 -3.9171308460364302e-05
2389 390 -4.3554006968641097e-02
379 391 -6.3018978240449598e-04
391 391 5.3687817537340102e-02
440 391 -6.5852341345583600e-05
2389 391 -5.2910052910052900e-02
392 392 5.1467227037110701e-02
393 392 -4.2860983641116899e-04
439 392 -1.1389590794574900e-04
392 393 -4.3309513723294602e-04
393 393 3.8808122005633397e-02
415 393 -3.8109756097561003e-02
439 393 -1.1387755770709300e-04
394 394 5.1465888252322699e-02
395 394 -4.2728015323455502e-04
2388 394 -1.1389591920081700e-04
394 395 -4.3175634286069198e-04
395 395 3.8806793196822800e-02
415 395 -3.8109756097561003e-02
2388 395 -1.1387754644809001e-04
396 396 2.8580466182123798e-01
397 396 -1.5642139467998600e-09
2388 396 -3.7160534453924398e-05
396 397 -7.7695774170293703e-10
397 397 1.0220971809042600e-01
398 397 -1.0204081632653100e-01
2388 397 -3.7119913340896798e-05
397 398 -1.0204081632653100e-01
398 398 2.6078100372129598e-01
399 398 -1.5873015873015900e-01
439 398 -4.9830318518561402e-06
398 399 -1.5873015873015900e-01
399 399 1.5886392468710800e-01
400 399 -9.3276197896421594e-10
439 399 -3.7196621817926998e-05
399 400 -8.3831021712051596e-12
400 400 2.8577242295817601e-01
415 400 -2.8571428571428598e-01
439 400 -3.6138086740458097e-05
401 401 4.0485665019351802e-02
404 401 -6.4210959060435999e-04
415 401 -6.5829940137009606e-05
402 402 5.5603065044690397e-02
403 402 -4.4904690674573602e-10
415 402 -3.9193065919408403e-05
402 403 -1.8232255274598602e-12
403 403 4.3686463279594197e-02
414 403 -4.3554006968641097e-02
415 403 -3.9170592328041297e-05
401 404 -6.3948515251780304e-04
404 404 5.3696878412981298e-02
414 404 -5.2910052910052900e-02
415 404 -6.5831209314450199e-05
405 405 6.8091355074890697e-02
406 405 -9.3553757254300507e-10
2381 405 -1.8630666331283000e-05
405 406 -8.2647200084747093e-12
406 406 5.1065024840286799e-02
2381 406 -1.8073299633402899e-05
2395 406 -5.1020408163265300e-02
407 407 6.8091355052224703e-02
408 407 -9.1318612625599697e-10
414 407 -1.8628574321109599e-05
407 408 -8.0640022678304105e-12
408 408 5.1065024840054797e-02
414 408 -1.8072500209032400e-05
2395 408 -5.1020408163265300e-02
409 409 2.0448599857655000e-01
410 409 -8.5581855247075203e-04
414 409 -2.2645774331337101e-04
409 410 -8.6495809050140301e-04
410 410 7.7613706513178393e-02
411 410 -7.6219512195121894e-02
414 410 -2.2644200526281201e-04
410 411 -7.6219512195121894e-02
411 411 1.9818783427392400e-01
412 411 -1.2195121951219499e-01
2381 411 -1.2056933852606700e-05
411 412 -1.2195121951219499e-01
412 412 1.2328803162085300e-01
413 412 -8.5523493821342597e-04
2381 412 -2.2646429367898199e-04
412 413 -8.6427975918379300e-04
413 413 2.0447590398348101e-01
2381 413 -2.2643545349653501e-04
2395 413 -2.0325203252032500e-01
403 414 -4.3554006968641097e-02
404 414 -5.2910052910052900e-02
407 414 -1.7729341079487000e-05
408 414 -1.7727810187991899e-05
409 414 -2.2521887262545300e-04
410 414 -2.2503434558517499e-04
414 414 9.7174789819128499e-02
2372 414 -9.1397317885803597e-07
2381 414 -7.9816150893424393e-06
393 415 -3.8109756097561003e-02
395 415 -3.8109756097561003e-02
400 415 -2.8571428571428598e-01
401 415 -6.5037431477269096e-05
402 415 -3.9160982530150899e-05
403 415 -3.9160258807716602e-05
404 415 -6.5095439307803594e-05
415 415 3.6251303787822903e-01
439 415 -7.0864221812828501e-06
2372 415 -1.9719284338375401e-06
2395 415 -9.8909426205184702e-07
416 416 4.0464543699650898e-02
419 416 -6.2096143711968101e-04
2378 416 -6.5773583246664393e-05
417 417 5.5603063443310799e-02
418 417 -1.6095392038616000e-09
2378 417 -3.9197096086581601e-05
417 418 -6.5646841965289400e-12
418 418 4.3686402593294898e-02
438 418 -4.3554006968641097e-02
2378 418 -3.9171814672513397e-05
416 419 -6.2192614538567699e-04
419 419 5.3679589399086999e-02
438 419 -5.2910052910052900e-02
2378 419 -6.5858477790029700e-05
420 420 5.1467206659303502e-02
421 420 -4.2858097711678702e-04
439 420 -1.1390523075869200e-04
420 421 -4.3294361547728598e-04
421 421 3.8807912728080200e-02
439 421 -1.1386822998442900e-04
2385 421 -3.8109756097561003e-02
422 422 5.1466971654519501e-02
423 422 -4.2834756953078000e-04
438 422 -1.1390523978394501e-04
422 423 -4.3270859997796398e-04
423 423 3.8807679441517598e-02
438 423 -1.1386822095281600e-04
2385 423 -3.8109756097561003e-02
424 424 2.8580466167865398e-01
425 424 -1.4073584666481800e-09
438 424 -3.7140472426089297e-05
424 425 -7.1746943120829203e-10
425 425 1.0220982094522400e-01
426 425 -1.0204081632653100e-01
438 425 -3.7101333266029800e-05
425 426 -1.0204081632653100e-01
426 426 2.6078100372129598e-01
427 426 -1.5873015873015900e-01
439 426 -4.9830318518561402e-06
426 427 -1.5873015873015900e-01
427 427 1.5886399159575401e-01
428 427 -9.4751495096062893e-10
439 427 -3.7197644635669399e-05
427 428 -8.5136837454465003e-12
428 428 2.8577242500168498e-01
439 428 -3.6138147477614300e-05
2385 428 -2.8571428571428598e-01
429 429 6.8731760514048695e-02
430 429 -5.9162416599422803e-04
2375 429 -6.2665375463392403e-05
429 430 -5.9332008581579896e-04
430 430 5.1754413934935697e-02
439 430 -5.1020408163265300e-02
2375 430 -6.2763745344934300e-05
431 431 6.8739807313904097e-02
432 431 -5.9968719682273303e-04
440 431 -6.2666308714009203e-05
431 432 -6.0136706149909803e-04
432 432 5.1762481379768903e-02
439 432 -5.1020408163265300e-02
440 432 -6.2762623041150105e-05
433 433 2.0343573229513401e-01
434 433 -2.1971400678120600e-09
440 433 -7.0350835055701903e-05
433 434 -9.3381137662612700e-10
434 434 7.6568398852979003e-02
435 434 -7.6219512195121894e-02
440 434 -7.0348731077317199e-05
434 435 -7.6219512195121894e-02
435 435 1.9818783427392400e-01
436 435 -1.2195121951219499e-01
2375 435 -1.2056933852606700e-05
435 436 -1.2195121951219499e-01
436 436 1.2223500169517700e-01
437 436 -1.4990974239851401e-09
2375 436 -7.0351533844379406e-05
436 437 -6.1334454126202098e-12
437 437 2.0338940219031101e-01
439 437 -2.0325203252032500e-01
2375 437 -7.0308370218271802e-05
418 438 -4.3554006968641097e-02
419 438 -5.2910052910052900e-02
422 438 -1.1277746534532301e-04
423 438 -1.1235032330779301e-04
424 438 -3.5457729617370897e-05
425 438 -3.5456572917586901e-05
438 438 9.7084587756065599e-02
439 438 -3.8624756942151201e-06
440 438 -9.8909426205184702e-07
2375 438 -9.8909426205184702e-07
2385 438 -9.8909426205184702e-07
392 439 -1.1266946455064600e-04
393 439 -1.1245756618298201e-04
398 439 -4.9830318518561402e-06
399 439 -3.5457941029766801e-05
400 439 -3.5456361505190902e-05
415 439 -7.0864221812828501e-06
420 439 -1.1277749570677999e-04
421 439 -1.1235029240990000e-04
426 439 -4.9830318518561402e-06
427 439 -3.5457953455960000e-05
428 439 -3.5456349078997703e-05
430 439 -5.1020408163265300e-02
432 439 -5.1020408163265300e-02
437 439 -2.0325203252032500e-01
438 439 -3.8624756942151201e-06
439 439 3.0635936251135898e-01
2375 439 -4.5823860748224796e-06
2379 439 -6.6544759529184399e-06
2385 439 -6.0973279192310098e-06
2388 439 -2.8796415224294300e-06
379 440 -6.3551478921469894e-05
386 440 -2.0325203252032500e-01
387 440 -5.2910052910052900e-02
388 440 -5.2910052910052900e-02
389 440 -3.9161380921401098e-05
390 440 -3.9159860416466498e-05
391 440 -6.6584930685106494e-05
431 440 -5.9802568534130399e-05
432 440 -6.4138547924228695e-05
433 440 -7.0289322437365305e-05
434 440 -7.0287264579320001e-05
438 440 -9.8909426205184702e-07
440 440 3.1009618175928300e-01
1067 440 -9.8909426205184702e-07
1068 440 -9.8909426205184702e-07
2370 440 -9.8909426205184702e-07
2375 440 -8.8955882682004692e-06
2378 440 -9.8909426205184702e-07
2379 440 -9.8909426205184702e-07
2380 440 -9.8909426205184702e-07
2381 440 -9.8909426205184702e-07
2388 440 -9.8909426205184702e-07
441 441 4.0485751973159401e-02
444 441 -6.4219644801190702e-04
459 441 -6.5830438781882395e-05
442 442 5.5603065041439900e-02
443 442 -4.4670357201285499e-10
459 442 -3.9193048838223500e-05
442 443 -1.8136757874092200e-12
443 443 4.7033361895543198e-02
449 443 -4.6904315196998100e-02
459 443 -3.9170587214013003e-05
441 444 -6.3953909819496296e-04
444 444 5.5729453588249003e-02
449 444 -5.4945054945054903e-02
459 444 -6.5830976385095698e-05
445 445 3.9792375791265398e-02
448 445 -9.6636772435233200e-10
449 445 -1.9560356921429101e-05
446 446 5.6183026805664400e-02
447 446 -4.8135425062731998e-04
449 446 -1.2671673080589900e-04
446 447 -4.7710237708616701e-04
447 447 4.7681361318696901e-02
449 447 -1.2676857843023999e-04
2367 447 -4.6904315196998100e-02
445 448 -8.5354146601385392e-12
448 448 5.4991266956555700e-02
449 448 -1.8976052076412900e-05
2367 448 -5.4945054945054903e-02
443 449 -4.6904315196998100e-02
444 449 -5.4945054945054903e-02
445 449 -1.8615815033354799e-05
446 449 -1.2503185391879399e-04
447 449 -1.2582594837405299e-04
448 449 -1.8614193797497999e-05
449 449 1.0239116135640100e-01
450 450 6.8091355052489796e-02
451 450 -9.1385995645718204e-10
1066 450 -1.8628637180398402e-05
450 451 -8.0694712195559304e-12
451 451 5.2954075783290998e-02
459 451 -5.2910052910052900e-02
1066 451 -1.8072494280049699e-05
452 452 6.8091355014457997e-02
453 452 -8.6351709922513405e-10
2373 452 -1.8623733738553000e-05
452 453 -7.6176757958380596e-12
453 453 5.2954075783967901e-02
459 453 -5.2910052910052900e-02
2373 453 -1.8070616442894300e-05
454 454 2.0448705013156601e-01
455 454 -8.5685953064609105e-04
2373 454 -2.2646114273509101e-04
454 455 -8.6596119222388996e-04
455 455 8.8492742567568894e-02
456 455 -8.7108013937282194e-02
2373 455 -2.2643860521697601e-04
455 456 -8.7108013937282194e-02
456 456 2.0907633601608400e-01
457 456 -1.2195121951219499e-01
1066 456 -1.2056933852606700e-05
456 457 -1.2195121951219499e-01
457 457 1.2327920241404100e-01
458 457 -8.6490935825706201e-04
1066 457 -2.2644834740233799e-04
457 458 -8.5569147125877495e-04
458 458 2.0448583210498000e-01
459 458 -2.0325203252032500e-01
1066 458 -2.2645140174545100e-04
441 459 -6.5054122275975699e-05
442 459 -3.9160980636291901e-05
443 459 -3.9160260701575600e-05
444 459 -6.5078708808210398e-05
451 459 -5.2910052910052900e-02
453 459 -5.2910052910052900e-02
458 459 -2.0325203252032500e-01
459 459 3.0957368482697600e-01
1066 459 -4.5823860748224796e-06
460 460 6.8091355027606507e-02
461 460 -8.8143630607568903e-10
2366 460 -1.8577881716552501e-05
460 461 -9.4665203523736703e-10
461 461 5.2994308188897103e-02
502 461 -5.2910052910052900e-02
2366 461 -1.8696664499617402e-05
462 462 6.8752783290714395e-02
463 462 -6.1266015176634396e-04
2364 462 -6.2715386556100699e-05
462 463 -6.1122070341437405e-04
463 463 5.3659357783508700e-02
502 463 -5.2910052910052900e-02
2364 463 -6.2739777904444606e-05
464 464 6.8534959004353094e-02
472 464 -3.7549316041887802e-04
465 465 6.8091355054921504e-02
471 465 -9.1563862775822200e-10
466 466 2.0447279805142901e-01
467 466 -8.6240778557975504e-04
466 467 -8.8615534155638703e-04
467 467 7.7652174940866805e-02
468 467 -7.6219512195121894e-02
467 468 -7.6219512195121894e-02
468 468 1.9818783427392400e-01
469 468 -1.2195121951219499e-01
468 469 -1.2195121951219499e-01
469 469 1.2270296315387701e-01
470 469 -2.6958644569577498e-04
469 470 -2.4250846035592499e-04
470 470 2.0385254387427401e-01
2364 470 -2.0325203252032500e-01
465 471 -8.0798959200981002e-12
471 471 5.1064804750769098e-02
2364 471 -5.1020408163265300e-02
464 472 -2.2388070056751802e-05
472 472 5.1086763872086098e-02
2364 472 -5.1020408163265300e-02
473 473 2.0343573178203500e-01
474 473 -7.4982141702851600e-10
2364 473 -7.0346150069356105e-05
473 474 -3.0113970727427301e-12
474 474 8.7348249342884807e-02
475 474 -8.7108013937282194e-02
2364 474 -7.0308332537900596e-05
474 475 -8.7108013937282194e-02
475 475 2.0907633601608400e-01
476 475 -1.2195121951219499e-01
2366 475 -1.2056933852606700e-05
475 476 -1.2195121951219499e-01
476 476 1.2215703076149199e-01
477 476 -1.8116574906400199e-08
2366 476 -7.0361537047989494e-05
476 477 -7.6718793642572695e-11
477 477 2.0338944172871501e-01
502 477 -2.0325203252032500e-01
2366 477 -7.0353256623784894e-05
478 478 1.0187648086437100e-01
479 478 -8.4212366676276198e-10
500 478 -7.0346590367371899e-05
478 479 -3.4281739911311801e-12
479 479 8.7339662155557996e-02
500 479 -7.0306213560585205e-05
2372 479 -8.7108013937282194e-02
480 480 1.4430762260628299e-01
481 480 -1.2253629151290700e-03
500 480 -1.2469471598649601e-04
2372 480 -1.4285714285714299e-01
480 481 -1.2204533580140299e-03
481 481 1.3134804394513899e-01
500 481 -1.2470609625296600e-04
501 481 -1.2987012987013000e-01
482 482 1.4298556740382501e-01
483 482 -1.7997186286529700e-09
502 482 -3.7152284042773303e-05
482 483 -1.7876411121468700e-09
483 483 1.0220900658619000e-01
501 483 -1.0204081632653100e-01
502 483 -3.7151776473753801e-05
484 484 1.4431463415913900e-01
485 484 -1.2220251838768700e-03
2367 484 -1.2470547302911099e-04
484 485 -1.2269650260287000e-03
485 485 1.0353273185353699e-01
501 485 -1.0204081632653100e-01
2367 485 -1.2469533931527501e-04
486 486 5.1466251956578599e-02
487 486 -4.2764582456966698e-04
502 486 -1.1389115410077799e-04
486 487 -4.3218690696215402e-04
487 487 4.1342687572174602e-02
500 487 -4.0650406504064998e-02
502 487 -1.1388231278178000e-04
488 488 5.0940743629829602e-02
489 488 -5.8868967840280800e-10
2367 488 -3.5173077829766900e-05
488 489 -5.8473049615194396e-10
489 489 4.0821845240806502e-02
500 489 -4.0650406504064998e-02
2367 489 -3.5173067873628698e-05
490 490 2.8712859913645100e-01
491 490 -1.2271727667110700e-03
2367 490 -1.2469938278696001e-04
490 491 -1.2221043683194100e-03
491 491 1.0353819993516900e-01
492 491 -1.0204081632653100e-01
2367 491 -1.2470114094284400e-04
491 492 -1.0204081632653100e-01
492 492 2.6078100372129598e-01
493 492 -1.5873015873015900e-01
502 492 -4.9830318518561402e-06
492 493 -1.5873015873015900e-01
493 493 1.5886655716806700e-01
494 493 -1.8876438950027801e-09
502 493 -3.7261840538386697e-05
493 494 -1.6748866996724499e-11
494 494 2.8577242193350899e-01
500 494 -2.8571428571428598e-01
502 494 -3.6144245146466703e-05
495 495 1.0187648079322199e-01
496 495 -7.7294797679814298e-10
2367 495 -7.0346327382554504e-05
495 496 -3.1046523354996101e-12
496 496 8.7348235117809994e-02
497 496 -8.7108013937282194e-02
2367 496 -7.0308389707925698e-05
496 497 -8.7108013937282194e-02
497 497 1.8876452309713099e-01
498 497 -1.0162601626016300e-01
502 497 -2.0695858419894999e-05
497 498 -1.0162601626016300e-01
498 498 1.0180817396047601e-01
499 498 -1.8649118848786800e-08
502 498 -7.0361557036957101e-05
498 499 -7.8974571928586799e-11
499 499 1.0180246400769299e-01
502 499 -7.0353328879242005e-05
2372 499 -1.0162601626016300e-01
478 500 -7.0288975975272606e-05
479 500 -7.0287611041412699e-05
480 500 -1.2374220782545301e-04
481 500 -1.2413025575413900e-04
487 500 -4.0650406504064998e-02
489 500 -4.0650406504064998e-02
494 500 -2.8571428571428598e-01
500 500 3.6772068685821602e-01
501 500 -6.5230140573292702e-06
502 500 -6.3414714396108899e-06
2372 500 -1.6839642815946000e-05
481 501 -1.2987012987013000e-01
483 501 -1.0204081632653100e-01
485 501 -1.0204081632653100e-01
500 501 -6.5230140573292702e-06
501 501 3.3399070028464700e-01
502 501 -3.9814174092719904e-06
2367 501 -4.1441797561919198e-06
461 502 -5.2910052910052900e-02
463 502 -5.2910052910052900e-02
477 502 -2.0325203252032500e-01
482 502 -3.5457161376210398e-05
483 502 -3.5457141158747298e-05
486 502 -1.1261423744535700e-04
487 502 -1.1251240551150200e-04
492 502 -4.9830318518561402e-06
493 502 -3.5458742907553297e-05
494 502 -3.5455559627404400e-05
497 502 -2.0695858419894999e-05
498 502 -7.0305132810948002e-05
499 502 -7.0271454205737304e-05
500 502 -6.3414714396108899e-06
501 502 -3.9814174092719904e-06
502 502 3.1016116706774499e-01
1066 502 -9.8909426205184702e-07
2366 502 -4.5823860748224796e-06
2367 502 -5.4963592536805197e-06
2372 502 -1.2645382337624900e-06
2373 502 -9.8909426205184702e-07
2381 502 -1.9719284338375401e-06
503 503 5.1461834138600400e-02
504 503 -4.3243890783705900e-04
2373 503 -1.1387876245507301e-04
503 504 -4.2804184520201497e-04
504 504 4.1347773631025403e-02
2373 504 -1.1389035766201200e-04
2379 504 -4.0650406504064998e-02
505 505 5.1461649877815797e-02
506 505 -4.3225332711326297e-04
539 505 -1.1387875665797201e-04
505 506 -4.2785762938763600e-04
506 506 4.1347588106136798e-02
539 506 -1.1389036067538999e-04
2379 506 -4.0650406504064998e-02
507 507 2.8580466175625402e-01
508 507 -1.4976833843460099e-09
539 507 -3.7153986446852698e-05
507 508 -7.3437959392729601e-10
508 508 1.0220514424407000e-01
509 508 -1.0204081632653100e-01
539 508 -3.7113024804358398e-05
508 509 -1.0204081632653100e-01
509 509 2.6078100372129598e-01
510 509 -1.5873015873015900e-01
2373 509 -4.9830318518561402e-06
509 510 -1.5873015873015900e-01
510 510 1.5886389294033401e-01
511 510 -1.0072811200347200e-09
2373 510 -3.7210438819673501e-05
510 511 -9.0649031900855397e-12
511 511 2.8577241923510499e-01
2373 511 -3.6143539529842802e-05
2379 511 -2.8571428571428598e-01
512 512 5.1461319525599902e-02
513 512 -4.3191483542685902e-04
1066 512 -1.1388480507917400e-04
512 513 -4.2736732068802800e-04
513 513 4.1347091674811098e-02
1066 513 -1.1388760762691000e-04
2380 513 -4.0650406504064998e-02
514 514 5.1461666752745203e-02
515 514 -4.3226462114624199e-04
539 514 -1.1388481343221600e-04
514 515 -4.2771429505735397e-04
515 515 4.1347441130810701e-02
539 515 -1.1388761644007299e-04
2380 515 -4.0650406504064998e-02
516 516 2.8580466174687902e-01
517 516 -1.4883084345649300e-09
539 516 -3.7154014347311103e-05
516 517 -7.1860088412179702e-10
517 517 1.0220508921669000e-01
518 517 -1.0204081632653100e-01
539 517 -3.7112469878097897e-05
517 518 -1.0204081632653100e-01
518 518 2.6078100372129598e-01
519 518 -1.5873015873015900e-01
1066 518 -4.9830318518561402e-06
518 519 -1.5873015873015900e-01
519 519 1.5886385552055399e-01
520 519 -1.0568610865004800e-09
1066 519 -3.7219466825435801e-05
519 520 -9.5223146534163495e-12
520 520 2.8577242055144197e-01
1066 520 -3.6147373900232700e-05
2380 520 -2.8571428571428598e-01
521 521 6.8751718154185099e-02
522 521 -6.1159560457099704e-04
2368 521 -6.2714971043073000e-05
521 522 -6.1018279588278103e-04
522 522 5.3658317796275598e-02
539 522 -5.2910052910052900e-02
2368 522 -6.2740186647725594e-05
523 523 6.8732360476562795e-02
524 523 -5.9218880020157699e-04
2362 523 -6.2714218668429199e-05
523 524 -5.9083175375281905e-04
524 524 5.3638923123746400e-02
539 524 -5.2910052910052900e-02
2362 524 -6.2740638294694795e-05
525 525 6.8091355042510904e-02
533 525 -9.0322757458205401e-10
526 526 6.8532741767709501e-02
532 526 -3.7325003548471097e-04
527 527 2.0385569145455901e-01
528 527 -2.4216880895023201e-04
527 528 -2.5616302424099198e-04
528 528 7.7012724612429598e-02
529 528 -7.6219512195121894e-02
528 529 -7.6219512195121894e-02
529 529 1.9818783427392400e-01
530 529 -1.2195121951219499e-01
529 530 -1.2195121951219499e-01
530 530 1.2329990383304400e-01
531 530 -8.6506243756429295e-04
530 531 -8.3156994058088097e-04
531 531 2.0443652972693399e-01
2362 531 -2.0325203252032500e-01
526 532 -2.2548565277352299e-05
532 532 5.2977214519585501e-02
2362 532 -5.2910052910052900e-02
525 533 -8.0652895612383400e-12
533 533 5.2955101829143598e-02
2362 533 -5.2910052910052900e-02
534 534 2.0343573474407101e-01
535 534 -3.8743061352958402e-09
2362 534 -7.0353489499924300e-05
534 535 -2.0680210728134200e-09
535 535 8.7447416390522198e-02
536 535 -8.7108013937282194e-02
2362 535 -7.0351697904241998e-05
535 536 -8.7108013937282194e-02
536 536 2.0907633601608400e-01
537 536 -1.2195121951219499e-01
2368 536 -1.2056933852606700e-05
536 537 -1.2195121951219499e-01
537 537 1.2223562812477499e-01
538 537 -4.7941438337450799e-10
2368 537 -7.0344947976643205e-05
537 538 -1.9529091752899902e-12
538 538 2.0338944127160399e-01
539 538 -2.0325203252032500e-01
2368 538 -7.0306188842196005e-05
505 539 -1.1247157538527000e-04
506 539 -1.1265535775610500e-04
507 539 -3.5457791390338701e-05
508 539 -3.5456511144619097e-05
514 539 -1.1254110071896300e-04
515 539 -1.1258533814497000e-04
516 539 -3.5457796778188102e-05
517 539 -3.5456505756769602e-05
522 539 -5.2910052910052900e-02
524 539 -5.2910052910052900e-02
538 539 -2.0325203252032500e-01
539 539 3.1014518389138601e-01
1066 539 -2.8796415224294300e-06
2368 539 -4.5823860748224796e-06
2373 539 -3.8624756942151201e-06
2379 539 -9.8909426205184702e-07
2381 539 -2.9610226958893901e-06
540 540 3.9792375790853200e-02
543 540 -9.6558228607600898e-10
555 540 -1.9560289284949899e-05
541 541 5.6188236008536702e-02
542 541 -4.7626946399341100e-04
555 541 -1.2675884012107401e-04
541 542 -4.8129542385412402e-04
542 542 4.4330739849748398e-02
555 542 -1.2674334403981101e-04
2387 542 -4.3554006968641097e-02
540 543 -8.5320162768399406e-12
543 543 5.2956898463643098e-02
555 543 -1.8976213427747602e-05
2387 543 -5.2910052910052900e-02
544 544 5.0940743437053397e-02
545 544 -3.9179454535386898e-10
589 544 -3.5173206967941900e-05
544 545 -1.5895970486082601e-12
545 545 3.8228637717880300e-02
555 545 -3.8109756097561003e-02
589 545 -3.5153078098583902e-05
546 546 5.1461308610723899e-02
547 546 -4.3190384195858800e-04
546 547 -4.2735636588426000e-04
547 547 4.1346998323716598e-02
1065 547 -4.0650406504064998e-02
548 548 5.0940743437885697e-02
549 548 -3.9247482993585400e-10
1065 548 -3.5173212391232799e-05
548 549 -1.5923663066347401e-12
549 549 3.8228637717918200e-02
555 549 -3.8109756097561003e-02
1065 549 -3.5153079663310298e-05
550 550 2.8712747707565800e-01
551 550 -1.2260476297217601e-03
1065 550 -1.2469991644803200e-04
550 551 -1.2209464116888101e-03
551 551 1.0354174300738200e-01
552 551 -1.0204081632653100e-01
1065 551 -1.2470075822147800e-04
551 552 -1.0204081632653100e-01
552 552 2.6078100372129598e-01
553 552 -1.5873015873015900e-01
589 552 -4.9830318518561402e-06
552 553 -1.5873015873015900e-01
553 553 1.6018945628269701e-01
554 553 -1.2261347422987800e-03
589 553 -1.2469990841485899e-04
553 554 -1.2210351717046001e-03
554 554 2.8713273241463699e-01
555 554 -2.8571428571428598e-01
589 554 -1.2470062384171399e-04
540 555 -1.8615814360219200e-05
541 555 -1.2551731379534901e-04
542 555 -1.2533832065493900e-04
543 555 -1.8614194470633599e-05
545 555 -3.8109756097561003e-02
549 555 -3.8109756097561003e-02
554 555 -2.8571428571428598e-01
555 555 3.6249960486950700e-01
589 555 -6.0973279192310098e-06
2372 555 -9.1397317885803597e-07
556 556 3.9792375808402301e-02
559 556 -9.4711977176447793e-10
1064 556 -1.9558548696989901e-05
557 557 5.6183317668569897e-02
558 557 -4.8161865785549399e-04
1064 557 -1.2674739033529799e-04
557 558 -4.7658400904751702e-04
558 558 4.7680823553774697e-02
589 558 -4.6904315196998100e-02
1064 558 -1.2675298342047200e-04
556 559 -8.3651292071935700e-12
559 559 5.4991274636045001e-02
589 559 -5.4945054945054903e-02
1064 559 -1.8975490328149299e-05
560 560 6.8751320116301196e-02
561 560 -6.1119994368240001e-04
2385 560 -6.2710454945978799e-05
560 561 -6.1008145318163496e-04
561 561 5.1770969335473503e-02
588 561 -5.1020408163265300e-02
2385 561 -6.2742221028902500e-05
562 562 6.8747818421343698e-02
563 562 -6.0768622201439599e-04
2386 562 -6.2710159913557400e-05
562 563 -6.0658740482442898e-04
563 563 5.1767470421557903e-02
588 563 -5.1020408163265300e-02
2386 563 -6.2742144153055896e-05
564 564 2.0343573216235300e-01
565 564 -1.5430949748393299e-09
2386 564 -7.0347943920123700e-05
564 565 -9.8102092819713690e-10
565 565 7.6570049783373006e-02
566 565 -7.6219512195121894e-02
2386 565 -7.0346678930241596e-05
565 566 -7.6219512195121894e-02
566 566 1.9818783427392400e-01
567 566 -1.2195121951219499e-01
2385 566 -1.2056933852606700e-05
566 567 -1.2195121951219499e-01
567 567 1.2223626240549000e-01
568 567 -5.5998429103396796e-10
2385 567 -7.0345456608199498e-05
567 568 -2.2810260241457500e-12
568 568 2.0338943754027200e-01
588 568 -2.0325203252032500e-01
2385 568 -7.0306231348337000e-05
569 569 3.9792375790878902e-02
572 569 -9.2129306722565004e-10
588 569 -1.9556035914684699e-05
570 570 5.6188737396617602e-02
571 570 -4.7677034765311198e-04
588 570 -1.2675571139752399e-04
570 571 -4.8184083656075300e-04
571 571 4.4331300967614999e-02
587 571 -4.3554006968641097e-02
588 571 -1.2674647342516600e-04
569 572 -8.1339336427736108e-12
572 572 5.2956897639488097e-02
587 572 -5.2910052910052900e-02
588 572 -1.8974565494746798e-05
573 573 2.8712747689623402e-01
574 573 -1.2260475251201801e-03
1065 573 -1.2469981989875401e-04
573 574 -1.2209527148443801e-03
574 574 1.0354174988322300e-01
575 574 -1.0204081632653100e-01
1065 574 -1.2470082757345301e-04
574 575 -1.0204081632653100e-01
575 575 2.2109748746467500e-01
577 575 -1.1904761904761900e-01
1065 575 -3.0048433277524500e-06
1066 575 -1.0016144425841501e-06
576 576 2.8713273659845101e-01
577 576 -1.2210394199916300e-03
589 576 -1.2470057005551600e-04
1066 576 -2.8571428571428598e-01
575 577 -1.1904761904761900e-01
576 577 -1.2261411575537700e-03
577 577 1.2052622774271900e-01
589 577 -1.2469994476410401e-04
578 578 1.0189245455257399e-01
579 578 -1.2745630213088700e-09
1065 578 -7.0346486593090806e-05
578 579 -1.0112503544736900e-09
579 579 7.6571332682463106e-02
586 579 -7.6219512195121894e-02
1065 579 -7.0345815438454206e-05
580 580 1.0189245455003100e-01
581 580 -1.2723405096993899e-09
589 580 -7.0346475709982806e-05
580 581 -1.0094859387091500e-09
581 581 7.6571332680107504e-02
586 581 -7.6219512195121894e-02
589 581 -7.0345805340405696e-05
582 582 1.2052589297776900e-01
583 582 -1.2258112547912799e-03
587 582 -1.2469936303890401e-04
582 583 -1.2207473248356201e-03
583 583 1.0354154667363800e-01
587 583 -1.2470115408909501e-04
1066 583 -1.0204081632653100e-01
584 584 1.0181211302614000e-01
585 584 -2.7268603221130699e-12
587 584 -7.0306210065458695e-05
1066 584 -1.0162601626016300e-01
584 585 -6.6966769274403196e-10
585 585 1.5270300749341301e-01
586 585 -1.5243902439024401e-01
587 585 -7.0345917632988697e-05
579 586 -7.6219512195121894e-02
581 586 -7.6219512195121894e-02
585 586 -1.5243902439024401e-01
586 586 3.0493383244485001e-01
587 586 -1.9637903164915501e-05
589 586 -5.9721261139079898e-06
1065 586 -3.9814174092719904e-06
571 587 -4.3554006968641097e-02
572 587 -5.2910052910052900e-02
582 587 -1.2390045878957000e-04
583 587 -1.2397162926072901e-04
584 587 -7.0287750177922399e-05
585 587 -7.0288836838762906e-05
586 587 -1.9637903164915501e-05
587 587 9.7179119888553198e-02
589 587 -9.8909426205184702e-07
1065 587 -9.8909426205184702e-07
1066 587 -2.2160719542174299e-06
2372 587 -1.9719284338375401e-06
2385 587 -1.9719284338375401e-06
561 588 -5.1020408163265300e-02
563 588 -5.1020408163265300e-02
568 588 -2.0325203252032500e-01
569 588 -1.8615777097039201e-05
570 588 -1.2548110863668899e-04
571 588 -1.2537426990000901e-04
572 588 -1.8614231733813601e-05
588 588 3.0591416970315899e-01
1067 588 -9.8909426205184702e-07
2370 588 -9.8909426205184702e-07
2372 588 -1.9719284338375401e-06
2385 588 -4.5823860748224796e-06
544 589 -3.5144462004801997e-05
545 589 -3.5143831503540703e-05
552 589 -4.9830318518561402e-06
553 589 -1.2391903345358799e-04
554 589 -1.2395301044507601e-04
555 589 -6.0973279192310098e-06
558 589 -4.6904315196998100e-02
559 589 -5.4945054945054903e-02
576 589 -1.2395176891368399e-04
577 589 -1.2392027204178300e-04
580 589 -7.0288506926145106e-05
581 589 -7.0288080090540200e-05
586 589 -5.9721261139079898e-06
587 589 -9.8909426205184702e-07
589 589 1.0312607142002700e-01
1065 589 -5.8344041280526703e-06
1066 589 -4.2130407491195804e-06
1067 589 -9.8909426205184702e-07
1068 589 -9.8909426205184702e-07
2367 589 -1.9719284338375401e-06
2370 589 -9.8909426205184702e-07
2372 589 -2.9610226958893901e-06
590 590 4.0488790093910799e-02
593 590 -6.3987042269454003e-04
767 590 -6.5831186170964306e-05
591 591 5.5603065026522798e-02
592 591 -4.3718374798858201e-10
767 591 -3.9192978415814602e-05
591 592 -1.7748900819624800e-12
592 592 4.7033362688933301e-02
767 592 -3.9170565773426697e-05
1068 592 -4.6904315196998100e-02
590 593 -6.4253808641613305e-04
593 593 5.5727083251628402e-02
767 593 -6.5830424874051900e-05
1068 593 -5.4945054945054903e-02
594 594 5.1461399770777502e-02
595 594 -4.3199866620358200e-04
766 594 -1.1388162007673300e-04
594 595 -4.2753173874862302e-04
595 595 4.1350674209221699e-02
632 595 -4.0650406504064998e-02
766 595 -1.1388905356349899e-04
596 596 5.1461874755491799e-02
597 596 -4.3247729543705699e-04
1057 596 -1.1388164689906400e-04
596 597 -4.2800583114105899e-04
597 597 4.1351151692968498e-02
632 597 -4.0650406504064998e-02
1057 597 -1.1388908014822800e-04
598 598 2.8580466173054397e-01
599 598 -1.4590600419903100e-09
1057 598 -3.7150045379801501e-05
598 599 -7.1011482490122205e-10
599 599 1.0220797926802699e-01
600 599 -1.0204081632653100e-01
1057 599 -3.7108872885061999e-05
599 600 -1.0204081632653100e-01
600 600 2.6078100372129598e-01
601 600 -1.5873015873015900e-01
766 600 -4.9830318518561402e-06
600 601 -1.5873015873015900e-01
601 601 1.5886387483365499e-01
602 601 -1.0516605890047499e-09
766 601 -3.7218166391035697e-05
601 602 -9.4727281353678005e-12
602 602 2.8577241985703400e-01
632 602 -2.8571428571428598e-01
766 602 -3.6146709277530903e-05
603 603 2.8712736771022801e-01
604 603 -1.2259385157792201e-03
1061 603 -1.2469925190551699e-04
603 604 -1.2208816536258299e-03
604 604 1.0353995092117600e-01
605 604 -1.0204081632653100e-01
1061 604 -1.2470123520460000e-04
604 605 -1.0204081632653100e-01
605 605 2.2109748746467500e-01
607 605 -1.1904761904761900e-01
767 605 -1.0016144425841501e-06
1061 605 -3.0048433277524500e-06
606 606 2.8577241824276800e-01
607 606 -1.7013321705615002e-11
767 606 -2.8571428571428598e-01
1059 606 -3.6145105234211997e-05
605 607 -1.1904761904761900e-01
606 607 -1.9176886000300802e-09
607 607 1.1920332333825499e-01
1059 607 -3.7265327079483699e-05
608 608 1.0189245457016700e-01
609 608 -1.3033810372329700e-09
1061 608 -7.0346505286444705e-05
608 609 -1.3173104546500701e-09
609 609 7.6569306626921296e-02
616 609 -7.6219512195121894e-02
1061 609 -7.0410558579422596e-05
610 610 1.0293384648459100e-01
611 610 -8.6545133924967603e-04
1059 610 -2.2644139448469201e-04
610 611 -8.5642281931905804e-04
611 611 7.7620136204609697e-02
616 611 -7.6219512195121894e-02
1059 611 -2.2645601409851000e-04
612 612 1.1920331432645000e-01
613 612 -1.9970536265625898e-09
631 612 -3.7265590135712802e-05
612 613 -1.7760588926400900e-11
613 613 1.0212962717604800e-01
631 613 -3.6148000600302997e-05
767 613 -1.0204081632653100e-01
614 614 1.0294289349540900e-01
615 614 -8.5602323494322495e-04
631 614 -2.2645928217558900e-04
767 614 -1.0162601626016300e-01
614 615 -8.6482186298825800e-04
615 615 1.5374483535396000e-01
616 615 -1.5243902439024401e-01
631 615 -2.2643354876024301e-04
609 616 -7.6219512195121894e-02
611 616 -7.6219512195121894e-02
615 616 -1.5243902439024401e-01
616 616 3.0493383244485001e-01
631 616 -1.9637903164915501e-05
1059 616 -5.9721261139079898e-06
1061 616 -3.9814174092719904e-06
617 617 2.8713271750247199e-01
618 617 -1.2210106504388100e-03
632 617 -1.2471243800216001e-04
617 618 -1.2256783995281001e-03
618 618 1.0353435159621700e-01
619 618 -1.0204081632653100e-01
632 618 -1.2468837247856101e-04
618 619 -1.0204081632653100e-01
619 619 2.2109748746467500e-01
621 619 -1.1904761904761900e-01
631 619 -1.0016144425841501e-06
632 619 -3.0048433277524500e-06
620 620 2.8714599089566500e-01
621 620 -1.2446864685768000e-03
631 620 -2.8571428571428598e-01
1056 620 -1.2469318507170700e-04
619 621 -1.1904761904761900e-01
620 621 -1.2397991205682899e-03
621 621 1.2055008625050299e-01
1056 621 -1.2470762685892501e-04
622 622 1.0189245407512700e-01
623 622 -7.9628519646392300e-10
632 622 -7.0346516661237102e-05
622 623 -3.1968666948507999e-12
623 623 7.6464408606043602e-02
630 623 -7.6219512195121894e-02
632 623 -7.0308584159786398e-05
624 624 1.0189245389881101e-01
625 624 -4.3138960093343400e-10
1056 624 -7.0343262844366403e-05
624 625 -1.7281524526035599e-12
625 625 7.6464408655902996e-02
630 625 -7.6219512195121894e-02
1056 625 -7.0307307863096699e-05
626 626 1.1920331420635900e-01
627 626 -1.8275537608049600e-09
1059 626 -3.7154946289455998e-05
626 627 -1.7812950265685701e-09
627 627 1.0221184973668800e-01
631 627 -1.0204081632653100e-01
1059 627 -3.7153105085500599e-05
628 628 1.0181212801808000e-01
629 628 -1.2614727270283900e-10
631 628 -1.0162601626016300e-01
1059 628 -7.0353325865110295e-05
628 629 -2.9781328227625499e-08
629 629 1.5263141783305201e-01
630 629 -1.5243902439024401e-01
1059 629 -7.0362016408621100e-05
623 630 -7.6219512195121894e-02
625 630 -7.6219512195121894e-02
629 630 -1.5243902439024401e-01
630 630 3.0493383244485001e-01
632 630 -3.9814174092719904e-06
1056 630 -5.9721261139079898e-06
1059 630 -1.9637903164915501e-05
612 631 -3.5458837968984497e-05
613 631 -3.5455464565973302e-05
614 631 -2.2531831560918599e-04
615 631 -2.2493560535487799e-04
616 631 -1.9637903164915501e-05
619 631 -1.0016144425841501e-06
620 631 -2.8571428571428598e-01
627 631 -1.0204081632653100e-01
628 631 -1.0162601626016300e-01
631 631 4.9022295587441800e-01
632 631 -3.1989061260031302e-06
767 631 -2.2160719542174299e-06
1056 631 -5.1958749209052700e-06
1059 631 -2.2160719542174299e-06
595 632 -4.0650406504064998e-02
597 632 -4.0650406504064998e-02
602 632 -2.8571428571428598e-01
617 632 -1.2434694443849801e-04
618 632 -1.2352603085627500e-04
619 632 -3.0048433277524500e-06
622 632 -7.0288938816893002e-05
623 632 -7.0287648199792303e-05
630 632 -3.9814174092719904e-06
631 632 -3.1989061260031302e-06
632 632 3.6780526765105898e-01
766 632 -6.0973279192310098e-06
1057 632 -9.8909426205184702e-07
2365 632 -1.9719284338375401e-06
633 633 3.9792375789854499e-02
636 633 -8.7839721710227300e-10
646 633 -1.9551705214871701e-05
634 634 5.6189216602342301e-02
635 634 -4.7723736760531602e-04
646 634 -1.2676546037914099e-04
634 635 -4.8218284731554802e-04
635 635 4.7676000340684102e-02
646 635 -1.2673672127709801e-04
678 635 -4.6904315196998100e-02
633 636 -7.7497209967042907e-12
636 636 5.4991351025311302e-02
646 636 -1.8972945454878799e-05
678 636 -5.4945054945054903e-02
637 637 6.8749863348719603e-02
638 637 -6.0975255963818895e-04
1055 637 -6.2688526019269599e-05
637 638 -6.1005438136738500e-04
638 638 5.3658211386897497e-02
646 638 -5.2910052910052900e-02
1055 638 -6.2751950914071697e-05
639 639 6.8751853339395402e-02
640 639 -6.1175045980343804e-04
1062 639 -6.2688783054205103e-05
639 640 -6.1204019798780595e-04
640 640 5.3660199269477203e-02
646 640 -5.2910052910052900e-02
1062 640 -6.2751994363894795e-05
641 641 2.0343573321669500e-01
642 641 -1.1981499325735001e-09
1062 641 -7.0346423040645802e-05
641 642 -7.8072031976856598e-10
642 642 8.7448224489159801e-02
643 642 -8.7108013937282194e-02
1062 642 -7.0345248101963498e-05
642 643 -8.7108013937282194e-02
643 643 2.0907633601608400e-01
644 643 -1.2195121951219499e-01
1055 643 -1.2056933852606700e-05
643 644 -1.2195121951219499e-01
644 644 1.2223635543377000e-01
645 644 -6.2637421408645805e-10
1055 644 -7.0346041291266000e-05
644 645 -2.5523917822080402e-12
645 645 2.0338941946084599e-01
646 645 -2.0325203252032500e-01
1055 645 -7.0306386527373897e-05
633 646 -1.8615741008548400e-05
634 646 -1.2559445257836300e-04
635 646 -1.2526172295040301e-04
636 646 -1.8614267822304398e-05
638 646 -5.2910052910052900e-02
640 646 -5.2910052910052900e-02
645 646 -2.0325203252032500e-01
646 646 3.0963228671787302e-01
1055 646 -4.5823860748224796e-06
647 647 5.0940743192592598e-02
648 647 -3.2645097711404399e-10
1063 647 -3.5172668068624999e-05
647 648 -1.3237545739298800e-12
648 648 4.0766163746863697e-02
765 648 -4.0650406504064998e-02
1063 648 -3.5152908239579402e-05
649 649 3.9792375792061803e-02
652 649 -9.6686028312393993e-10
650 650 5.6183080972081099e-02
651 650 -4.8138775279520400e-04
650 651 -4.7656209713673999e-04
651 651 4.7680736681551802e-02
1062 651 -4.6904315196998100e-02
649 652 -8.5417961525007593e-12
652 652 5.4991344481224801e-02
1062 652 -5.4945054945054903e-02
653 653 5.0940743425690597e-02
654 653 -3.8837957560624101e-10
1062 653 -3.5173180574127100e-05
653 654 -1.5757968778777200e-12
654 654 4.0766163783036602e-02
765 654 -4.0650406504064998e-02
1062 654 -3.5153065650349103e-05
655 655 2.8712776961579800e-01
656 655 -1.2263597162605600e-03
1062 655 -1.2467566499341101e-04
655 656 -1.2228650745586200e-03
656 656 1.1138812942621200e-01
657 656 -1.0989010989011000e-01
1062 656 -1.2471818434073100e-04
656 657 -1.0989010989011000e-01
657 657 2.6863029728487497e-01
658 657 -1.5873015873015900e-01
1063 657 -4.9830318518561402e-06
657 658 -1.5873015873015900e-01
658 658 1.6019696093493299e-01
659 658 -1.2334902413018800e-03
1063 658 -1.2469007916500300e-04
658 659 -1.2290918424157199e-03
659 659 2.8714079150179000e-01
765 659 -2.8571428571428598e-01
1063 659 -1.2470077438928701e-04
660 660 5.0940743450494298e-02
661 660 -3.9972442180223401e-10
678 660 -3.5173277628229702e-05
660 661 -1.6219015182561599e-12
661 661 4.0766176645045997e-02
678 661 -3.5153095007325500e-05
766 661 -4.0650406504064998e-02
662 662 2.8580466158987500e-01
663 662 -1.3365000695018400e-09
662 663 -1.8164368758153498e-11
663 663 1.1000460932590400e-01
664 663 -1.0989010989011000e-01
663 664 -1.0989010989011000e-01
664 664 2.6863029728487497e-01
665 664 -1.5873015873015900e-01
664 665 -1.5873015873015900e-01
665 665 1.5916047217059900e-01
670 665 -2.0341816551513201e-04
666 666 5.1153039209504099e-02
669 666 -1.2140961387669400e-04
667 667 5.1460888731321000e-02
668 667 -4.3162355818382198e-04
667 668 -4.3086448247991901e-04
668 668 4.1351504318755700e-02
1063 668 -4.0650406504064998e-02
666 669 -1.2391950574114301e-04
669 669 4.1042171275878600e-02
1063 669 -4.0650406504064998e-02
665 670 -6.0467848602071902e-06
670 670 2.8577708833196502e-01
1063 670 -2.8571428571428598e-01
671 671 5.0940743192546302e-02
672 671 -3.2640472279406899e-10
1063 671 -3.5172668057556900e-05
671 672 -1.3235025352134301e-12
672 672 4.0766176605983397e-02
766 672 -4.0650406504064998e-02
1063 672 -3.5152911457188002e-05
673 673 2.8713327069493000e-01
674 673 -1.2318637539998800e-03
1063 673 -1.2468840054218801e-04
673 674 -1.2275166607440800e-03
674 674 1.1139272410584999e-01
675 674 -1.0989010989011000e-01
1063 674 -1.2470900329074599e-04
674 675 -1.0989010989011000e-01
675 675 2.6863029728487497e-01
676 675 -1.5873015873015900e-01
678 675 -4.9830318518561402e-06
675 676 -1.5873015873015900e-01
676 676 1.6019475930412000e-01
677 676 -1.2211495052291701e-03
678 676 -1.2469940545434599e-04
676 677 -1.2260981829371000e-03
677 677 2.8712757048824800e-01
678 677 -1.2469799997843499e-04
766 677 -2.8571428571428598e-01
635 678 -4.6904315196998100e-02
636 678 -5.4945054945054903e-02
660 678 -3.5144468403237002e-05
661 678 -3.5143825105105698e-05
675 678 -4.9830318518561402e-06
676 678 -1.2401817512964900e-04
677 678 -1.2385402336993900e-04
678 678 1.0245081179746800e-01
765 678 -1.0898817153368799e-05
766 678 -6.0973279192310098e-06
1063 678 -4.0940990340627101e-06
2370 678 -9.8909426205184702e-07
679 679 4.0498751980340697e-02
682 679 -6.4980463016917501e-04
1056 679 -6.5839370290671096e-05
680 680 5.5603064965109202e-02
681 680 -2.3945937864177600e-10
1056 680 -3.9191206947666799e-05
680 681 -9.7011152123813996e-13
681 681 4.3685285314898299e-02
697 681 -4.3554006968641097e-02
1056 681 -3.9169951784731599e-05
679 682 -6.5217630997528597e-04
682 682 5.3703186582863702e-02
697 682 -5.2910052910052900e-02
1056 682 -6.5822238588106799e-05
683 683 1.0292788345977499e-01
684 683 -8.5695400759543995e-04
1057 683 -2.2645159157317799e-04
683 684 -8.6618303707225095e-04
684 684 7.7611377769494200e-02
1057 684 -2.2644815756870401e-04
1061 684 -7.6219512195121894e-02
685 685 1.4292839858856299e-01
686 685 -1.1448166167342801e-11
1057 685 -3.6143068753916598e-05
1061 685 -1.4285714285714299e-01
685 686 -1.2787238029606100e-09
686 686 1.3001863338232200e-01
696 686 -1.2987012987013000e-01
1057 686 -3.7226062249705498e-05
687 687 1.4298556730144599e-01
688 687 -1.7092680587459599e-09
764 687 -3.7154386832577001e-05
687 688 -1.1711536579976699e-09
688 688 1.0220957887994200e-01
696 688 -1.0204081632653100e-01
764 688 -3.7129510511249698e-05
689 689 1.4298556736802501e-01
690 689 -1.7962088111894799e-09
697 689 -3.7162881365163402e-05
689 690 -1.2307959803340501e-09
690 690 1.0220957890063601e-01
696 690 -1.0204081632653100e-01
697 690 -3.7137902727685803e-05
691 691 1.0292637564725600e-01
692 691 -8.5545509847872396e-04
697 691 -2.2645269900324101e-04
691 692 -8.6465891099205298e-04
692 692 7.7609858298283999e-02
693 692 -7.6219512195121894e-02
697 692 -2.2644705009039601e-04
692 693 -7.6219512195121894e-02
693 693 1.7787602135497099e-01
694 693 -1.0162601626016300e-01
764 693 -2.0695858419894999e-05
693 694 -1.0162601626016300e-01
694 694 1.0291802068279700e-01
695 694 -8.6560317297878304e-04
764 694 -2.2644872127695000e-04
694 695 -8.5637157310847504e-04
695 695 1.0292728909818501e-01
764 695 -2.2645102788045301e-04
1061 695 -1.0162601626016300e-01
686 696 -1.2987012987013000e-01
688 696 -1.0204081632653100e-01
690 696 -1.0204081632653100e-01
696 696 3.3399070028464700e-01
697 696 -4.1441797561919198e-06
764 696 -3.9814174092719904e-06
1057 696 -6.5230140573292702e-06
681 697 -4.3554006968641097e-02
682 697 -5.2910052910052900e-02
689 697 -3.5457625227085697e-05
690 697 -3.5456677307872000e-05
691 697 -2.2515950018601999e-04
692 697 -2.2509329865442299e-04
696 697 -4.1441797561919198e-06
697 697 9.7266244483896397e-02
764 697 -6.4478929741354603e-07
1057 697 -1.9719284338375401e-06
2364 697 -4.6950676996132002e-06
2365 697 -1.9719284338375401e-06
698 698 3.9792375759672600e-02
701 698 -9.2946843845781002e-10
765 698 -1.9556825542137201e-05
699 699 5.6188596407569603e-02
700 699 -4.7661100705779298e-04
765 699 -1.2677660240245400e-04
699 700 -4.8140604219926001e-04
700 700 4.7675161260755702e-02
720 700 -4.6904315196998100e-02
765 700 -1.2672557165099000e-04
698 701 -8.2091512926423395e-12
701 701 5.4991353827446202e-02
720 701 -5.4945054945054903e-02
765 701 -1.8974967755701600e-05
702 702 6.8751245503762298e-02
703 702 -6.1111955453598097e-04
720 702 -6.2718035754317602e-05
702 703 -6.0950710805556896e-04
703 703 5.3657509951705401e-02
720 703 -6.2738819099662495e-05
764 703 -5.2910052910052900e-02
704 704 6.8749906794324800e-02
705 704 -6.0977442264438097e-04
1055 704 -6.2717887138603602e-05
704 705 -6.0817367496367397e-04
705 705 5.3656175839271202e-02
764 705 -5.2910052910052900e-02
1055 705 -6.2738659853695997e-05
706 706 6.8534649747432300e-02
714 706 -3.7518046172479400e-04
707 707 6.8091355053167602e-02
713 707 -9.1388463510351702e-10
708 708 2.0447294918645700e-01
709 708 -8.6250833954222301e-04
708 709 -8.8505084397606196e-04
709 709 7.7645560006907394e-02
710 709 -7.6219512195121894e-02
709 710 -7.6219512195121894e-02
710 710 1.9818783427392400e-01
711 710 -1.2195121951219499e-01
710 711 -1.2195121951219499e-01
711 711 1.2270019074799700e-01
712 711 -2.6517451246130399e-04
711 712 -2.3465098716941101e-04
712 712 2.0384207700801699e-01
1055 712 -2.0325203252032500e-01
707 713 -8.0777454260161907e-12
713 713 5.2954855525487697e-02
1055 713 -5.2910052910052900e-02
706 714 -2.2409544522195900e-05
714 714 5.2976834357563701e-02
1055 714 -5.2910052910052900e-02
715 715 2.0343573218389999e-01
716 715 -1.3602829164656400e-09
1055 715 -7.0347174520438000e-05
715 716 -8.8215208305580997e-10
716 716 8.7448196666851594e-02
717 716 -8.7108013937282194e-02
1055 716 -7.0345972783453296e-05
716 717 -8.7108013937282194e-02
717 717 2.0907633601608400e-01
718 717 -1.2195121951219499e-01
720 717 -1.2056933852606700e-05
717 718 -1.2195121951219499e-01
718 718 1.2223634217505000e-01
719 718 -5.7225538982363598e-10
720 718 -7.0345534166675903e-05
718 719 -2.3309468850750898e-12
719 719 2.0338944381478999e-01
720 719 -7.0306245048964099e-05
764 719 -2.0325203252032500e-01
700 720 -4.6904315196998100e-02
701 720 -5.4945054945054903e-02
702 720 -6.1487959643182901e-05
703 720 -6.2449178953711602e-05
717 720 -1.2056933852606700e-05
718 720 -7.0288758249863995e-05
719 720 -7.0287828766821297e-05
720 720 1.0244172907493100e-01
764 720 -5.5652202466081803e-06
765 720 -9.8909426205184702e-07
1055 720 -7.9816150893424393e-06
2369 720 -9.8909426205184702e-07
2370 720 -1.9719284338375401e-06
721 721 2.8665740879758600e-01
722 721 -7.5526791685557497e-04
721 722 -7.7697967643823400e-04
722 722 1.1094486916258900e-01
723 722 -1.0989010989011000e-01
722 723 -1.0989010989011000e-01
723 723 2.6863029728487497e-01
724 723 -1.5873015873015900e-01
723 724 -1.5873015873015900e-01
724 724 1.5886899044743399e-01
729 724 -5.4174549207569701e-09
725 725 5.1459927746344600e-02
728 725 -4.3098657748606001e-04
726 726 5.1148710488123299e-02
727 726 -1.1951788986549200e-04
726 727 -1.3012998594764700e-04
727 727 4.1050733010605002e-02
1056 727 -4.0650406504064998e-02
725 728 -4.3858225858653600e-04
728 728 4.1359675929942198e-02
1056 728 -4.0650406504064998e-02
724 729 -3.1917169659655302e-11
729 729 2.8577231300304701e-01
1056 729 -2.8571428571428598e-01
730 730 5.0940743464586401e-02
731 730 -3.2949915149054802e-10
1056 730 -3.5171346747190598e-05
730 731 -3.3777554334817202e-10
731 731 4.0825332746665000e-02
763 731 -4.0650406504064998e-02
1056 731 -3.5248920483819997e-05
732 732 5.1461860560829999e-02
733 732 -4.3246769264467601e-04
1057 732 -1.1387667162724499e-04
732 733 -4.2812353055973599e-04
733 733 4.1351273044637898e-02
763 733 -4.0650406504064998e-02
1057 733 -1.1389133524904901e-04
734 734 2.8580466199094401e-01
735 734 -1.7194690357066099e-09
1057 734 -3.7241259693995798e-05
734 735 -1.6205106276595300e-11
735 735 1.0213262619758801e-01
736 735 -1.0204081632653100e-01
1057 735 -3.6189581476064098e-05
735 736 -1.0204081632653100e-01
736 736 2.6078100372129598e-01
737 736 -1.5873015873015900e-01
1056 736 -4.9830318518561402e-06
736 737 -1.5873015873015900e-01
737 737 1.5881275162947600e-01
738 737 -3.2762087381267797e-08
1056 737 -3.8112537347915001e-05
737 738 -7.4958330951256704e-10
738 738 2.8577241951910898e-01
763 738 -2.8571428571428598e-01
1056 738 -3.7928131612462099e-05
739 739 5.1461386648899501e-02
740 739 -4.3198990633798798e-04
766 739 -1.1387689097922900e-04
739 740 -4.2764348490296301e-04
740 740 4.1347290914422699e-02
762 740 -4.0650406504064998e-02
766 740 -1.1389120024277899e-04
741 741 5.0940743645611901e-02
742 741 -6.0408831032664003e-10
763 741 -3.5173153036860003e-05
741 742 -6.1885770046634599e-10
742 742 4.0821833074068101e-02
762 742 -4.0650406504064998e-02
763 742 -3.5245604985014998e-05
743 743 2.8712779289321000e-01
744 743 -1.2263641880790601e-03
763 743 -1.2469992476032301e-04
743 744 -1.2212616787222700e-03
744 744 1.1138639238409100e-01
745 744 -1.0989010989011000e-01
763 744 -1.2470075201377601e-04
744 745 -1.0989010989011000e-01
745 745 2.6863029728487497e-01
746 745 -1.5873015873015900e-01
766 745 -4.9830318518561402e-06
745 746 -1.5873015873015900e-01
746 746 1.5886655388981399e-01
747 746 -1.9360260041516699e-09
766 746 -3.7263016202378901e-05
746 747 -1.7196935311430500e-11
747 747 2.8577241884025301e-01
762 747 -2.8571428571428598e-01
766 747 -3.6145886789954498e-05
748 748 1.0187648085479201e-01
749 748 -8.2743026247794797e-10
762 748 -7.0346487213027105e-05
748 749 -3.3681295340730701e-12
749 749 8.7339588198292795e-02
762 749 -7.0306182988549200e-05
1067 749 -8.7108013937282194e-02
750 750 1.4430796470381799e-01
751 750 -1.2257372149540300e-03
762 750 -1.2469262329900299e-04
1067 750 -1.4285714285714299e-01
750 751 -1.2209089521855300e-03
751 751 1.3134848180640399e-01
761 751 -1.2987012987013000e-01
762 751 -1.2470818849937601e-04
752 752 1.4298556740232601e-01
753 752 -1.8101306282014200e-09
764 752 -3.7153260993032099e-05
752 753 -1.7924931970690901e-09
753 753 1.1005802637724800e-01
761 753 -1.0989010989011000e-01
764 753 -3.7152551928495900e-05
754 754 1.4431382109261701e-01
755 754 -1.2212123554353901e-03
763 754 -1.2470778591464800e-04
754 755 -1.2260607674048601e-03
755 755 1.1138084706486200e-01
761 755 -1.0989010989011000e-01
763 755 -1.2469302597927501e-04
756 756 1.0187648081409700e-01
757 756 -7.9307750007114202e-10
763 756 -7.0346478349409596e-05
756 757 -3.1858017782026699e-12
757 757 8.7348150016843901e-02
758 757 -8.7108013937282194e-02
763 757 -7.0308441099281401e-05
757 758 -8.7108013937282194e-02
758 758 1.8876452309713099e-01
759 758 -1.0162601626016300e-01
764 758 -2.0695858419894999e-05
758 759 -1.0162601626016300e-01
759 759 1.0180817163431900e-01
760 759 -1.8476566251812699e-08
764 759 -7.0361549171503804e-05
759 760 -7.8243328100251900e-11
760 760 1.0180246696643599e-01
764 760 -7.0353328890673805e-05
1067 760 -1.0162601626016300e-01
751 761 -1.2987012987013000e-01
753 761 -1.0989010989011000e-01
755 761 -1.0989010989011000e-01
761 761 3.4968928741180499e-01
762 761 -6.5230140573292702e-06
763 761 -4.1441797561919198e-06
764 761 -3.9814174092719904e-06
740 762 -4.0650406504064998e-02
742 762 -4.0650406504064998e-02
747 762 -2.8571428571428598e-01
748 762 -7.0288964032909302e-05
749 762 -7.0287622983776003e-05
750 762 -1.2367084098673201e-04
751 762 -1.2420179138739201e-04
761 762 -6.5230140573292702e-06
762 762 3.6780439415415900e-01
763 762 -2.7606998073725602e-06
764 762 -1.2269776921655799e-06
765 762 -1.9719284338375401e-06
766 762 -6.0973279192310098e-06
1055 762 -1.9719284338375401e-06
1061 762 -1.9719284338375401e-06
1067 762 -1.6839642815946000e-05
2366 762 -1.9719284338375401e-06
2370 762 -1.9719284338375401e-06
731 763 -4.0650406504064998e-02
733 763 -4.0650406504064998e-02
738 763 -2.8571428571428598e-01
741 763 -3.5144139348065402e-05
742 763 -3.5144154160277203e-05
743 763 -1.2391958691147499e-04
744 763 -1.2395245566381501e-04
754 763 -1.2418810252696000e-04
755 763 -1.2368449770534001e-04
756 763 -7.0288936205687303e-05
757 763 -7.0287650810998002e-05
761 763 -4.1441797561919198e-06
762 763 -2.7606998073725602e-06
763 763 3.6824568757939702e-01
764 763 -6.4478929741354603e-07
765 763 -1.9719284338375401e-06
766 763 -3.7936147012874600e-06
1055 763 -1.1768969700363800e-06
1056 763 -6.0973279192310098e-06
1061 763 -1.1768969700363800e-06
2366 763 -1.1768969700363800e-06
2370 763 -1.9719284338375401e-06
687 764 -3.5457602260205001e-05
688 764 -3.5456700274752703e-05
693 764 -2.0695858419894999e-05
694 764 -2.2511279709451601e-04
695 764 -2.2513986273698300e-04
696 764 -3.9814174092719904e-06
697 764 -6.4478929741354603e-07
703 764 -5.2910052910052900e-02
705 764 -5.2910052910052900e-02
719 764 -2.0325203252032500e-01
720 764 -5.5652202466081803e-06
752 764 -3.5457166035267901e-05
753 764 -3.5457136499689803e-05
758 764 -2.0695858419894999e-05
759 764 -7.0304976988174603e-05
760 764 -7.0271610028510703e-05
761 764 -3.9814174092719904e-06
762 764 -1.2269776921655799e-06
763 764 -6.4478929741354603e-07
764 764 3.1034901552430999e-01
765 764 -1.9719284338375401e-06
1055 764 -9.8909426205184702e-07
1061 764 -1.2645382337624900e-06
2366 764 -9.8909426205184702e-07
2370 764 -1.9719284338375401e-06
648 765 -4.0650406504064998e-02
654 765 -4.0650406504064998e-02
659 765 -2.8571428571428598e-01
678 765 -1.0898817153368799e-05
698 765 -1.8615783974724901e-05
699 765 -1.2572347747675299e-04
700 765 -1.2513360388685600e-04
701 765 -1.8614224856127900e-05
720 765 -9.8909426205184702e-07
762 765 -1.9719284338375401e-06
763 765 -1.9719284338375401e-06
764 765 -1.9719284338375401e-06
765 765 3.6782295396502401e-01
766 765 -1.9719284338375401e-06
767 765 -9.8909426205184702e-07
1055 765 -2.5228163772588302e-06
1062 765 -9.8909426205184702e-07
1063 765 -7.0864221812828501e-06
2369 765 -9.8909426205184702e-07
2370 765 -9.8909426205184702e-07
594 766 -1.1250448653871199e-04
595 766 -1.1262221301355101e-04
600 766 -4.9830318518561402e-06
601 766 -3.5458042081482699e-05
602 766 -3.5456260453474998e-05
632 766 -6.0973279192310098e-06
661 766 -4.0650406504064998e-02
672 766 -4.0650406504064998e-02
677 766 -2.8571428571428598e-01
678 766 -6.0973279192310098e-06
739 766 -1.1245023721284301e-04
740 766 -1.1267684782880600e-04
745 766 -4.9830318518561402e-06
746 766 -3.5458785134339899e-05
747 766 -3.5455517400617798e-05
762 766 -6.0973279192310098e-06
763 766 -3.7936147012874600e-06
765 766 -1.9719284338375401e-06
766 766 3.6810628204319901e-01
1055 766 -9.8909426205184702e-07
1057 766 -2.8796415224294300e-06
1061 766 -9.8909426205184702e-07
2366 766 -9.8909426205184702e-07
2370 766 -1.9719284338375401e-06
590 767 -6.5079182914138905e-05
591 767 -3.9160972942753298e-05
592 767 -3.9160268395114203e-05
593 767 -6.5053649279366805e-05
605 767 -1.0016144425841501e-06
606 767 -2.8571428571428598e-01
613 767 -1.0204081632653100e-01
614 767 -1.0162601626016300e-01
631 767 -2.2160719542174299e-06
765 767 -9.8909426205184702e-07
767 767 4.9002834077243501e-01
1055 767 -4.8953905881300296e-06
1059 767 -5.1958749209052700e-06
1061 767 -3.1989061260031302e-06
1062 767 -9.8909426205184702e-07
1063 767 -9.8909426205184702e-07
1067 767 -9.8909426205184702e-07
2366 767 -9.8909426205184702e-07
2367 767 -9.8909426205184702e-07
2368 767 -9.8909426205184702e-07
768 768 4.0451948870316397e-02
780 768 -6.0831419252495896e-04
804 768 -6.5800264293132207e-05
769 769 6.8091355034632095e-02
777 769 -8.9534841843626097e-10
770 770 6.8531321395564601e-02
776 770 -3.7181334346499600e-04
771 771 2.0386175591176600e-01
772 771 -2.4484813344634402e-04
771 772 -2.4721957026232398e-04
772 772 7.7000425233616096e-02
773 772 -7.6219512195121894e-02
772 773 -7.6219512195121894e-02
773 773 1.9818783427392400e-01
774 773 -1.2195121951219499e-01
773 774 -1.2195121951219499e-01
774 774 1.2328575510326500e-01
775 774 -8.4972696584067402e-04
774 775 -8.1099696501959204e-04
775 775 2.0441254330456901e-01
804 775 -2.0325203252032500e-01
770 776 -2.2658180361523001e-05
776 776 5.2977508156163297e-02
804 776 -5.2910052910052900e-02
769 777 -8.0567769649384002e-12
777 777 5.2955289733355497e-02
804 777 -5.2910052910052900e-02
778 778 5.5603064048543802e-02
779 778 -3.4532226421996800e-09
804 778 -3.9199386501639797e-05
778 779 -1.4119592643891200e-11
779 779 4.7033838550192303e-02
804 779 -3.9172526287743200e-05
1057 779 -4.6904315196998100e-02
768 780 -6.0759946341394102e-04
780 780 5.7896050313305698e-02
804 780 -6.5845444559675399e-05
1057 780 -5.7142857142857099e-02
781 781 6.8751172848439401e-02
782 781 -6.1107015835427600e-04
1052 781 -6.2681901680425005e-05
781 782 -6.1180368678328005e-04
782 782 5.3660753742847997e-02
1052 782 -6.2754918528485601e-05
1054 782 -5.2910052910052900e-02
783 783 6.8719327319188006e-02
784 783 -5.7914896691256697e-04
804 783 -6.2678753113623302e-05
783 784 -5.7996664977689398e-04
784 784 5.3628843386536902e-02
804 784 -6.2757906470834994e-05
1054 784 -5.2910052910052900e-02
785 785 2.0343573853286900e-01
786 785 -8.1994774025648500e-09
804 785 -7.0357943402699497e-05
785 786 -3.5991610250302299e-09
786 786 7.6559796590395898e-02
787 786 -7.6219512195121894e-02
804 786 -7.0355649115449298e-05
786 787 -7.6219512195121894e-02
787 787 1.9818783427392400e-01
788 787 -1.2195121951219499e-01
1052 787 -1.2056933852606700e-05
787 788 -1.2195121951219499e-01
788 788 1.2223507147370000e-01
789 788 -4.4181031142594298e-10
1052 788 -7.0344818312315102e-05
788 789 -1.8003602541780501e-12
789 789 2.0338941388004500e-01
1052 789 -7.0306232501623098e-05
1054 789 -2.0325203252032500e-01
790 790 3.9792375794638901e-02
793 790 -9.3660662671802900e-10
803 790 -1.9557526400445700e-05
791 791 5.6183352976993298e-02
792 791 -4.8168300982095498e-04
803 791 -1.2671655569463801e-04
791 792 -4.7743392427339603e-04
792 792 4.7682615440918202e-02
803 792 -1.2676866411132301e-04
1053 792 -4.6904315196998100e-02
790 793 -8.2681415839675200e-12
793 793 5.7189865122627699e-02
803 793 -1.8974963658284698e-05
1053 793 -5.7142857142857099e-02
794 794 6.8761417785564494e-02
795 794 -6.2131595553597998e-04
1056 794 -6.2718036539601794e-05
794 795 -6.1969641654876801e-04
795 795 5.3668478575099703e-02
803 795 -5.2910052910052900e-02
1056 795 -6.2738686469156795e-05
796 796 6.8751225308508801e-02
797 796 -6.1109639926522396e-04
1052 796 -6.2717656955153095e-05
796 797 -6.0950969902726104e-04
797 797 5.3658270512867402e-02
803 797 -5.2910052910052900e-02
1052 797 -6.2738755976161399e-05
798 798 2.0343573218082800e-01
799 798 -1.2979259915306601e-09
1052 798 -7.0346683395598094e-05
798 799 -9.5853426451427797e-10
799 799 7.6562117911125993e-02
800 799 -7.6219512195121894e-02
1052 799 -7.0345816840394998e-05
799 800 -7.6219512195121894e-02
800 800 1.9818783427392400e-01
801 800 -1.2195121951219499e-01
1056 800 -1.2056933852606700e-05
800 801 -1.2195121951219499e-01
801 801 1.2223690315473500e-01
802 801 -3.3532630590214298e-10
1056 801 -7.0342051176834700e-05
801 802 -1.3627834200410600e-12
802 802 2.0338944359837499e-01
803 802 -2.0325203252032500e-01
1056 802 -7.0305057214514402e-05
790 803 -1.8615789991412599e-05
791 803 -1.2502951973850299e-04
792 803 -1.2582829721107501e-04
793 803 -1.8614218839440199e-05
795 803 -5.2910052910052900e-02
797 803 -5.2910052910052900e-02
802 803 -2.0325203252032500e-01
803 803 3.0971352716274098e-01
804 803 -2.0720898780959599e-06
1053 803 -1.9719284338375401e-06
1056 803 -4.5823860748224796e-06
2363 803 -2.0720898780959599e-06
768 804 -6.4101564084843006e-05
775 804 -2.0325203252032500e-01
776 804 -5.2910052910052900e-02
777 804 -5.2910052910052900e-02
778 804 -3.9163420145602097e-05
779 804 -3.9157821192265397e-05
780 804 -6.6033618319138996e-05
783 804 -6.0275550489365099e-05
784 804 -6.3664588803314501e-05
785 804 -7.0292054683082495e-05
786 804 -7.0284532333602797e-05
803 804 -2.0720898780959599e-06
804 804 3.1016974300839101e-01
1052 804 -9.8784224399861707e-06
1053 804 -9.8909426205184702e-07
1054 804 -9.8909426205184702e-07
1056 804 -1.9719284338375401e-06
805 805 4.0488947130932200e-02
808 805 -6.4539941413755005e-04
1063 805 -6.5828258275537696e-05
806 806 5.5603064706356203e-02
807 806 -3.6832571870556302e-10
1063 806 -3.9192414861793200e-05
806 807 -1.4944892795327599e-12
807 807 4.3685272892475098e-02
1060 807 -4.3554006968641097e-02
1063 807 -3.9170391804175502e-05
805 808 -6.4287863454180402e-04
808 808 5.3699386133365799e-02
1060 808 -5.2910052910052900e-02
1063 808 -6.5831943337263095e-05
809 809 4.0483964175352501e-02
812 809 -6.4042457319311299e-04
1055 809 -6.5777927462029001e-05
810 810 5.5603062254920198e-02
811 810 -4.9807786675620598e-10
1055 810 -3.9193403244551603e-05
810 811 -2.0233989404047900e-12
811 811 4.7033813203272497e-02
822 811 -4.6904315196998100e-02
1055 811 -3.9170682040378601e-05
809 812 -6.4118443588590597e-04
812 812 5.7929839577644603e-02
822 812 -5.7142857142857099e-02
1055 812 -6.5855383867220805e-05
813 813 5.1466951697921003e-02
814 813 -4.2834419863240999e-04
1054 813 -1.1388757228609499e-04
813 814 -4.3293712975997300e-04
814 814 4.1344251049288100e-02
1054 814 -1.1388589495485201e-04
1058 814 -4.0650406504064998e-02
815 815 5.1466962614998502e-02
816 815 -4.2835501917550000e-04
822 815 -1.1388757102089600e-04
815 816 -4.3294804572138599e-04
816 816 4.1344261919326497e-02
822 816 -1.1388589622009100e-04
1058 816 -4.0650406504064998e-02
817 817 2.8580466168253699e-01
818 817 -1.4095846572248801e-09
822 817 -3.7141353328722497e-05
817 818 -7.1260395473826004e-10
818 818 1.1005580772074700e-01
819 818 -1.0989010989011000e-01
822 818 -3.7101856073203099e-05
818 819 -1.0989010989011000e-01
819 819 2.6863029728487497e-01
820 819 -1.5873015873015900e-01
1054 819 -4.9830318518561402e-06
819 820 -1.5873015873015900e-01
820 820 1.5886396993018800e-01
821 820 -9.7278333266332405e-10
1054 820 -3.7202648267760498e-05
820 821 -8.7443833111990600e-12
821 821 2.8577242115528301e-01
1054 821 -3.6140078622287801e-05
1058 821 -2.8571428571428598e-01
811 822 -4.6904315196998100e-02
812 822 -5.7142857142857099e-02
815 822 -1.1257283893393401e-04
816 822 -1.1255351146405400e-04
817 822 -3.5457735581238799e-05
818 822 -3.5456566953718897e-05
822 822 1.0463849580970799e-01
1054 822 -3.8624756942151201e-06
1055 822 -9.8909426205184702e-07
1058 822 -9.8909426205184702e-07
823 823 6.8091355018229702e-02
824 823 -8.7195466312246697e-10
1060 823 -1.8576961100313999e-05
823 824 -9.1533116872965399e-10
824 824 5.1106131361673600e-02
856 824 -5.1020408163265300e-02
1060 824 -1.8657959686503600e-05
825 825 6.8749911312666001e-02
826 825 -6.0977683353092898e-04
1055 825 -6.2720711411918005e-05
825 826 -6.0799229180741505e-04
826 826 5.1767965884148399e-02
856 826 -5.1020408163265300e-02
1055 826 -6.2737388472868503e-05
827 827 2.0343573172469601e-01
828 827 -9.0108360106536103e-10
1055 827 -7.0347226128594903e-05
827 828 -3.6213450356367701e-12
828 828 7.6463900861976394e-02
829 828 -7.6219512195121894e-02
1055 828 -7.0308696018765496e-05
828 829 -7.6219512195121894e-02
829 829 1.9818783427392400e-01
830 829 -1.2195121951219499e-01
1060 829 -1.2056933852606700e-05
829 830 -1.2195121951219499e-01
830 830 1.2215700375311001e-01
831 830 -1.7706313974365601e-08
1060 830 -7.0361512820471200e-05
830 831 -7.4980430519118298e-11
831 831 2.0338944621043001e-01
856 831 -2.0325203252032500e-01
1060 831 -7.0353274578360004e-05
832 832 1.0187648084213299e-01
833 832 -8.1636442096936800e-10
855 832 -7.0346407718387095e-05
832 833 -3.3230155977836798e-12
833 833 8.7339574903686698e-02
855 833 -7.0306155157966107e-05
1051 833 -8.7108013937282194e-02
834 834 1.4430901744766900e-01
835 834 -1.2266986982851799e-03
855 834 -1.2469882513860899e-04
1051 834 -1.4285714285714299e-01
834 835 -1.2216248220047201e-03
835 835 1.3134925609136899e-01
854 835 -1.2987012987013000e-01
855 835 -1.2470198756832100e-04
836 836 1.4298556742986099e-01
837 836 -1.8208593522774601e-09
856 836 -3.7154301386017899e-05
836 837 -1.8197963491588501e-09
837 837 1.1005808825505700e-01
854 837 -1.0989010989011000e-01
856 837 -3.7154219275211998e-05
838 838 1.4431385389687501e-01
839 838 -1.2212501392513900e-03
1062 838 -1.2470084408425201e-04
838 839 -1.2263677064569100e-03
839 839 1.1138122246099701e-01
854 839 -1.0989010989011000e-01
1062 839 -1.2469996865879701e-04
840 840 5.1461492743233202e-02
841 840 -4.3210725039453902e-04
856 840 -1.1386592418333799e-04
840 841 -4.2803898183250901e-04
841 841 4.1347694213238501e-02
855 841 -4.0650406504064998e-02
856 841 -1.1389620737572000e-04
842 842 5.0940743641079200e-02
843 842 -6.0375053046915398e-10
1062 842 -3.5173151197309999e-05
842 843 -6.3541961236474599e-10
843 843 4.0821887193421801e-02
855 843 -4.0650406504064998e-02
1062 843 -3.5326220475761597e-05
844 844 2.8712781222938699e-01
845 844 -1.2263842610264399e-03
1062 844 -1.2469903008735099e-04
844 845 -1.2213410981192700e-03
845 845 1.1138647675653700e-01
846 845 -1.0989010989011000e-01
1062 845 -1.2470139420575201e-04
845 846 -1.0989010989011000e-01
846 846 2.6863029728487497e-01
847 846 -1.5873015873015900e-01
856 846 -4.9830318518561402e-06
846 847 -1.5873015873015900e-01
847 847 1.5886655932095600e-01
848 847 -1.9127481374177200e-09
856 847 -3.7266162811651102e-05
847 848 -1.6961534122923200e-11
848 848 2.8577241645959300e-01
855 848 -2.8571428571428598e-01
856 848 -3.6144815478199600e-05
849 849 1.0187648080538800e-01
850 849 -7.9254317778189599e-10
1062 849 -7.0346474436290906e-05
849 850 -3.1836419844260400e-12
850 850 8.7348151549002107e-02
851 850 -8.7108013937282194e-02
1062 850 -7.0308440163830099e-05
850 851 -8.7108013937282194e-02
851 851 1.8876452309713099e-01
852 851 -1.0162601626016300e-01
856 851 -2.0695858419894999e-05
851 852 -1.0162601626016300e-01
852 852 1.0180817255779601e-01
853 852 -1.8388918972438700e-08
856 852 -7.0361545694517703e-05
852 853 -7.7872203629975995e-11
853 853 1.0180245813400500e-01
856 853 -7.0353312106497597e-05
1051 853 -1.0162601626016300e-01
835 854 -1.2987012987013000e-01
837 854 -1.0989010989011000e-01
839 854 -1.0989010989011000e-01
854 854 3.4968928741180499e-01
855 854 -6.5230140573292702e-06
856 854 -3.9814174092719904e-06
1062 854 -4.1441797561919198e-06
832 855 -7.0288955039124798e-05
833 855 -7.0287631977560507e-05
834 855 -1.2388209147047799e-04
835 855 -1.2399004012238700e-04
841 855 -4.0650406504064998e-02
843 855 -4.0650406504064998e-02
848 855 -2.8571428571428598e-01
854 855 -6.5230140573292702e-06
855 855 3.6781512213845902e-01
856 855 -7.3305657016627403e-06
1051 855 -1.6839642815946000e-05
1062 855 -9.8909426205184702e-07
2362 855 -9.8909426205184702e-07
2366 855 -9.8909426205184702e-07
824 856 -5.1020408163265300e-02
826 856 -5.1020408163265300e-02
831 856 -2.0325203252032500e-01
836 856 -3.5457152150555097e-05
837 856 -3.5457150384402701e-05
840 856 -1.1232432622363100e-04
841 856 -1.1280365013006699e-04
846 856 -4.9830318518561402e-06
847 856 -3.5458763333700202e-05
848 856 -3.5455539201257603e-05
851 856 -2.0695858419894999e-05
852 856 -7.0304897794462400e-05
853 856 -7.0271689222222905e-05
854 856 -3.9814174092719904e-06
855 856 -7.3305657016627403e-06
856 856 3.0639172575144902e-01
1055 856 -9.8909426205184702e-07
1059 856 -9.8909426205184702e-07
1060 856 -4.5823860748224796e-06
1061 856 -9.8909426205184702e-07
1062 856 -5.4212381704867103e-06
2362 856 -9.8909426205184702e-07
2366 856 -1.9719284338375401e-06
857 857 2.8665740879758500e-01
858 857 -7.5526791685544400e-04
857 858 -7.7697967644169499e-04
858 858 1.1094486916259300e-01
859 858 -1.0989010989011000e-01
858 859 -1.0989010989011000e-01
859 859 2.6863029728487497e-01
860 859 -1.5873015873015900e-01
859 860 -1.5873015873015900e-01
860 860 1.5886899044948100e-01
865 860 -5.4195019928799502e-09
861 861 5.1459840463553903e-02
864 861 -4.3092889915980100e-04
862 862 5.1148323839792002e-02
863 862 -1.1934942346018001e-04
862 863 -1.3068042086467499e-04
863 863 4.1051498400764802e-02
1047 863 -4.0650406504064998e-02
861 864 -4.3925783769074302e-04
864 864 4.1360405004922003e-02
1047 864 -4.0650406504064998e-02
860 865 -3.1918796896638698e-11
865 865 2.8577230622081501e-01
1047 865 -2.8571428571428598e-01
866 866 1.0187648067273200e-01
867 866 -4.3359323959322598e-10
1047 866 -7.0343116225138604e-05
866 867 -1.7611201197969200e-12
867 867 8.7339632679806198e-02
1047 867 -7.0304986030597798e-05
1064 867 -8.7108013937282194e-02
868 868 1.4433030801899299e-01
869 868 -1.2479021507457999e-03
1047 868 -1.2467885837688799e-04
1064 868 -1.4285714285714299e-01
868 869 -1.2442175837333600e-03
869 869 1.3137204707018199e-01
888 869 -1.2987012987013000e-01
1047 869 -1.2471054058688799e-04
870 870 1.4430770998230599e-01
871 870 -1.2254028821948400e-03
917 870 -1.2466009101657301e-04
870 871 -1.2229380391333400e-03
871 871 1.0353924933542601e-01
888 871 -1.0204081632653100e-01
917 871 -1.2472935027266300e-04
872 872 1.4426141473726700e-01
873 872 -1.1789911201593899e-03
1050 872 -1.2465797494245399e-04
872 873 -1.1766643567760200e-03
873 873 1.0349287164949900e-01
888 873 -1.0204081632653100e-01
1050 873 -1.2473111033998901e-04
874 874 6.8091355040027904e-02
882 874 -9.0074443985822100e-10
875 875 6.8532294846138000e-02
881 875 -3.7279797617044202e-04
876 876 2.0385772282961900e-01
877 876 -2.4306357488318000e-04
876 877 -2.5317199475703402e-04
877 877 7.7008598140752005e-02
878 877 -7.6219512195121894e-02
877 878 -7.6219512195121894e-02
878 878 1.9818783427392400e-01
879 878 -1.2195121951219499e-01
878 879 -1.2195121951219499e-01
879 879 1.2329522437334201e-01
880 879 -8.6003861282997105e-04
879 880 -8.2510584452782205e-04
880 880 2.0442898531670300e-01
1050 880 -2.0325203252032500e-01
875 881 -2.2582447041123200e-05
881 881 5.2977305860348399e-02
1050 881 -5.2910052910052900e-02
874 882 -8.0625415249752607e-12
882 882 5.2955160503257298e-02
1050 882 -5.2910052910052900e-02
883 883 1.0187648070279499e-01
884 883 -4.8851761221924496e-09
1050 883 -7.0354910070811094e-05
883 884 -2.4272717519604902e-09
884 884 8.7447134808625995e-02
885 884 -8.7108013937282194e-02
1050 884 -7.0352934224843502e-05
884 885 -8.7108013937282194e-02
885 885 1.8876452309713099e-01
886 885 -1.0162601626016300e-01
917 885 -2.0695858419894999e-05
885 886 -1.0162601626016300e-01
886 886 1.0187396917609701e-01
887 886 -4.6660661773000396e-10
917 886 -7.0344928620214906e-05
886 887 -1.9008881334296200e-12
887 887 1.0180244433974101e-01
917 887 -7.0306227427961298e-05
1064 887 -1.0162601626016300e-01
869 888 -1.2987012987013000e-01
871 888 -1.0204081632653100e-01
873 888 -1.0204081632653100e-01
888 888 3.3399070028464700e-01
917 888 -3.9814174092719904e-06
1047 888 -6.5230140573292702e-06
1050 888 -4.1441797561919198e-06
889 889 4.0488247593822101e-02
892 889 -6.3932840147224704e-04
917 889 -6.5832502938534694e-05
890 890 5.5603065032973201e-02
891 890 -4.5164166506280801e-10
917 890 -3.9193084835612597e-05
890 891 -1.8337797839957400e-12
891 891 4.7033319509147499e-02
917 891 -3.9170598840421599e-05
1049 891 -4.6904315196998100e-02
889 892 -6.4194434158857305e-04
892 892 5.5726350360974397e-02
917 892 -6.5829108025491895e-05
1049 892 -5.4945054945054903e-02
893 893 5.1462340155585803e-02
894 893 -4.3294439431181502e-04
1054 893 -1.1388340075740900e-04
893 894 -4.2842471681483698e-04
894 894 4.1351572583207201e-02
916 894 -4.0650406504064998e-02
1054 894 -1.1388828961801100e-04
895 895 5.1461355569374402e-02
896 895 -4.3195254577959598e-04
1060 895 -1.1388337152605700e-04
895 896 -4.2744126313324699e-04
896 896 4.1350582115168497e-02
916 896 -4.0650406504064998e-02
1060 896 -1.1388826622558500e-04
897 897 2.8580466180809000e-01
898 897 -1.5511680812914600e-09
1060 897 -3.7159573431262002e-05
897 898 -7.6535648611609504e-10
898 898 1.0220802962390600e-01
899 898 -1.0204081632653100e-01
1060 898 -3.7118717036708803e-05
898 899 -1.0204081632653100e-01
899 899 2.6078100372129598e-01
900 899 -1.5873015873015900e-01
1054 899 -4.9830318518561402e-06
899 900 -1.5873015873015900e-01
900 900 1.5886390814368900e-01
901 900 -9.5872563729456402e-10
1054 900 -3.7201692228105300e-05
900 901 -8.6203225037144808e-12
901 901 2.8577242023574900e-01
916 901 -2.8571428571428598e-01
1054 901 -3.6140060661535002e-05
902 902 4.0485919014875499e-02
905 902 -6.4236491351120795e-04
916 902 -6.5828752433461600e-05
903 903 5.5603065040679502e-02
904 903 -4.4218112298175299e-10
916 903 -3.9193019260650003e-05
903 904 -1.7952616108611800e-12
904 904 4.3685273522613997e-02
915 904 -4.3554006968641097e-02
916 904 -3.9170576511919000e-05
902 905 -6.3981781897330203e-04
905 905 5.3696314970155201e-02
915 905 -5.2910052910052900e-02
916 905 -6.5831763822653903e-05
906 906 6.8091355067758499e-02
907 906 -9.2727934379434104e-10
974 906 -1.8629901018525500e-05
906 907 -8.1907869688290395e-12
907 907 5.1064823687343400e-02
917 907 -5.1020408163265300e-02
974 907 -1.8073018983158200e-05
908 908 6.8091355050238597e-02
909 908 -9.1087595220044603e-10
915 908 -1.8628355458976301e-05
908 909 -8.0434968400989595e-12
909 909 5.1064823687087202e-02
915 909 -1.8072428745122500e-05
917 909 -5.1020408163265300e-02
910 910 2.0448603639064600e-01
911 910 -8.5585185715381898e-04
915 910 -2.2646221499672699e-04
910 911 -8.6493236358404797e-04
911 911 7.7610069823802100e-02
912 911 -7.6219512195121894e-02
915 911 -2.2643753271246999e-04
911 912 -7.6219512195121894e-02
912 912 1.9818783427392400e-01
913 912 -1.2195121951219499e-01
974 912 -1.2056933852606700e-05
912 913 -1.2195121951219499e-01
913 913 1.2328811173344600e-01
914 913 -8.5533704146306905e-04
974 913 -2.2646493390265899e-04
913 914 -8.6437187926801003e-04
914 914 2.0447598280963700e-01
917 914 -2.0325203252032500e-01
974 914 -2.2643481309178300e-04
904 915 -4.3554006968641097e-02
905 915 -5.2910052910052900e-02
908 915 -1.7729339136609599e-05
909 915 -1.7727812130869300e-05
910 915 -2.2527149762608000e-04
911 915 -2.2498209189378499e-04
915 915 9.7225505734491804e-02
916 915 -9.8909426205184702e-07
974 915 -8.9644492611281306e-06
1050 915 -1.9719284338375401e-06
894 916 -4.0650406504064998e-02
896 916 -4.0650406504064998e-02
901 916 -2.8571428571428598e-01
902 916 -6.4997641445423905e-05
903 916 -3.9160976981040703e-05
904 916 -3.9160264356826798e-05
905 916 -6.5135323864568199e-05
915 916 -9.8909426205184702e-07
916 916 3.6765046128406398e-01
1047 916 -1.0892557063102601e-06
1050 916 -9.8909426205184702e-07
1054 916 -7.0864221812828501e-06
1060 916 -9.8909426205184702e-07
870 917 -1.2256260202296500e-04
871 917 -1.2531264363480700e-04
885 917 -2.0695858419894999e-05
886 917 -7.0288672794755998e-05
887 917 -7.0287914221929293e-05
888 917 -3.9814174092719904e-06
889 917 -6.5123346910129495e-05
890 917 -3.9160984627297899e-05
891 917 -3.9160256710569703e-05
892 917 -6.5009590061285207e-05
907 917 -5.1020408163265300e-02
909 917 -5.1020408163265300e-02
914 917 -2.0325203252032500e-01
917 917 3.0643023245500700e-01
974 917 -4.5823860748224796e-06
1050 917 -1.6276234691992399e-06
918 918 4.0489252778258503e-02
921 918 -6.4571945544643003e-04
973 918 -6.5805409666876605e-05
919 919 5.5603064701191300e-02
920 919 -3.6121267266651001e-10
973 919 -3.9192349603981100e-05
919 920 -1.4656520331581700e-12
920 920 4.3685247804515402e-02
940 920 -4.3554006968641097e-02
973 920 -3.9170365635021703e-05
918 921 -6.4470067601407805e-04
921 921 5.3701336890048697e-02
940 921 -5.2910052910052900e-02
973 921 -6.5842594688421904e-05
922 922 6.8091354969967793e-02
923 922 -8.3109595768490598e-10
940 922 -1.8572845837803899e-05
922 923 -8.6696794088184896e-10
923 923 5.1106117684829103e-02
940 923 -1.8643602075463000e-05
1059 923 -5.1020408163265300e-02
924 924 6.8751232300571202e-02
925 924 -6.1110001079976598e-04
1052 924 -6.2722238916660300e-05
924 925 -6.0921436339226697e-04
925 925 5.1769182729120101e-02
1052 925 -6.2736702558406393e-05
1059 925 -5.1020408163265300e-02
926 926 6.8534793313786799e-02
934 926 -3.7532566115925102e-04
927 927 6.8091355053970307e-02
933 927 -9.1468731570621000e-10
928 928 2.0447287163838099e-01
929 928 -8.6245667808669004e-04
928 929 -8.8561620725244403e-04
929 929 7.7646186145612195e-02
930 929 -7.6219512195121894e-02
929 930 -7.6219512195121894e-02
930 930 1.9818783427392400e-01
931 930 -1.2195121951219499e-01
930 931 -1.2195121951219499e-01
931 931 1.2270152293099500e-01
932 931 -2.6724783579250299e-04
931 932 -2.3759491442191901e-04
932 932 2.0384620957623900e-01
1052 932 -2.0325203252032500e-01
927 933 -8.0787260988146995e-12
933 933 5.2954837327769601e-02
1052 933 -5.2910052910052900e-02
926 934 -2.2399516010056600e-05
934 934 5.2976806510281901e-02
1052 934 -5.2910052910052900e-02
935 935 2.0343573171133900e-01
936 935 -8.2844217307760698e-10
1052 935 -7.0346735101832806e-05
935 936 -3.3284188568090198e-12
936 936 7.6463905741209995e-02
937 936 -7.6219512195121894e-02
1052 936 -7.0308527303823197e-05
936 937 -7.6219512195121894e-02
937 937 1.9818783427392400e-01
938 937 -1.2195121951219499e-01
940 937 -1.2056933852606700e-05
937 938 -1.2195121951219499e-01
938 938 1.2215700850554800e-01
939 938 -1.8708428240444700e-08
940 938 -7.0361556747901402e-05
938 939 -7.9226692922792995e-11
939 939 2.0338944745464499e-01
940 939 -7.0353312176765404e-05
1059 939 -2.0325203252032500e-01
920 940 -4.3554006968641097e-02
921 940 -5.2910052910052900e-02
922 940 -1.7728557087888600e-05
923 940 -1.7728594179590299e-05
937 940 -1.2056933852606700e-05
938 940 -7.0305186576532001e-05
939 940 -7.0271400440153305e-05
940 940 9.6902749954415404e-02
1052 940 -7.9064940061486307e-06
1059 940 -4.5823860748224796e-06
941 941 5.0940743425254398e-02
942 941 -3.7862125554488598e-10
1053 941 -3.5173109704569102e-05
941 942 -1.5359334214683500e-12
942 942 4.0766679592467103e-02
974 942 -4.0650406504064998e-02
1053 942 -3.5153048970095300e-05
943 943 5.0940743187477100e-02
944 943 -3.1999014541763798e-10
973 943 -3.5172609506932103e-05
943 944 -1.2973524846861700e-12
944 944 4.0766679554335397e-02
973 944 -3.5152896210132397e-05
974 944 -4.0650406504064998e-02
945 945 2.8713391254783199e-01
946 945 -1.2324986975516699e-03
973 945 -1.2469927002647899e-04
945 946 -1.2274256449129001e-03
946 946 1.1139405830746900e-01
947 946 -1.0989010989011000e-01
973 946 -1.2470121046130399e-04
946 947 -1.0989010989011000e-01
947 947 2.6863029728487497e-01
948 947 -1.5873015873015900e-01
1053 947 -4.9830318518561402e-06
947 948 -1.5873015873015900e-01
948 948 1.6019568513389901e-01
949 948 -1.2220839759557801e-03
1053 948 -1.2471342445922700e-04
948 949 -1.2266773376442700e-03
949 949 2.8712804761129601e-01
974 949 -2.8571428571428598e-01
1053 949 -1.2468710759039499e-04
950 950 2.8712727448455699e-01
951 950 -1.2258848725642201e-03
1061 950 -1.2464811953498899e-04
950 951 -1.2242091609374001e-03
951 951 1.0354357758261200e-01
952 951 -1.0204081632653100e-01
1061 951 -1.2473801306100499e-04
951 952 -1.0204081632653100e-01
952 952 2.2109748746467500e-01
954 952 -1.1904761904761900e-01
1048 952 -1.0016144425841501e-06
1061 952 -3.0048433277524500e-06
953 953 2.8714535118194001e-01
954 953 -1.2336537211448900e-03
973 953 -1.2471574240884801e-04
1048 953 -2.8571428571428598e-01
952 954 -1.1904761904761900e-01
953 954 -1.2358966545656699e-03
954 954 1.2053639485524900e-01
973 954 -1.2465847330106399e-04
955 955 1.0189245454961300e-01
956 955 -1.2828387508728299e-09
1061 955 -7.0346505728626505e-05
955 956 -1.0351547929443100e-09
956 956 7.6567872631952000e-02
972 956 -7.6219512195121894e-02
1061 956 -7.0345882235389200e-05
957 957 2.8580466158988399e-01
958 957 -1.3365086456035100e-09
957 958 -1.8164313305236500e-11
958 958 1.1000460866886699e-01
959 958 -1.0989010989011000e-01
958 959 -1.0989010989011000e-01
959 959 2.6863029728487497e-01
960 959 -1.5873015873015900e-01
959 960 -1.5873015873015900e-01
960 960 1.5916048337177999e-01
965 960 -2.0343042004920700e-04
961 961 5.1152833972140301e-02
964 961 -1.2131892506323900e-04
962 962 5.1460844327192501e-02
963 962 -4.3159401396882001e-04
962 963 -4.3123162010825101e-04
963 963 4.1351886861874000e-02
973 963 -4.0650406504064998e-02
961 964 -1.2421204434677401e-04
964 964 4.1042572465748800e-02
973 964 -4.0650406504064998e-02
960 965 -6.0455638684925996e-06
965 965 2.8577708393110302e-01
973 965 -2.8571428571428598e-01
966 966 1.0189245394298600e-01
967 966 -1.0410931003141999e-09
973 966 -7.0345276844284996e-05
966 967 -8.3996054034916502e-10
967 967 7.6567871753549899e-02
972 967 -7.6219512195121894e-02
973 967 -7.0344666439469097e-05
968 968 1.2052500534654501e-01
969 968 -1.2249790588662599e-03
1052 968 -1.2460631795770900e-04
968 969 -1.2260498095256300e-03
969 969 1.0354567339585501e-01
1048 969 -1.0204081632653100e-01
1052 969 -1.2476776229676501e-04
970 970 1.0181204460788600e-01
971 970 -2.8453597703749898e-12
1048 970 -1.0162601626016300e-01
1052 970 -7.0306233392718306e-05
970 971 -6.9859380635233996e-10
971 971 1.5270307594160501e-01
972 971 -1.5243902439024401e-01
1052 971 -7.0346115353648095e-05
956 972 -7.6219512195121894e-02
967 972 -7.6219512195121894e-02
971 972 -1.5243902439024401e-01
972 972 3.0493383244485001e-01
973 972 -5.9721261139079898e-06
1052 972 -1.9637903164915501e-05
1061 972 -3.9814174092719904e-06
918 973 -6.4210760130290306e-05
919 973 -3.9160911564353899e-05
920 973 -3.9160329773513602e-05
921 973 -6.5924050065378805e-05
943 973 -3.5144404076794703e-05
944 973 -3.5143889431547902e-05
945 973 -1.2389706245036900e-04
946 973 -1.2397503322968801e-04
953 973 -1.2537908897433499e-04
954 973 -1.2249630297420401e-04
963 973 -4.0650406504064998e-02
964 973 -4.0650406504064998e-02
965 973 -2.8571428571428598e-01
966 973 -7.0288456710834206e-05
967 973 -7.0288130305851099e-05
972 973 -5.9721261139079898e-06
973 973 3.6866553203841401e-01
974 973 -1.9719284338375401e-06
1048 973 -4.2130407491195804e-06
1052 973 -2.9610226958893901e-06
1053 973 -2.8796415224294300e-06
1054 973 -2.9610226958893901e-06
1060 973 -1.9719284338375401e-06
906 974 -1.7729352926158400e-05
907 974 -1.7727798341320499e-05
912 974 -1.2056933852606700e-05
913 974 -2.2530337240021100e-04
914 974 -2.2495044197491101e-04
915 974 -8.9644492611281306e-06
917 974 -4.5823860748224796e-06
942 974 -4.0650406504064998e-02
944 974 -4.0650406504064998e-02
949 974 -2.8571428571428598e-01
973 974 -1.9719284338375401e-06
974 974 3.6796909738312400e-01
1047 974 -9.8909426205184702e-07
1050 974 -9.8909426205184702e-07
1052 974 -9.8909426205184702e-07
1053 974 -7.0864221812828501e-06
975 975 2.8580466173044400e-01
976 975 -1.4715276618282701e-09
991 975 -3.7151868709416201e-05
975 976 -7.1240690586150798e-10
976 976 1.1005416114561400e-01
977 976 -1.0989010989011000e-01
991 976 -3.7110477056939798e-05
976 977 -1.0989010989011000e-01
977 977 2.6863029728487497e-01
978 977 -1.5873015873015900e-01
977 978 -1.5873015873015900e-01
978 978 1.5886386202738900e-01
981 978 -1.0597302042770400e-09
979 979 5.1461784087694702e-02
980 979 -4.3238279071428803e-04
991 979 -1.1388481568394000e-04
979 980 -4.2783158380321702e-04
980 980 4.1347476936209097e-02
991 980 -1.1388761521528800e-04
1065 980 -4.0650406504064998e-02
978 981 -9.5480288446199008e-12
981 981 2.8577242054860302e-01
1065 981 -2.8571428571428598e-01
982 982 6.8751661506815900e-02
983 982 -6.1154302862280495e-04
1058 982 -6.2709262723846204e-05
982 983 -6.1050224482370695e-04
983 983 5.3658552026042097e-02
991 983 -5.2910052910052900e-02
1058 983 -6.2742749969191801e-05
984 984 6.8728262157309206e-02
985 984 -5.8808463246386297e-04
1050 984 -6.2708103434346994e-05
984 985 -5.8711090286845302e-04
985 985 5.3635107840542900e-02
991 985 -5.2910052910052900e-02
1050 985 -6.2743566933237300e-05
986 986 2.0343573562917899e-01
987 986 -4.9190817268201804e-09
1050 986 -7.0354911715270402e-05
986 987 -2.4840803881525300e-09
987 987 8.7447078762728295e-02
988 987 -8.7108013937282194e-02
1050 987 -7.0352967195476195e-05
987 988 -8.7108013937282194e-02
988 988 2.0907633601608400e-01
989 988 -1.2195121951219499e-01
1058 988 -1.2056933852606700e-05
988 989 -1.2195121951219499e-01
989 989 1.2223545545010700e-01
990 989 -4.6402849014983901e-10
1058 989 -7.0344866107458799e-05
989 990 -1.8903636202792799e-12
990 990 2.0338943655335301e-01
991 990 -2.0325203252032500e-01
1058 990 -7.0306191498059205e-05
975 991 -3.5457787868230302e-05
976 991 -3.5456514666727402e-05
979 991 -1.1254111954463200e-04
980 991 -1.1258531914560399e-04
983 991 -5.2910052910052900e-02
985 991 -5.2910052910052900e-02
990 991 -2.0325203252032500e-01
991 991 3.0963878783624399e-01
1058 991 -4.5823860748224796e-06
992 992 4.0461244192269402e-02
995 992 -6.1765526388973802e-04
1050 992 -6.5769354916752305e-05
993 993 5.5603063452325199e-02
994 993 -1.9648518489439502e-09
1050 993 -3.9197702391432998e-05
993 994 -8.0194009143038302e-12
994 994 4.3685210729441398e-02
1005 994 -4.3554006968641097e-02
1050 994 -3.9171999624147199e-05
992 995 -6.1886944120070203e-04
995 995 5.3675635456127802e-02
1005 995 -5.2910052910052900e-02
1050 995 -6.5860703540321998e-05
996 996 5.0940743470315103e-02
997 996 -3.1684839857403498e-10
1047 996 -3.5171227592611599e-05
996 997 -3.2787345298356798e-10
997 997 4.0821853020892800e-02
1045 997 -4.0650406504064998e-02
1047 997 -3.5278364538355600e-05
998 998 5.1462442595935097e-02
999 998 -4.3305744389316402e-04
1005 998 -1.1387288724323400e-04
998 999 -4.2880619348126302e-04
999 999 4.1348463703999000e-02
1005 999 -1.1389304063032100e-04
1045 999 -4.0650406504064998e-02
1000 1000 2.8580466188641201e-01
1001 1000 -1.6139104314081800e-09
1005 1000 -3.7230241137916202e-05
1000 1001 -1.5194417391691199e-11
1001 1001 1.0998120281819400e-01
1002 1001 -1.0989010989011000e-01
1005 1001 -3.6185083245065599e-05
1001 1002 -1.0989010989011000e-01
1002 1002 2.6863029728487497e-01
1003 1002 -1.5873015873015900e-01
1047 1002 -4.9830318518561402e-06
1002 1003 -1.5873015873015900e-01
1003 1003 1.5881275425300900e-01
1004 1003 -3.4272729794827900e-08
1047 1003 -3.8113743580856901e-05
1003 1004 -7.8404266791527595e-10
1004 1004 2.8577241872368903e-01
1045 1004 -2.8571428571428598e-01
1047 1004 -3.7929036156686703e-05
994 1005 -4.3554006968641097e-02
995 1005 -5.2910052910052900e-02
998 1005 -1.1240384367954300e-04
999 1005 -1.1272356783255100e-04
1000 1005 -3.5458510628307600e-05
1001 1005 -3.5455791906650198e-05
1005 1005 9.7039605060718001e-02
1047 1005 -2.8796415224294300e-06
1058 1005 -9.8909426205184702e-07
1006 1006 6.8751694948358102e-02
1007 1006 -6.1155996504859997e-04
1058 1006 -6.2731770417157295e-05
1006 1007 -6.0904901548511803e-04
1007 1007 5.3656981916475402e-02
1044 1007 -5.2910052910052900e-02
1058 1007 -6.2732686023851802e-05
1008 1008 6.8751917321356396e-02
1009 1008 -6.1178287836345896e-04
1062 1008 -6.2731771123163200e-05
1008 1009 -6.0927136572653303e-04
1009 1009 5.3657204786480499e-02
1044 1009 -5.2910052910052900e-02
1062 1009 -6.2732686451349900e-05
1010 1010 2.0343573322457500e-01
1011 1010 -1.2060292564793700e-09
1062 1010 -7.0346423005015395e-05
1010 1011 -8.0229079574566098e-10
1011 1011 8.7448332146514804e-02
1012 1011 -8.7108013937282194e-02
1062 1011 -7.0345297254278095e-05
1011 1012 -8.7108013937282194e-02
1012 1012 2.0907633601608400e-01
1013 1012 -1.2195121951219499e-01
1058 1012 -1.2056933852606700e-05
1012 1013 -1.2195121951219499e-01
1013 1013 1.2223644555060501e-01
1014 1013 -5.6858197001370204e-10
1058 1013 -7.0345436975951102e-05
1013 1014 -2.3156061276499901e-12
1014 1014 2.0338945517600199e-01
1044 1014 -2.0325203252032500e-01
1058 1014 -7.0306202808008100e-05
1015 1015 1.0187648130727800e-01
1016 1015 -1.2800339742985200e-09
1045 1015 -7.0346398481080700e-05
1015 1016 -1.3156807038756999e-09
1016 1016 8.7450895472814205e-02
1043 1016 -8.7108013937282194e-02
1045 1016 -7.0511946507413993e-05
1017 1017 1.4292839474255001e-01
1018 1017 -6.8322854411396596e-10
1043 1017 -1.4285714285714299e-01
1045 1017 -3.7911813038520898e-05
1017 1018 -3.0392823924076999e-08
1018 1018 1.2995642981366001e-01
1028 1018 -1.2987012987013000e-01
1045 1018 -3.8111335391362898e-05
1019 1019 1.4298556738682699e-01
1020 1019 -1.8160854469182000e-09
1044 1019 -3.7250832657523799e-05
1019 1020 -1.7222136933492700e-11
1020 1020 1.0998146345008700e-01
1028 1020 -1.0989010989011000e-01
1044 1020 -3.6198073294855097e-05
1021 1021 1.4298556739664900e-01
1022 1021 -1.8251219746873901e-09
1049 1021 -3.7251691240487402e-05
1021 1022 -1.7309285940928200e-11
1022 1022 1.0998146345026701e-01
1028 1022 -1.0989010989011000e-01
1049 1022 -3.6198427949272198e-05
1023 1023 1.0291738875250400e-01
1024 1023 -8.6496506853322704e-04
1049 1023 -2.2643929297057200e-04
1023 1024 -8.5599433665658000e-04
1024 1024 8.8501227449949094e-02
1025 1024 -8.7108013937282194e-02
1049 1024 -2.2645750885207501e-04
1024 1025 -8.7108013937282194e-02
1025 1025 1.8876452309713099e-01
1026 1025 -1.0162601626016300e-01
1044 1025 -2.0695858419894999e-05
1025 1026 -1.0162601626016300e-01
1026 1026 1.0291777592216400e-01
1027 1026 -8.6531628331580005e-04
1044 1026 -2.2643845371671901e-04
1026 1027 -8.5639421954100496e-04
1027 1027 1.0292728745437900e-01
1043 1027 -1.0162601626016300e-01
1044 1027 -2.2645514508596801e-04
1018 1028 -1.2987012987013000e-01
1020 1028 -1.0989010989011000e-01
1022 1028 -1.0989010989011000e-01
1028 1028 3.4968928741180499e-01
1044 1028 -3.9814174092719904e-06
1045 1028 -6.5230140573292702e-06
1049 1028 -4.1441797561919198e-06
1029 1029 1.0187648085884400e-01
1030 1029 -8.2611266345230396e-10
1043 1029 -7.0346487622613193e-05
1029 1030 -3.3628342897524198e-12
1030 1030 8.7339573780966406e-02
1043 1030 -7.0306176283943701e-05
1046 1030 -8.7108013937282194e-02
1031 1031 1.4430869785410000e-01
1032 1031 -1.2263703860264201e-03
1043 1031 -1.2469940659242599e-04
1046 1031 -1.4285714285714299e-01
1031 1032 -1.2212767963111000e-03
1032 1032 1.3134891100405999e-01
1042 1032 -1.2987012987013000e-01
1043 1032 -1.2470138334100299e-04
1033 1033 1.4298556727962700e-01
1034 1033 -1.6816990122296900e-09
1048 1033 -3.7140581781832799e-05
1033 1034 -1.6820246773918899e-09
1034 1034 1.1005809279971900e-01
1042 1034 -1.0989010989011000e-01
1048 1034 -3.7141268174332603e-05
1035 1035 1.4430884707673999e-01
1036 1035 -1.2265131037676000e-03
1045 1035 -1.2470031549821701e-04
1035 1036 -1.2213843009779700e-03
1036 1036 1.1138651321769399e-01
1042 1036 -1.0989010989011000e-01
1045 1036 -1.2470047155008001e-04
1037 1037 1.0187648081661101e-01
1038 1037 -7.8940142001026997e-10
1045 1037 -7.0346450670453505e-05
1037 1038 -3.1710456396219099e-12
1038 1038 8.7348134219544293e-02
1039 1038 -8.7108013937282194e-02
1045 1038 -7.0308427210014101e-05
1038 1039 -8.7108013937282194e-02
1039 1039 1.8876452309713099e-01
1040 1039 -1.0162601626016300e-01
1048 1039 -2.0695858419894999e-05
1039 1040 -1.0162601626016300e-01
1040 1040 1.0180816228686700e-01
1041 1040 -1.9626614263016300e-08
1048 1040 -7.0361593267367998e-05
1040 1041 -8.3117114984598002e-11
1041 1041 1.0180245739715200e-01
1046 1041 -1.0162601626016300e-01
1048 1041 -7.0353368543853905e-05
1032 1042 -1.2987012987013000e-01
1034 1042 -1.0989010989011000e-01
1036 1042 -1.0989010989011000e-01
1042 1042 3.4968928741180499e-01
1043 1042 -6.5230140573292702e-06
1045 1042 -4.1441797561919198e-06
1048 1042 -3.9814174092719904e-06
1016 1043 -8.7108013937282194e-02
1017 1043 -1.4285714285714299e-01
1027 1043 -1.0162601626016300e-01
1029 1043 -7.0288962960987807e-05
1030 1043 -7.0287624055697499e-05
1031 1043 -1.2390192563216401e-04
1032 1043 -1.2397015889458601e-04
1042 1043 -6.5230140573292702e-06
1043 1043 3.3234989543707100e-01
1045 1043 -1.7828737077997899e-05
1046 1043 -1.6839642815946000e-05
1048 1043 -1.2269776921655799e-06
1058 1043 -1.9719284338375401e-06
1007 1044 -5.2910052910052900e-02
1009 1044 -5.2910052910052900e-02
1014 1044 -2.0325203252032500e-01
1019 1044 -3.5458681192501798e-05
1020 1044 -3.5455621342455899e-05
1025 1044 -2.0695858419894999e-05
1026 1044 -2.2499281300527199e-04
1027 1044 -2.2526070086484399e-04
1028 1044 -3.9814174092719904e-06
1044 1044 3.0994585958004101e-01
1045 1044 -1.2269776921655799e-06
1046 1044 -9.8909426205184702e-07
1049 1044 -6.4478929741354603e-07
1058 1044 -4.5823860748224796e-06
1062 1044 -9.8909426205184702e-07
997 1045 -4.0650406504064998e-02
999 1045 -4.0650406504064998e-02
1004 1045 -2.8571428571428598e-01
1015 1045 -7.0288275555210596e-05
1016 1045 -7.0288311461474696e-05
1017 1045 -3.5428775982386102e-05
1018 1045 -3.5485526552571703e-05
1028 1045 -6.5230140573292702e-06
1035 1045 -1.2393290409241499e-04
1036 1045 -1.2393910683980601e-04
1037 1045 -7.0288933217759405e-05
1038 1045 -7.0287653798925900e-05
1042 1045 -4.1441797561919198e-06
1043 1045 -1.7828737077997899e-05
1044 1045 -1.2269776921655799e-06
1045 1045 3.6818735786179402e-01
1047 1045 -6.0973279192310098e-06
1048 1045 -6.4478929741354603e-07
1049 1045 -9.8909426205184702e-07
1058 1045 -1.9719284338375401e-06
1030 1046 -8.7108013937282194e-02
1031 1046 -1.4285714285714299e-01
1041 1046 -1.0162601626016300e-01
1043 1046 -1.6839642815946000e-05
1044 1046 -9.8909426205184702e-07
1046 1046 3.3215808682908998e-01
1047 1046 -1.9719284338375401e-06
1051 1046 -2.9610226958893901e-06
1064 1046 -9.8909426205184702e-07
1065 1046 -9.8909426205184702e-07
1068 1046 -9.8909426205184702e-07
2372 1046 -2.9610226958893901e-06
863 1047 -4.0650406504064998e-02
864 1047 -4.0650406504064998e-02
865 1047 -2.8571428571428598e-01
866 1047 -7.0288644191889599e-05
867 1047 -7.0287942824795707e-05
868 1047 -1.2318789583820499e-04
869 1047 -1.2468585455488999e-04
888 1047 -6.5230140573292702e-06
916 1047 -1.0892557063102601e-06
974 1047 -9.8909426205184702e-07
996 1047 -3.5144141232622203e-05
997 1047 -3.5144152275720402e-05
1002 1047 -4.9830318518561402e-06
1003 1047 -3.5489152913843397e-05
1004 1047 -3.5425149621114300e-05
1005 1047 -2.8796415224294300e-06
1045 1047 -6.0973279192310098e-06
1046 1047 -1.9719284338375401e-06
1047 1047 3.6826180418154802e-01
1049 1047 -9.8909426205184702e-07
1051 1047 -1.9719284338375401e-06
1058 1047 -9.8909426205184702e-07
1064 1047 -1.6839642815946000e-05
1065 1047 -9.8909426205184702e-07
952 1048 -1.0016144425841501e-06
953 1048 -2.8571428571428598e-01
969 1048 -1.0204081632653100e-01
970 1048 -1.0162601626016300e-01
973 1048 -4.2130407491195804e-06
1033 1048 -3.5457151098272298e-05
1034 1048 -3.5457151436685399e-05
1039 1048 -2.0695858419894999e-05
1040 1048 -7.0306016073296896e-05
1041 1048 -7.0270570943388395e-05
1042 1048 -3.9814174092719904e-06
1043 1048 -1.2269776921655799e-06
1045 1048 -6.4478929741354603e-07
1048 1048 4.8998347429293598e-01
1052 1048 -2.2160719542174299e-06
1058 1048 -9.8909426205184702e-07
1059 1048 -9.8909426205184702e-07
1061 1048 -3.1989061260031302e-06
891 1049 -4.6904315196998100e-02
892 1049 -5.4945054945054903e-02
1021 1049 -3.5458688827798903e-05
1022 1049 -3.5455613707158902e-05
1023 1049 -2.2500265763963201e-04
1024 1049 -2.2525078611563900e-04
1028 1049 -4.1441797561919198e-06
1044 1049 -6.4478929741354603e-07
1045 1049 -9.8909426205184702e-07
1047 1049 -9.8909426205184702e-07
1049 1049 1.0273094898899100e-01
1050 1049 -9.8909426205184702e-07
1065 1049 -9.8909426205184702e-07
872 1050 -1.2254950439972501e-04
873 1050 -1.2532588277015301e-04
880 1050 -2.0325203252032500e-01
881 1050 -5.2910052910052900e-02
882 1050 -5.2910052910052900e-02
883 1050 -7.0290299366558499e-05
884 1050 -7.0286287650126806e-05
888 1050 -4.1441797561919198e-06
915 1050 -1.9719284338375401e-06
916 1050 -9.8909426205184702e-07
917 1050 -1.6276234691992399e-06
974 1050 -9.8909426205184702e-07
984 1050 -6.1189013119539797e-05
985 1050 -6.2748889029265207e-05
986 1050 -7.0290280627706206e-05
987 1050 -7.0286306388979100e-05
992 1050 -6.3091825519122295e-05
993 1050 -3.9162210902633799e-05
994 1050 -3.9159030435233702e-05
995 1050 -6.7045732350174406e-05
1049 1050 -9.8909426205184702e-07
1050 1050 3.1085317326728001e-01
1058 1050 -7.9816150893424393e-06
833 1051 -8.7108013937282194e-02
834 1051 -1.4285714285714299e-01
853 1051 -1.0162601626016300e-01
855 1051 -1.6839642815946000e-05
1046 1051 -2.9610226958893901e-06
1047 1051 -1.9719284338375401e-06
1051 1051 3.3225452977973102e-01
1064 1051 -9.8909426205184702e-07
1065 1051 -9.8909426205184702e-07
1068 1051 -9.8909426205184702e-07
2364 1051 -9.8909426205184702e-07
2366 1051 -1.9719284338375401e-06
2372 1051 -2.9610226958893901e-06
781 1052 -6.0279957613873198e-05
782 1052 -6.3659989680809399e-05
787 1052 -1.2056933852606700e-05
788 1052 -7.0288652773837197e-05
789 1052 -7.0287934242848095e-05
796 1052 -6.1475333213843904e-05
797 1052 -6.2461835249992404e-05
798 1052 -7.0288569126210598e-05
799 1052 -7.0288017890474694e-05
804 1052 -9.8784224399861707e-06
924 1052 -6.1628416924458702e-05
925 1052 -6.2308390363770904e-05
932 1052 -2.0325203252032500e-01
933 1052 -5.2910052910052900e-02
934 1052 -5.2910052910052900e-02
935 1052 -7.0288964952982294e-05
936 1052 -7.0287622063702998e-05
940 1052 -7.9064940061486307e-06
968 1052 -1.2073050518802601e-04
969 1052 -1.2714899443965499e-04
970 1052 -7.0287726709097195e-05
971 1052 -7.0288860307588002e-05
972 1052 -1.9637903164915501e-05
973 1052 -2.9610226958893901e-06
974 1052 -9.8909426205184702e-07
1048 1052 -2.2160719542174299e-06
1052 1052 3.1142626195754702e-01
1053 1052 -1.9719284338375401e-06
1054 1052 -8.5262429424975699e-06
1055 1052 -1.9719284338375401e-06
1056 1052 -7.9064940061486307e-06
1058 1052 -9.8909426205184702e-07
1060 1052 -1.9719284338375401e-06
1063 1052 -9.8909426205184702e-07
2362 1052 -9.8909426205184702e-07
2363 1052 -1.9719284338375401e-06
792 1053 -4.6904315196998100e-02
793 1053 -5.7142857142857099e-02
803 1053 -1.9719284338375401e-06
804 1053 -9.8909426205184702e-07
941 1053 -3.5144451374577601e-05
942 1053 -3.5143842133765099e-05
947 1053 -4.9830318518561402e-06
948 1053 -1.2439054261104100e-04
949 1053 -1.2348253474667501e-04
973 1053 -2.8796415224294300e-06
974 1053 -7.0864221812828501e-06
1052 1053 -1.9719284338375401e-06
1053 1053 1.0491645445181801e-01
1054 1053 -1.9719284338375401e-06
1055 1053 -1.9719284338375401e-06
1056 1053 -9.8909426205184702e-07
1058 1053 -9.8909426205184702e-07
1063 1053 -9.8909426205184702e-07
2362 1053 -1.3897400390855100e-06
2363 1053 -9.8909426205184702e-07
782 1054 -5.2910052910052900e-02
784 1054 -5.2910052910052900e-02
789 1054 -2.0325203252032500e-01
804 1054 -9.8909426205184702e-07
813 1054 -1.1257285330297900e-04
814 1054 -1.1255349719802200e-04
819 1054 -4.9830318518561402e-06
820 1054 -3.5457974946983100e-05
821 1054 -3.5456327587974698e-05
822 1054 -3.8624756942151201e-06
893 1054 -1.1252481489903900e-04
894 1054 -1.1260173945677500e-04
899 1054 -4.9830318518561402e-06
900 1054 -3.5457963103091198e-05
901 1054 -3.5456339431866499e-05
916 1054 -7.0864221812828501e-06
973 1054 -2.9610226958893901e-06
1052 1054 -8.5262429424975699e-06
1053 1054 -1.9719284338375401e-06
1054 1054 3.1042215559345299e-01
1055 1054 -1.9719284338375401e-06
1058 1054 -7.0864221812828501e-06
1060 1054 -3.7936147012874600e-06
1063 1054 -9.8909426205184702e-07
2362 1054 -2.9610226958893901e-06
2363 1054 -1.9719284338375401e-06
2364 1054 -2.9610226958893901e-06
637 1055 -6.0504951929151799e-05
638 1055 -6.3434484274546194e-05
643 1055 -1.2056933852606700e-05
644 1055 -7.0288802319829404e-05
645 1055 -7.0287784696855901e-05
646 1055 -4.5823860748224796e-06
704 1055 -6.1484156155992199e-05
705 1055 -6.2452993681232395e-05
712 1055 -2.0325203252032500e-01
713 1055 -5.2910052910052900e-02
714 1055 -5.2910052910052900e-02
715 1055 -7.0288681965263193e-05
716 1055 -7.0287905051422004e-05
720 1055 -7.9816150893424393e-06
762 1055 -1.9719284338375401e-06
763 1055 -1.1768969700363800e-06
764 1055 -9.8909426205184702e-07
765 1055 -2.5228163772588302e-06
766 1055 -9.8909426205184702e-07
767 1055 -4.8953905881300296e-06
809 1055 -6.3299841238322998e-05
810 1055 -3.9161022165194302e-05
811 1055 -3.9160219172673301e-05
812 1055 -6.6837097613917204e-05
822 1055 -9.8909426205184702e-07
825 1055 -6.1578297052332601e-05
826 1055 -6.2358630360625502e-05
827 1055 -7.0289024008867503e-05
828 1055 -7.0287563007817694e-05
856 1055 -9.8909426205184702e-07
1052 1055 -1.9719284338375401e-06
1053 1055 -1.9719284338375401e-06
1054 1055 -1.9719284338375401e-06
1055 1055 3.1126249112633902e-01
1058 1055 -9.8909426205184702e-07
1059 1055 -9.8909426205184702e-07
1060 1055 -8.9644492611281306e-06
1061 1055 -9.8909426205184702e-07
1062 1055 -7.9816150893424393e-06
1063 1055 -1.9719284338375401e-06
2362 1055 -9.8909426205184702e-07
2363 1055 -1.9719284338375401e-06
2364 1055 -9.8909426205184702e-07
2365 1055 -9.8909426205184702e-07
2366 1055 -9.8909426205184702e-07
2370 1055 -9.8909426205184702e-07
620 1056 -1.2368587542685601e-04
621 1056 -1.2418671322904099e-04
624 1056 -7.0288642459796302e-05
625 1056 -7.0287944556889003e-05
630 1056 -5.9721261139079898e-06
631 1056 -5.1958749209052700e-06
679 1056 -6.5358776533437697e-05
680 1056 -3.9160813271893499e-05
681 1056 -3.9160428065974002e-05
682 1056 -6.4774707160043305e-05
727 1056 -4.0650406504064998e-02
728 1056 -4.0650406504064998e-02
729 1056 -2.8571428571428598e-01
730 1056 -3.5144142608681097e-05
731 1056 -3.5144150899661603e-05
736 1056 -4.9830318518561402e-06
737 1056 -3.5487741778705403e-05
738 1056 -3.5426560756252301e-05
763 1056 -6.0973279192310098e-06
794 1056 -6.1479347006327493e-05
795 1056 -6.2457795347412295e-05
800 1056 -1.2056933852606700e-05
801 1056 -7.0288565178106804e-05
802 1056 -7.0288021838578501e-05
803 1056 -4.5823860748224796e-06
804 1056 -1.9719284338375401e-06
1052 1056 -7.9064940061486307e-06
1053 1056 -9.8909426205184702e-07
1056 1056 3.6903477799663198e-01
1057 1056 -4.7764488730731602e-06
2362 1056 -2.3725742108711999e-06
2363 1056 -1.9719284338375401e-06
2364 1056 -3.2990675702615398e-06
2365 1056 -2.9610226958893901e-06
596 1057 -1.1250471871850400e-04
597 1057 -1.1262197875381800e-04
598 1057 -3.5457779300941997e-05
599 1057 -3.5456523234015801e-05
632 1057 -9.8909426205184702e-07
683 1057 -2.2514651644448599e-04
684 1057 -2.2510619032897701e-04
685 1057 -3.5456069577903999e-05
686 1057 -3.5458232957053799e-05
696 1057 -6.5230140573292702e-06
697 1057 -1.9719284338375401e-06
732 1057 -1.1244757148981900e-04
733 1057 -1.1267953162951399e-04
734 1057 -3.5458599812236702e-05
735 1057 -3.5455702722721002e-05
766 1057 -2.8796415224294300e-06
779 1057 -4.6904315196998100e-02
780 1057 -5.7142857142857099e-02
1056 1057 -4.7764488730731602e-06
1057 1057 1.0584036443009000e-01
1061 1057 -1.6839642815946000e-05
2362 1057 -9.8909426205184702e-07
2363 1057 -9.8909426205184702e-07
2364 1057 -9.8909426205184702e-07
2365 1057 -9.8909426205184702e-07
814 1058 -4.0650406504064998e-02
816 1058 -4.0650406504064998e-02
821 1058 -2.8571428571428598e-01
822 1058 -9.8909426205184702e-07
982 1058 -6.1194186260351202e-05
983 1058 -6.2743641075663697e-05
988 1058 -1.2056933852606700e-05
989 1058 -7.0288670663195906e-05
990 1058 -7.0287916353489399e-05
991 1058 -4.5823860748224796e-06
1005 1058 -9.8909426205184702e-07
1006 1058 -6.1946774378111201e-05
1007 1058 -6.1989277895369604e-05
1012 1058 -1.2056933852606700e-05
1013 1058 -7.0288755183046795e-05
1014 1058 -7.0287831833638496e-05
1043 1058 -1.9719284338375401e-06
1044 1058 -4.5823860748224796e-06
1045 1058 -1.9719284338375401e-06
1047 1058 -9.8909426205184702e-07
1048 1058 -9.8909426205184702e-07
1050 1058 -7.9816150893424393e-06
1052 1058 -9.8909426205184702e-07
1053 1058 -9.8909426205184702e-07
1054 1058 -7.0864221812828501e-06
1055 1058 -9.8909426205184702e-07
1058 1058 3.6846766612537102e-01
1059 1058 -9.8909426205184702e-07
1060 1058 -9.8909426205184702e-07
1061 1058 -9.8909426205184702e-07
1062 1058 -7.9816150893424393e-06
2362 1058 -1.9719284338375401e-06
2363 1058 -9.8909426205184702e-07
2364 1058 -1.9719284338375401e-06
2365 1058 -9.8909426205184702e-07
2366 1058 -1.9719284338375401e-06
606 1059 -3.5455534514190198e-05
607 1059 -3.5458768020767600e-05
610 1059 -2.2502714588718700e-04
611 1059 -2.2522612335121100e-04
616 1059 -5.9721261139079898e-06
626 1059 -3.5457190004871797e-05
627 1059 -3.5457112530086001e-05
628 1059 -7.0261407871782895e-05
629 1059 -7.0315179144902397e-05
630 1059 -1.9637903164915501e-05
631 1059 -2.2160719542174299e-06
767 1059 -5.1958749209052700e-06
856 1059 -9.8909426205184702e-07
923 1059 -5.1020408163265300e-02
925 1059 -5.1020408163265300e-02
939 1059 -2.0325203252032500e-01
940 1059 -4.5823860748224796e-06
1048 1059 -9.8909426205184702e-07
1055 1059 -9.8909426205184702e-07
1058 1059 -9.8909426205184702e-07
1059 1059 3.0669434066980400e-01
1061 1059 -1.9719284338375401e-06
1063 1059 -9.8909426205184702e-07
2362 1059 -9.8909426205184702e-07
2364 1059 -1.6401436497315400e-06
2366 1059 -9.8909426205184702e-07
807 1060 -4.3554006968641097e-02
808 1060 -5.2910052910052900e-02
823 1060 -1.7728553207258299e-05
824 1060 -1.7728598060220600e-05
829 1060 -1.2056933852606700e-05
830 1060 -7.0304281421240799e-05
831 1060 -7.0272305595444506e-05
856 1060 -4.5823860748224796e-06
895 1060 -1.1252458206970000e-04
896 1060 -1.1260197452417200e-04
897 1060 -3.5457810335922803e-05
898 1060 -3.5456492199035002e-05
916 1060 -9.8909426205184702e-07
973 1060 -1.9719284338375401e-06
1052 1060 -1.9719284338375401e-06
1054 1060 -3.7936147012874600e-06
1055 1060 -8.9644492611281306e-06
1058 1060 -9.8909426205184702e-07
1060 1060 9.7587134128178099e-02
1063 1060 -9.8909426205184702e-07
2362 1060 -9.8909426205184702e-07
2364 1060 -9.8909426205184702e-07
2365 1060 -1.9719284338375401e-06
603 1061 -1.2389666839055300e-04
604 1061 -1.2397542865828700e-04
605 1061 -3.0048433277524500e-06
608 1061 -7.0288286491123700e-05
609 1061 -7.0288300525561605e-05
616 1061 -3.9814174092719904e-06
684 1061 -7.6219512195121894e-02
685 1061 -1.4285714285714299e-01
695 1061 -1.0162601626016300e-01
762 1061 -1.9719284338375401e-06
763 1061 -1.1768969700363800e-06
764 1061 -1.2645382337624900e-06
766 1061 -9.8909426205184702e-07
767 1061 -3.1989061260031302e-06
856 1061 -9.8909426205184702e-07
950 1061 -1.2215382081884300e-04
951 1061 -1.2572237913816299e-04
952 1061 -3.0048433277524500e-06
955 1061 -7.0288494607150296e-05
956 1061 -7.0288092409534996e-05
972 1061 -3.9814174092719904e-06
1048 1061 -3.1989061260031302e-06
1055 1061 -9.8909426205184702e-07
1057 1061 -1.6839642815946000e-05
1058 1061 -9.8909426205184702e-07
1059 1061 -1.9719284338375401e-06
1061 1061 3.2235241953361199e-01
1063 1061 -9.8909426205184702e-07
2362 1061 -9.8909426205184702e-07
2364 1061 -9.8909426205184702e-07
2366 1061 -2.9610226958893901e-06
639 1062 -6.0508354489997602e-05
640 1062 -6.3431064059083297e-05
641 1062 -7.0288632516272095e-05
642 1062 -7.0287954500413197e-05
651 1062 -4.6904315196998100e-02
652 1062 -5.4945054945054903e-02
653 1062 -3.5144459248831802e-05
654 1062 -3.5143834259510898e-05
655 1062 -1.2309255666560900e-04
656 1062 -1.2478144222042800e-04
765 1062 -9.8909426205184702e-07
767 1062 -9.8909426205184702e-07
838 1062 -1.2395095598020001e-04
839 1062 -1.2392108303923099e-04
842 1062 -3.5144130876422697e-05
843 1062 -3.5144162631919902e-05
844 1062 -1.2388909243956500e-04
845 1062 -1.2398302257366899e-04
849 1062 -7.0288935771431604e-05
850 1062 -7.0287651245253701e-05
854 1062 -4.1441797561919198e-06
855 1062 -9.8909426205184702e-07
856 1062 -5.4212381704867103e-06
1008 1062 -6.1946789640828696e-05
1009 1062 -6.1989262580266496e-05
1010 1062 -7.0288621387358698e-05
1011 1062 -7.0287965629326594e-05
1044 1062 -9.8909426205184702e-07
1055 1062 -7.9816150893424393e-06
1058 1062 -7.9816150893424393e-06
1062 1062 1.0458422193332099e-01
1063 1062 -4.8766103173315796e-06
2362 1062 -9.8909426205184702e-07
2364 1062 -9.8909426205184702e-07
2366 1062 -9.8909426205184702e-07
647 1063 -3.5144409287395697e-05
648 1063 -3.5143884220946901e-05
657 1063 -4.9830318518561402e-06
658 1063 -1.2358201786608601e-04
659 1063 -1.2429082292914000e-04
668 1063 -4.0650406504064998e-02
669 1063 -4.0650406504064998e-02
670 1063 -2.8571428571428598e-01
671 1063 -3.5144409250219997e-05
672 1063 -3.5143884258122703e-05
673 1063 -1.2352478458961199e-04
674 1063 -1.2434819021578001e-04
678 1063 -4.0940990340627101e-06
765 1063 -7.0864221812828501e-06
767 1063 -9.8909426205184702e-07
805 1063 -6.4980656836509395e-05
806 1063 -3.9160917309861199e-05
807 1063 -3.9160324028006403e-05
808 1063 -6.5152347973376895e-05
1052 1063 -9.8909426205184702e-07
1053 1063 -9.8909426205184702e-07
1054 1063 -9.8909426205184702e-07
1055 1063 -1.9719284338375401e-06
1059 1063 -9.8909426205184702e-07
1060 1063 -9.8909426205184702e-07
1061 1063 -9.8909426205184702e-07
1062 1063 -4.8766103173315796e-06
1063 1063 3.6862079745334397e-01
2362 1063 -9.8909426205184702e-07
2363 1063 -9.8909426205184702e-07
2364 1063 -9.8909426205184702e-07
2365 1063 -9.8909426205184702e-07
2366 1063 -9.8909426205184702e-07
2370 1063 -9.8909426205184702e-07
556 1064 -1.8615798825707900e-05
557 1064 -1.2538486057514500e-04
558 1064 -1.2547044289115301e-04
559 1064 -1.8614210005145000e-05
867 1064 -8.7108013937282194e-02
868 1064 -1.4285714285714299e-01
887 1064 -1.0162601626016300e-01
1046 1064 -9.8909426205184702e-07
1047 1064 -1.6839642815946000e-05
1051 1064 -9.8909426205184702e-07
1064 1064 3.3221906516694799e-01
1065 1064 -9.8909426205184702e-07
2372 1064 -1.9719284338375401e-06
547 1065 -4.0650406504064998e-02
548 1065 -3.5144462553754503e-05
549 1065 -3.5143830954588103e-05
550 1065 -1.2391930824768500e-04
551 1065 -1.2395273499866299e-04
573 1065 -1.2391601844466399e-04
574 1065 -1.2395603261948100e-04
575 1065 -3.0048433277524500e-06
578 1065 -7.0288507299140496e-05
579 1065 -7.0288079717544796e-05
586 1065 -3.9814174092719904e-06
587 1065 -9.8909426205184702e-07
589 1065 -5.8344041280526703e-06
980 1065 -4.0650406504064998e-02
981 1065 -2.8571428571428598e-01
1046 1065 -9.8909426205184702e-07
1047 1065 -9.8909426205184702e-07
1049 1065 -9.8909426205184702e-07
1051 1065 -9.8909426205184702e-07
1064 1065 -9.8909426205184702e-07
1065 1065 3.6843833701405698e-01
1066 1065 -2.2160719542174299e-06
1067 1065 -9.8909426205184702e-07
1068 1065 -9.8909426205184702e-07
2370 1065 -9.8909426205184702e-07
2372 1065 -2.9610226958893901e-06
2385 1065 -1.9719284338375401e-06
450 1066 -1.7729341647914101e-05
451 1066 -1.7727809619564700e-05
456 1066 -1.2056933852606700e-05
457 1066 -2.2510844194856001e-04
458 1066 -2.2514424893935401e-04
459 1066 -4.5823860748224796e-06
502 1066 -9.8909426205184702e-07
512 1066 -1.1254102574711400e-04
513 1066 -1.1258541376889401e-04
518 1066 -4.9830318518561402e-06
519 1066 -3.5458046528772797e-05
520 1066 -3.5456256006184900e-05
539 1066 -2.8796415224294300e-06
575 1066 -1.0016144425841501e-06
576 1066 -2.8571428571428598e-01
583 1066 -1.0204081632653100e-01
584 1066 -1.0162601626016300e-01
587 1066 -2.2160719542174299e-06
589 1066 -4.2130407491195804e-06
1065 1066 -2.2160719542174299e-06
1066 1066 4.9075987398541698e-01
1067 1066 -9.8909426205184702e-07
1068 1066 -9.8909426205184702e-07
2367 1066 -1.9719284338375401e-06
2370 1066 -1.9719284338375401e-06
2373 1066 -9.8784224399861707e-06
2379 1066 -9.8909426205184702e-07
2380 1066 -6.0973279192310098e-06
2381 1066 -1.9719284338375401e-06
440 1067 -9.8909426205184702e-07
588 1067 -9.8909426205184702e-07
589 1067 -9.8909426205184702e-07
749 1067 -8.7108013937282194e-02
750 1067 -1.4285714285714299e-01
760 1067 -1.0162601626016300e-01
762 1067 -1.6839642815946000e-05
767 1067 -9.8909426205184702e-07
1065 1067 -9.8909426205184702e-07
1066 1067 -9.8909426205184702e-07
1067 1067 3.3249661999050301e-01
1068 1067 -9.8909426205184702e-07
2367 1067 -3.9438568676750903e-06
2368 1067 -9.8909426205184702e-07
2370 1067 -3.9438568676750903e-06
2372 1067 -1.9719284338375401e-06
2373 1067 -1.9719284338375401e-06
2374 1067 -1.9719284338375401e-06
2378 1067 -1.9719284338375401e-06
2379 1067 -9.8909426205184702e-07
2380 1067 -9.8909426205184702e-07
2381 1067 -1.9719284338375401e-06
2385 1067 -9.8909426205184702e-07
2386 1067 -9.8909426205184702e-07
440 1068 -9.8909426205184702e-07
589 1068 -9.8909426205184702e-07
592 1068 -4.6904315196998100e-02
593 1068 -5.4945054945054903e-02
1046 1068 -9.8909426205184702e-07
1051 1068 -9.8909426205184702e-07
1065 1068 -9.8909426205184702e-07
1066 1068 -9.8909426205184702e-07
1067 1068 -9.8909426205184702e-07
1068 1068 1.0249631291051800e-01
2370 1068 -1.9719284338375401e-06
2372 1068 -9.8909426205184702e-07
2373 1068 -1.9719284338375401e-06
2374 1068 -1.9719284338375401e-06
2377 1068 -1.9719284338375401e-06
2378 1068 -1.9719284338375401e-06
2379 1068 -9.8909426205184702e-07
2380 1068 -1.1393364284394700e-06
2381 1068 -1.9719284338375401e-06
2388 1068 -1.9719284338375401e-06
1069 1069 1.0187648038044400e-01
1070 1069 -7.0878683172213196e-10
2356 1069 -7.0345572003198298e-05
1069 1070 -2.8841428506248698e-12
1070 1070 7.6457191188265203e-02
1210 1070 -7.6219512195121894e-02
2356 1070 -7.0305879486090006e-05
1071 1071 1.4432378712082600e-01
1072 1071 -1.2309995637430900e-03
1210 1071 -1.4285714285714299e-01
2356 1071 -1.2468471736392300e-04
1071 1072 -1.2356606962151200e-03
1072 1072 1.3135357335335399e-01
1091 1072 -1.2987012987013000e-01
2356 1072 -1.2469564614806100e-04
1073 1073 1.4430792629512601e-01
1074 1073 -1.2256396551322099e-03
2357 1073 -1.2463309931415499e-04
1073 1074 -1.2249528606117399e-03
1074 1074 1.0354615264536000e-01
1091 1074 -1.0204081632653100e-01
2357 1074 -1.2474876414266000e-04
1075 1075 1.4429972921682599e-01
1076 1075 -1.2174163462566601e-03
2354 1075 -1.2463225193902900e-04
1075 1076 -1.2167739646601900e-03
1076 1076 1.0353796201128600e-01
1091 1076 -1.0204081632653100e-01
2354 1076 -1.2474923420952800e-04
1077 1077 6.8534381807378100e-02
1085 1077 -3.7490958696936801e-04
1078 1078 6.8091355051674199e-02
1084 1078 -9.1239118737388397e-10
1079 1079 2.0447306384273300e-01
1080 1079 -8.6258454922051304e-04
1079 1080 -8.8420599288449499e-04
1080 1080 8.8531352961372198e-02
1081 1080 -8.7108013937282194e-02
1080 1081 -8.7108013937282194e-02
1081 1081 2.0907633601608400e-01
1082 1081 -1.2195121951219499e-01
1081 1082 -1.2195121951219499e-01
1082 1082 1.2269789698938301e-01
1083 1082 -2.6143413017000602e-04
1082 1083 -2.2911034456440300e-04
1083 1083 2.0383421931834900e-01
2354 1083 -2.0325203252032500e-01
1078 1084 -8.0759364244711395e-12
1084 1084 5.2954201832956398e-02
2354 1084 -5.2910052910052900e-02
1077 1085 -2.2428307206301301e-05
1085 1085 5.2976198607098297e-02
2354 1085 -5.2910052910052900e-02
1086 1086 1.0187647701116299e-01
1087 1086 -1.5784095962387401e-09
2354 1086 -7.0348080635610803e-05
1086 1087 -1.0010958328131201e-09
1087 1087 7.6570033805999999e-02
1088 1087 -7.6219512195121894e-02
2354 1087 -7.0346807148288602e-05
1087 1088 -7.6219512195121894e-02
1088 1088 1.7787602135497099e-01
1089 1088 -1.0162601626016300e-01
2357 1088 -2.0695858419894999e-05
1088 1089 -1.0162601626016300e-01
1089 1089 1.0187468046872300e-01
1090 1089 -5.5092397173616504e-10
2357 1089 -7.0345369382036397e-05
1089 1090 -2.2441466376732899e-12
1090 1090 1.0180240824901500e-01
1210 1090 -1.0162601626016300e-01
2357 1090 -7.0306198649793298e-05
1072 1091 -1.2987012987013000e-01
1074 1091 -1.0204081632653100e-01
1076 1091 -1.0204081632653100e-01
1091 1091 3.3399070028464700e-01
2354 1091 -4.1441797561919198e-06
2356 1091 -6.5230140573292702e-06
2357 1091 -3.9814174092719904e-06
1092 1092 3.9792375791182097e-02
1095 1092 -9.6520083844024110e-10
1134 1092 -1.9560252458087099e-05
1093 1093 5.6183128956482802e-02
1094 1093 -4.8142546520442300e-04
1134 1093 -1.2675063612540299e-04
1093 1094 -4.7630928599122301e-04
1094 1094 4.4336057777723002e-02
1134 1094 -1.2675132619854401e-04
2355 1094 -4.3554006968641097e-02
1092 1095 -8.5278763159974393e-12
1095 1095 5.2956896325902801e-02
1134 1095 -1.8976162763534000e-05
2355 1095 -5.2910052910052900e-02
1096 1096 3.9792375841890000e-02
1099 1096 -9.8348810489122990e-10
2351 1096 -1.9561973269410301e-05
1097 1097 5.6188055019064702e-02
1098 1097 -4.7609498883058999e-04
2351 1097 -1.2675328158540800e-04
1097 1098 -4.8119264526008898e-04
1098 1098 4.4330672790512601e-02
1133 1098 -4.3554006968641097e-02
2351 1098 -1.2674890352020699e-04
1096 1099 -8.6923430826593797e-12
1099 1099 5.2956897005647499e-02
1133 1099 -5.2910052910052900e-02
2351 1099 -1.8976825545990000e-05
1100 1100 5.0940743433521299e-02
1101 1100 -3.8956741845442798e-10
2379 1100 -3.5173190076752301e-05
1100 1101 -1.5805310103156700e-12
1101 1101 3.8228637671801201e-02
1209 1101 -3.8109756097561003e-02
2379 1101 -3.5153072944216301e-05
1102 1102 5.0940743438823002e-02
1103 1102 -3.9435577599104299e-10
1133 1102 -3.5173225932070602e-05
1102 1103 -1.6000240479347699e-12
1103 1103 3.8228637671941700e-02
1133 1103 -3.5153083963932202e-05
1209 1103 -3.8109756097561003e-02
1104 1104 2.8712732597105900e-01
1105 1104 -1.2258963070405299e-03
1133 1104 -1.2469973400253400e-04
1104 1105 -1.2208075504571900e-03
1105 1105 1.0354160487076899e-01
1106 1105 -1.0204081632653100e-01
1133 1105 -1.2470088922945799e-04
1105 1106 -1.0204081632653100e-01
1106 1106 2.6078100372129598e-01
1107 1106 -1.5873015873015900e-01
2379 1106 -4.9830318518561402e-06
1106 1107 -1.5873015873015900e-01
1107 1107 1.6018964942538300e-01
1108 1107 -1.2263269701672001e-03
2379 1107 -1.2470000409638699e-04
1107 1108 -1.2212210854094000e-03
1108 1108 2.8713291862910001e-01
1209 1108 -2.8571428571428598e-01
2379 1108 -1.2470050334651399e-04
1109 1109 3.9792375803471301e-02
1112 1109 -9.8122933254742910e-10
1122 1109 -1.9561748655005500e-05
1110 1110 5.6188084161321303e-02
1111 1110 -4.7612559675261801e-04
1122 1110 -1.2675130855703000e-04
1110 1111 -4.8124934954657501e-04
1111 1111 4.4330741697060097e-02
1122 1111 -1.2675087629757600e-04
1132 1111 -4.3554006968641097e-02
1109 1112 -8.6719390765963000e-12
1112 1112 5.2956896491434598e-02
1122 1112 -1.8976737391284998e-05
1132 1112 -5.2910052910052900e-02
1113 1113 5.0940743433489998e-02
1114 1113 -3.8953610314334400e-10
2379 1113 -3.5173190070435502e-05
1113 1114 -1.5803603497705300e-12
1114 1114 3.8228645258304599e-02
1122 1114 -3.8109756097561003e-02
2379 1114 -3.5153074804786301e-05
1115 1115 5.0940743438791299e-02
1116 1115 -3.9432407557932302e-10
1133 1115 -3.5173225925751398e-05
1115 1116 -1.5998512702661100e-12
1116 1116 3.8228645258445201e-02
1122 1116 -3.8109756097561003e-02
1133 1116 -3.5153085826800799e-05
1117 1117 2.8713245085292399e-01
1118 1117 -1.2207489024633100e-03
1133 1117 -1.2470691736895601e-04
1117 1118 -1.2256299941467300e-03
1118 1118 1.0353608958980400e-01
1119 1118 -1.0204081632653100e-01
1133 1118 -1.2469389471374799e-04
1118 1119 -1.0204081632653100e-01
1119 1119 2.6078100372129598e-01
1120 1119 -1.5873015873015900e-01
2379 1119 -4.9830318518561402e-06
1119 1120 -1.5873015873015900e-01
1120 1120 1.6019441732831999e-01
1121 1120 -1.2208749389518801e-03
2379 1120 -1.2470732438125501e-04
1120 1121 -1.2257370865564499e-03
1121 1121 2.8712710978333700e-01
1122 1121 -2.8571428571428598e-01
2379 1121 -1.2469348761590701e-04
1109 1122 -1.8615827526095100e-05
1110 1122 -1.2543000644386101e-04
1111 1122 -1.2542501115075201e-04
1112 1122 -1.8614181304757799e-05
1114 1122 -3.8109756097561003e-02
1116 1122 -3.8109756097561003e-02
1121 1122 -2.8571428571428598e-01
1122 1122 3.6249961698794603e-01
2379 1122 -6.0973279192310098e-06
1123 1123 5.0940743433729903e-02
1124 1123 -3.9248158316397399e-10
2380 1123 -3.5173211949526300e-05
1123 1124 -1.5923953355650899e-12
1124 1124 3.8228637485965597e-02
1134 1124 -3.8109756097561003e-02
2380 1124 -3.5153079621508097e-05
1125 1125 5.0940743439057599e-02
1126 1125 -3.9349900437142602e-10
1132 1125 -3.5173220354678403e-05
1125 1126 -1.5965368779243700e-12
1126 1126 3.8228637486972000e-02
1132 1126 -3.5153081954780399e-05
1134 1126 -3.8109756097561003e-02
1127 1127 2.8712739443736301e-01
1128 1127 -1.2259650217386800e-03
1132 1127 -1.2469962456623901e-04
1127 1128 -1.2208833667659701e-03
1128 1128 1.0354168149926200e-01
1129 1128 -1.0204081632653100e-01
1132 1128 -1.2470096785195100e-04
1128 1129 -1.0204081632653100e-01
1129 1129 2.6078100372129598e-01
1130 1129 -1.5873015873015900e-01
2380 1129 -4.9830318518561402e-06
1129 1130 -1.5873015873015900e-01
1130 1130 1.6018942215042400e-01
1131 1130 -1.2260985365373000e-03
2380 1130 -1.2469975937933600e-04
1130 1131 -1.2210097294734100e-03
1131 1131 2.8713270670116697e-01
1134 1131 -2.8571428571428598e-01
2380 1131 -1.2470064704159700e-04
1111 1132 -4.3554006968641097e-02
1112 1132 -5.2910052910052900e-02
1125 1132 -3.5144463380223597e-05
1126 1132 -3.5143830128119001e-05
1127 1132 -1.2390936463117300e-04
1128 1132 -1.2396270224781101e-04
1132 1132 9.7030980821503202e-02
2380 1132 -2.8796415224294300e-06
2390 1132 -3.4305294658507100e-06
1098 1133 -4.3554006968641097e-02
1099 1133 -5.2910052910052900e-02
1102 1133 -3.5144464071700699e-05
1103 1133 -3.5143829436642001e-05
1104 1133 -1.2391309467236900e-04
1105 1133 -1.2395896334541101e-04
1115 1133 -3.5144464046208300e-05
1116 1133 -3.5143829462134400e-05
1117 1133 -1.2415834152435101e-04
1118 1133 -1.2371418854965601e-04
1133 1133 9.7539810912583694e-02
1209 1133 -9.8909426205184702e-07
2379 1133 -5.6153009687373798e-06
2390 1133 -2.9610226958893901e-06
1092 1134 -1.8615814041607899e-05
1093 1134 -1.2542224539991901e-04
1094 1134 -1.2543279190126399e-04
1095 1134 -1.8614194789245001e-05
1124 1134 -3.8109756097561003e-02
1126 1134 -3.8109756097561003e-02
1131 1134 -2.8571428571428598e-01
1134 1134 3.6255950167556400e-01
1208 1134 -1.9719284338375401e-06
2358 1134 -2.2911930374112398e-06
2380 1134 -6.0973279192310098e-06
2390 1134 -2.1722513223543700e-06
2392 1134 -1.9719284338375401e-06
1135 1135 3.9792375787930899e-02
1138 1135 -9.6454651734135399e-10
1207 1135 -1.9560192265409701e-05
1136 1136 5.6188239332098197e-02
1137 1136 -4.7626957559938898e-04
1207 1136 -1.2676230202194401e-04
1136 1137 -4.8125011139098001e-04
1137 1137 4.4327146198739197e-02
1207 1137 -1.2673988101629600e-04
1620 1137 -4.3554006968641097e-02
1135 1138 -8.5230129536383306e-12
1138 1138 5.2955263843476798e-02
1207 1138 -1.8976191827008399e-05
1620 1138 -5.2910052910052900e-02
1139 1139 1.0187648088105400e-01
1140 1139 -8.4552869642991502e-10
1208 1139 -7.0346630113243301e-05
1139 1140 -3.4421580237255998e-12
1140 1140 7.6453518258286599e-02
1207 1140 -7.6219512195121894e-02
1208 1140 -7.0306217419111903e-05
1141 1141 1.4431327846146599e-01
1142 1141 -1.2206714496920700e-03
1207 1141 -1.4285714285714299e-01
1208 1141 -1.2470110274753399e-04
1141 1142 -1.2257203696060600e-03
1142 1142 1.3134309078067000e-01
1152 1142 -1.2987012987013000e-01
1208 1142 -1.2469916710677599e-04
1143 1143 1.4430830097963099e-01
1144 1143 -1.2259661375543900e-03
1172 1143 -1.2469973297922100e-04
1143 1144 -1.2208772926270901e-03
1144 1144 1.0353680373072900e-01
1152 1144 -1.0204081632653100e-01
1172 1144 -1.2470088925327000e-04
1145 1145 1.4430814557580801e-01
1146 1145 -1.2258103623488401e-03
1206 1145 -1.2469973276548599e-04
1145 1146 -1.2207218956034099e-03
1146 1146 1.0353664796648600e-01
1152 1146 -1.0204081632653100e-01
1206 1146 -1.2470088935083299e-04
1147 1147 1.0187648125458200e-01
1148 1147 -1.2272130402732900e-09
1206 1147 -7.0346530083459800e-05
1147 1148 -8.1411656093040899e-10
1148 1148 7.6564000014146094e-02
1149 1148 -7.6219512195121894e-02
1206 1148 -7.0345395537841295e-05
1148 1149 -7.6219512195121894e-02
1149 1149 1.7787602135497099e-01
1150 1149 -1.0162601626016300e-01
1172 1149 -2.0695858419894999e-05
1149 1150 -1.0162601626016300e-01
1150 1150 1.0187483502889701e-01
1151 1150 -5.6675474580776604e-10
1172 1150 -7.0345425326733202e-05
1150 1151 -2.3081667234488299e-12
1151 1151 1.0180245542973899e-01
1172 1151 -7.0306201087090000e-05
1207 1151 -1.0162601626016300e-01
1142 1152 -1.2987012987013000e-01
1144 1152 -1.0204081632653100e-01
1146 1152 -1.0204081632653100e-01
1152 1152 3.3399070028464700e-01
1172 1152 -3.9814174092719904e-06
1206 1152 -4.1441797561919198e-06
1208 1152 -6.5230140573292702e-06
1153 1153 3.9792375789695703e-02
1156 1153 -9.6557415356666599e-10
1209 1153 -1.9560287407602501e-05
1154 1154 5.6188253506689698e-02
1155 1154 -4.7629372876208299e-04
1209 1154 -1.2675132811388400e-04
1154 1155 -4.8141843491511901e-04
1155 1155 4.4327381398235298e-02
1171 1155 -4.3554006968641097e-02
1209 1155 -1.2675085707273301e-04
1153 1156 -8.5312880366074295e-12
1156 1156 5.2955261053633698e-02
1171 1156 -5.2910052910052900e-02
1209 1156 -1.8976179157668501e-05
1157 1157 3.9792375791642902e-02
1160 1157 -9.6646689941511601e-10
1170 1157 -1.9560371389495199e-05
1158 1158 5.6188243857975599e-02
1159 1158 -4.7628419233863899e-04
1170 1158 -1.2675128512339300e-04
1158 1159 -4.8140939434572499e-04
1159 1159 4.4327372684135800e-02
1170 1159 -1.2675090006353899e-04
1172 1159 -4.3554006968641097e-02
1157 1160 -8.5393040134719199e-12
1160 1160 5.2955261042743597e-02
1170 1160 -1.8976211050815800e-05
1172 1160 -5.2910052910052900e-02
1161 1161 5.0940743438961600e-02
1162 1161 -3.9350481350723200e-10
1171 1161 -3.5173220194531598e-05
1161 1162 -1.5965570335057800e-12
1162 1162 4.0767410493704297e-02
1170 1162 -4.0650406504064998e-02
1171 1162 -3.5153082126646101e-05
1163 1163 5.0940743433727301e-02
1164 1163 -3.9247899838815499e-10
2380 1163 -3.5173211949008701e-05
1163 1164 -1.5923812470963400e-12
1164 1164 4.0767410492803503e-02
1170 1164 -4.0650406504064998e-02
2380 1164 -3.5153079774011101e-05
1165 1165 2.8712747708291603e-01
1166 1165 -1.2260474299451000e-03
2380 1165 -1.2470017784066599e-04
1165 1166 -1.2209288665098600e-03
1166 1166 1.0353685291671100e-01
1167 1166 -1.0204081632653100e-01
2380 1166 -1.2470057025922401e-04
1166 1167 -1.0204081632653100e-01
1167 1167 2.6078100372129598e-01
1168 1167 -1.5873015873015900e-01
1171 1167 -4.9830318518561402e-06
1167 1168 -1.5873015873015900e-01
1168 1168 1.6018930043926399e-01
1169 1168 -1.2259800527803400e-03
1171 1168 -1.2470039213618401e-04
1168 1169 -1.2208480338344299e-03
1169 1169 2.8713254500204000e-01
1170 1169 -2.8571428571428598e-01
1171 1169 -1.2470035190093100e-04
1157 1170 -1.8615815106644399e-05
1158 1170 -1.2542973189507599e-04
1159 1170 -1.2542528375105699e-04
1160 1170 -1.8614193724208399e-05
1162 1170 -4.0650406504064998e-02
1164 1170 -4.0650406504064998e-02
1169 1170 -2.8571428571428598e-01
1170 1170 3.6762715395576501e-01
1171 1170 -7.0864221812828501e-06
1172 1170 -9.8909426205184702e-07
2380 1170 -9.8909426205184702e-07
2391 1170 -1.9719284338375401e-06
1155 1171 -4.3554006968641097e-02
1156 1171 -5.2910052910052900e-02
1161 1171 -3.5144463384936502e-05
1162 1171 -3.5143830123406198e-05
1167 1171 -4.9830318518561402e-06
1168 1171 -1.2393551671867001e-04
1169 1171 -1.2393648800642200e-04
1170 1171 -7.0864221812828501e-06
1171 1171 9.7090808457338598e-02
1172 1171 -1.9719284338375401e-06
1209 1171 -9.8909426205184702e-07
2380 1171 -2.8045204392356201e-06
2390 1171 -1.9719284338375401e-06
2391 1171 -1.9719284338375401e-06
1143 1172 -1.2391305840133801e-04
1144 1172 -1.2395899969992700e-04
1149 1172 -2.0695858419894999e-05
1150 1172 -7.0288753703615201e-05
1151 1172 -7.0287833313070105e-05
1152 1172 -3.9814174092719904e-06
1159 1172 -4.3554006968641097e-02
1160 1172 -5.2910052910052900e-02
1170 1172 -9.8909426205184702e-07
1171 1172 -1.9719284338375401e-06
1172 1172 9.7221183878691400e-02
1206 1172 -1.6276234691992399e-06
1209 1172 -9.8909426205184702e-07
2380 1172 -9.8909426205184702e-07
2390 1172 -1.9719284338375401e-06
2391 1172 -1.9719284338375401e-06
1173 1173 3.9792375791918397e-02
1176 1173 -9.2037701216964098e-10
2358 1173 -1.9555946165849901e-05
1174 1174 5.6188747781336298e-02
1175 1174 -4.7678064044185802e-04
2358 1174 -1.2675574138586100e-04
1174 1175 -4.8185080618272803e-04
1175 1175 4.4327783116580297e-02
1206 1175 -4.3554006968641097e-02
2358 1175 -1.2674644343207601e-04
1173 1176 -8.1257095805319701e-12
1176 1176 5.2955262171143401e-02
1206 1176 -5.2910052910052900e-02
2358 1176 -1.8974530957029599e-05
1177 1177 3.9792375746857303e-02
1180 1177 -8.9188979230752899e-10
1210 1177 -1.9553070263988699e-05
1178 1178 5.6189070226711199e-02
1179 1178 -4.7709721443145800e-04
1210 1178 -1.2675957171815001e-04
1178 1179 -4.8211922031626901e-04
1179 1179 4.4328025888947499e-02
1208 1179 -4.3554006968641097e-02
1210 1179 -1.2674261223966700e-04
1177 1180 -7.8704000902016701e-12
1180 1180 5.2955263139699199e-02
1208 1180 -5.2910052910052900e-02
1210 1180 -1.8973452193872702e-05
1181 1181 1.0187648086512900e-01
1182 1181 -8.4234928585249700e-10
1205 1181 -7.0346591484716600e-05
1181 1182 -3.4291880948004101e-12
1182 1182 7.6453516619587103e-02
1183 1182 -7.6219512195121894e-02
1205 1182 -7.0306210209323094e-05
1182 1183 -7.6219512195121894e-02
1183 1183 3.2083780788100302e-01
1184 1183 -1.4285714285714299e-01
1204 1183 -1.0162601626016300e-01
1205 1183 -1.6839642815946000e-05
1183 1184 -1.4285714285714299e-01
1184 1184 1.4431351012344801e-01
1185 1184 -1.2208992826376200e-03
1205 1184 -1.2470055439502400e-04
1184 1185 -1.2259503232918401e-03
1185 1185 1.3134333454792901e-01
1203 1185 -1.2987012987013000e-01
1205 1185 -1.2469925928023699e-04
1186 1186 1.4298556739125901e-01
1187 1186 -1.7860357072343399e-09
2360 1186 -3.7150918324135900e-05
1186 1187 -1.7950687508242599e-09
1187 1187 1.0220890929511700e-01
1203 1187 -1.0204081632653100e-01
2360 1187 -3.7167966820911902e-05
1188 1188 1.4430831991360099e-01
1189 1188 -1.2259863215523701e-03
2355 1188 -1.2469804961529000e-04
1188 1189 -1.2210091575447400e-03
1189 1189 1.0353694543661300e-01
1203 1189 -1.0204081632653100e-01
2355 1189 -1.2470209507582601e-04
1190 1190 5.1466323155687298e-02
1191 1190 -4.2771638713030098e-04
2360 1190 -1.1389130725035100e-04
1190 1191 -4.3225595245398400e-04
1191 1191 4.1344792092468101e-02
1205 1191 -4.0650406504064998e-02
2360 1191 -1.1388215960599900e-04
1192 1192 5.0940743646532199e-02
1193 1192 -6.1125772610315496e-10
2355 1192 -3.5173187993938101e-05
1192 1193 -6.0700475586506296e-10
1193 1193 4.0823881413728100e-02
1205 1193 -4.0650406504064998e-02
2355 1193 -3.5173177652431499e-05
1194 1194 2.8712741561772098e-01
1195 1194 -1.2259866534095501e-03
2355 1194 -1.2469909585072800e-04
1194 1195 -1.2209400385381399e-03
1195 1195 1.0353687020793099e-01
1196 1195 -1.0204081632653100e-01
2355 1195 -1.2470134696379600e-04
1195 1196 -1.0204081632653100e-01
1196 1196 2.6078100372129598e-01
1197 1196 -1.5873015873015900e-01
2360 1196 -4.9830318518561402e-06
1196 1197 -1.5873015873015900e-01
1197 1197 1.5886655888020801e-01
1198 1197 -1.8748244511483899e-09
2360 1197 -3.7262321993243297e-05
1197 1198 -1.6626101130958000e-11
1198 1198 2.8577242196655200e-01
1205 1198 -2.8571428571428598e-01
2360 1198 -3.6143742198624800e-05
1199 1199 1.0187648081148200e-01
1200 1199 -8.0263845847607595e-10
2355 1199 -7.0346548563248503e-05
1199 1200 -3.2243621499163399e-12
1200 1200 7.6462227831966198e-02
1201 1200 -7.6219512195121894e-02
2355 1200 -7.0308464041077501e-05
1200 1201 -7.6219512195121894e-02
1201 1201 1.7787602135497099e-01
1202 1201 -1.0162601626016300e-01
2360 1201 -2.0695858419894999e-05
1201 1202 -1.0162601626016300e-01
1202 1202 1.0180816844642800e-01
1204 1202 -1.8639064765762002e-08
2360 1202 -7.0361554981243103e-05
1185 1203 -1.2987012987013000e-01
1187 1203 -1.0204081632653100e-01
1189 1203 -1.0204081632653100e-01
1203 1203 3.3399070028464700e-01
1205 1203 -6.5230140573292702e-06
2355 1203 -4.1441797561919198e-06
2360 1203 -3.9814174092719904e-06
1183 1204 -1.0162601626016300e-01
1202 1204 -7.8932357527649197e-11
1204 1204 1.0180245442635300e-01
2360 1204 -7.0353320935375303e-05
1181 1205 -7.0288976158462197e-05
1182 1205 -7.0287610858223095e-05
1183 1205 -1.6839642815946000e-05
1184 1205 -1.2397517470276199e-04
1185 1205 -1.2389692176334300e-04
1191 1205 -4.0650406504064998e-02
1193 1205 -4.0650406504064998e-02
1198 1205 -2.8571428571428598e-01
1203 1205 -6.5230140573292702e-06
1205 1205 3.6780718791554701e-01
1206 1205 -9.8909426205184702e-07
1207 1205 -1.9719284338375401e-06
1208 1205 -9.8909426205184702e-07
1210 1205 -9.8909426205184702e-07
2355 1205 -9.8909426205184702e-07
2358 1205 -9.8909426205184702e-07
2360 1205 -8.3133998734484402e-06
2390 1205 -1.9719284338375401e-06
2391 1205 -1.9719284338375401e-06
1145 1206 -1.2391305426316199e-04
1146 1206 -1.2395900385402101e-04
1147 1206 -7.0288629006553307e-05
1148 1206 -7.0287958010131998e-05
1152 1206 -4.1441797561919198e-06
1172 1206 -1.6276234691992399e-06
1175 1206 -4.3554006968641097e-02
1176 1206 -5.2910052910052900e-02
1205 1206 -9.8909426205184702e-07
1206 1206 9.7215524174782394e-02
1207 1206 -9.8909426205184702e-07
1208 1206 -9.8909426205184702e-07
2355 1206 -9.8909426205184702e-07
2358 1206 -9.8909426205184702e-07
2360 1206 -9.8909426205184702e-07
2391 1206 -1.9719284338375401e-06
1135 1207 -1.8615813487847499e-05
1136 1207 -1.2555744688206400e-04
1137 1207 -1.2529847041779600e-04
1138 1207 -1.8614195343005299e-05
1140 1207 -7.6219512195121894e-02
1141 1207 -1.4285714285714299e-01
1151 1207 -1.0162601626016300e-01
1205 1207 -1.9719284338375401e-06
1206 1207 -9.8909426205184702e-07
1207 1207 3.2140369757844700e-01
1208 1207 -1.7828737077997899e-05
1210 1207 -2.0908701488944099e-06
2355 1207 -1.9719284338375401e-06
2358 1207 -1.1894171505686801e-06
2360 1207 -1.9719284338375401e-06
2390 1207 -1.9719284338375401e-06
2391 1207 -1.9719284338375401e-06
1134 1208 -1.9719284338375401e-06
1139 1208 -7.0288978741290896e-05
1140 1208 -7.0287608275394395e-05
1141 1208 -1.2397831582171799e-04
1142 1208 -1.2389378809255899e-04
1152 1208 -6.5230140573292702e-06
1179 1208 -4.3554006968641097e-02
1180 1208 -5.2910052910052900e-02
1205 1208 -9.8909426205184702e-07
1206 1208 -9.8909426205184702e-07
1207 1208 -1.7828737077997899e-05
1208 1208 9.7287695592171097e-02
1210 1208 -9.8909426205184702e-07
2355 1208 -1.9719284338375401e-06
2358 1208 -1.0892557063102601e-06
2360 1208 -1.2895785948270899e-06
2380 1208 -1.9719284338375401e-06
2390 1208 -1.9719284338375401e-06
2391 1208 -1.9719284338375401e-06
2392 1208 -1.9719284338375401e-06
2393 1208 -1.9719284338375401e-06
1101 1209 -3.8109756097561003e-02
1103 1209 -3.8109756097561003e-02
1108 1209 -2.8571428571428598e-01
1133 1209 -9.8909426205184702e-07
1153 1209 -1.8615814355594799e-05
1154 1209 -1.2543023034155900e-04
1155 1209 -1.2542478883185101e-04
1156 1209 -1.8614194475257999e-05
1171 1209 -9.8909426205184702e-07
1172 1209 -9.8909426205184702e-07
1209 1209 3.6254289947439700e-01
2379 1209 -6.0973279192310098e-06
2380 1209 -9.8909426205184702e-07
2390 1209 -4.4133636376364098e-06
2391 1209 -9.8909426205184702e-07
2392 1209 -9.8909426205184702e-07
2393 1209 -9.8909426205184702e-07
1070 1210 -7.6219512195121894e-02
1071 1210 -1.4285714285714299e-01
1090 1210 -1.0162601626016300e-01
1177 1210 -1.8615752367297800e-05
1178 1210 -1.2552599245260399e-04
1179 1210 -1.2532970209559001e-04
1180 1210 -1.8614256463555001e-05
1205 1210 -9.8909426205184702e-07
1207 1210 -2.0908701488944099e-06
1208 1210 -9.8909426205184702e-07
1210 1210 3.2136201733911501e-01
2355 1210 -9.8909426205184702e-07
2356 1210 -1.7828737077997899e-05
2357 1210 -1.2645382337624900e-06
2360 1210 -9.8909426205184702e-07
2390 1210 -1.9719284338375401e-06
2391 1210 -9.8909426205184702e-07
2392 1210 -9.8909426205184702e-07
2393 1210 -9.8909426205184702e-07
1211 1211 4.0481385441086197e-02
1214 1211 -6.3784443445255102e-04
2354 1211 -6.5766573495792298e-05
1212 1212 5.5603061785644899e-02
1213 1212 -5.8213550015859196e-10
2354 1212 -3.9193907527201001e-05
1212 1213 -2.3662200425085798e-12
1213 1213 4.3686392854190501e-02
1233 1213 -4.3554006968641097e-02
2354 1213 -3.9170833779609001e-05
1211 1214 -6.3932396169839997e-04
1214 1214 5.3697078980053700e-02
1233 1214 -5.2910052910052900e-02
2354 1214 -6.5860889725202906e-05
1215 1215 2.8580466159032403e-01
1216 1215 -1.3369481274672800e-09
1215 1216 -1.8161475152671501e-11
1216 1216 1.1000309625768800e-01
1217 1216 -1.0989010989011000e-01
1216 1217 -1.0989010989011000e-01
1217 1217 2.6863029728487497e-01
1218 1217 -1.5873015873015900e-01
1217 1218 -1.5873015873015900e-01
1218 1218 1.5915954850646299e-01
1223 1218 -2.0252324048052500e-04
1219 1219 5.1153243974835401e-02
1222 1219 -1.2149926687601601e-04
1220 1220 5.1460933576562000e-02
1221 1220 -4.3165337346257699e-04
1220 1221 -4.3049110529145499e-04
1221 1221 4.1350231791342000e-02
2356 1221 -4.0650406504064998e-02
1219 1222 -1.2362280799080199e-04
1222 1222 4.1040880880436399e-02
2356 1222 -4.0650406504064998e-02
1218 1223 -6.0176191016982596e-06
1223 1223 2.8577706186405999e-01
2356 1223 -2.8571428571428598e-01
1224 1224 5.0940743379692802e-02
1225 1224 -5.1751948849545100e-10
2356 1224 -3.5172698039904702e-05
1224 1225 -5.0417555477973303e-10
1225 1225 3.8286343192728098e-02
1619 1225 -3.8109756097561003e-02
2356 1225 -3.5172660059064400e-05
1226 1226 5.1467148459487799e-02
1227 1226 -4.2852455740602998e-04
1233 1226 -1.1390376686498500e-04
1226 1227 -4.3290605936658803e-04
1227 1227 3.8807884667203099e-02
1233 1227 -1.1386969486812200e-04
1619 1227 -3.8109756097561003e-02
1228 1228 2.8580466187024600e-01
1229 1228 -1.5950999550593001e-09
1233 1228 -3.7228231564434399e-05
1228 1229 -1.5031816366006099e-11
1229 1229 1.0213313998339400e-01
1230 1229 -1.0204081632653100e-01
1233 1229 -3.6185247857437597e-05
1229 1230 -1.0204081632653100e-01
1230 1230 2.6078100372129598e-01
1231 1230 -1.5873015873015900e-01
2356 1230 -4.9830318518561402e-06
1230 1231 -1.5873015873015900e-01
1231 1231 1.5881278537526100e-01
1232 1231 -2.3047586881018000e-08
2356 1231 -3.8103313380047699e-05
1231 1232 -5.2520277532334703e-10
1232 1232 2.8577242519273699e-01
1619 1232 -2.8571428571428598e-01
2356 1232 -3.7917018880252203e-05
1213 1233 -4.3554006968641097e-02
1214 1233 -5.2910052910052900e-02
1226 1233 -1.1276050081625300e-04
1227 1233 -1.1236716856385500e-04
1228 1233 -3.5458494683394601e-05
1229 1233 -3.5455807851563197e-05
1233 1233 9.7074368584365495e-02
2356 1233 -4.8515699562669697e-06
2357 1233 -1.9719284338375401e-06
2360 1233 -9.8909426205184702e-07
2390 1233 -1.9719284338375401e-06
2392 1233 -1.9719284338375401e-06
2393 1233 -1.9719284338375401e-06
1234 1234 6.8753800636493695e-02
1235 1234 -6.0856088554612803e-04
2359 1234 -6.2732713375715605e-05
1234 1235 -6.1110056384430604e-04
1235 1235 5.3654037314958200e-02
1262 1235 -5.2910052910052900e-02
2359 1235 -6.2732096989280995e-05
1236 1236 6.8754271951999901e-02
1237 1236 -6.0903108827745100e-04
2355 1236 -6.2732714152108498e-05
1236 1237 -6.1157189761127002e-04
1237 1237 5.3654507511248999e-02
1262 1237 -5.2910052910052900e-02
2355 1237 -6.2732096804934804e-05
1238 1238 2.0343573323586200e-01
1239 1238 -1.2185708778418999e-09
2355 1238 -7.0346497120725397e-05
1238 1239 -8.0469437456163903e-10
1239 1239 8.7448413422077098e-02
1240 1239 -8.7108013937282194e-02
2355 1239 -7.0345352290247706e-05
1239 1240 -8.7108013937282194e-02
1240 1240 2.0907633601608400e-01
1241 1240 -1.2195121951219499e-01
2359 1240 -1.2056933852606700e-05
1240 1241 -1.2195121951219499e-01
1241 1241 1.2223641501347000e-01
1242 1241 -5.8135068467387000e-10
2359 1241 -7.0345582555795302e-05
1241 1242 -2.3678363121086499e-12
1242 1242 2.0338945595625901e-01
1262 1242 -2.0325203252032500e-01
2359 1242 -7.0306254468095996e-05
1243 1243 4.0485704835576501e-02
1246 1243 -6.4214934086865205e-04
2357 1243 -6.5830129196104605e-05
1244 1244 5.5603065031183299e-02
1245 1244 -4.4797709600798200e-10
2357 1244 -3.9193058137908701e-05
1244 1245 -1.8188660271655900e-12
1245 1245 4.3686463485280699e-02
1261 1245 -4.3554006968641097e-02
2357 1245 -3.9170589989147699e-05
1243 1246 -6.3951241994322403e-04
1246 1246 5.3696904722838001e-02
1261 1246 -5.2910052910052900e-02
2357 1246 -6.5831119133608998e-05
1247 1247 1.0187648134269001e-01
1248 1247 -1.3297104260811500e-09
1619 1247 -7.0346622500505401e-05
1247 1248 -1.3237697676539101e-09
1248 1248 7.6572816266096397e-02
1618 1248 -7.6219512195121894e-02
1619 1248 -7.0346609134578193e-05
1249 1249 1.4292840001011900e-01
1250 1249 -6.6016286322891198e-10
1618 1249 -1.4285714285714299e-01
1619 1249 -3.7911259097130500e-05
1249 1250 -2.9358589602140601e-08
1250 1250 1.2995643131109599e-01
1260 1250 -1.2987012987013000e-01
1619 1250 -3.8110407953644599e-05
1251 1251 1.4298556739012999e-01
1252 1251 -1.8197368975469401e-09
1262 1251 -3.7251181563420697e-05
1251 1252 -1.7258377360313200e-11
1252 1252 1.0213335462997800e-01
1260 1252 -1.0204081632653100e-01
1262 1252 -3.6198268861503497e-05
1253 1253 1.4298556738699700e-01
1254 1253 -1.8159048752870999e-09
1261 1253 -3.7250816863601403e-05
1253 1254 -1.7221419668677199e-11
1254 1254 1.0213335463003501e-01
1260 1254 -1.0204081632653100e-01
1261 1254 -3.6198118200391899e-05
1255 1255 1.0292675049383200e-01
1256 1255 -8.5582766261168002e-04
1261 1255 -2.2645228492635099e-04
1255 1256 -8.6503959986406398e-04
1256 1256 7.7613822197062393e-02
1257 1256 -7.6219512195121894e-02
1261 1256 -2.2644746418807899e-04
1256 1257 -7.6219512195121894e-02
1257 1257 1.7787602135497099e-01
1258 1257 -1.0162601626016300e-01
1262 1257 -2.0695858419894999e-05
1257 1258 -1.0162601626016300e-01
1258 1258 1.0292666384191000e-01
1259 1258 -8.5575177940545996e-04
1262 1258 -2.2645324093321101e-04
1258 1259 -8.6494931341221497e-04
1259 1259 1.0291735893937599e-01
1262 1259 -2.2644650812824200e-04
1618 1259 -1.0162601626016300e-01
1250 1260 -1.2987012987013000e-01
1252 1260 -1.0204081632653100e-01
1254 1260 -1.0204081632653100e-01
1260 1260 3.3399070028464700e-01
1261 1260 -4.1441797561919198e-06
1262 1260 -3.9814174092719904e-06
1619 1260 -6.5230140573292702e-06
1245 1261 -4.3554006968641097e-02
1246 1261 -5.2910052910052900e-02
1253 1261 -3.5458681036861500e-05
1254 1261 -3.5455621498096197e-05
1255 1261 -2.2515464443636799e-04
1256 1261 -2.2509811998136801e-04
1260 1261 -4.1441797561919198e-06
1261 1261 9.7229206601251006e-02
1262 1261 -6.4478929741354603e-07
2390 1261 -2.7481796268402599e-06
1235 1262 -5.2910052910052900e-02
1237 1262 -5.2910052910052900e-02
1242 1262 -2.0325203252032500e-01
1251 1262 -3.5458684274660702e-05
1252 1262 -3.5455618260297002e-05
1257 1262 -2.0695858419894999e-05
1258 1262 -2.2516588987884801e-04
1259 1262 -2.2508695403445099e-04
1260 1262 -3.9814174092719904e-06
1261 1262 -6.4478929741354603e-07
1262 1262 3.0992753197200101e-01
2353 1262 -1.9719284338375401e-06
2359 1262 -4.5823860748224796e-06
2383 1262 -9.8909426205184702e-07
2384 1262 -9.8909426205184702e-07
1263 1263 4.0490025752119900e-02
1266 1263 -6.4649407800031504e-04
2353 1263 -6.5805856707013406e-05
1264 1264 5.5603064715700000e-02
1265 1264 -3.4472141535767799e-10
2353 1264 -3.9192194792545497e-05
1264 1265 -1.3985143051129701e-12
1265 1265 4.7033335491840099e-02
1276 1265 -4.6904315196998100e-02
2353 1265 -3.9170318197366099e-05
1263 1266 -6.4544627747569697e-04
1266 1266 5.5735502536120397e-02
1276 1266 -5.4945054945054903e-02
2353 1266 -6.5842372019257099e-05
1267 1267 6.8091354974100404e-02
1268 1267 -8.3158560627297501e-10
1276 1267 -1.8572889679572100e-05
1267 1268 -9.0515681897239001e-10
1268 1268 5.2994336297692402e-02
1276 1268 -1.8714351850649501e-05
1617 1268 -5.2910052910052900e-02
1269 1269 6.8749320640234299e-02
1270 1269 -6.0919092274264598e-04
2352 1269 -6.2712068208484995e-05
1269 1270 -6.0796851792640897e-04
1270 1270 5.3656114832140001e-02
1617 1270 -5.2910052910052900e-02
2352 1270 -6.2741272937062994e-05
1271 1271 2.0343573168024001e-01
1272 1271 -9.3500514756072892e-10
2352 1271 -7.0347440998501994e-05
1271 1272 -3.7582274780780598e-12
1272 1272 8.7348199612756000e-02
1273 1272 -8.7108013937282194e-02
2352 1272 -7.0308765999338197e-05
1272 1273 -8.7108013937282194e-02
1273 1273 2.0907633601608400e-01
1274 1273 -1.2195121951219499e-01
1276 1273 -1.2056933852606700e-05
1273 1274 -1.2195121951219499e-01
1274 1274 1.2215699162445900e-01
1275 1274 -1.8300130818202801e-08
1276 1274 -7.0361535481825805e-05
1274 1275 -7.7497167829461605e-11
1275 1275 2.0338943910199100e-01
1276 1275 -7.0353292908684797e-05
1617 1275 -2.0325203252032500e-01
1265 1276 -4.6904315196998100e-02
1266 1276 -5.4945054945054903e-02
1267 1276 -1.7728537615555800e-05
1268 1276 -1.7728613651923001e-05
1273 1276 -1.2056933852606700e-05
1274 1276 -7.0304818036469099e-05
1275 1276 -7.0271768980216206e-05
1276 1276 1.0231870415442100e-01
1617 1276 -4.5823860748224796e-06
2352 1276 -8.8955882682004692e-06
2361 1276 -9.8909426205184702e-07
1277 1277 1.0187648086842201e-01
1278 1277 -8.4067046668749897e-10
1618 1277 -7.0346579672946695e-05
1277 1278 -3.4223521564667501e-12
1278 1278 7.6457259886245396e-02
1618 1278 -7.0306205709176704e-05
2392 1278 -7.6219512195121894e-02
1279 1279 1.4431380762284601e-01
1280 1279 -1.2211877733115200e-03
1618 1279 -1.2470119135683799e-04
2392 1279 -1.4285714285714299e-01
1279 1280 -1.2261289196126100e-03
1280 1280 1.3134352654207701e-01
1290 1280 -1.2987012987013000e-01
1618 1280 -1.2469766749155701e-04
1281 1281 1.4298556732106199e-01
1282 1281 -1.7139238767046400e-09
2361 1281 -3.7143810524026903e-05
1281 1282 -1.7291134704895999e-09
1282 1282 1.0221379714644400e-01
1290 1282 -1.0204081632653100e-01
2361 1282 -3.7173676949843300e-05
1283 1283 1.4430764083920899e-01
1284 1283 -1.2253069427833501e-03
1619 1283 -1.2469628120665200e-04
1283 1284 -1.2204485542812601e-03
1284 1284 1.0354126507879501e-01
1290 1284 -1.0204081632653100e-01
1619 1284 -1.2470336429972200e-04
1285 1285 1.0187648083309700e-01
1286 1285 -8.2015170026604396e-10
1619 1285 -7.0346674802882294e-05
1285 1286 -3.2950151059926701e-12
1286 1286 7.6466160972321701e-02
1287 1286 -7.6219512195121894e-02
1619 1286 -7.0308504225278804e-05
1286 1287 -7.6219512195121894e-02
1287 1287 1.7787602135497099e-01
1288 1287 -1.0162601626016300e-01
2361 1287 -2.0695858419894999e-05
1287 1288 -1.0162601626016300e-01
1288 1288 1.0180816044716801e-01
1289 1288 -1.9203754443846100e-08
2361 1288 -7.0361575821274302e-05
1288 1289 -8.1325418958438197e-11
1289 1289 1.0180245217259400e-01
2361 1289 -7.0353347620549298e-05
2392 1289 -1.0162601626016300e-01
1280 1290 -1.2987012987013000e-01
1282 1290 -1.0204081632653100e-01
1284 1290 -1.0204081632653100e-01
1290 1290 3.3399070028464700e-01
1618 1290 -6.5230140573292702e-06
1619 1290 -4.1441797561919198e-06
2361 1290 -3.9814174092719904e-06
1291 1291 1.0187648086625101e-01
1292 1291 -8.4361927010205804e-10
1315 1291 -7.0346600286554900e-05
1291 1292 -3.4343826840284600e-12
1292 1292 7.6453515522643095e-02
1293 1292 -7.6219512195121894e-02
1315 1292 -7.0306212637905304e-05
1292 1293 -7.6219512195121894e-02
1293 1293 3.2083755121730201e-01
1294 1293 -1.4285714285714299e-01
1314 1293 -1.0162601626016300e-01
1315 1293 -1.6839642815946000e-05
1293 1294 -1.4285714285714299e-01
1294 1294 1.4431353764140800e-01
1295 1294 -1.2209242423093299e-03
1315 1294 -1.2470057078835199e-04
1294 1295 -1.2259520273383100e-03
1295 1295 1.3134334234638601e-01
1313 1295 -1.2987012987013000e-01
1315 1295 -1.2469893880726800e-04
1296 1296 1.4298556739792501e-01
1297 1296 -1.7871619319303500e-09
1617 1296 -3.7151018637298103e-05
1296 1297 -1.7990725867478900e-09
1297 1297 1.0220891620212399e-01
1313 1297 -1.0204081632653100e-01
1617 1297 -3.7173456921641099e-05
1298 1298 1.4430791149150299e-01
1299 1298 -1.2255774690006500e-03
1620 1298 -1.2469730128645401e-04
1298 1299 -1.2206508578542900e-03
1299 1299 1.0353659051487600e-01
1313 1299 -1.0204081632653100e-01
1620 1299 -1.2470263164292300e-04
1300 1300 5.1466314659161502e-02
1301 1300 -4.2770685170719899e-04
1617 1300 -1.1389252576620400e-04
1300 1301 -4.3223038066249699e-04
1301 1301 4.1344759126939801e-02
1315 1301 -4.0650406504064998e-02
1617 1301 -1.1388094084982200e-04
1302 1302 5.0940743651194199e-02
1303 1302 -6.1925047493216597e-10
1620 1302 -3.5173225874763897e-05
1302 1303 -6.1379955568951498e-10
1303 1303 4.0823875339811397e-02
1315 1303 -4.0650406504064998e-02
1620 1303 -3.5173212762870497e-05
1304 1304 2.8712700756248999e-01
1305 1304 -1.2255779312720200e-03
1620 1304 -1.2469870163540501e-04
1304 1305 -1.2205584044277500e-03
1305 1305 1.0353648988552901e-01
1306 1305 -1.0204081632653100e-01
1620 1305 -1.2470163006412499e-04
1305 1306 -1.0204081632653100e-01
1306 1306 2.6078100372129598e-01
1307 1306 -1.5873015873015900e-01
1617 1306 -4.9830318518561402e-06
1306 1307 -1.5873015873015900e-01
1307 1307 1.5886656126713500e-01
1308 1307 -1.8779726083782902e-09
1617 1307 -3.7264907202132597e-05
1307 1308 -1.6644829724857801e-11
1308 1308 2.8577242223079202e-01
1315 1308 -2.8571428571428598e-01
1617 1308 -3.6143792344514201e-05
1309 1309 1.0187648081547500e-01
1310 1309 -8.1312079758272495e-10
1620 1309 -7.0346624613802297e-05
1309 1310 -3.2666272501775500e-12
1310 1310 7.6462225669366293e-02
1311 1310 -7.6219512195121894e-02
1620 1310 -7.0308489793069904e-05
1310 1311 -7.6219512195121894e-02
1311 1311 1.7787602135497099e-01
1312 1311 -1.0162601626016300e-01
1617 1311 -2.0695858419894999e-05
1311 1312 -1.0162601626016300e-01
1312 1312 1.0180816697808900e-01
1314 1312 -1.8586835463297498e-08
1617 1312 -7.0361552378248000e-05
1295 1313 -1.2987012987013000e-01
1297 1313 -1.0204081632653100e-01
1299 1313 -1.0204081632653100e-01
1313 1313 3.3399070028464700e-01
1315 1313 -6.5230140573292702e-06
1617 1313 -3.9814174092719904e-06
1620 1313 -4.1441797561919198e-06
1293 1314 -1.0162601626016300e-01
1312 1314 -7.8711081556187096e-11
1314 1314 1.0180245370763601e-01
1617 1314 -7.0353319494831899e-05
1291 1315 -7.0288977190687501e-05
1292 1315 -7.0287609825997805e-05
1293 1315 -1.6839642815946000e-05
1294 1315 -1.2398611797035099e-04
1295 1315 -1.2388600444753500e-04
1301 1315 -4.0650406504064998e-02
1303 1315 -4.0650406504064998e-02
1308 1315 -2.8571428571428598e-01
1313 1315 -6.5230140573292702e-06
1315 1315 3.6776718548724802e-01
1617 1315 -7.3305657016627403e-06
1620 1315 -1.9719284338375401e-06
2390 1315 -1.9719284338375401e-06
2391 1315 -1.9719284338375401e-06
1316 1316 3.9792375793659102e-02
1319 1316 -8.7475228284917102e-10
1380 1316 -1.9551328483163799e-05
1317 1317 5.6189262375522298e-02
1318 1317 -4.7728367283554802e-04
1380 1317 -1.2676456547413800e-04
1317 1318 -4.8224122958305602e-04
1318 1318 4.4328115748336797e-02
1338 1318 -4.3554006968641097e-02
1380 1318 -1.2673761660835100e-04
1316 1319 -7.7169431395608206e-12
1319 1319 5.2955264407102701e-02
1338 1319 -5.2910052910052900e-02
1380 1319 -1.8972796119677300e-05
1320 1320 5.0940743447903100e-02
1321 1320 -3.9933121632750700e-10
1338 1320 -3.5173269957404999e-05
1320 1321 -1.6203011803428300e-12
1321 1321 4.0767405943203799e-02
1338 1321 -3.5153094184861598e-05
1615 1321 -4.0650406504064998e-02
1322 1322 2.8580466158988199e-01
1323 1322 -1.3365064867760200e-09
1322 1323 -1.8164327263960101e-11
1323 1323 1.1000460883425900e-01
1324 1323 -1.0989010989011000e-01
1323 1324 -1.0989010989011000e-01
1324 1324 2.6863029728487497e-01
1325 1324 -1.5873015873015900e-01
1324 1325 -1.5873015873015900e-01
1325 1325 1.5916055485357400e-01
1330 1325 -2.0350292419639500e-04
1326 1326 5.1152355770028600e-02
1329 1326 -1.2110905167403201e-04
1327 1327 5.1460739764742400e-02
1328 1327 -4.3152453753009099e-04
1327 1328 -4.3209421104170202e-04
1328 1328 4.1352787958456802e-02
2353 1328 -4.0650406504064998e-02
1326 1329 -1.2489999341808901e-04
1329 1329 4.1043515778455698e-02
2353 1329 -4.0650406504064998e-02
1325 1330 -6.0441774969163103e-06
1330 1330 2.8577707505132399e-01
2353 1330 -2.8571428571428598e-01
1331 1331 5.0940743194383999e-02
1332 1331 -3.0542965713944699e-10
2353 1331 -3.5172470683444499e-05
1331 1332 -1.2381744135341600e-12
1332 1332 4.0767405908774902e-02
1615 1332 -4.0650406504064998e-02
2353 1332 -3.5152850858466601e-05
1333 1333 2.8713536756476399e-01
1334 1333 -1.2339645374128600e-03
2353 1333 -1.2468976744572699e-04
1333 1334 -1.2295227413411901e-03
1334 1334 1.0354552636789800e-01
1335 1334 -1.0204081632653100e-01
2353 1334 -1.2470801867816401e-04
1334 1335 -1.0204081632653100e-01
1335 1335 2.6078100372129598e-01
1336 1335 -1.5873015873015900e-01
1338 1335 -4.9830318518561402e-06
1335 1336 -1.5873015873015900e-01
1336 1336 1.6019469790257801e-01
1337 1336 -1.2210913275798600e-03
1338 1336 -1.2469890350380001e-04
1336 1337 -1.2260996388595599e-03
1337 1337 2.8712757047281301e-01
1338 1337 -1.2469888149668399e-04
1615 1337 -2.8571428571428598e-01
1318 1338 -4.3554006968641097e-02
1319 1338 -5.2910052910052900e-02
1320 1338 -3.5144468086297500e-05
1321 1338 -3.5143825422045098e-05
1335 1338 -4.9830318518561402e-06
1336 1338 -1.2398807344599601e-04
1337 1338 -1.2388405366220201e-04
1338 1338 9.7051975665972498e-02
1615 1338 -6.0973279192310098e-06
2353 1338 -3.7936147012874600e-06
2390 1338 -4.2506012907164796e-06
2391 1338 -1.9719284338375401e-06
1339 1339 5.0940743194426298e-02
1340 1339 -3.0547195906776598e-10
2353 1339 -3.5172470694239202e-05
1339 1340 -1.2384048862749500e-12
1340 1340 4.0767393140992703e-02
1616 1340 -4.0650406504064998e-02
2353 1340 -3.5152847735308497e-05
1341 1341 5.0940743430333599e-02
1342 1341 -3.9840686149941401e-10
1620 1341 -3.5173255394932901e-05
1341 1342 -1.6166171361899501e-12
1342 1342 4.0767393171854897e-02
1616 1342 -4.0650406504064998e-02
1620 1342 -3.5153088769725701e-05
1343 1343 2.8712696823600198e-01
1344 1343 -1.2255552874429101e-03
1620 1343 -1.2467713357098301e-04
1343 1344 -1.2219642728931699e-03
1344 1344 1.0353802107695700e-01
1345 1344 -1.0204081632653100e-01
1620 1344 -1.2471713266679600e-04
1344 1345 -1.0204081632653100e-01
1345 1345 2.6078100372129598e-01
1346 1345 -1.5873015873015900e-01
2353 1345 -4.9830318518561402e-06
1345 1346 -1.5873015873015900e-01
1346 1346 1.6019894794560199e-01
1347 1346 -1.2354928572699501e-03
2353 1346 -1.2468967126698201e-04
1346 1347 -1.2311143272773599e-03
1347 1347 2.8714281982348899e-01
1616 1347 -2.8571428571428598e-01
2353 1347 -1.2470147873701499e-04
1348 1348 3.9792375758771502e-02
1351 1348 -9.3054050241512299e-10
1616 1348 -1.9556929720065001e-05
1349 1349 5.6188582856693002e-02
1350 1349 -4.7659698376856799e-04
1616 1349 -1.2677721517074901e-04
1349 1350 -4.8138388520143401e-04
1350 1350 4.4327186524206100e-02
1379 1350 -4.3554006968641097e-02
1616 1350 -1.2672495834124400e-04
1348 1351 -8.2188358685240702e-12
1351 1351 5.2955267628561099e-02
1379 1351 -5.2910052910052900e-02
1616 1351 -1.8975010804307200e-05
1352 1352 6.8749282696286204e-02
1353 1352 -6.0917176230405401e-04
2352 1352 -6.2686566036076994e-05
1352 1353 -6.0959842446562296e-04
1353 1353 5.1768159759766202e-02
1380 1353 -5.1020408163265300e-02
2352 1353 -6.2752854246660603e-05
1354 1354 6.8751448466285600e-02
1355 1354 -6.1134604067467502e-04
1620 1354 -6.2686871042963305e-05
1354 1355 -6.1175846027784297e-04
1355 1355 5.1770321802645201e-02
1380 1355 -5.1020408163265300e-02
1620 1355 -6.2752879599062205e-05
1356 1356 2.0343573324018799e-01
1357 1356 -1.2249135684551999e-09
1620 1356 -7.0346573192593603e-05
1356 1357 -7.8951163605642704e-10
1357 1357 7.6563848720106603e-02
1358 1357 -7.6219512195121894e-02
1620 1357 -7.0345369616038193e-05
1357 1358 -7.6219512195121894e-02
1358 1358 1.9818783427392400e-01
1359 1358 -1.2195121951219499e-01
2352 1358 -1.2056933852606700e-05
1358 1359 -1.2195121951219499e-01
1359 1359 1.2223631033641900e-01
1360 1359 -6.4401994517407300e-10
2352 1359 -7.0346225442088900e-05
1359 1360 -2.6246571728945101e-12
1360 1360 2.0338941788019399e-01
1380 1360 -2.0325203252032500e-01
2352 1360 -7.0306451532615403e-05
1361 1361 6.8751230062669103e-02
1362 1361 -6.1110617040806704e-04
1379 1361 -6.2715198231609796e-05
1361 1362 -6.0967873145523503e-04
1362 1362 5.1768082821856201e-02
1379 1362 -6.2740091737508105e-05
1614 1362 -5.1020408163265300e-02
1363 1363 6.8749324650191193e-02
1364 1363 -6.0919281535452103e-04
2352 1363 -6.2714995440077003e-05
1363 1364 -6.0778038916029702e-04
1364 1364 5.1766182941731201e-02
1614 1364 -5.1020408163265300e-02
2352 1364 -6.2739955083367099e-05
1365 1365 6.8534586484314194e-02
1373 1365 -3.7511652461799801e-04
1366 1366 6.8091355052815494e-02
1372 1366 -9.1353251631205898e-10
1367 1367 2.0447296975305901e-01
1368 1367 -8.6252196448704599e-04
1367 1368 -8.8489809226625102e-04
1368 1368 7.7645391001056899e-02
1369 1368 -7.6219512195121894e-02
1368 1369 -7.6219512195121894e-02
1369 1369 1.9818783427392400e-01
1370 1369 -1.2195121951219499e-01
1369 1370 -1.2195121951219499e-01
1370 1370 1.2269970641248600e-01
1371 1370 -2.6433874626649698e-04
1370 1371 -2.3333776619990999e-04
1371 1371 2.0384020871995201e-01
2352 1371 -2.0325203252032500e-01
1366 1372 -8.0773170739864995e-12
1372 1372 5.2954863523801000e-02
2352 1372 -5.2910052910052900e-02
1365 1373 -2.2413942287727999e-05
1373 1373 5.2976846590424197e-02
2352 1373 -5.2910052910052900e-02
1374 1374 2.0343573215396701e-01
1375 1374 -1.4087276351744200e-09
2352 1374 -7.0347389330396097e-05
1374 1375 -9.0815324377079295e-10
1375 1375 7.6563846033943797e-02
1376 1375 -7.6219512195121894e-02
2352 1375 -7.0346169017989593e-05
1375 1376 -7.6219512195121894e-02
1376 1376 1.9818783427392400e-01
1377 1376 -1.2195121951219499e-01
1379 1376 -1.2056933852606700e-05
1376 1377 -1.2195121951219499e-01
1377 1377 1.2223631840583100e-01
1378 1377 -5.6991227673524703e-10
1379 1377 -7.0345524500201102e-05
1377 1378 -2.3214446268621501e-12
1378 1378 2.0338944146397400e-01
1379 1378 -7.0306244888774705e-05
1614 1378 -2.0325203252032500e-01
1350 1379 -4.3554006968641097e-02
1351 1379 -5.2910052910052900e-02
1361 1379 -6.1393152867062406e-05
1362 1379 -6.2544208864976803e-05
1376 1379 -1.2056933852606700e-05
1377 1379 -7.0288756358917502e-05
1378 1379 -7.0287830657767803e-05
1379 1379 9.7076917392851500e-02
1380 1379 -2.1722513223543700e-06
1614 1379 -5.5652202466081803e-06
1616 1379 -9.8909426205184702e-07
1620 1379 -1.9719284338375401e-06
2352 1379 -8.2820994221176805e-06
2390 1379 -2.1722513223543700e-06
2391 1379 -1.9719284338375401e-06
1316 1380 -1.8615737942141500e-05
1317 1380 -1.2558407119073200e-04
1318 1380 -1.2527203135762399e-04
1319 1380 -1.8614270888711299e-05
1353 1380 -5.1020408163265300e-02
1355 1380 -5.1020408163265300e-02
1360 1380 -2.0325203252032500e-01
1379 1380 -2.1722513223543700e-06
1380 1380 3.0595339528767102e-01
1614 1380 -9.8909426205184702e-07
1616 1380 -1.9719284338375401e-06
1620 1380 -9.8909426205184702e-07
2352 1380 -5.5652202466081803e-06
2353 1380 -1.9719284338375401e-06
2390 1380 -1.9719284338375401e-06
2391 1380 -1.9719284338375401e-06
1381 1381 2.8580466179748298e-01
1382 1381 -1.5429978960401000e-09
1615 1381 -3.7158772269495402e-05
1381 1382 -7.6014539238488500e-10
1382 1382 1.0220488410930301e-01
1383 1382 -1.0204081632653100e-01
1615 1382 -3.7117880344876198e-05
1382 1383 -1.0204081632653100e-01
1383 1383 2.2109748746467500e-01
1385 1383 -1.1904761904761900e-01
1611 1383 -1.0016144425841501e-06
1615 1383 -3.0048433277524500e-06
1384 1384 2.8577242262542502e-01
1385 1384 -8.5346637055704903e-12
1611 1384 -2.8571428571428598e-01
1612 1384 -3.6139562139870400e-05
1383 1385 -1.1904761904761900e-01
1384 1385 -9.4920109575042798e-10
1385 1385 1.1919989331694600e-01
1612 1385 -3.7200094011613398e-05
1386 1386 1.0294286954605600e-01
1387 1386 -8.5596455352682601e-04
1615 1386 -2.2646088537022399e-04
1386 1387 -8.6506343401214004e-04
1387 1387 7.7607453316978200e-02
1394 1387 -7.6219512195121894e-02
1615 1387 -2.2643886263685301e-04
1388 1388 1.0294493114624700e-01
1389 1388 -8.5801243993292701e-04
1612 1388 -2.2646091166637000e-04
1388 1389 -8.6712501930882695e-04
1389 1389 7.7609499037909896e-02
1394 1389 -7.6219512195121894e-02
1612 1389 -2.2643883633514600e-04
1390 1390 1.1920331428894100e-01
1391 1390 -1.9574376342025699e-09
1472 1390 -3.7262131594201698e-05
1390 1391 -1.7406403116459300e-11
1391 1391 1.0212692672161500e-01
1472 1391 -3.6146869655670403e-05
1611 1391 -1.0204081632653100e-01
1392 1392 1.0293314005922900e-01
1393 1392 -8.6479390375702005e-04
1472 1392 -2.2644598311730000e-04
1611 1392 -1.0162601626016300e-01
1392 1393 -8.5560861301282399e-04
1393 1393 1.5375403888344999e-01
1394 1393 -1.5243902439024401e-01
1472 1393 -2.2645376590760299e-04
1387 1394 -7.6219512195121894e-02
1389 1394 -7.6219512195121894e-02
1393 1394 -1.5243902439024401e-01
1394 1394 3.0493383244485001e-01
1472 1394 -1.9637903164915501e-05
1612 1394 -5.9721261139079898e-06
1615 1394 -3.9814174092719904e-06
1395 1395 1.0292892196117299e-01
1396 1395 -8.5796150101430401e-04
1612 1395 -2.2647731299280400e-04
1395 1396 -8.6685566837297202e-04
1396 1396 7.7609128413720904e-02
1612 1396 -2.2642242895364200e-04
1613 1396 -7.6219512195121894e-02
1397 1397 1.4292840350999300e-01
1398 1397 -1.0872050374446799e-11
1612 1397 -3.6139302624247500e-05
1613 1397 -1.4285714285714299e-01
1397 1398 -1.2155614059738199e-09
1398 1398 1.3001867435621900e-01
1408 1398 -1.2987012987013000e-01
1612 1398 -3.7216582975219399e-05
1399 1399 1.4298556729680201e-01
1400 1399 -1.7033363102255500e-09
1614 1399 -3.7153297632238403e-05
1399 1400 -1.1775763725069201e-09
1400 1400 1.0220649000562899e-01
1408 1400 -1.0204081632653100e-01
1614 1400 -3.7128957610340797e-05
1401 1401 1.4298556734431900e-01
1402 1401 -1.7717375001723300e-09
1472 1401 -3.7160037949793898e-05
1401 1402 -1.2249207668768899e-09
1402 1402 1.0220649001299000e-01
1408 1402 -1.0204081632653100e-01
1472 1402 -3.7135623959615403e-05
1403 1403 1.0292665987370600e-01
1404 1403 -8.5572553607497705e-04
1472 1403 -2.2646542729169600e-04
1403 1404 -8.6476257628289200e-04
1404 1404 7.7607126139598401e-02
1405 1404 -7.6219512195121894e-02
1472 1404 -2.2643431955783499e-04
1404 1405 -7.6219512195121894e-02
1405 1405 1.7787602135497099e-01
1406 1405 -1.0162601626016300e-01
1614 1405 -2.0695858419894999e-05
1405 1406 -1.0162601626016300e-01
1406 1406 1.0292712511268400e-01
1407 1406 -8.5626232222712703e-04
1614 1406 -2.2646181277973101e-04
1406 1407 -8.6534322841690505e-04
1407 1407 1.0291766325059799e-01
1613 1407 -1.0162601626016300e-01
1614 1407 -2.2643793502315400e-04
1398 1408 -1.2987012987013000e-01
1400 1408 -1.0204081632653100e-01
1402 1408 -1.0204081632653100e-01
1408 1408 3.3399070028464700e-01
1472 1408 -4.1441797561919198e-06
1612 1408 -6.5230140573292702e-06
1614 1408 -3.9814174092719904e-06
1409 1409 4.0439211626251997e-02
1421 1409 -5.9556127547315599e-04
1426 1409 -6.5769669385623401e-05
1410 1410 6.8091355027291495e-02
1418 1410 -8.8800760062209501e-10
1411 1411 6.8529988095931693e-02
1417 1411 -3.7046459805143702e-04
1412 1412 2.0386528914749200e-01
1413 1412 -2.3976232852613400e-04
1412 1413 -2.3951626483608500e-04
1413 1413 7.6991418100158499e-02
1414 1413 -7.6219512195121894e-02
1413 1414 -7.6219512195121894e-02
1414 1414 1.9818783427392400e-01
1415 1414 -1.2195121951219499e-01
1414 1415 -1.2195121951219499e-01
1415 1415 1.2327389777845700e-01
1416 1415 -8.3864615777200799e-04
1415 1416 -7.9188915168798796e-04
1416 1416 2.0439039820732999e-01
1426 1416 -2.0325203252032500e-01
1411 1417 -2.2766502704174700e-05
1417 1417 5.1088007135463298e-02
1426 1417 -5.1020408163265300e-02
1410 1418 -8.0494019141597305e-12
1418 1418 5.1065682794706899e-02
1426 1418 -5.1020408163265300e-02
1419 1419 5.5603067042780903e-02
1420 1419 -7.4467484675413597e-09
1426 1419 -3.9201610557407400e-05
1419 1420 -3.0531077219872502e-11
1420 1420 4.3686400806202903e-02
1426 1420 -3.9173200026461099e-05
1612 1420 -4.3554006968641097e-02
1409 1421 -5.9666406215931004e-04
1421 1421 5.3654276809318599e-02
1426 1421 -6.5861452109264900e-05
1612 1421 -5.2910052910052900e-02
1422 1422 4.0499718559907201e-02
1425 1422 -6.5077354937734895e-04
1471 1422 -6.5831654329339206e-05
1423 1423 5.5603064982816398e-02
1424 1423 -2.2614070539093501e-10
1471 1423 -3.9191069364770199e-05
1423 1424 -9.1599204701125891e-13
1424 1424 4.3686465232624497e-02
1471 1424 -3.9169889954884699e-05
1472 1424 -4.3554006968641097e-02
1422 1425 -6.5344835847282005e-04
1425 1425 5.3705438229597002e-02
1471 1425 -6.5829956698653495e-05
1472 1425 -5.2910052910052900e-02
1409 1426 -6.3177839699457301e-05
1416 1426 -2.0325203252032500e-01
1417 1426 -5.1020408163265300e-02
1418 1426 -5.1020408163265300e-02
1419 1426 -3.9166671321826000e-05
1420 1426 -3.9154570016041500e-05
1421 1426 -6.6959654701071006e-05
1426 1426 3.0587601034245399e-01
1471 1426 -1.9719284338375401e-06
1472 1426 -9.8909426205184702e-07
1612 1426 -9.8909426205184702e-07
2390 1426 -1.9719284338375401e-06
1427 1427 2.8665744770805202e-01
1428 1427 -7.5528812078877797e-04
1427 1428 -7.7625543319023195e-04
1428 1428 1.0309843011812900e-01
1429 1428 -1.0204081632653100e-01
1428 1429 -1.0204081632653100e-01
1429 1429 2.6078100372129598e-01
1430 1429 -1.5873015873015900e-01
1429 1430 -1.5873015873015900e-01
1430 1430 1.5886891365079100e-01
1435 1430 -5.2648212850819503e-09
1431 1431 5.1459800942231598e-02
1434 1431 -4.3090278398746299e-04
1432 1432 5.1148139075628402e-02
1433 1432 -1.1926887690258700e-04
1432 1433 -1.3094284493147900e-04
1433 1433 3.8515723053741499e-02
1471 1433 -3.8109756097561003e-02
1431 1434 -4.3956209598848599e-04
1434 1434 3.8824591116486798e-02
1471 1434 -3.8109756097561003e-02
1430 1435 -3.1253814536629002e-11
1435 1435 2.8577230307747697e-01
1471 1435 -2.8571428571428598e-01
1436 1436 5.0940743467668401e-02
1437 1436 -3.1102507906765600e-10
1471 1436 -3.5171172174039497e-05
1436 1437 -3.1253069933765500e-10
1437 1437 4.0823913932297499e-02
1470 1437 -4.0650406504064998e-02
1471 1437 -3.5186565289755901e-05
1438 1438 5.1462427482136301e-02
1439 1438 -4.3303104208653500e-04
1612 1438 -1.1388480187010800e-04
1438 1439 -4.2847477979266098e-04
1439 1439 4.1350244476288697e-02
1470 1439 -4.0650406504064998e-02
1612 1439 -1.1388765936198101e-04
1440 1440 2.8580466189729298e-01
1441 1440 -1.6224469658459100e-09
1612 1440 -3.7231162593275503e-05
1440 1441 -1.5275097606004700e-11
1441 1441 1.0212986810206100e-01
1442 1441 -1.0204081632653100e-01
1612 1441 -3.6185401862505600e-05
1441 1442 -1.0204081632653100e-01
1442 1442 2.6078100372129598e-01
1443 1442 -1.5873015873015900e-01
1471 1442 -4.9830318518561402e-06
1442 1443 -1.5873015873015900e-01
1443 1443 1.5881275218321600e-01
1444 1443 -3.4673668536256602e-08
1471 1443 -3.8114040135320998e-05
1443 1444 -7.9385390950820799e-10
1444 1444 2.8577242132625402e-01
1470 1444 -2.8571428571428598e-01
1471 1444 -3.7929912872941798e-05
1445 1445 5.1466002218815803e-02
1446 1445 -4.2739999398530001e-04
1615 1445 -1.1388866877487201e-04
1445 1446 -4.3197192131508598e-04
1446 1446 4.1344526609129899e-02
1469 1446 -4.0650406504064998e-02
1615 1446 -1.1388479840821200e-04
1447 1447 5.0940743652323699e-02
1448 1447 -6.1001446812316101e-10
1470 1447 -3.5173182314044799e-05
1447 1448 -6.0821677333708604e-10
1448 1448 4.0823894597175399e-02
1469 1448 -4.0650406504064998e-02
1470 1448 -3.5173177942729199e-05
1449 1449 2.8712747820301499e-01
1450 1449 -1.2260486996831801e-03
1470 1449 -1.2469999018064601e-04
1449 1450 -1.2209425873094400e-03
1450 1450 1.0353686772433800e-01
1451 1450 -1.0204081632653100e-01
1470 1450 -1.2470070509891699e-04
1450 1451 -1.0204081632653100e-01
1451 1451 2.6078100372129598e-01
1452 1451 -1.5873015873015900e-01
1615 1451 -4.9830318518561402e-06
1451 1452 -1.5873015873015900e-01
1452 1452 1.5886655349720499e-01
1453 1452 -1.9363873386869599e-09
1615 1452 -3.7262674738956998e-05
1452 1453 -1.7204173517882599e-11
1453 1453 2.8577242139301001e-01
1469 1453 -2.8571428571428598e-01
1615 1453 -3.6146023288628000e-05
1454 1454 1.0187648086908099e-01
1455 1454 -8.3960496161280103e-10
1469 1454 -7.0346575259676503e-05
1454 1455 -3.4179705108555699e-12
1455 1455 7.6453517626909107e-02
1456 1455 -7.6219512195121894e-02
1469 1455 -7.0306204586568404e-05
1455 1456 -7.6219512195121894e-02
1456 1456 3.2083819600659902e-01
1457 1456 -1.4285714285714299e-01
1468 1456 -1.0162601626016300e-01
1469 1456 -1.6839642815946000e-05
1456 1457 -1.4285714285714299e-01
1457 1457 1.4431354392183399e-01
1458 1457 -1.2209352498646301e-03
1469 1457 -1.2470059211906200e-04
1457 1458 -1.2260044571553699e-03
1458 1458 1.3134338246433699e-01
1467 1458 -1.2987012987013000e-01
1469 1458 -1.2469950131202001e-04
1459 1459 1.4298556739209900e-01
1460 1459 -1.7986147125713600e-09
1614 1459 -3.7152132727769503e-05
1459 1460 -1.8048593781467800e-09
1460 1460 1.0220890247480099e-01
1467 1460 -1.0204081632653100e-01
1614 1460 -3.7163839658201797e-05
1461 1461 1.4430838187267100e-01
1462 1461 -1.2260479082912099e-03
1470 1461 -1.2469878715987200e-04
1461 1462 -1.2210216521265200e-03
1462 1462 1.0353695378050300e-01
1467 1462 -1.0204081632653100e-01
1470 1462 -1.2470156703856301e-04
1463 1463 1.0187648082362601e-01
1464 1463 -8.0107572534567503e-10
1470 1463 -7.0346537166714301e-05
1463 1464 -3.2180549834456300e-12
1464 1464 7.6462229771935300e-02
1465 1464 -7.6219512195121894e-02
1470 1464 -7.0308460612833104e-05
1464 1465 -7.6219512195121894e-02
1465 1465 1.7787602135497099e-01
1466 1465 -1.0162601626016300e-01
1614 1465 -2.0695858419894999e-05
1465 1466 -1.0162601626016300e-01
1466 1466 1.0180816961878500e-01
1468 1466 -1.8538828928162901e-08
1614 1466 -7.0361551136630500e-05
1458 1467 -1.2987012987013000e-01
1460 1467 -1.0204081632653100e-01
1462 1467 -1.0204081632653100e-01
1467 1467 3.3399070028464700e-01
1469 1467 -6.5230140573292702e-06
1470 1467 -4.1441797561919198e-06
1614 1467 -3.9814174092719904e-06
1456 1468 -1.0162601626016300e-01
1466 1468 -7.8507575319349294e-11
1468 1468 1.0180245508745800e-01
1614 1468 -7.0353316763353105e-05
1446 1469 -4.0650406504064998e-02
1448 1469 -4.0650406504064998e-02
1453 1469 -2.8571428571428598e-01
1454 1469 -7.0288973927660106e-05
1455 1469 -7.0287613089025199e-05
1456 1469 -1.6839642815946000e-05
1457 1469 -1.2396691140348899e-04
1458 1469 -1.2390516546258100e-04
1467 1469 -6.5230140573292702e-06
1469 1469 3.6775247678955397e-01
1470 1469 -9.8909426205184702e-07
1615 1469 -7.0864221812828501e-06
2390 1469 -1.9719284338375401e-06
2391 1469 -1.9719284338375401e-06
1437 1470 -4.0650406504064998e-02
1439 1470 -4.0650406504064998e-02
1444 1470 -2.8571428571428598e-01
1447 1470 -3.5144148202997598e-05
1448 1470 -3.5144145305345102e-05
1449 1470 -1.2392182058415600e-04
1450 1470 -1.2395021669173899e-04
1461 1470 -1.2388082870133199e-04
1462 1470 -1.2399130596969400e-04
1463 1470 -7.0288942706451504e-05
1464 1470 -7.0287644310233801e-05
1467 1470 -4.1441797561919198e-06
1469 1470 -9.8909426205184702e-07
1470 1470 3.6824143221095801e-01
1471 1470 -6.0973279192310098e-06
1614 1470 -3.3679285631892000e-06
1615 1470 -5.7655431351250098e-06
2390 1470 -3.1613455844062199e-06
2391 1470 -2.9610226958893901e-06
1422 1471 -6.5095425248609898e-05
1423 1471 -3.9160802526759502e-05
1424 1471 -3.9160438811108101e-05
1425 1471 -6.5037444447392905e-05
1426 1471 -1.9719284338375401e-06
1433 1471 -3.8109756097561003e-02
1434 1471 -3.8109756097561003e-02
1435 1471 -2.8571428571428598e-01
1436 1471 -3.5144146000021501e-05
1437 1471 -3.5144147508321097e-05
1442 1471 -4.9830318518561402e-06
1443 1471 -3.5489527043110799e-05
1444 1471 -3.5424775491846999e-05
1470 1471 -6.0973279192310098e-06
1471 1471 3.6285382381925801e-01
1472 1471 -1.9719284338375401e-06
1612 1471 -4.7764488730731602e-06
1614 1471 -9.8909426205184702e-07
1615 1471 -9.8909426205184702e-07
2390 1471 -2.9610226958893901e-06
2391 1471 -9.8909426205184702e-07
1390 1472 -3.5458804398130799e-05
1391 1472 -3.5455498136826999e-05
1392 1472 -2.2508082913513201e-04
1393 1472 -2.2517205832729500e-04
1394 1472 -1.9637903164915501e-05
1401 1472 -3.5457609603564103e-05
1402 1472 -3.5456692931393601e-05
1403 1472 -2.2530926757811299e-04
1404 1472 -2.2494458836780899e-04
1408 1472 -4.1441797561919198e-06
1424 1472 -4.3554006968641097e-02
1425 1472 -5.2910052910052900e-02
1426 1472 -9.8909426205184702e-07
1471 1472 -1.9719284338375401e-06
1472 1472 9.8043335045337299e-02
1611 1472 -3.1989061260031302e-06
1612 1472 -1.9719284338375401e-06
1613 1472 -1.9719284338375401e-06
1614 1472 -3.0173635082847499e-06
1615 1472 -1.9719284338375401e-06
2390 1472 -2.9610226958893901e-06
2391 1472 -1.9719284338375401e-06
1473 1473 1.0187648086639101e-01
1474 1473 -8.4283906920133597e-10
1610 1473 -7.0346594887846903e-05
1473 1474 -3.4311898830997501e-12
1474 1474 7.6457263229024602e-02
1610 1474 -7.0306211209499598e-05
2393 1474 -7.6219512195121894e-02
1475 1475 1.4431350476493701e-01
1476 1475 -1.2208937442036100e-03
1610 1475 -1.2470027348729999e-04
2393 1475 -1.4285714285714299e-01
1475 1476 -1.2259589685831500e-03
1476 1476 1.3134334677885301e-01
1486 1476 -1.2987012987013000e-01
1610 1476 -1.2469948920744800e-04
1477 1477 1.4430800904027100e-01
1478 1477 -1.2256749711478600e-03
1611 1477 -1.2469764143697599e-04
1477 1478 -1.2207255932050200e-03
1478 1478 1.0354153491752099e-01
1486 1478 -1.0204081632653100e-01
1611 1478 -1.2470238653593000e-04
1479 1479 1.4298556739001500e-01
1480 1479 -1.7770556549308200e-09
1609 1479 -3.7150047234905103e-05
1479 1480 -1.7875969277643100e-09
1480 1480 1.0221378444706400e-01
1486 1480 -1.0204081632653100e-01
1609 1480 -3.7170042039050699e-05
1481 1481 1.0292763794623599e-01
1482 1481 -8.5669831025655604e-04
1609 1481 -2.2646416244203501e-04
1481 1482 -8.6575872462744204e-04
1482 1482 7.7614459631796806e-02
1483 1482 -7.6219512195121894e-02
1609 1482 -2.2643558476963100e-04
1482 1483 -7.6219512195121894e-02
1483 1483 1.7787602135497099e-01
1484 1483 -1.0162601626016300e-01
1611 1483 -2.0695858419894999e-05
1483 1484 -1.0162601626016300e-01
1484 1484 1.0187643313822300e-01
1485 1484 -8.3618522839289595e-10
1611 1484 -7.0346580637153504e-05
1484 1485 -3.4041805121772102e-12
1485 1485 1.0180245423691101e-01
1611 1485 -7.0306216995060105e-05
2393 1485 -1.0162601626016300e-01
1476 1486 -1.2987012987013000e-01
1478 1486 -1.0204081632653100e-01
1480 1486 -1.0204081632653100e-01
1486 1486 3.3399070028464700e-01
1609 1486 -4.1441797561919198e-06
1610 1486 -6.5230140573292702e-06
1611 1486 -3.9814174092719904e-06
1487 1487 5.0940743661786303e-02
1488 1487 -6.2219429201252803e-10
1613 1487 -3.5173239801338797e-05
1487 1488 -6.1742129354014896e-10
1488 1488 3.8286405049964403e-02
1610 1488 -3.8109756097561003e-02
1613 1488 -3.5173228374703300e-05
1489 1489 5.1466369914802003e-02
1490 1489 -4.2776241940842600e-04
1609 1489 -1.1389178146315600e-04
1489 1490 -4.3229608508017103e-04
1490 1490 3.8807354920850301e-02
1609 1490 -1.1388168530638300e-04
1610 1490 -3.8109756097561003e-02
1491 1491 2.8580466200179000e-01
1492 1491 -1.7368986551782601e-09
1609 1491 -3.7243035225959101e-05
1491 1492 -1.6396048285220999e-11
1492 1492 1.0213315343713700e-01
1493 1492 -1.0204081632653100e-01
1609 1492 -3.6191564378315403e-05
1492 1493 -1.0204081632653100e-01
1493 1493 2.6078100372129598e-01
1494 1493 -1.5873015873015900e-01
1613 1493 -4.9830318518561402e-06
1493 1494 -1.5873015873015900e-01
1494 1494 1.5881279124775199e-01
1495 1494 -1.9492357329869700e-08
1613 1494 -3.8098856884800800e-05
1494 1495 -4.4332357337920202e-10
1495 1495 2.8577242249493201e-01
1610 1495 -2.8571428571428598e-01
1613 1495 -3.7911727085427202e-05
1496 1496 6.8091354992445702e-02
1497 1496 -8.4123065093416402e-10
1608 1496 -1.8573890015829001e-05
1496 1497 -9.2571278970720497e-10
1497 1497 5.1107089769775599e-02
1608 1497 -1.8733312145440299e-05
1609 1497 -5.1020408163265300e-02
1498 1498 6.8747707441724995e-02
1499 1498 -6.0757553633574801e-04
1607 1498 -6.2709374848899803e-05
1498 1499 -6.0652746547920102e-04
1499 1499 5.1767414669692702e-02
1607 1499 -6.2742500895631304e-05
1609 1499 -5.1020408163265300e-02
1500 1500 2.0343573165833001e-01
1501 1500 -1.0360902926573400e-09
1607 1500 -7.0348036246143197e-05
1500 1501 -4.1660940763453899e-12
1501 1501 7.6466130913256394e-02
1502 1501 -7.6219512195121894e-02
1607 1501 -7.0308967990526702e-05
1501 1502 -7.6219512195121894e-02
1502 1502 1.9818783427392400e-01
1503 1502 -1.2195121951219499e-01
1608 1502 -1.2056933852606700e-05
1502 1503 -1.2195121951219499e-01
1503 1503 1.2215697963830600e-01
1504 1503 -1.7811138817804399e-08
1608 1503 -7.0361511556345094e-05
1503 1504 -7.5425337788526600e-11
1504 1504 2.0338943695540701e-01
1608 1504 -7.0353279622593305e-05
1609 1504 -2.0325203252032500e-01
1505 1505 6.8751526595671006e-02
1506 1505 -6.1140974800992498e-04
1611 1505 -6.2706576158976207e-05
1505 1506 -6.1054377440940104e-04
1506 1506 5.1771454382336803e-02
1606 1506 -5.1020408163265300e-02
1611 1506 -6.2743959506557601e-05
1507 1507 6.8747702727869300e-02
1508 1507 -6.0757313442894197e-04
1607 1507 -6.2706245115747001e-05
1507 1508 -6.0672731856708097e-04
1508 1508 5.1767632318449698e-02
1606 1508 -5.1020408163265300e-02
1607 1508 -6.2743921938379906e-05
1509 1509 6.8534410827947603e-02
1517 1509 -3.7493891931993702e-04
1510 1510 6.8091355051835695e-02
1516 1510 -9.1255268674382700e-10
1511 1511 2.0447305330411600e-01
1512 1511 -8.6257755812229101e-04
1511 1512 -8.8428426483371501e-04
1512 1512 8.8531562390234006e-02
1513 1512 -8.7108013937282194e-02
1512 1513 -8.7108013937282194e-02
1513 1513 2.0907633601608400e-01
1514 1513 -1.2195121951219499e-01
1513 1514 -1.2195121951219499e-01
1514 1514 1.2269812803105500e-01
1515 1514 -2.6182713770367801e-04
1514 1515 -2.2971491638996199e-04
1515 1515 2.0383508292038399e-01
1607 1515 -2.0325203252032500e-01
1510 1516 -8.0761310645800895e-12
1516 1516 5.2954129379767401e-02
1607 1516 -5.2910052910052900e-02
1509 1517 -2.2426271236552100e-05
1517 1517 5.2976124241168501e-02
1607 1517 -5.2910052910052900e-02
1518 1518 2.0343573217695399e-01
1519 1518 -1.5547095770696001e-09
1607 1518 -7.0347984429929497e-05
1518 1519 -9.8983573393316003e-10
1519 1519 7.6570057311492801e-02
1520 1519 -7.6219512195121894e-02
1607 1519 -7.0346721970283003e-05
1519 1520 -7.6219512195121894e-02
1520 1520 1.9818783427392400e-01
1521 1520 -1.2195121951219499e-01
1611 1520 -1.2056933852606700e-05
1520 1521 -1.2195121951219499e-01
1521 1521 1.2223626810362800e-01
1522 1521 -5.5313555246204296e-10
1611 1521 -7.0345382479713704e-05
1521 1522 -2.2530589556748802e-12
1522 1522 2.0338943431069501e-01
1606 1522 -2.0325203252032500e-01
1611 1522 -7.0306205064366205e-05
1523 1523 1.0187648061114800e-01
1524 1523 -8.6968934654380295e-10
1575 1523 -7.0346778393450099e-05
1523 1524 -3.5409699207287701e-12
1524 1524 8.7339633287131804e-02
1575 1524 -7.0306264006869305e-05
2383 1524 -8.7108013937282194e-02
1525 1525 1.4430839647212601e-01
1526 1525 -1.2259442453606299e-03
1575 1525 -1.2467745893275401e-04
2383 1525 -1.4285714285714299e-01
1525 1526 -1.2223746098785500e-03
1526 1526 1.3135015496060601e-01
1536 1526 -1.2987012987013000e-01
1575 1526 -1.2471182447530200e-04
1527 1527 1.4298556723661601e-01
1528 1527 -1.6256068822924999e-09
1604 1527 -3.7134563088043200e-05
1527 1528 -1.7734956886375901e-09
1528 1528 1.0220941798243900e-01
1536 1528 -1.0204081632653100e-01
1604 1528 -3.7428245603137398e-05
1529 1529 1.4431502007588601e-01
1530 1529 -1.2327243171062401e-03
1605 1529 -1.2465983548240299e-04
1529 1530 -1.2302782331962501e-03
1530 1530 1.0354661339316300e-01
1536 1530 -1.0204081632653100e-01
1605 1530 -1.2472923057384999e-04
1531 1531 1.0187647698881100e-01
1532 1531 -6.4790879197527398e-10
1605 1531 -7.0345287447054703e-05
1531 1532 -2.6008122757246100e-12
1532 1532 8.7348242623408096e-02
1533 1532 -8.7108013937282194e-02
1605 1532 -7.0308032461643594e-05
1532 1533 -8.7108013937282194e-02
1533 1533 1.8876452309713099e-01
1534 1533 -1.0162601626016300e-01
1604 1533 -2.0695858419894999e-05
1533 1534 -1.0162601626016300e-01
1534 1534 1.0180818170175200e-01
1535 1534 -2.0913996532615700e-08
1604 1534 -7.0361648046948799e-05
1534 1535 -8.8572804475059494e-11
1535 1535 1.0180244487307000e-01
1604 1535 -7.0353375587700395e-05
2383 1535 -1.0162601626016300e-01
1526 1536 -1.2987012987013000e-01
1528 1536 -1.0204081632653100e-01
1530 1536 -1.0204081632653100e-01
1536 1536 3.3399070028464700e-01
1575 1536 -6.5230140573292702e-06
1604 1536 -3.9814174092719904e-06
1605 1536 -4.1441797561919198e-06
1537 1537 1.0228284737048500e-01
1538 1537 -2.3635839095785500e-04
1537 1538 -2.7671953492986199e-04
1538 1538 8.7928283671064894e-02
1539 1538 -8.7108013937282194e-02
1538 1539 -8.7108013937282194e-02
1539 1539 1.8876452309713099e-01
1540 1539 -1.0162601626016300e-01
1539 1540 -1.0162601626016300e-01
1540 1540 1.0296781135425100e-01
1541 1540 -8.9718642687245298e-04
1540 1541 -8.7068334490530898e-04
1541 1541 1.0292296899806300e-01
1605 1541 -1.0162601626016300e-01
1542 1542 1.4298556685404601e-01
1545 1542 -1.2825590309567200e-09
1543 1543 1.4381905088102800e-01
1544 1543 -7.0602429343597905e-04
1543 1544 -2.7006689055463900e-04
1544 1544 1.0248520154620600e-01
1555 1544 -1.0204081632653100e-01
1542 1545 -1.8571676694864099e-11
1545 1545 1.0215828459055300e-01
1555 1545 -1.0204081632653100e-01
1546 1546 2.8665739071349899e-01
1547 1546 -7.5525852840938599e-04
1546 1547 -7.7731588849771702e-04
1547 1547 1.0309474740081800e-01
1548 1547 -1.0204081632653100e-01
1547 1548 -1.0204081632653100e-01
1548 1548 2.6078100372129598e-01
1549 1548 -1.5873015873015900e-01
1548 1549 -1.5873015873015900e-01
1549 1549 1.5886902557145899e-01
1554 1549 -5.3759758523423499e-09
1550 1550 5.1463233421444703e-02
1553 1550 -4.2348888003456700e-04
1551 1551 5.1151274770626400e-02
1552 1551 -1.0631935397535599e-04
1551 1552 -9.2692781616858001e-05
1552 1552 4.0988980771703397e-02
1559 1552 -4.0650406504064998e-02
1550 1553 -4.1187870975579799e-04
1553 1553 4.1315419304166198e-02
1559 1553 -4.0650406504064998e-02
1549 1554 -3.2146287936386298e-11
1554 1554 2.8577269928566401e-01
1559 1554 -2.8571428571428598e-01
1544 1555 -1.0204081632653100e-01
1545 1555 -1.0204081632653100e-01
1555 1555 3.3399070028464700e-01
1556 1555 -1.2987012987013000e-01
1559 1555 -6.5230140573292702e-06
1555 1556 -1.2987012987013000e-01
1556 1556 1.3078834854265201e-01
1557 1556 -6.8069489474843000e-04
1559 1556 -1.5578875953764599e-04
1556 1557 -4.9193338085879301e-05
1557 1557 1.4297624793058300e-01
1559 1557 -3.6251305304438098e-05
1605 1557 -1.4285714285714299e-01
1558 1558 1.0187647803180599e-01
1559 1558 -7.0355210903784806e-05
1560 1558 -5.9081482332046502e-09
1552 1559 -4.0650406504064998e-02
1553 1559 -4.0650406504064998e-02
1554 1559 -2.8571428571428598e-01
1555 1559 -6.5230140573292702e-06
1556 1559 -7.4666449007697300e-04
1557 1559 5.5777838685059397e-04
1558 1559 -7.0286642270510103e-05
1559 1559 3.6769621221642501e-01
1560 1559 -7.0289944746175202e-05
1605 1559 -1.7828737077997899e-05
1558 1560 -9.1824228668635896e-09
1559 1560 -7.2662643631938304e-05
1560 1560 8.7452659812461697e-02
1605 1560 -8.7108013937282194e-02
1561 1561 1.0187647739105600e-01
1562 1561 -1.0501288213470399e-09
1605 1561 -7.0345235645799496e-05
1561 1562 -1.0027174156103900e-09
1562 1562 8.7450602766026300e-02
1575 1562 -8.7108013937282194e-02
1605 1562 -7.0345101455645105e-05
1563 1563 1.4292841055504099e-01
1564 1563 -8.2929321561867298e-10
1575 1563 -1.4285714285714299e-01
1605 1563 -3.7918383996908698e-05
1563 1564 -3.6786391987167499e-08
1564 1564 1.2995642972728200e-01
1574 1564 -1.2987012987013000e-01
1605 1564 -3.8116445917007799e-05
1565 1565 1.4298556733490700e-01
1566 1565 -1.7184784555552800e-09
1606 1565 -3.7241297227318297e-05
1565 1566 -1.6278571512102199e-11
1566 1566 1.0213204009371700e-01
1574 1566 -1.0204081632653100e-01
1606 1566 -3.6193982156698497e-05
1567 1567 1.4298556733877099e-01
1568 1567 -1.7454626137895600e-09
1608 1567 -3.7243978870127800e-05
1567 1568 -1.6538639020648501e-11
1568 1568 1.0213204009100200e-01
1574 1568 -1.0204081632653100e-01
1608 1568 -3.6195099211586803e-05
1569 1569 1.0292745966729699e-01
1570 1569 -8.5651538962965197e-04
1608 1569 -2.2647041079546800e-04
1569 1570 -8.6549166467300600e-04
1570 1570 8.8492218395066893e-02
1571 1570 -8.7108013937282194e-02
1608 1570 -2.2642933432842101e-04
1570 1571 -8.7108013937282194e-02
1571 1571 1.8876452309713099e-01
1572 1571 -1.0162601626016300e-01
1606 1571 -2.0695858419894999e-05
1571 1572 -1.0162601626016300e-01
1572 1572 1.0292732872738400e-01
1573 1572 -8.5646359437561103e-04
1606 1572 -2.2648843367552299e-04
1572 1573 -8.6519019119800302e-04
1573 1573 1.0291737158435300e-01
1575 1573 -1.0162601626016300e-01
1606 1573 -2.2641130122727401e-04
1564 1574 -1.2987012987013000e-01
1566 1574 -1.0204081632653100e-01
1568 1574 -1.0204081632653100e-01
1574 1574 3.3399070028464700e-01
1605 1574 -6.5230140573292702e-06
1606 1574 -3.9814174092719904e-06
1608 1574 -4.1441797561919198e-06
1523 1575 -7.0288998381559203e-05
1524 1575 -7.0287588635126102e-05
1525 1575 -1.2315439156345299e-04
1526 1575 -1.2471946522296001e-04
1536 1575 -6.5230140573292702e-06
1562 1575 -8.7108013937282194e-02
1563 1575 -1.4285714285714299e-01
1573 1575 -1.0162601626016300e-01
1575 1575 3.3234257326527900e-01
1605 1575 -1.7828737077997899e-05
1606 1575 -1.2645382337624900e-06
1608 1575 -9.8909426205184702e-07
2383 1575 -1.7828737077997899e-05
1576 1576 4.0488064664210503e-02
1588 1576 -6.4452481089398699e-04
1603 1576 -6.5811394845798104e-05
1577 1577 2.8580466159031698e-01
1578 1577 -1.3369417169328300e-09
1577 1578 -1.8161516501953201e-11
1578 1578 1.0215376858424900e-01
1579 1578 -1.0204081632653100e-01
1578 1579 -1.0204081632653100e-01
1579 1579 2.6078100372129598e-01
1580 1579 -1.5873015873015900e-01
1579 1580 -1.5873015873015900e-01
1580 1580 1.5915950205184601e-01
1585 1580 -2.0247597621425399e-04
1581 1581 5.1153579979042900e-02
1584 1581 -1.2164733906757301e-04
1582 1582 5.1461006318779000e-02
1583 1582 -4.3170177294526898e-04
1582 1583 -4.2988368868316197e-04
1583 1583 4.1349684670434497e-02
1603 1583 -4.0650406504064998e-02
1581 1584 -1.2314033959750001e-04
1584 1584 4.1040304079491399e-02
1603 1584 -4.0650406504064998e-02
1580 1585 -6.0186820675459601e-06
1585 1585 2.8577706814160803e-01
1603 1585 -2.8571428571428598e-01
1586 1586 5.5603064707401798e-02
1587 1586 -3.8823029507672900e-10
1603 1586 -3.9192587960590202e-05
1586 1587 -1.5756282140540900e-12
1587 1587 4.3686442611570203e-02
1603 1587 -3.9170440466129600e-05
1608 1587 -4.3554006968641097e-02
1576 1588 -6.4311356114010103e-04
1588 1588 5.3700619157925698e-02
1603 1588 -6.5839809105695099e-05
1608 1588 -5.2910052910052900e-02
1589 1589 2.8712673659031601e-01
1590 1589 -1.2253580054093201e-03
1613 1589 -1.2463236685902000e-04
1589 1590 -1.2247183943317999e-03
1590 1590 1.0354118588411799e-01
1591 1590 -1.0204081632653100e-01
1613 1590 -1.2474937384670100e-04
1590 1591 -1.0204081632653100e-01
1591 1591 2.2109748746467500e-01
1593 1591 -1.1904761904761900e-01
1604 1591 -1.0016144425841501e-06
1613 1591 -3.0048433277524500e-06
1592 1592 2.8714509611016198e-01
1593 1592 -1.2334048221092199e-03
1603 1592 -1.2472220956444901e-04
1604 1592 -2.8571428571428598e-01
1591 1593 -1.1904761904761900e-01
1592 1593 -1.2346309170111699e-03
1593 1593 1.2053526309485600e-01
1603 1593 -1.2464350159874501e-04
1594 1594 1.0189245456121000e-01
1595 1594 -1.2955347471339801e-09
1613 1594 -7.0346600789752807e-05
1594 1595 -1.0101484800457099e-09
1595 1595 8.7449345015112104e-02
1602 1595 -8.7108013937282194e-02
1613 1595 -7.0345881399931005e-05
1596 1596 1.0189245398391100e-01
1597 1596 -1.1123449122885100e-09
1603 1596 -7.0345705813564595e-05
1596 1597 -8.6721298756636798e-10
1597 1597 8.7449344246237501e-02
1602 1597 -8.7108013937282194e-02
1603 1597 -7.0344997427561906e-05
1598 1598 1.2051795302070600e-01
1599 1598 -1.2179305959642000e-03
1607 1598 -1.2457500790095100e-04
1598 1599 -1.2210127419842200e-03
1599 1599 1.0353779949534900e-01
1604 1599 -1.0204081632653100e-01
1607 1599 -1.2479050315650000e-04
1600 1600 1.0181202220860500e-01
1601 1600 -3.4473173105610498e-12
1604 1600 -1.0162601626016300e-01
1607 1600 -7.0306624741523001e-05
1600 1601 -8.4567787225385297e-10
1601 1601 1.5270292910222599e-01
1602 1601 -1.5243902439024401e-01
1607 1601 -7.0347305386448100e-05
1595 1602 -8.7108013937282194e-02
1597 1602 -8.7108013937282194e-02
1601 1602 -1.5243902439024401e-01
1602 1602 3.2671083592917000e-01
1603 1602 -5.9721261139079898e-06
1607 1602 -1.9637903164915501e-05
1613 1602 -3.9814174092719904e-06
1576 1603 -6.4413782627968801e-05
1583 1603 -4.0650406504064998e-02
1584 1603 -4.0650406504064998e-02
1585 1603 -2.8571428571428598e-01
1586 1603 -3.9160933388458400e-05
1587 1603 -3.9160307949409101e-05
1588 1603 -6.5720556704429504e-05
1592 1603 -1.2589160234778999e-04
1593 1603 -1.2198499118876200e-04
1596 1603 -7.0288492464815999e-05
1597 1603 -7.0288094551869306e-05
1602 1603 -5.9721261139079898e-06
1603 1603 3.6814176971707502e-01
1604 1603 -4.2130407491195804e-06
1607 1603 -9.8909426205184702e-07
2383 1603 -9.8909426205184702e-07
2384 1603 -9.8909426205184702e-07
1527 1604 -3.5457074505905402e-05
1528 1604 -3.5457228029052302e-05
1533 1604 -2.0695858419894999e-05
1534 1604 -7.0307178604743601e-05
1535 1604 -7.0269408411941704e-05
1536 1604 -3.9814174092719904e-06
1591 1604 -1.0016144425841501e-06
1592 1604 -2.8571428571428598e-01
1599 1604 -1.0204081632653100e-01
1600 1604 -1.0162601626016300e-01
1603 1604 -4.2130407491195804e-06
1604 1604 4.8992522968696700e-01
1605 1604 -1.6276234691992399e-06
1607 1604 -2.2160719542174299e-06
1613 1604 -2.2160719542174299e-06
1529 1605 -1.2254502118219901e-04
1530 1605 -1.2533024898590201e-04
1531 1605 -7.0288818254965794e-05
1532 1605 -7.0287768761719498e-05
1536 1605 -4.1441797561919198e-06
1541 1605 -1.0162601626016300e-01
1557 1605 -1.4285714285714299e-01
1559 1605 -1.7828737077997899e-05
1560 1605 -8.7108013937282194e-02
1561 1605 -7.0288331969668797e-05
1562 1605 -7.0288255047016494e-05
1563 1605 -3.5422805725946100e-05
1564 1605 -3.5491496809011603e-05
1574 1605 -6.5230140573292702e-06
1575 1605 -1.7828737077997899e-05
1604 1605 -1.6276234691992399e-06
1605 1605 3.3289095847915001e-01
1606 1605 -2.2160719542174299e-06
1607 1605 -3.9438568676750903e-06
1608 1605 -9.8909426205184702e-07
1611 1605 -2.9610226958893901e-06
2383 1605 -9.8909426205184702e-07
2384 1605 -2.9610226958893901e-06
1506 1606 -5.1020408163265300e-02
1508 1606 -5.1020408163265300e-02
1522 1606 -2.0325203252032500e-01
1565 1606 -3.5458598720686098e-05
1566 1606 -3.5455703814271700e-05
1571 1606 -2.0695858419894999e-05
1572 1606 -2.2558042207924600e-04
1573 1606 -2.2467533437204600e-04
1574 1606 -3.9814174092719904e-06
1575 1606 -1.2645382337624900e-06
1605 1606 -2.2160719542174299e-06
1606 1606 3.0616234548065901e-01
1607 1606 -1.9719284338375401e-06
1608 1606 -6.4478929741354603e-07
1611 1606 -4.5823860748224796e-06
2384 1606 -9.8909426205184702e-07
1498 1607 -6.1203344386073495e-05
1499 1607 -6.2734471838210999e-05
1500 1607 -7.0289133802907194e-05
1501 1607 -7.0287453213778206e-05
1507 1607 -6.1099387437809502e-05
1508 1607 -6.2838673107314105e-05
1515 1607 -2.0325203252032500e-01
1516 1607 -5.2910052910052900e-02
1517 1607 -5.2910052910052900e-02
1518 1607 -7.0288752641745004e-05
1519 1607 -7.0287834374940301e-05
1598 1607 -1.1968914821062900e-04
1599 1607 -1.2819277936967100e-04
1600 1607 -7.0287606820000403e-05
1601 1607 -7.0288980196684902e-05
1602 1607 -1.9637903164915501e-05
1603 1607 -9.8909426205184702e-07
1604 1607 -2.2160719542174299e-06
1605 1607 -3.9438568676750903e-06
1606 1607 -1.9719284338375401e-06
1607 1607 3.1081942364828402e-01
1608 1607 -8.9644492611281306e-06
1611 1607 -8.9644492611281306e-06
1613 1607 -9.8909426205184702e-07
2383 1607 -1.9719284338375401e-06
2384 1607 -1.9719284338375401e-06
1496 1608 -1.7728531981673299e-05
1497 1608 -1.7728619285805600e-05
1502 1608 -1.2056933852606700e-05
1503 1608 -7.0304376511441202e-05
1504 1608 -7.0272210505244103e-05
1567 1608 -3.5458621524925200e-05
1568 1608 -3.5455681010032598e-05
1569 1608 -2.2536815967372399e-04
1570 1608 -2.2488610960116499e-04
1574 1608 -4.1441797561919198e-06
1575 1608 -9.8909426205184702e-07
1587 1608 -4.3554006968641097e-02
1588 1608 -5.2910052910052900e-02
1605 1608 -9.8909426205184702e-07
1606 1608 -6.4478929741354603e-07
1607 1608 -8.9644492611281306e-06
1608 1608 9.7690856276768101e-02
1609 1608 -5.5652202466081803e-06
1610 1608 -9.8909426205184702e-07
1613 1608 -9.8909426205184702e-07
2383 1608 -1.9719284338375401e-06
2384 1608 -9.8909426205184702e-07
2390 1608 -1.9719284338375401e-06
1479 1609 -3.5457145790171401e-05
1480 1609 -3.5457156744786397e-05
1481 1609 -2.2529460653098000e-04
1482 1609 -2.2495914483402501e-04
1486 1609 -4.1441797561919198e-06
1489 1609 -1.1262150760990800e-04
1490 1609 -1.1250518654836999e-04
1491 1609 -3.5458614471204501e-05
1492 1609 -3.5455688063753297e-05
1497 1609 -5.1020408163265300e-02
1499 1609 -5.1020408163265300e-02
1504 1609 -2.0325203252032500e-01
1608 1609 -5.5652202466081803e-06
1609 1609 3.0658007431977302e-01
1610 1609 -9.8909426205184702e-07
1611 1609 -6.4478929741354603e-07
1613 1609 -3.8624756942151201e-06
2390 1609 -2.9610226958893901e-06
1473 1610 -7.0288976556552802e-05
1474 1610 -7.0287610460132504e-05
1475 1610 -1.2396732258237200e-04
1476 1610 -1.2390475526871000e-04
1486 1610 -6.5230140573292702e-06
1488 1610 -3.8109756097561003e-02
1490 1610 -3.8109756097561003e-02
1495 1610 -2.8571428571428598e-01
1608 1610 -9.8909426205184702e-07
1609 1610 -9.8909426205184702e-07
1610 1610 3.6272937137846201e-01
1611 1610 -2.2160719542174299e-06
1612 1610 -1.9719284338375401e-06
1613 1610 -6.0973279192310098e-06
2390 1610 -1.9719284338375401e-06
2393 1610 -1.8811571249783499e-05
1383 1611 -1.0016144425841501e-06
1384 1611 -2.8571428571428598e-01
1391 1611 -1.0204081632653100e-01
1392 1611 -1.0162601626016300e-01
1472 1611 -3.1989061260031302e-06
1477 1611 -1.2384181928284100e-04
1478 1611 -1.2403040809361201e-04
1483 1611 -2.0695858419894999e-05
1484 1611 -7.0288971208774700e-05
1485 1611 -7.0287615807910605e-05
1486 1611 -3.9814174092719904e-06
1505 1611 -6.1104518863453006e-05
1506 1611 -6.2833518400171205e-05
1520 1611 -1.2056933852606700e-05
1521 1611 -7.0288742731428798e-05
1522 1611 -7.0287844285256494e-05
1605 1611 -2.9610226958893901e-06
1606 1611 -4.5823860748224796e-06
1607 1611 -8.9644492611281306e-06
1609 1611 -6.4478929741354603e-07
1610 1611 -2.2160719542174299e-06
1611 1611 4.9067694722073701e-01
1612 1611 -5.1958749209052700e-06
1613 1611 -9.8909426205184702e-07
1614 1611 -9.8909426205184702e-07
1615 1611 -3.1989061260031302e-06
2384 1611 -1.9719284338375401e-06
2390 1611 -1.9719284338375401e-06
2391 1611 -9.8909426205184702e-07
2393 1611 -2.2536324958143402e-06
1384 1612 -3.5456347517366603e-05
1385 1612 -3.5457955017591101e-05
1388 1612 -2.2525653929915401e-04
1389 1612 -2.2499694257969400e-04
1394 1612 -5.9721261139079898e-06
1395 1612 -2.2545008650286800e-04
1396 1612 -2.2480475489208799e-04
1397 1612 -3.5456123222971202e-05
1398 1612 -3.5458179311986502e-05
1408 1612 -6.5230140573292702e-06
1420 1612 -4.3554006968641097e-02
1421 1612 -5.2910052910052900e-02
1426 1612 -9.8909426205184702e-07
1438 1612 -1.1254092212946700e-04
1439 1612 -1.1258551774541400e-04
1440 1612 -3.5458517841648602e-05
1441 1612 -3.5455784693309101e-05
1471 1612 -4.7764488730731602e-06
1472 1612 -1.9719284338375401e-06
1610 1612 -1.9719284338375401e-06
1611 1612 -5.1958749209052700e-06
1612 1612 9.8522320322661200e-02
1613 1612 -1.8811571249783499e-05
1614 1612 -3.1989061260031302e-06
1615 1612 -2.9610226958893901e-06
2390 1612 -3.9438568676750903e-06
2391 1612 -2.9610226958893901e-06
2393 1612 -1.9719284338375401e-06
1396 1613 -7.6219512195121894e-02
1397 1613 -1.4285714285714299e-01
1407 1613 -1.0162601626016300e-01
1472 1613 -1.9719284338375401e-06
1487 1613 -3.5144150601143902e-05
1488 1613 -3.5144142907198703e-05
1493 1613 -4.9830318518561402e-06
1494 1613 -3.5475347677194802e-05
1495 1613 -3.5438954857762901e-05
1589 1613 -1.2161764100693601e-04
1590 1613 -1.2625980780635901e-04
1591 1613 -3.0048433277524500e-06
1594 1613 -7.0288525240510294e-05
1595 1613 -7.0288061776174998e-05
1602 1613 -3.9814174092719904e-06
1604 1613 -2.2160719542174299e-06
1607 1613 -9.8909426205184702e-07
1608 1613 -9.8909426205184702e-07
1609 1613 -3.8624756942151201e-06
1610 1613 -6.0973279192310098e-06
1611 1613 -9.8909426205184702e-07
1612 1613 -1.8811571249783499e-05
1613 1613 3.2187745385013400e-01
1614 1613 -1.2645382337624900e-06
1615 1613 -9.8909426205184702e-07
2383 1613 -9.8909426205184702e-07
2384 1613 -9.8909426205184702e-07
2390 1613 -1.9719284338375401e-06
2391 1613 -9.8909426205184702e-07
2393 1613 -9.8909426205184702e-07
1362 1614 -5.1020408163265300e-02
1364 1614 -5.1020408163265300e-02
1378 1614 -2.0325203252032500e-01
1379 1614 -5.5652202466081803e-06
1380 1614 -9.8909426205184702e-07
1399 1614 -3.5457591887999899e-05
1400 1614 -3.5456710646957798e-05
1405 1614 -2.0695858419894999e-05
1406 1614 -2.2526684511608801e-04
1407 1614 -2.2498671060661000e-04
1408 1614 -3.9814174092719904e-06
1459 1614 -3.5457148022550498e-05
1460 1614 -3.5457154512407300e-05
1465 1614 -2.0695858419894999e-05
1466 1614 -7.0305033272274095e-05
1467 1614 -3.9814174092719904e-06
1468 1614 -7.0271553744411197e-05
1470 1614 -3.3679285631892000e-06
1471 1614 -9.8909426205184702e-07
1472 1614 -3.0173635082847499e-06
1611 1614 -9.8909426205184702e-07
1612 1614 -3.1989061260031302e-06
1613 1614 -1.2645382337624900e-06
1614 1614 3.0670706141758702e-01
1615 1614 -1.9719284338375401e-06
1616 1614 -1.9719284338375401e-06
1620 1614 -9.8909426205184702e-07
2353 1614 -9.8909426205184702e-07
2390 1614 -2.9610226958893901e-06
2391 1614 -2.9610226958893901e-06
1321 1615 -4.0650406504064998e-02
1332 1615 -4.0650406504064998e-02
1337 1615 -2.8571428571428598e-01
1338 1615 -6.0973279192310098e-06
1381 1615 -3.5457807845863402e-05
1382 1615 -3.5456494689094302e-05
1383 1615 -3.0048433277524500e-06
1386 1615 -2.2525587082984901e-04
1387 1615 -2.2499760835560699e-04
1394 1615 -3.9814174092719904e-06
1445 1615 -1.1258549447567200e-04
1446 1615 -1.1254094556988200e-04
1451 1615 -4.9830318518561402e-06
1452 1615 -3.5458785586216601e-05
1453 1615 -3.5455516948741103e-05
1469 1615 -7.0864221812828501e-06
1470 1615 -5.7655431351250098e-06
1471 1615 -9.8909426205184702e-07
1472 1615 -1.9719284338375401e-06
1611 1615 -3.1989061260031302e-06
1612 1615 -2.9610226958893901e-06
1613 1615 -9.8909426205184702e-07
1614 1615 -1.9719284338375401e-06
1615 1615 3.6840453917332000e-01
2391 1615 -2.9610226958893901e-06
1340 1616 -4.0650406504064998e-02
1342 1616 -4.0650406504064998e-02
1347 1616 -2.8571428571428598e-01
1348 1616 -1.8615784876671499e-05
1349 1616 -1.2573057709180200e-04
1350 1616 -1.2512655396147899e-04
1351 1616 -1.8614223954181299e-05
1379 1616 -9.8909426205184702e-07
1380 1616 -1.9719284338375401e-06
1614 1616 -1.9719284338375401e-06
1616 1616 3.6768742791150399e-01
1618 1616 -1.9719284338375401e-06
1620 1616 -9.8909426205184702e-07
2353 1616 -8.0692563530685507e-06
2390 1616 -1.9719284338375401e-06
2391 1616 -1.9719284338375401e-06
2392 1616 -1.9719284338375401e-06
2393 1616 -1.9719284338375401e-06
1268 1617 -5.2910052910052900e-02
1270 1617 -5.2910052910052900e-02
1275 1617 -2.0325203252032500e-01
1276 1617 -4.5823860748224796e-06
1296 1617 -3.5457145078601703e-05
1297 1617 -3.5457157456356103e-05
1300 1617 -1.1263010379565900e-04
1301 1617 -1.1249665104489799e-04
1306 1617 -4.9830318518561402e-06
1307 1617 -3.5458733173238102e-05
1308 1617 -3.5455569361719703e-05
1311 1617 -2.0695858419894999e-05
1312 1617 -7.0305076692644597e-05
1313 1617 -3.9814174092719904e-06
1314 1617 -7.0271510324040694e-05
1315 1617 -7.3305657016627403e-06
1617 1617 3.1022289386239799e-01
1618 1617 -9.8909426205184702e-07
1619 1617 -9.8909426205184702e-07
1620 1617 -5.4212381704867103e-06
2352 1617 -9.8909426205184702e-07
2353 1617 -9.8909426205184702e-07
2361 1617 -9.8909426205184702e-07
2383 1617 -9.8909426205184702e-07
2384 1617 -9.8909426205184702e-07
2390 1617 -2.9610226958893901e-06
2391 1617 -1.9719284338375401e-06
2392 1617 -9.8909426205184702e-07
2393 1617 -4.4822246305640704e-06
1248 1618 -7.6219512195121894e-02
1249 1618 -1.4285714285714299e-01
1259 1618 -1.0162601626016300e-01
1277 1618 -7.0288974793878404e-05
1278 1618 -7.0287612222806901e-05
1279 1618 -1.2402954532907701e-04
1280 1618 -1.2384268001450199e-04
1290 1618 -6.5230140573292702e-06
1616 1618 -1.9719284338375401e-06
1617 1618 -9.8909426205184702e-07
1618 1618 3.2148537311500103e-01
1619 1618 -1.7828737077997899e-05
2352 1618 -9.8909426205184702e-07
2390 1618 -1.9719284338375401e-06
2392 1618 -1.8811571249783499e-05
1225 1619 -3.8109756097561003e-02
1227 1619 -3.8109756097561003e-02
1232 1619 -2.8571428571428598e-01
1247 1619 -7.0288298330631902e-05
1248 1619 -7.0288288686053404e-05
1249 1619 -3.5429742291198901e-05
1250 1619 -3.5484560243758802e-05
1260 1619 -6.5230140573292702e-06
1283 1619 -1.2379552927877999e-04
1284 1619 -1.2407680810160300e-04
1285 1619 -7.0288958211657293e-05
1286 1619 -7.0287628805027998e-05
1290 1619 -4.1441797561919198e-06
1617 1619 -9.8909426205184702e-07
1618 1619 -1.7828737077997899e-05
1619 1619 3.6311509720331198e-01
2352 1619 -9.8909426205184702e-07
2356 1619 -6.0973279192310098e-06
2357 1619 -9.8909426205184702e-07
2361 1619 -6.4478929741354603e-07
2390 1619 -2.9610226958893901e-06
1137 1620 -4.3554006968641097e-02
1138 1620 -5.2910052910052900e-02
1298 1620 -1.2383024141544001e-04
1299 1620 -1.2404201347532900e-04
1302 1620 -3.5144151147483697e-05
1303 1620 -3.5144142360858901e-05
1304 1620 -1.2387793849224100e-04
1305 1620 -1.2399420309055999e-04
1309 1620 -7.0288952496788394e-05
1310 1620 -7.0287634519896898e-05
1313 1620 -4.1441797561919198e-06
1315 1620 -1.9719284338375401e-06
1341 1620 -3.5144467340771999e-05
1342 1620 -3.5143826167570600e-05
1343 1620 -1.2314319270628399e-04
1344 1620 -1.2473068797078801e-04
1354 1620 -6.0445411435582200e-05
1355 1620 -6.3494153989967098e-05
1356 1620 -7.0288647144574204e-05
1357 1620 -7.0287939872111101e-05
1379 1620 -1.9719284338375401e-06
1380 1620 -9.8909426205184702e-07
1614 1620 -9.8909426205184702e-07
1616 1620 -9.8909426205184702e-07
1617 1620 -5.4212381704867103e-06
1620 1620 9.8642372857227698e-02
2352 1620 -9.9535435231799793e-06
2353 1620 -2.8045204392356201e-06
2390 1620 -1.7403050939899601e-06
2391 1620 -4.9329511297269297e-06
1621 1621 4.0495641960226703e-02
1624 1621 -6.5211264392844403e-04
1795 1621 -6.5826434202970402e-05
1622 1622 5.5603064972378498e-02
1623 1622 -2.4562123226819001e-10
1795 1622 -3.9191294133776801e-05
1622 1623 -9.9520662144611405e-13
1623 1623 4.7033313008959202e-02
1643 1623 -4.6904315196998100e-02
1795 1623 -3.9169974738071403e-05
1621 1624 -6.4969925489322101e-04
1624 1624 5.5739530518051701e-02
1643 1624 -5.4945054945054903e-02
1795 1624 -6.5832826165540794e-05
1625 1625 6.8091355012666194e-02
1626 1625 -8.6837795649554900e-10
1643 1625 -1.8576606214821702e-05
1625 1626 -9.4293265986679707e-10
1626 1626 5.2994216181503503e-02
1643 1626 -1.8713682899967100e-05
2349 1626 -5.2910052910052900e-02
1627 1627 6.8731126376667395e-02
1628 1627 -5.9095330788244802e-04
1796 1627 -6.2711961092589197e-05
1627 1628 -5.8973846460556596e-04
1628 1628 5.3637723123180700e-02
1796 1628 -6.2741713374462097e-05
2349 1628 -5.2910052910052900e-02
1629 1629 6.8091355041763807e-02
1637 1629 -9.0248046060218702e-10
1630 1630 6.8532602692478295e-02
1636 1630 -3.7310933868224002e-04
1631 1631 2.0385654114088700e-01
1632 1631 -2.4254345193750000e-04
1631 1632 -2.5491609714729699e-04
1632 1632 7.7016315391135598e-02
1633 1632 -7.6219512195121894e-02
1632 1633 -7.6219512195121894e-02
1633 1633 1.9818783427392400e-01
1634 1633 -1.2195121951219499e-01
1633 1634 -1.2195121951219499e-01
1634 1634 1.2329805965576600e-01
1635 1634 -8.6312545817572995e-04
1634 1635 -8.2966034353196500e-04
1635 1635 2.0443431193366801e-01
1796 1635 -2.0325203252032500e-01
1630 1636 -2.2559069229129901e-05
1636 1636 5.1087238387930202e-02
1796 1636 -5.1020408163265300e-02
1629 1637 -8.0644565027099194e-12
1637 1637 5.1065114578052399e-02
1796 1637 -5.1020408163265300e-02
1638 1638 2.0343573382781199e-01
1639 1638 -2.9781838521560501e-09
1796 1638 -7.0353972462292098e-05
1638 1639 -1.2021749718797201e-11
1639 1639 8.7347927756839000e-02
1640 1639 -8.7108013937282194e-02
1796 1639 -7.0310968252131599e-05
1639 1640 -8.7108013937282194e-02
1640 1640 2.0907633601608400e-01
1641 1640 -1.2195121951219499e-01
1643 1640 -1.2056933852606700e-05
1640 1641 -1.2195121951219499e-01
1641 1641 1.2215683678194000e-01
1642 1641 -1.4387712244031499e-08
1643 1641 -7.0361312003265996e-05
1641 1642 -6.0921030972188600e-11
1642 1642 2.0338943955746600e-01
1643 1642 -7.0353262628922497e-05
2349 1642 -2.0325203252032500e-01
1623 1643 -4.6904315196998100e-02
1624 1643 -5.4945054945054903e-02
1625 1643 -1.7728537102587300e-05
1626 1643 -1.7728614164891599e-05
1640 1643 -1.2056933852606700e-05
1641 1643 -7.0301286046008403e-05
1642 1643 -7.0275300970676902e-05
1643 1643 1.0236138496452700e-01
1795 1643 -9.8909426205184702e-07
1796 1643 -7.9064940061486307e-06
2347 1643 -1.9719284338375401e-06
2349 1643 -4.5823860748224796e-06
2355 1643 -1.9719284338375401e-06
2371 1643 -1.9719284338375401e-06
1644 1644 2.8712691027091303e-01
1645 1644 -1.2255053394424401e-03
2348 1644 -1.2466664915461101e-04
1644 1645 -1.2226072365074301e-03
1645 1645 1.1138791953096000e-01
1646 1645 -1.0989010989011000e-01
2348 1645 -1.2472467527546499e-04
1645 1646 -1.0989010989011000e-01
1646 1646 2.2894678102825400e-01
1648 1646 -1.1904761904761900e-01
2348 1646 -3.0048433277524500e-06
2361 1646 -1.0016144425841501e-06
1647 1647 2.8715638505813601e-01
1648 1647 -1.2446503708616800e-03
1795 1647 -1.2472168480593600e-04
2361 1647 -2.8571428571428598e-01
1646 1648 -1.1904761904761900e-01
1647 1648 -1.2468532803835300e-03
1648 1648 1.2054715712987900e-01
1795 1648 -1.2465728222598300e-04
1649 1649 1.0189245452704700e-01
1650 1649 -1.2672344653882799e-09
2348 1649 -7.0346580267643201e-05
1649 1650 -9.1210057122533897e-10
1650 1650 8.7448761012578993e-02
1666 1650 -8.7108013937282194e-02
2348 1650 -7.0345648121490604e-05
1651 1651 2.8665742689974499e-01
1652 1651 -7.5527731707134905e-04
1651 1652 -7.7664295293766803e-04
1652 1652 1.0309707325656900e-01
1653 1652 -1.0204081632653100e-01
1652 1653 -1.0204081632653100e-01
1653 1653 2.6078100372129598e-01
1654 1653 -1.5873015873015900e-01
1653 1654 -1.5873015873015900e-01
1654 1654 1.5886895451326899e-01
1659 1654 -5.3429177738988796e-09
1655 1655 5.1459984318123903e-02
1658 1655 -4.3102400122404703e-04
1656 1656 5.1148961683527602e-02
1657 1656 -1.1962753561336600e-04
1656 1657 -1.2977285829116400e-04
1657 1657 4.1052903616469801e-02
1795 1657 -4.0650406504064998e-02
1655 1658 -4.3814324567616002e-04
1658 1658 4.1361868868683101e-02
1795 1658 -4.0650406504064998e-02
1654 1659 -3.1602586443985400e-11
1659 1659 2.8577231738259301e-01
1795 1659 -2.8571428571428598e-01
1660 1660 1.0189245415839800e-01
1661 1660 -6.8933714359359404e-10
1795 1660 -7.0343370161571805e-05
1660 1661 -4.9589620551224396e-10
1661 1661 8.7448760923767105e-02
1666 1661 -8.7108013937282194e-02
1795 1661 -7.0342081529986794e-05
1662 1662 1.2048484404880699e-01
1663 1662 -1.1847118971952499e-03
1796 1662 -1.2462030420843300e-04
1662 1663 -1.1847749597322899e-03
1663 1663 1.1135024264482700e-01
1796 1663 -1.2475848400046101e-04
2361 1663 -1.0989010989011000e-01
1664 1664 1.0181205696015100e-01
1665 1664 -9.2358142714706304e-12
1796 1664 -7.0308459804063495e-05
2361 1664 -1.0162601626016300e-01
1664 1665 -2.2578155163580601e-09
1665 1665 1.5270260202040301e-01
1666 1665 -1.5243902439024401e-01
1796 1665 -7.0352928718994497e-05
1650 1666 -8.7108013937282194e-02
1661 1666 -8.7108013937282194e-02
1665 1666 -1.5243902439024401e-01
1666 1666 3.2671083592917000e-01
1795 1666 -5.9721261139079898e-06
1796 1666 -1.9637903164915501e-05
2348 1666 -3.9814174092719904e-06
1667 1667 4.0474516053108700e-02
1670 1667 -6.3093652261290403e-04
1689 1667 -6.5796574871990199e-05
1668 1668 5.5603061058767597e-02
1669 1668 -8.8383469045900898e-10
1689 1668 -3.9195238622266803e-05
1668 1669 -3.5972419685766700e-12
1669 1669 4.3685237933056301e-02
1689 1669 -3.9171251048234598e-05
2345 1669 -4.3554006968641097e-02
1667 1670 -6.3047836447188905e-04
1670 1670 5.3687131411092402e-02
1689 1670 -6.5846532885384303e-05
2345 1670 -5.2910052910052900e-02
1671 1671 6.8731060289726101e-02
1672 1671 -5.9092011719705099e-04
1796 1671 -6.2668069648532794e-05
1671 1672 -5.9244517564961902e-04
1672 1672 5.3640657522488297e-02
1794 1672 -5.2910052910052900e-02
1796 1672 -6.2762495713716000e-05
1673 1673 6.8740803065642106e-02
1674 1673 -6.0068331428300898e-04
1689 1673 -6.2669182890735995e-05
1673 1674 -6.0218674604400500e-04
1674 1674 5.3650423091772197e-02
1689 1674 -6.2761223314702306e-05
1794 1674 -5.2910052910052900e-02
1675 1675 6.8533658829841401e-02
1683 1675 -3.7417850987546999e-04
1676 1676 6.8091355047671900e-02
1682 1676 -9.0838875409271898e-10
1677 1677 2.0447341569717301e-01
1678 1677 -8.6281893881770500e-04
1677 1678 -8.8160599759723305e-04
1678 1678 7.7647131387055104e-02
1679 1678 -7.6219512195121894e-02
1678 1679 -7.6219512195121894e-02
1679 1679 1.9818783427392400e-01
1680 1679 -1.2195121951219499e-01
1679 1680 -1.2195121951219499e-01
1680 1680 1.2269146969489700e-01
1681 1680 -2.5102363407610798e-04
1680 1681 -2.1406931630474899e-04
1681 1681 2.0381263238704700e-01
1689 1681 -2.0325203252032500e-01
1676 1682 -8.0711894843257507e-12
1682 1682 5.1064973750934502e-02
1689 1682 -5.1020408163265300e-02
1675 1683 -2.2480011344049799e-05
1683 1683 5.1087021417849897e-02
1689 1683 -5.1020408163265300e-02
1684 1684 2.0343573221223499e-01
1685 1684 -2.0568991556198001e-09
1689 1684 -7.0350478760209404e-05
1684 1685 -8.6794319674702196e-10
1685 1685 8.7446486037237703e-02
1686 1685 -8.7108013937282194e-02
1689 1685 -7.0348376790458505e-05
1685 1686 -8.7108013937282194e-02
1686 1686 2.0907633601608400e-01
1687 1686 -1.2195121951219499e-01
1796 1686 -1.2056933852606700e-05
1686 1687 -1.2195121951219499e-01
1687 1687 1.2223498534423900e-01
1688 1687 -1.5626460015576801e-09
1796 1687 -7.0351760964208195e-05
1687 1688 -6.3943242632173197e-12
1688 1688 2.0338940440999800e-01
1794 1688 -2.0325203252032500e-01
1796 1688 -7.0308447234004501e-05
1667 1689 -6.3941455933053996e-05
1668 1689 -3.9161334320788000e-05
1669 1689 -3.9159907017079501e-05
1670 1689 -6.6194032343808496e-05
1673 1689 -5.9893121890085899e-05
1674 1689 -6.4047778940576501e-05
1681 1689 -2.0325203252032500e-01
1682 1689 -5.1020408163265300e-02
1683 1689 -5.1020408163265300e-02
1684 1689 -7.0289261690435507e-05
1685 1689 -7.0287325326249799e-05
1689 1689 3.0637793887972398e-01
1795 1689 -9.8909426205184702e-07
1796 1689 -1.0554512188730501e-05
2344 1689 -1.9719284338375401e-06
2346 1689 -1.9719284338375401e-06
2364 1689 -9.8909426205184702e-07
2367 1689 -9.8909426205184702e-07
2370 1689 -1.9719284338375401e-06
1690 1690 3.9792375758459397e-02
1693 1690 -9.1625646688397898e-10
1713 1690 -1.9555523422179899e-05
1691 1691 5.6188792269819300e-02
1692 1691 -4.7682346837997199e-04
1713 1691 -1.2675707154245500e-04
1691 1692 -4.8187646382725298e-04
1692 1692 4.7675747861602502e-02
1703 1692 -4.6904315196998100e-02
1713 1692 -1.2674511303368199e-04
1690 1693 -8.0888870181740807e-12
1693 1693 5.4991348922831501e-02
1703 1693 -5.4945054945054903e-02
1713 1693 -1.8974380989949301e-05
1694 1694 5.0940743445302999e-02
1695 1694 -3.9599323067895803e-10
1703 1694 -3.5173247204719202e-05
1694 1695 -1.6066632013328000e-12
1695 1695 4.0766184827620899e-02
1703 1695 -3.5153088727145802e-05
1793 1695 -4.0650406504064998e-02
1696 1696 5.0940743353559602e-02
1697 1696 -2.1771096145431300e-10
1795 1696 -3.5171658542173198e-05
1696 1697 -8.8149655983282797e-13
1697 1697 4.0766184845039501e-02
1793 1697 -4.0650406504064998e-02
1795 1697 -3.5152539844933999e-05
1698 1698 2.8715123046675800e-01
1699 1698 -1.2394851631391400e-03
1795 1698 -1.2470593306261301e-04
1698 1699 -1.2444449969903400e-03
1699 1699 1.1139920567066100e-01
1700 1699 -1.0989010989011000e-01
1795 1699 -1.2469487920573801e-04
1699 1700 -1.0989010989011000e-01
1700 1700 2.6863029728487497e-01
1701 1700 -1.5873015873015900e-01
1703 1700 -4.9830318518561402e-06
1700 1701 -1.5873015873015900e-01
1701 1701 1.6019395216053700e-01
1702 1701 -1.2204083181136501e-03
1703 1701 -1.2470145943806901e-04
1701 1702 -1.2254971058449601e-03
1702 1702 2.8712690141467301e-01
1703 1702 -1.2469935329062799e-04
1793 1702 -2.8571428571428598e-01
1692 1703 -4.6904315196998100e-02
1693 1703 -5.4945054945054903e-02
1694 1703 -3.5144465392462301e-05
1695 1703 -3.5143828115880298e-05
1700 1703 -4.9830318518561402e-06
1701 1703 -1.2397195323157899e-04
1702 1703 -1.2390013556490601e-04
1703 1703 1.0245155873197601e-01
1713 1703 -9.8909426205184702e-07
1793 1703 -7.0864221812828501e-06
1795 1703 -2.8796415224294300e-06
1704 1704 6.8755259978680802e-02
1705 1704 -6.1515058261355697e-04
2346 1704 -6.2708106870300895e-05
1704 1705 -6.1418676281277005e-04
1705 1705 5.3662251982766897e-02
1713 1705 -5.2910052910052900e-02
2346 1705 -6.2743165047740807e-05
1706 1706 6.8731118518865597e-02
1707 1706 -5.9094926534074505e-04
1796 1706 -6.2706892016146094e-05
1706 1707 -5.9005243694074496e-04
1707 1707 5.3638062888441501e-02
1713 1707 -5.2910052910052900e-02
1796 1707 -6.2744096304646096e-05
1708 1708 2.0343573510130500e-01
1709 1708 -4.2516657352928999e-09
1796 1708 -7.0353919253761499e-05
1708 1709 -2.3561766658438499e-09
1709 1709 8.7447452857616903e-02
1710 1709 -8.7108013937282194e-02
1796 1709 -7.0352195924858795e-05
1709 1710 -8.7108013937282194e-02
1710 1710 2.0907633601608400e-01
1711 1710 -1.2195121951219499e-01
2346 1710 -1.2056933852606700e-05
1710 1711 -1.2195121951219499e-01
1711 1711 1.2223575105506500e-01
1712 1711 -3.9217099660346898e-10
2346 1711 -7.0343719372217706e-05
1711 1712 -1.5963474456132800e-12
1712 1712 2.0338943546867999e-01
1713 1712 -2.0325203252032500e-01
2346 1712 -7.0305775402563405e-05
1690 1713 -1.8615772864917999e-05
1691 1713 -1.2549690439751099e-04
1692 1713 -1.2535858551881399e-04
1693 1713 -1.8614235965934799e-05
1703 1713 -9.8909426205184702e-07
1705 1713 -5.2910052910052900e-02
1707 1713 -5.2910052910052900e-02
1712 1713 -2.0325203252032500e-01
1713 1713 3.0973523934777802e-01
1794 1713 -1.9719284338375401e-06
1796 1713 -9.8909426205184702e-07
2346 1713 -4.5823860748224796e-06
2347 1713 -1.9719284338375401e-06
2371 1713 -1.9719284338375401e-06
1714 1714 4.0463758549707303e-02
1717 1714 -6.2017492320600603e-04
2350 1714 -6.5772255008038103e-05
1715 1715 5.5603063440870501e-02
1716 1715 -1.6877442225592201e-09
2350 1715 -3.9197240829389801e-05
1715 1716 -6.8847892839863700e-12
1716 1716 4.7033301674969899e-02
1727 1716 -4.6904315196998100e-02
2350 1716 -3.9171858743174303e-05
1714 1717 -6.2121933434901495e-04
1717 1717 5.5711388405124303e-02
1727 1717 -5.4945054945054903e-02
2350 1717 -6.5859165865688596e-05
1718 1718 5.1467139281606303e-02
1719 1718 -4.2850915437939201e-04
1794 1718 -1.1391054383862000e-04
1718 1719 -4.3280155706669900e-04
1719 1719 4.1343178936368498e-02
1794 1719 -1.1386291262566100e-04
2359 1719 -4.0650406504064998e-02
1720 1720 5.1466984015212602e-02
1721 1720 -4.2835492354745199e-04
1727 1720 -1.1391055188023800e-04
1720 1721 -4.3264626954774200e-04
1721 1721 4.1343024808386197e-02
1727 1721 -1.1386290457674799e-04
2359 1721 -4.0650406504064998e-02
1722 1722 2.8580466167509799e-01
1723 1722 -1.4037924856609200e-09
1727 1722 -3.7140036610923298e-05
1722 1723 -7.1562122663806797e-10
1723 1723 1.0220528908974100e-01
1724 1723 -1.0204081632653100e-01
1727 1723 -3.7100906045314703e-05
1723 1724 -1.0204081632653100e-01
1724 1724 2.6078100372129598e-01
1725 1724 -1.5873015873015900e-01
1794 1724 -4.9830318518561402e-06
1724 1725 -1.5873015873015900e-01
1725 1725 1.5886399150184999e-01
1726 1725 -9.5306711801155303e-10
1794 1725 -3.7198643427805697e-05
1725 1726 -8.5649079419232600e-12
1726 1726 2.8577242615628501e-01
1794 1726 -3.6138588454584199e-05
2359 1726 -2.8571428571428598e-01
1716 1727 -4.6904315196998100e-02
1717 1727 -5.4945054945054903e-02
1720 1727 -1.1283899394583600e-04
1721 1727 -1.1228922462530599e-04
1722 1727 -3.5457728172163100e-05
1723 1727 -3.5456574362794597e-05
1727 1727 1.0245186295873800e-01
1794 1727 -3.7936147012874600e-06
2347 1727 -9.8909426205184702e-07
1728 1728 4.0495995756785301e-02
1740 1728 -6.5246894268462005e-04
2347 1728 -6.5823660823303802e-05
1729 1729 2.8665742689974599e-01
1730 1729 -7.5527731707147297e-04
1729 1730 -7.7664295293299903e-04
1730 1730 1.0309707325656400e-01
1731 1730 -1.0204081632653100e-01
1730 1731 -1.0204081632653100e-01
1731 1731 2.6078100372129598e-01
1732 1731 -1.5873015873015900e-01
1731 1732 -1.5873015873015900e-01
1732 1732 1.5886895451438099e-01
1737 1732 -5.3440299594795297e-09
1733 1733 5.1459936248364598e-02
1736 1733 -4.3099221838980900e-04
1734 1734 5.1148748621341701e-02
1735 1734 -1.1953473710523100e-04
1734 1735 -1.3007688205715601e-04
1735 1735 4.1053327552393201e-02
2347 1735 -4.0650406504064998e-02
1733 1736 -4.3851710247276999e-04
1736 1736 4.1362272998523998e-02
2347 1736 -4.0650406504064998e-02
1732 1737 -3.1603474479884200e-11
1737 1737 2.8577231364661199e-01
2347 1737 -2.8571428571428598e-01
1738 1738 5.5603064980512998e-02
1739 1738 -2.4039340857554698e-10
2347 1738 -3.9191245574333402e-05
1738 1739 -9.7395868073758591e-13
1739 1739 4.7033354581249701e-02
1792 1739 -4.6904315196998100e-02
2347 1739 -3.9169951588194402e-05
1728 1740 -6.5023976261150405e-04
1740 1740 5.5740214503679199e-02
1792 1740 -5.4945054945054903e-02
2347 1740 -6.5834097310359701e-05
1741 1741 6.8751216460760600e-02
1742 1741 -6.1109638631263205e-04
2359 1741 -6.2709987251987096e-05
1741 1742 -6.1000831777446201e-04
1742 1742 5.3658168395288197e-02
2358 1742 -5.2910052910052900e-02
2359 1742 -6.2742433510150795e-05
1743 1743 6.8747442500310299e-02
1744 1743 -6.0730966302345796e-04
2354 1743 -6.2709699619622095e-05
1743 1744 -6.0624054664258197e-04
1744 1744 5.3654394776713701e-02
2354 1744 -6.2742355090756105e-05
2358 1744 -5.2910052910052900e-02
1745 1745 2.0343573216722199e-01
1746 1745 -1.5773595016335201e-09
2354 1745 -7.0348082272465897e-05
1745 1746 -9.9687869653063801e-10
1746 1746 8.7448184754741101e-02
1747 1746 -8.7108013937282194e-02
2354 1746 -7.0346800361108599e-05
1746 1747 -8.7108013937282194e-02
1747 1747 2.0907633601608400e-01
1748 1747 -1.2195121951219499e-01
2359 1747 -1.2056933852606700e-05
1747 1748 -1.2195121951219499e-01
1748 1748 1.2223623853696700e-01
1749 1748 -5.6093259867547099e-10
2359 1748 -7.0345480376787006e-05
1748 1749 -2.2849534674021101e-12
1749 1749 2.0338943716481300e-01
2358 1749 -2.0325203252032500e-01
2359 1749 -7.0306242916062795e-05
1750 1750 6.8091355008966903e-02
1751 1750 -8.6322109365145196e-10
1792 1750 -1.8576097433912700e-05
1750 1751 -9.4069146853774808e-10
1751 1751 5.2994338814157500e-02
1792 1751 -1.8719140631652799e-05
2360 1751 -5.2910052910052900e-02
1752 1752 6.8730661633827600e-02
1753 1752 -5.9048803340973203e-04
2350 1752 -6.2711059760202595e-05
1752 1753 -5.8932977688512295e-04
1753 1753 5.3637433012806997e-02
2350 1753 -6.2742140643889997e-05
2360 1753 -5.2910052910052900e-02
1754 1754 6.8091355041482393e-02
1762 1754 -9.0219897440741301e-10
1755 1755 6.8532552005596395e-02
1761 1755 -3.7305807504938300e-04
1756 1756 2.0385670187991201e-01
1757 1756 -2.4261406048741799e-04
1756 1757 -2.5467849458391201e-04
1757 1757 7.7015986348303603e-02
1758 1757 -7.6219512195121894e-02
1757 1758 -7.6219512195121894e-02
1758 1758 1.9818783427392400e-01
1759 1758 -1.2195121951219499e-01
1758 1759 -1.2195121951219499e-01
1759 1759 1.2329765629332699e-01
1760 1759 -8.6268099138355500e-04
1759 1760 -8.2891715918162695e-04
1760 1760 2.0443344070397201e-01
2350 1760 -2.0325203252032500e-01
1755 1761 -2.2562898458983100e-05
1761 1761 5.1087248861405400e-02
2350 1761 -5.1020408163265300e-02
1754 1762 -8.0641440250525901e-12
1762 1762 5.1065121358498902e-02
2350 1762 -5.1020408163265300e-02
1763 1763 2.0343573388975800e-01
1764 1763 -3.0674867762200698e-09
2350 1763 -7.0354134029192094e-05
1763 1764 -1.2383596515913000e-11
1764 1764 8.7348003306580796e-02
1765 1764 -8.7108013937282194e-02
2350 1764 -7.0311022130814798e-05
1764 1765 -8.7108013937282194e-02
1765 1765 2.0907633601608400e-01
1766 1765 -1.2195121951219499e-01
1792 1765 -1.2056933852606700e-05
1765 1766 -1.2195121951219499e-01
1766 1766 1.2215683186188001e-01
1767 1766 -1.4385009269144801e-08
1792 1766 -7.0361310694620801e-05
1766 1767 -6.0909651421369396e-11
1767 1767 2.0338943885545199e-01
1792 1767 -7.0353265349337103e-05
2360 1767 -2.0325203252032500e-01
1768 1768 4.0485662704567701e-02
1771 1768 -6.4210725242534999e-04
1791 1768 -6.5829973723237399e-05
1769 1769 5.5603065045126202e-02
1770 1769 -4.4911010655189998e-10
1791 1769 -3.9193066380187597e-05
1769 1770 -1.8234827766017099e-12
1770 1770 4.7033361401437199e-02
1781 1770 -4.6904315196998100e-02
1791 1770 -3.9170592478857499e-05
1768 1771 -6.3948061615518004e-04
1771 1771 5.5729397331228399e-02
1781 1771 -5.4945054945054903e-02
1791 1771 -6.5831193730243599e-05
1772 1772 6.8091355060343403e-02
1773 1772 -9.2166365399303504e-10
1793 1772 -1.8629373464351401e-05
1772 1773 -8.1397486034572102e-12
1773 1773 5.2954076397276700e-02
1793 1773 -1.8072786506109300e-05
2357 1773 -5.2910052910052900e-02
1774 1774 6.8091355052345398e-02
1775 1774 -9.1329897754437905e-10
1781 1774 -1.8628584378413198e-05
1774 1775 -8.0646457671663508e-12
1775 1775 5.2954076397235199e-02
1781 1775 -1.8072484980857498e-05
2357 1775 -5.2910052910052900e-02
1776 1776 2.0448600611243400e-01
1777 1776 -8.5583002361189198e-04
1781 1776 -2.2645353942979101e-04
1776 1777 -8.6502535526700197e-04
1777 1777 8.8491860552957102e-02
1778 1777 -8.7108013937282194e-02
1781 1777 -2.2644620961152900e-04
1777 1778 -8.7108013937282194e-02
1778 1778 2.0907633601608400e-01
1779 1778 -1.2195121951219499e-01
1793 1778 -1.2056933852606700e-05
1778 1779 -1.2195121951219499e-01
1779 1779 1.2328840409885899e-01
1780 1779 -8.5558645883211399e-04
1793 1779 -2.2646049419044800e-04
1779 1780 -8.6468610643744396e-04
1780 1780 2.0447632991136799e-01
1793 1780 -2.2643925389780601e-04
2357 1780 -2.0325203252032500e-01
1770 1781 -4.6904315196998100e-02
1771 1781 -5.4945054945054903e-02
1774 1781 -1.7729341175605900e-05
1775 1781 -1.7727810091872999e-05
1776 1781 -2.2516940637729599e-04
1777 1781 -2.2508346239134201e-04
1781 1781 1.0256023129757701e-01
1791 1781 -9.1397317885803597e-07
1793 1781 -7.9816150893424393e-06
1782 1782 5.1467171001183802e-02
1783 1782 -4.2855408845302002e-04
1794 1782 -1.1389602293691500e-04
1782 1783 -4.3303750208200298e-04
1783 1783 4.1343502032492603e-02
1791 1783 -4.0650406504064998e-02
1794 1783 -1.1387744267552500e-04
1784 1784 5.1466034728839101e-02
1785 1784 -4.2742547798070801e-04
1792 1784 -1.1389603491476400e-04
1784 1785 -4.3190113847049299e-04
1785 1785 4.1342374182423300e-02
1791 1785 -4.0650406504064998e-02
1792 1785 -1.1387743069343600e-04
1786 1786 2.8580466179851699e-01
1787 1786 -1.5418562953929999e-09
1792 1786 -3.7157876285812701e-05
1786 1787 -7.6780292590870399e-10
1787 1787 1.0220520040720500e-01
1788 1787 -1.0204081632653100e-01
1792 1787 -3.7117419705504702e-05
1787 1788 -1.0204081632653100e-01
1788 1788 2.6078100372129598e-01
1789 1788 -1.5873015873015900e-01
1794 1788 -4.9830318518561402e-06
1788 1789 -1.5873015873015900e-01
1789 1789 1.5886393114243300e-01
1790 1789 -9.3974661399399897e-10
1794 1789 -3.7197731682345398e-05
1789 1790 -8.4464204463385502e-12
1790 1790 2.8577242298313899e-01
1791 1790 -2.8571428571428598e-01
1794 1790 -3.6138481054245400e-05
1768 1791 -6.5038555924419695e-05
1769 1791 -3.9160982581229100e-05
1770 1791 -3.9160258756638503e-05
1771 1791 -6.5094312186902506e-05
1781 1791 -9.1397317885803597e-07
1783 1791 -4.0650406504064998e-02
1785 1791 -4.0650406504064998e-02
1790 1791 -2.8571428571428598e-01
1791 1791 3.6759369355109800e-01
1792 1791 -9.8909426205184702e-07
1794 1791 -6.0973279192310098e-06
2356 1791 -9.8909426205184702e-07
2357 1791 -9.8909426205184702e-07
1739 1792 -4.6904315196998100e-02
1740 1792 -5.4945054945054903e-02
1750 1792 -1.7728535597885599e-05
1751 1792 -1.7728615669593300e-05
1765 1792 -1.2056933852606700e-05
1766 1792 -7.0301283670339703e-05
1767 1792 -7.0275303346345602e-05
1784 1792 -1.1267059186937300e-04
1785 1792 -1.1245644870530101e-04
1786 1792 -3.5457800440941301e-05
1787 1792 -3.5456502094016402e-05
1791 1792 -9.8909426205184702e-07
1792 1792 1.0285815938641400e-01
1794 1792 -2.8045204392356201e-06
2350 1792 -7.9064940061486307e-06
2354 1792 -9.8909426205184702e-07
2358 1792 -9.8909426205184702e-07
2359 1792 -1.9719284338375401e-06
2360 1792 -4.5823860748224796e-06
1695 1793 -4.0650406504064998e-02
1697 1793 -4.0650406504064998e-02
1702 1793 -2.8571428571428598e-01
1703 1793 -7.0864221812828501e-06
1772 1793 -1.7729348207567498e-05
1773 1793 -1.7727803059911401e-05
1778 1793 -1.2056933852606700e-05
1779 1793 -2.2525120370633301e-04
1780 1793 -2.2500224280139300e-04
1781 1793 -7.9816150893424393e-06
1793 1793 3.6784301955816701e-01
1794 1793 -1.9719284338375401e-06
2351 1793 -1.9719284338375401e-06
2354 1793 -9.8909426205184702e-07
2356 1793 -9.8909426205184702e-07
2357 1793 -4.5823860748224796e-06
2371 1793 -9.8909426205184702e-07
1672 1794 -5.2910052910052900e-02
1674 1794 -5.2910052910052900e-02
1688 1794 -2.0325203252032500e-01
1713 1794 -1.9719284338375401e-06
1718 1794 -1.1283901554104499e-04
1719 1794 -1.1228920254549300e-04
1724 1794 -4.9830318518561402e-06
1725 1794 -3.5457958168056199e-05
1726 1794 -3.5456344366901600e-05
1727 1794 -3.7936147012874600e-06
1782 1794 -1.1267078105438200e-04
1783 1794 -1.1245625901957900e-04
1788 1794 -4.9830318518561402e-06
1789 1794 -3.5457946950743001e-05
1790 1794 -3.5456355584214797e-05
1791 1794 -6.0973279192310098e-06
1792 1794 -2.8045204392356201e-06
1793 1794 -1.9719284338375401e-06
1794 1794 3.1017661152867398e-01
1796 1794 -4.5823860748224796e-06
2354 1794 -9.8909426205184702e-07
2359 1794 -6.0973279192310098e-06
2371 1794 -9.8909426205184702e-07
1621 1795 -6.4917600274792697e-05
1622 1795 -3.9160818242490803e-05
1623 1795 -3.9160423095376698e-05
1624 1795 -6.5215550364531297e-05
1643 1795 -9.8909426205184702e-07
1647 1795 -1.2543499912690800e-04
1648 1795 -1.2244049030130899e-04
1657 1795 -4.0650406504064998e-02
1658 1795 -4.0650406504064998e-02
1659 1795 -2.8571428571428598e-01
1660 1795 -7.0288450301162205e-05
1661 1795 -7.0288136715523100e-05
1666 1795 -5.9721261139079898e-06
1689 1795 -9.8909426205184702e-07
1696 1795 -3.5144321622913700e-05
1697 1795 -3.5143971885428898e-05
1698 1795 -1.2412784198071600e-04
1699 1795 -1.2374460994592001e-04
1703 1795 -2.8796415224294300e-06
1795 1795 3.6873261416691699e-01
1796 1795 -3.9438568676750903e-06
2344 1795 -7.1803235352751197e-06
2346 1795 -1.2895785948270899e-06
2349 1795 -9.8909426205184702e-07
2361 1795 -4.2130407491195804e-06
2364 1795 -9.8909426205184702e-07
2367 1795 -9.8909426205184702e-07
2370 1795 -1.9719284338375401e-06
1627 1796 -6.1309258512935198e-05
1628 1796 -6.2628345860130693e-05
1635 1796 -2.0325203252032500e-01
1636 1796 -5.1020408163265300e-02
1637 1796 -5.1020408163265300e-02
1638 1796 -7.0290716410665905e-05
1639 1796 -7.0285870606019401e-05
1643 1796 -7.9064940061486307e-06
1662 1796 -1.2130397844725600e-04
1663 1796 -1.2657437719765699e-04
1664 1796 -7.0286453961491903e-05
1665 1796 -7.0290133055193402e-05
1666 1796 -1.9637903164915501e-05
1671 1796 -5.9893531440392802e-05
1672 1796 -6.4047435373139103e-05
1686 1796 -1.2056933852606700e-05
1687 1796 -7.0289568811169096e-05
1688 1796 -7.0287018205516304e-05
1689 1796 -1.0554512188730501e-05
1706 1796 -6.1145858635061406e-05
1707 1796 -6.2792139513107899e-05
1708 1796 -7.0289839314004694e-05
1709 1796 -7.0286747702680597e-05
1713 1796 -9.8909426205184702e-07
1794 1796 -4.5823860748224796e-06
1795 1796 -3.9438568676750903e-06
1796 1796 3.0750116231999203e-01
2344 1796 -1.9719284338375401e-06
2346 1796 -7.9816150893424393e-06
2348 1796 -9.8909426205184702e-07
2349 1796 -9.8909426205184702e-07
2361 1796 -2.2160719542174299e-06
2364 1796 -9.8909426205184702e-07
2367 1796 -9.8909426205184702e-07
2369 1796 -9.8909426205184702e-07
2370 1796 -1.9719284338375401e-06
1797 1797 5.1461224539322302e-02
1798 1797 -4.3181779626590800e-04
1994 1797 -1.1388626554032600e-04
1797 1798 -4.2723373432299998e-04
1798 1798 4.1346874201285702e-02
1820 1798 -4.0650406504064998e-02
1994 1798 -1.1388694565138100e-04
1799 1799 5.0940743653720803e-02
1800 1799 -6.1766306250604603e-10
1849 1799 -3.5173218937382198e-05
1799 1800 -6.1836829957773803e-10
1800 1800 4.0821786956659903e-02
1820 1800 -4.0650406504064998e-02
1849 1800 -3.5176629656675700e-05
1801 1801 2.8712708366435302e-01
1802 1801 -1.2256535276363000e-03
1849 1801 -1.2469959101408200e-04
1801 1802 -1.2205748277889299e-03
1802 1802 1.1138570567891200e-01
1803 1802 -1.0989010989011000e-01
1849 1802 -1.2470099149416500e-04
1802 1803 -1.0989010989011000e-01
1803 1803 2.6863029728487497e-01
1804 1803 -1.5873015873015900e-01
1994 1803 -4.9830318518561402e-06
1803 1804 -1.5873015873015900e-01
1804 1804 1.5886655593510701e-01
1805 1804 -1.9769465180414800e-09
1994 1804 -3.7268557609919301e-05
1804 1805 -1.7559645484262101e-11
1805 1805 2.8577242087350002e-01
1820 1805 -2.8571428571428598e-01
1994 1805 -3.6147298487595600e-05
1806 1806 1.0187648086395600e-01
1807 1806 -8.3683941414223599e-10
1820 1806 -7.0346554984875500e-05
1806 1807 -3.4062763202511402e-12
1807 1807 8.7339633000173306e-02
1820 1807 -7.0306215289177098e-05
2371 1807 -8.7108013937282194e-02
1808 1808 1.4430548767317899e-01
1809 1808 -1.2235697988963101e-03
1820 1808 -1.2467007244146300e-04
2371 1808 -1.4285714285714299e-01
1808 1809 -1.2196275824485801e-03
1809 1809 1.3134702240166901e-01
1819 1809 -1.2987012987013000e-01
1820 1809 -1.2473072591266001e-04
1810 1810 1.4298556738845300e-01
1811 1810 -1.7978318830260300e-09
1995 1810 -3.7152158275139000e-05
1810 1811 -1.7296574703279199e-09
1811 1811 1.1005783304808700e-01
1819 1811 -1.0989010989011000e-01
1995 1811 -3.7149433515705199e-05
1812 1812 1.4431307389604700e-01
1813 1812 -1.2204509934423001e-03
1849 1812 -1.2472956525243599e-04
1812 1813 -1.2244544582322300e-03
1813 1813 1.1137902827005799e-01
1819 1813 -1.0989010989011000e-01
1849 1813 -1.2467123418414701e-04
1814 1814 1.0187648082156101e-01
1815 1814 -8.1118925812094403e-10
1849 1814 -7.0346610704227999e-05
1814 1815 -3.2588341421933199e-12
1815 1815 8.7348144464810998e-02
1816 1815 -8.7108013937282194e-02
1849 1815 -7.0308485415472498e-05
1815 1816 -8.7108013937282194e-02
1816 1816 1.8876452309713099e-01
1817 1816 -1.0162601626016300e-01
1995 1816 -2.0695858419894999e-05
1816 1817 -1.0162601626016300e-01
1817 1817 1.0180816797280400e-01
1818 1817 -1.8501095335919700e-08
1995 1817 -7.0361549321522907e-05
1817 1818 -7.8346359145123298e-11
1818 1818 1.0180249671577200e-01
1995 1818 -7.0353375548086602e-05
2371 1818 -1.0162601626016300e-01
1809 1819 -1.2987012987013000e-01
1811 1819 -1.0989010989011000e-01
1813 1819 -1.0989010989011000e-01
1819 1819 3.4968928741180499e-01
1820 1819 -6.5230140573292702e-06
1849 1819 -4.1441797561919198e-06
1995 1819 -3.9814174092719904e-06
1798 1820 -4.0650406504064998e-02
1800 1820 -4.0650406504064998e-02
1805 1820 -2.8571428571428598e-01
1806 1820 -7.0288971680942497e-05
1807 1820 -7.0287615335742795e-05
1808 1820 -1.2290411485294900e-04
1809 1820 -1.2497032163459799e-04
1819 1820 -6.5230140573292702e-06
1820 1820 3.6775012380367400e-01
1849 1820 -9.8909426205184702e-07
1994 1820 -7.0864221812828501e-06
2371 1820 -1.7828737077997899e-05
1821 1821 5.0940743370786301e-02
1822 1821 -4.8702374298224703e-10
2346 1821 -3.5172518753584402e-05
1821 1822 -4.8094550796508796e-10
1822 1822 4.0825240103093498e-02
1849 1822 -4.0650406504064998e-02
2346 1822 -3.5172500597725702e-05
1823 1823 5.1466568144354900e-02
1824 1823 -4.2795652555864500e-04
2345 1823 -1.1389493574289100e-04
1823 1824 -4.3245015274884701e-04
1824 1824 4.1346339390452298e-02
1849 1824 -4.0650406504064998e-02
2345 1824 -1.1387853023140800e-04
1825 1825 2.8580466197496601e-01
1826 1825 -1.7003298547539199e-09
2345 1825 -3.7239343953026800e-05
1825 1826 -1.6036532356973999e-11
1826 1826 1.0213267354951699e-01
1827 1826 -1.0204081632653100e-01
2345 1826 -3.6189586978902098e-05
1826 1827 -1.0204081632653100e-01
1827 1827 2.6078100372129598e-01
1828 1827 -1.5873015873015900e-01
2346 1827 -4.9830318518561402e-06
1827 1828 -1.5873015873015900e-01
1828 1828 1.5881277646640299e-01
1829 1828 -2.3888160615665798e-08
2346 1828 -3.8104237155551402e-05
1828 1829 -5.4470486566277200e-10
1829 1829 2.8577242328695901e-01
1849 1829 -2.8571428571428598e-01
2346 1829 -3.7918351169776301e-05
1830 1830 4.0489610739623601e-02
1833 1830 -6.4606787419920104e-04
2346 1830 -6.5823011208501896e-05
1831 1831 5.5603064717293899e-02
1832 1831 -3.5374437432756100e-10
2346 1831 -3.9192281031368499e-05
1831 1832 -1.4351563247314900e-12
1832 1832 4.7033353880616802e-02
1848 1832 -4.6904315196998100e-02
2346 1832 -3.9170349272160503e-05
1830 1833 -6.4389175868183204e-04
1833 1833 5.5733855033738899e-02
1848 1833 -5.4945054945054903e-02
2346 1833 -6.5834382902288903e-05
1834 1834 1.0292803142188900e-01
1835 1834 -8.5708241450276198e-04
2345 1834 -2.2647172198580700e-04
1834 1835 -8.6604503385471002e-04
1835 1835 7.7611112979801195e-02
2345 1835 -2.2642802260484099e-04
2348 1835 -7.6219512195121894e-02
1836 1836 1.4292840243872301e-01
1837 1836 -1.1382094004147000e-11
2345 1836 -3.6142472120423797e-05
2348 1836 -1.4285714285714299e-01
1836 1837 -1.2715424916752600e-09
1837 1837 1.3001865846074701e-01
1847 1837 -1.2987012987013000e-01
2345 1837 -3.7224612522499303e-05
1838 1838 1.4298556729088299e-01
1839 1838 -1.7002779867497001e-09
1995 1838 -3.7153175755201999e-05
1838 1839 -1.1713869705729700e-09
1839 1839 1.0220961013284301e-01
1847 1839 -1.0204081632653100e-01
1995 1839 -3.7128637732257798e-05
1840 1840 1.4298556730856099e-01
1841 1840 -1.7377732724143799e-09
1848 1840 -3.7156904207613299e-05
1840 1841 -1.1972498929730101e-09
1841 1841 1.0220961012083001e-01
1847 1841 -1.0204081632653100e-01
1848 1841 -3.7132332978409300e-05
1842 1842 1.0292701181724100e-01
1843 1842 -8.5607680403146900e-04
1848 1842 -2.2646344206014101e-04
1842 1843 -8.6514256671778203e-04
1843 1843 7.7610270501786496e-02
1844 1843 -7.6219512195121894e-02
1848 1843 -2.2643630534404901e-04
1843 1844 -7.6219512195121894e-02
1844 1844 1.7787602135497099e-01
1845 1844 -1.0162601626016300e-01
1995 1844 -2.0695858419894999e-05
1844 1845 -1.0162601626016300e-01
1845 1845 1.0292718426606499e-01
1846 1845 -8.5631533467193303e-04
1995 1845 -2.2645815854589900e-04
1845 1846 -8.6544605827597104e-04
1846 1846 1.0291778916601500e-01
1995 1846 -2.2644158996593800e-04
2348 1846 -1.0162601626016300e-01
1837 1847 -1.2987012987013000e-01
1839 1847 -1.0204081632653100e-01
1841 1847 -1.0204081632653100e-01
1847 1847 3.3399070028464700e-01
1848 1847 -4.1441797561919198e-06
1995 1847 -3.9814174092719904e-06
2345 1847 -6.5230140573292702e-06
1832 1848 -4.6904315196998100e-02
1833 1848 -5.4945054945054903e-02
1840 1848 -3.5457604302272898e-05
1841 1848 -3.5456698232684799e-05
1842 1848 -2.2528598572112699e-04
1843 1848 -2.2496770568231699e-04
1847 1848 -4.1441797561919198e-06
1848 1848 1.0278051980358199e-01
1995 1848 -1.6276234691992399e-06
2342 1848 -1.9719284338375401e-06
2348 1848 -9.8909426205184702e-07
1799 1849 -3.5144146399702902e-05
1800 1849 -3.5144147108639697e-05
1801 1849 -1.2390822906894699e-04
1802 1849 -1.2396384052319100e-04
1812 1849 -1.2493134757487399e-04
1813 1849 -1.2294300143496701e-04
1814 1849 -7.0288950926790803e-05
1815 1849 -7.0287636089894393e-05
1819 1849 -4.1441797561919198e-06
1820 1849 -9.8909426205184702e-07
1822 1849 -4.0650406504064998e-02
1824 1849 -4.0650406504064998e-02
1829 1849 -2.8571428571428598e-01
1849 1849 3.6834117777179998e-01
1994 1849 -4.8515699562669697e-06
1995 1849 -1.6276234691992399e-06
2342 1849 -9.8909426205184702e-07
2346 1849 -8.0692563530685507e-06
2348 1849 -9.8909426205184702e-07
2349 1849 -9.8909426205184702e-07
2371 1849 -9.8909426205184702e-07
1850 1850 3.9792375808005397e-02
1853 1850 -9.8479822499756706e-10
1896 1850 -1.9562081708079701e-05
1851 1851 5.6187992632779300e-02
1852 1851 -4.7601355652169799e-04
1896 1851 -1.2677434613838100e-04
1851 1852 -4.8083444113921400e-04
1852 1852 4.7674607702812802e-02
1863 1852 -4.6904315196998100e-02
1896 1852 -1.2672782979786999e-04
1850 1853 -8.7060526857752408e-12
1853 1853 5.4991353255359497e-02
1863 1853 -5.4945054945054903e-02
1896 1853 -1.8976967428004801e-05
1854 1854 6.8751280557043298e-02
1855 1854 -6.1115705045794303e-04
1863 1854 -6.2714847178108098e-05
1854 1855 -6.0975247021763303e-04
1855 1855 5.3657772025768102e-02
1863 1855 -6.2740248910624804e-05
1995 1855 -5.2910052910052900e-02
1856 1856 6.8730665889670903e-02
1857 1856 -5.9049008231182505e-04
2350 1856 -6.2714041931134098e-05
1856 1857 -5.8914473241927605e-04
1857 1857 5.3637117661092699e-02
1995 1857 -5.2910052910052900e-02
2350 1857 -6.2740742030752394e-05
1858 1858 2.0343573508925500e-01
1859 1858 -4.2669735921097104e-09
2350 1858 -7.0354080872129507e-05
1858 1859 -2.2122867839037500e-09
1859 1859 8.7447180497613200e-02
1860 1859 -8.7108013937282194e-02
2350 1859 -7.0352213014100099e-05
1859 1860 -8.7108013937282194e-02
1860 1860 2.0907633601608400e-01
1861 1860 -1.2195121951219499e-01
1863 1860 -1.2056933852606700e-05
1860 1861 -1.2195121951219499e-01
1861 1861 1.2223553591333700e-01
1862 1861 -4.8366210864177797e-10
1863 1861 -7.0345053569927796e-05
1861 1862 -1.9704301516407400e-12
1862 1862 2.0338944118039501e-01
1863 1862 -7.0306238963472302e-05
1995 1862 -2.0325203252032500e-01
1852 1863 -4.6904315196998100e-02
1853 1863 -5.4945054945054903e-02
1854 1863 -6.1381368780803801e-05
1855 1863 -6.2556020550726894e-05
1860 1863 -1.2056933852606700e-05
1861 1863 -7.0288686616417099e-05
1862 1863 -7.0287900400268206e-05
1863 1863 1.0240021641962600e-01
1995 1863 -4.5823860748224796e-06
2350 1863 -7.9064940061486307e-06
1864 1864 5.0940743358195401e-02
1865 1864 -2.1306228789841001e-10
2347 1864 -3.5171614516228897e-05
1864 1865 -8.6259052750528497e-13
1865 1865 4.0766190030652703e-02
1896 1865 -4.0650406504064998e-02
2347 1865 -3.5152520963173999e-05
1866 1866 5.0940743428440301e-02
1867 1866 -3.9318270085540501e-10
2355 1866 -3.5173217481993403e-05
1866 1867 -1.5951943487478900e-12
1867 1867 4.0766190008342099e-02
1896 1867 -4.0650406504064998e-02
2355 1867 -3.5153083684738000e-05
1868 1868 2.8713253534498701e-01
1869 1868 -1.2208298240697301e-03
2355 1868 -1.2471126100942399e-04
1868 1869 -1.2255428153867801e-03
1869 1869 1.1138029618578200e-01
1870 1869 -1.0989010989011000e-01
2355 1869 -1.2468954989285801e-04
1869 1870 -1.0989010989011000e-01
1870 1870 2.6863029728487497e-01
1871 1870 -1.5873015873015900e-01
2347 1870 -4.9830318518561402e-06
1870 1871 -1.5873015873015900e-01
1871 1871 1.6021328631857501e-01
1872 1871 -1.2397328981880200e-03
2347 1871 -1.2470637300647600e-04
1871 1872 -1.2446701529037201e-03
1872 1872 2.8714598527165702e-01
1896 1872 -2.8571428571428598e-01
2347 1872 -1.2469443918277699e-04
1873 1873 5.0940743436675900e-02
1874 1873 -4.0013129645628199e-10
1897 1873 -3.5173268728703701e-05
1873 1874 -1.6235076543818999e-12
1874 1874 4.0766185740238298e-02
1897 1874 -3.5153098346835897e-05
1994 1874 -4.0650406504064998e-02
1875 1875 5.0940743358205497e-02
1876 1875 -2.1307229769724899e-10
2347 1875 -3.5171614519793700e-05
1875 1876 -8.6264500348396004e-13
1876 1876 4.0766185762246297e-02
1994 1876 -4.0650406504064998e-02
2347 1876 -3.5152519942863000e-05
1877 1877 2.8715190973502502e-01
1878 1877 -1.2401622202147899e-03
2347 1877 -1.2470675665511100e-04
1877 1878 -1.2450910448652700e-03
1878 1878 1.1139984186617100e-01
1879 1878 -1.0989010989011000e-01
2347 1878 -1.2469405546026199e-04
1878 1879 -1.0989010989011000e-01
1879 1879 2.6863029728487497e-01
1880 1879 -1.5873015873015900e-01
1897 1879 -4.9830318518561402e-06
1879 1880 -1.5873015873015900e-01
1880 1880 1.6019358212038301e-01
1881 1880 -1.2200446396515999e-03
1897 1880 -1.2470244288234300e-04
1880 1881 -1.2250940583966800e-03
1881 1881 2.8712649146676300e-01
1897 1881 -1.2469836979881100e-04
1994 1881 -2.8571428571428598e-01
1882 1882 3.9792375779440198e-02
1885 1882 -8.7412716291627904e-10
1895 1882 -1.9551256966388001e-05
1883 1883 5.6189265668954699e-02
1884 1883 -4.7728520328549898e-04
1895 1883 -1.2676642079703399e-04
1883 1884 -4.8221836469353099e-04
1884 1884 4.7676029712271598e-02
1895 1884 -1.2673576037125600e-04
1897 1884 -4.6904315196998100e-02
1882 1885 -7.7115095250826097e-12
1885 1885 5.4991351278656300e-02
1895 1885 -1.8972779819905899e-05
1897 1885 -5.4945054945054903e-02
1886 1886 6.8730621638145001e-02
1887 1886 -5.9046786763265302e-04
2350 1886 -6.2684616047781999e-05
1886 1887 -5.9096224655821200e-04
1887 1887 5.3639086353894402e-02
1895 1887 -5.2910052910052900e-02
2350 1887 -6.2754635132859503e-05
1888 1888 6.8751651581912696e-02
1889 1888 -6.1154988468239003e-04
2355 1888 -6.2686547610981194e-05
1888 1889 -6.1198382402180096e-04
1889 1889 5.3660154354069699e-02
1895 1889 -5.2910052910052900e-02
2355 1889 -6.2753018367051803e-05
1890 1890 2.0343573311424701e-01
1891 1890 -1.0969579892352300e-09
2355 1890 -7.0346497544373601e-05
1890 1891 -5.4386901771317501e-10
1891 1891 8.7447019818750596e-02
1892 1891 -8.7108013937282194e-02
2355 1891 -7.0344771246599194e-05
1891 1892 -8.7108013937282194e-02
1892 1892 2.0907633601608400e-01
1893 1892 -1.2195121951219499e-01
2350 1892 -1.2056933852606700e-05
1892 1893 -1.2195121951219499e-01
1893 1893 1.2223540243876800e-01
1894 1893 -1.7547982749016700e-09
2350 1893 -7.0352187868178500e-05
1893 1894 -7.1804401618832800e-12
1894 1894 2.0338941763333701e-01
1895 1894 -2.0325203252032500e-01
2350 1894 -7.0308505931532703e-05
1882 1895 -1.8615737418141700e-05
1883 1895 -1.2560563344714100e-04
1884 1895 -1.2525062042872501e-04
1885 1895 -1.8614271412711101e-05
1887 1895 -5.2910052910052900e-02
1889 1895 -5.2910052910052900e-02
1894 1895 -2.0325203252032500e-01
1895 1895 3.0963212359329401e-01
1896 1895 -9.1397317885803597e-07
2350 1895 -4.5823860748224796e-06
1850 1896 -1.8615830521735102e-05
1851 1896 -1.2569690746629201e-04
1852 1896 -1.2515999019117500e-04
1853 1896 -1.8614178309117802e-05
1865 1896 -4.0650406504064998e-02
1867 1896 -4.0650406504064998e-02
1872 1896 -2.8571428571428598e-01
1895 1896 -9.1397317885803597e-07
1896 1896 3.6768403655946702e-01
1897 1896 -1.9719284338375401e-06
1994 1896 -9.8909426205184702e-07
2347 1896 -7.0864221812828501e-06
2350 1896 -9.8909426205184702e-07
2352 1896 -9.8909426205184702e-07
1873 1897 -3.5144468732697900e-05
1874 1897 -3.5143824775644800e-05
1879 1897 -4.9830318518561402e-06
1880 1897 -1.2400550542981199e-04
1881 1897 -1.2386666290009401e-04
1884 1897 -4.6904315196998100e-02
1885 1897 -5.4945054945054903e-02
1896 1897 -1.9719284338375401e-06
1897 1897 1.0247108573219500e-01
1994 1897 -6.0973279192310098e-06
2347 1897 -3.8624756942151201e-06
2352 1897 -7.0426015494198003e-06
2371 1897 -1.9719284338375401e-06
1898 1898 5.1465983299489003e-02
1899 1898 -4.2738091601996799e-04
2342 1898 -1.1388898564630100e-04
1898 1899 -4.3194856035797202e-04
1899 1899 4.1344501452671698e-02
1921 1899 -4.0650406504064998e-02
2342 1899 -1.1388448151154100e-04
1900 1900 5.0940743644008399e-02
1901 1900 -6.0028632099298902e-10
1993 1900 -3.5173135219248000e-05
1900 1901 -5.9822544388265899e-10
1901 1901 4.0823892995749601e-02
1921 1901 -4.0650406504064998e-02
1993 1901 -3.5173130134133602e-05
1902 1902 2.8712798438712300e-01
1903 1902 -1.2265560074814299e-03
1993 1902 -1.2470009396943100e-04
1902 1903 -1.2214418126209100e-03
1903 1903 1.0353736755136700e-01
1904 1903 -1.0204081632653100e-01
1993 1903 -1.2470063061372400e-04
1903 1904 -1.0204081632653100e-01
1904 1904 2.6078100372129598e-01
1905 1904 -1.5873015873015900e-01
2342 1904 -4.9830318518561402e-06
1904 1905 -1.5873015873015900e-01
1905 1905 1.5886655287570201e-01
1906 1905 -1.9395769489817298e-09
2342 1905 -3.7262359616561298e-05
1905 1906 -1.7235737346027200e-11
1906 1906 2.8577242146289100e-01
1921 1906 -2.8571428571428598e-01
2342 1906 -3.6146154291421798e-05
1907 1907 1.0187648086642000e-01
1908 1907 -8.3992874080410598e-10
1921 1907 -7.0346574693304806e-05
1907 1908 -3.4192822132764302e-12
1908 1908 8.7339650603431296e-02
1921 1908 -7.0306205785856699e-05
2384 1908 -8.7108013937282194e-02
1909 1909 1.4431340030242901e-01
1910 1909 -1.2207961736922200e-03
1921 1909 -1.2470075252390600e-04
2384 1909 -1.4285714285714299e-01
1909 1910 -1.2258938242036301e-03
1910 1910 1.3134325970781399e-01
1920 1910 -1.2987012987013000e-01
1921 1910 -1.2469987331648600e-04
1911 1911 1.4298556740364299e-01
1912 1911 -1.8136135284881900e-09
2343 1911 -3.7153575001566497e-05
1911 1912 -1.8141027602191599e-09
1912 1912 1.0220905316567200e-01
1920 1912 -1.0204081632653100e-01
2343 1912 -3.7154505127631899e-05
1913 1913 1.4430889015491000e-01
1914 1913 -1.2265562981167201e-03
1993 1913 -1.2470028394578501e-04
1913 1914 -1.2214294919705500e-03
1914 1914 1.0353751861741700e-01
1920 1914 -1.0204081632653100e-01
1993 1914 -1.2470049381125000e-04
1915 1915 1.0187648081356400e-01
1916 1915 -7.8826042575938102e-10
1993 1915 -7.0346442610566600e-05
1915 1916 -3.1663786146905601e-12
1916 1916 8.7348233426146102e-02
1917 1916 -8.7108013937282194e-02
1993 1916 -7.0308429147694301e-05
1916 1917 -8.7108013937282194e-02
1917 1917 1.8876452309713099e-01
1918 1917 -1.0162601626016300e-01
2343 1917 -2.0695858419894999e-05
1917 1918 -1.0162601626016300e-01
1918 1918 1.0180817266000100e-01
1919 1918 -1.8466153001404699e-08
2343 1918 -7.0361548967116204e-05
1918 1919 -7.8199533597294797e-11
1919 1919 1.0180245634189200e-01
2343 1919 -7.0353312470159999e-05
2384 1919 -1.0162601626016300e-01
1910 1920 -1.2987012987013000e-01
1912 1920 -1.0204081632653100e-01
1914 1920 -1.0204081632653100e-01
1920 1920 3.3399070028464700e-01
1921 1920 -6.5230140573292702e-06
1993 1920 -4.1441797561919198e-06
2343 1920 -3.9814174092719904e-06
1899 1921 -4.0650406504064998e-02
1901 1921 -4.0650406504064998e-02
1906 1921 -2.8571428571428598e-01
1907 1921 -7.0288974191096406e-05
1908 1921 -7.0287612825588994e-05
1909 1921 -1.2395420562723899e-04
1910 1921 -1.2391784111086401e-04
1920 1921 -6.5230140573292702e-06
1921 1921 3.6789071033010801e-01
1993 1921 -1.9719284338375401e-06
2342 1921 -7.0864221812828501e-06
2346 1921 -1.9719284338375401e-06
2384 1921 -1.7828737077997899e-05
2390 1921 -1.9719284338375401e-06
2391 1921 -9.8909426205184702e-07
1922 1922 2.8665740879758600e-01
1923 1922 -7.5526791685555698e-04
1922 1923 -7.7697967643984502e-04
1923 1923 1.1094486916259100e-01
1924 1923 -1.0989010989011000e-01
1923 1924 -1.0989010989011000e-01
1924 1924 2.6863029728487497e-01
1925 1924 -1.5873015873015900e-01
1924 1925 -1.5873015873015900e-01
1925 1925 1.5886899044564401e-01
1930 1925 -5.4156652043297399e-09
1926 1926 5.1460004333006799e-02
1929 1926 -4.3103723746240803e-04
1927 1927 5.1149051228351901e-02
1928 1927 -1.1966672057066600e-04
1927 1928 -1.2964596941789601e-04
1928 1928 4.1050060706717503e-02
2340 1928 -4.0650406504064998e-02
1926 1929 -4.3798722652024801e-04
1929 1929 4.1359035704873003e-02
2340 1929 -4.0650406504064998e-02
1925 1930 -3.1915751139674598e-11
1930 1930 2.8577231893931299e-01
2340 1930 -2.8571428571428598e-01
1931 1931 5.0940743473151397e-02
1932 1931 -3.4103044927324299e-10
2340 1931 -3.5171450741925303e-05
1931 1932 -3.5386082856062998e-10
1932 1932 4.0822738326151499e-02
1993 1932 -4.0650406504064998e-02
2340 1932 -3.5286473113750299e-05
1933 1933 5.1461790772642999e-02
1934 1933 -4.3240202344435998e-04
2341 1933 -1.1387174354689900e-04
1933 1934 -4.2818391411836602e-04
1934 1934 4.1348717346014703e-02
1993 1934 -4.0650406504064998e-02
2341 1934 -1.1389356866991900e-04
1935 1935 2.8580466199975402e-01
1936 1935 -1.7296987998261400e-09
2341 1935 -3.7242288861210803e-05
1935 1936 -1.6304340998338401e-11
1936 1936 1.0998259353461300e-01
1937 1936 -1.0989010989011000e-01
2341 1936 -3.6190066992850101e-05
1936 1937 -1.0989010989011000e-01
1937 1937 2.6863029728487497e-01
1938 1937 -1.5873015873015900e-01
2340 1937 -4.9830318518561402e-06
1937 1938 -1.5873015873015900e-01
1938 1938 1.5881275333329700e-01
1939 1938 -3.1841608854911203e-08
2340 1938 -3.8111790303722802e-05
1938 1939 -7.2811510459832800e-10
1939 1939 2.8577241842703899e-01
1993 1939 -2.8571428571428598e-01
2340 1939 -3.7927060930039298e-05
1940 1940 5.1465807008061297e-02
1941 1940 -4.2720159803105002e-04
1994 1940 -1.1389356282125800e-04
1940 1941 -4.3170809342490003e-04
1941 1941 4.1345611745438000e-02
1992 1941 -4.0650406504064998e-02
1994 1941 -1.1387990354571799e-04
1942 1942 5.1466571143752499e-02
1943 1942 -4.2796076133211298e-04
2345 1942 -1.1389357142959800e-04
1942 1943 -4.3247230837334898e-04
1943 1943 4.1346369912015603e-02
1992 1943 -4.0650406504064998e-02
2345 1943 -1.1387989493514000e-04
1944 1944 2.8580466171721902e-01
1945 1944 -1.4425738346081800e-09
2345 1944 -3.7148308899011802e-05
1944 1945 -6.9996873924267798e-10
1945 1945 1.0220796826559800e-01
1946 1945 -1.0204081632653100e-01
2345 1945 -3.7107059681443099e-05
1945 1946 -1.0204081632653100e-01
1946 1946 2.6078100372129598e-01
1947 1946 -1.5873015873015900e-01
1994 1946 -4.9830318518561402e-06
1946 1947 -1.5873015873015900e-01
1947 1947 1.5886386756754800e-01
1948 1947 -1.0710610826755999e-09
1994 1947 -3.7221428618400302e-05
1947 1948 -9.6522616547939806e-12
1948 1948 2.8577242244665402e-01
1992 1948 -2.8571428571428598e-01
1994 1948 -3.6148146651212299e-05
1949 1949 4.0485670713063603e-02
1952 1949 -6.4211575097026705e-04
1991 1949 -6.5829166636282202e-05
1950 1950 5.5603065042835201e-02
1951 1950 -4.4887829053123699e-10
1991 1950 -3.9193064667237598e-05
1950 1951 -1.8225436437677702e-12
1951 1951 4.3686462423959703e-02
1991 1951 -3.9170591732876998e-05
2391 1951 -4.3554006968641097e-02
1949 1952 -6.3954203307110195e-04
1952 1952 5.3696939687720401e-02
1991 1952 -6.5831569979646394e-05
2391 1952 -5.2910052910052900e-02
1953 1953 2.8712696933276199e-01
1954 1953 -1.2255392615429701e-03
2348 1953 -1.2469915703336901e-04
1953 1954 -1.2204896140775999e-03
1954 1954 1.1138562256983500e-01
1955 1954 -1.0989010989011000e-01
2348 1954 -1.2470130325145499e-04
1954 1955 -1.0989010989011000e-01
1955 1955 2.2894678102825400e-01
1957 1955 -1.1904761904761900e-01
1991 1955 -1.0016144425841501e-06
2348 1955 -3.0048433277524500e-06
1956 1956 2.8577242289812999e-01
1957 1956 -1.6656239924205300e-11
1991 1956 -2.8571428571428598e-01
2349 1956 -3.6143903259291001e-05
1955 1957 -1.1904761904761900e-01
1956 1957 -1.8779064649942400e-09
1957 1957 1.1920332402505000e-01
2349 1957 -3.7262250095951798e-05
1958 1958 1.0189245458002399e-01
1959 1958 -1.3201958785566901e-09
2348 1958 -7.0346579629578703e-05
1958 1959 -1.3044229220092400e-09
1959 1959 8.7450707745827194e-02
1966 1959 -8.7108013937282194e-02
2348 1959 -7.0346543791770098e-05
1960 1960 1.0294347785300600e-01
1961 1960 -8.5656472399500000e-04
2349 1960 -2.2646538160128201e-04
1960 1961 -8.6560805981460197e-04
1961 1961 8.8492244444114104e-02
1966 1961 -8.7108013937282194e-02
2349 1961 -2.2643436526186700e-04
1962 1962 1.1920331424189100e-01
1963 1962 -1.9039991886719999e-09
1990 1962 -3.7257342106873699e-05
1962 1963 -1.6923569504186500e-11
1963 1963 1.0997829542577200e-01
1990 1963 -3.6145049086274901e-05
1991 1963 -1.0989010989011000e-01
1964 1964 1.0293361754633300e-01
1965 1964 -8.6528273567592099e-04
1990 1964 -2.2644795688115199e-04
1991 1964 -1.0162601626016300e-01
1964 1965 -8.5607023411162398e-04
1965 1965 1.5375448042892501e-01
1966 1965 -1.5243902439024401e-01
1990 1965 -2.2645179225373301e-04
1959 1966 -8.7108013937282194e-02
1961 1966 -8.7108013937282194e-02
1965 1966 -1.5243902439024401e-01
1966 1966 3.2671083592917000e-01
1990 1966 -1.9637903164915501e-05
2348 1966 -3.9814174092719904e-06
2349 1966 -5.9721261139079898e-06
1967 1967 2.8712710800006702e-01
1968 1967 -1.2256906031518099e-03
1992 1967 -1.2468329210774901e-04
1967 1968 -1.2216919392835199e-03
1968 1968 1.0353787324082800e-01
1969 1968 -1.0204081632653100e-01
1992 1968 -1.2471270432799899e-04
1968 1969 -1.0204081632653100e-01
1969 1969 2.2109748746467500e-01
1971 1969 -1.1904761904761900e-01
1990 1969 -1.0016144425841501e-06
1992 1969 -3.0048433277524500e-06
1970 1970 2.8714127065734502e-01
1971 1970 -1.2295649896097100e-03
1990 1970 -2.8571428571428598e-01
2346 1970 -1.2469978175461900e-04
1969 1971 -1.1904761904761900e-01
1970 1971 -1.2342751529867699e-03
1971 1971 1.2053448698460301e-01
2346 1971 -1.2469444996773599e-04
1972 1972 1.0189245408578100e-01
1973 1972 -8.0826503992976500e-10
1992 1972 -7.0346600262347607e-05
1972 1973 -3.2453298500290299e-12
1973 1973 8.7348659927246997e-02
1989 1973 -8.7108013937282194e-02
1992 1973 -7.0308600364808505e-05
1974 1974 2.8580466158982498e-01
1975 1974 -1.3364494291485601e-09
1974 1975 -1.8164696251258300e-11
1975 1975 1.0215522292011600e-01
1976 1975 -1.0204081632653100e-01
1975 1976 -1.0204081632653100e-01
1976 1976 2.6078100372129598e-01
1977 1976 -1.5873015873015900e-01
1976 1977 -1.5873015873015900e-01
1977 1977 1.5916061851994101e-01
1982 1977 -2.0356263887271001e-04
1978 1978 5.1152626821609599e-02
1981 1978 -1.2122913309382700e-04
1979 1979 5.1460798253879697e-02
1980 1979 -4.3156343394186702e-04
1979 1980 -4.3161423935846797e-04
1980 1980 4.1354921979677398e-02
2346 1980 -4.0650406504064998e-02
1978 1981 -1.2451635034611301e-04
1981 1981 4.1045625466032701e-02
2346 1981 -4.0650406504064998e-02
1977 1982 -6.0484005795838302e-06
1982 1982 2.8577708350562397e-01
2346 1982 -2.8571428571428598e-01
1983 1983 1.0189245357434699e-01
1984 1983 -6.3806695982789303e-10
2346 1983 -7.0345204596461699e-05
1983 1984 -2.5598561869849902e-12
1984 1984 8.7348659847371807e-02
1989 1984 -8.7108013937282194e-02
2346 1984 -7.0308114340541706e-05
1985 1985 1.1920331416625800e-01
1986 1985 -1.7899595905519000e-09
2349 1985 -3.7151157628771700e-05
1985 1986 -1.8804912324642301e-09
1986 1986 1.0220925934064100e-01
1990 1986 -1.0204081632653100e-01
2349 1986 -3.7317022952326802e-05
1987 1987 1.0181209705900400e-01
1988 1987 -1.2248586956254400e-10
1990 1987 -1.0162601626016300e-01
2349 1987 -7.0353301071914302e-05
1987 1988 -2.8916956729726100e-08
1988 1988 1.5263138084273500e-01
1989 1988 -1.5243902439024401e-01
2349 1988 -7.0361983064368502e-05
1973 1989 -8.7108013937282194e-02
1984 1989 -8.7108013937282194e-02
1988 1989 -1.5243902439024401e-01
1989 1989 3.2671083592917000e-01
1992 1989 -3.9814174092719904e-06
2346 1989 -5.9721261139079898e-06
2349 1989 -1.9637903164915501e-05
1962 1990 -3.5458759133765701e-05
1963 1990 -3.5455543401192003e-05
1964 1990 -2.2510386838015499e-04
1965 1990 -2.2514885497436400e-04
1966 1990 -1.9637903164915501e-05
1969 1990 -1.0016144425841501e-06
1970 1990 -2.8571428571428598e-01
1986 1990 -1.0204081632653100e-01
1987 1990 -1.0162601626016300e-01
1990 1990 4.9022917442580699e-01
1991 1990 -2.2160719542174299e-06
1992 1990 -3.1989061260031302e-06
1993 1990 -9.8909426205184702e-07
2346 1990 -4.2130407491195804e-06
2349 1990 -2.2160719542174299e-06
1949 1991 -6.5011536729863494e-05
1950 1991 -3.9160982393866699e-05
1951 1991 -3.9160258944000802e-05
1952 1991 -6.5121395615291302e-05
1955 1991 -1.0016144425841501e-06
1956 1991 -2.8571428571428598e-01
1963 1991 -1.0989010989011000e-01
1964 1991 -1.0162601626016300e-01
1990 1991 -2.2160719542174299e-06
1991 1991 4.9789690592368702e-01
1992 1991 -9.8909426205184702e-07
1993 1991 -9.8909426205184702e-07
2342 1991 -9.8909426205184702e-07
2346 1991 -9.8909426205184702e-07
2348 1991 -2.2160719542174299e-06
2349 1991 -4.2130407491195804e-06
1941 1992 -4.0650406504064998e-02
1943 1992 -4.0650406504064998e-02
1948 1992 -2.8571428571428598e-01
1967 1992 -1.2335295177408201e-04
1968 1992 -1.2452043367429101e-04
1969 1992 -3.0048433277524500e-06
1972 1992 -7.0288948553879501e-05
1973 1992 -7.0287638462805804e-05
1989 1992 -3.9814174092719904e-06
1990 1992 -3.1989061260031302e-06
1991 1992 -9.8909426205184702e-07
1992 1992 3.6789175995903800e-01
1993 1992 -2.9610226958893901e-06
1994 1992 -6.0973279192310098e-06
1995 1992 -9.8909426205184702e-07
2342 1992 -9.8909426205184702e-07
2346 1992 -9.8909426205184702e-07
2348 1992 -9.8909426205184702e-07
2349 1992 -9.8909426205184702e-07
1900 1993 -3.5144148415028301e-05
1901 1993 -3.5144145093314297e-05
1902 1993 -1.2392535231035400e-04
1903 1993 -1.2394667656313499e-04
1913 1993 -1.2393182838990301e-04
1914 1993 -1.2394018509782800e-04
1915 1993 -7.0288932290569602e-05
1916 1993 -7.0287654726115703e-05
1920 1993 -4.1441797561919198e-06
1921 1993 -1.9719284338375401e-06
1932 1993 -4.0650406504064998e-02
1934 1993 -4.0650406504064998e-02
1939 1993 -2.8571428571428598e-01
1990 1993 -9.8909426205184702e-07
1991 1993 -9.8909426205184702e-07
1992 1993 -2.9610226958893901e-06
1993 1993 3.6872100085164300e-01
1995 1993 -2.9422424250909400e-06
2340 1993 -6.0973279192310098e-06
2342 1993 -5.7655431351250098e-06
2343 1993 -1.6276234691992399e-06
2345 1993 -9.8909426205184702e-07
2346 1993 -9.8909426205184702e-07
2348 1993 -9.8909426205184702e-07
2349 1993 -9.8909426205184702e-07
2384 1993 -9.8909426205184702e-07
2390 1993 -1.9719284338375401e-06
2391 1993 -9.8909426205184702e-07
1797 1994 -1.1255777478805100e-04
1798 1994 -1.1256854538851100e-04
1803 1994 -4.9830318518561402e-06
1804 1994 -3.5458818963775598e-05
1805 1994 -3.5455483571182099e-05
1820 1994 -7.0864221812828501e-06
1849 1994 -4.8515699562669697e-06
1874 1994 -4.0650406504064998e-02
1876 1994 -4.0650406504064998e-02
1881 1994 -2.8571428571428598e-01
1896 1994 -9.8909426205184702e-07
1897 1994 -6.0973279192310098e-06
1940 1994 -1.1264198550574700e-04
1941 1994 -1.1248485370882300e-04
1946 1994 -4.9830318518561402e-06
1947 1994 -3.5458058568210101e-05
1948 1994 -3.5456243966747602e-05
1992 1994 -6.0973279192310098e-06
1994 1994 3.6821770402721099e-01
1995 1994 -9.8909426205184702e-07
2342 1994 -9.8909426205184702e-07
2343 1994 -9.8909426205184702e-07
2345 1994 -2.8796415224294300e-06
2346 1994 -9.8909426205184702e-07
2348 1994 -9.8909426205184702e-07
2349 1994 -9.8909426205184702e-07
2352 1994 -9.8909426205184702e-07
2371 1994 -9.8909426205184702e-07
1810 1995 -3.5457208362868500e-05
1811 1995 -3.5457094172089197e-05
1816 1995 -2.0695858419894999e-05
1817 1995 -7.0304999224307093e-05
1818 1995 -7.0271587792378198e-05
1819 1995 -3.9814174092719904e-06
1838 1995 -3.5457594514514803e-05
1839 1995 -3.5456708020443002e-05
1844 1995 -2.0695858419894999e-05
1845 1995 -2.2522382571709399e-04
1846 1995 -2.2502942676365400e-04
1847 1995 -3.9814174092719904e-06
1848 1995 -1.6276234691992399e-06
1849 1995 -1.6276234691992399e-06
1855 1995 -5.2910052910052900e-02
1857 1995 -5.2910052910052900e-02
1862 1995 -2.0325203252032500e-01
1863 1995 -4.5823860748224796e-06
1992 1995 -9.8909426205184702e-07
1993 1995 -2.9422424250909400e-06
1994 1995 -9.8909426205184702e-07
1995 1995 3.1043535984706999e-01
2342 1995 -9.8909426205184702e-07
2343 1995 -9.8909426205184702e-07
2346 1995 -1.9719284338375401e-06
2348 1995 -1.2645382337624900e-06
2349 1995 -9.8909426205184702e-07
1996 1996 5.0940743192497903e-02
1997 1996 -2.9777592524881502e-10
2365 1996 -3.5172394711317201e-05
1996 1997 -1.2070939307542499e-12
1997 1997 4.0768192523610400e-02
2052 1997 -4.0650406504064998e-02
2365 1997 -3.5152824763563799e-05
1998 1998 5.0940743419931600e-02
1999 1998 -3.7880787521484998e-10
2367 1998 -3.5173107304591201e-05
1998 1999 -1.5368199149319000e-12
1999 1999 4.0768192555473398e-02
2052 1999 -4.0650406504064998e-02
2367 1999 -3.5153043655838100e-05
2000 2000 2.8712856231731798e-01
2001 2000 -1.2271515599605800e-03
2367 2000 -1.2467918429449800e-04
2000 2001 -1.2234231084974801e-03
2001 2001 1.0354261197110801e-01
2002 2001 -1.0204081632653100e-01
2367 2001 -1.2471564987937600e-04
2001 2002 -1.0204081632653100e-01
2002 2002 2.6078100372129598e-01
2003 2002 -1.5873015873015900e-01
2365 2002 -4.9830318518561402e-06
2002 2003 -1.5873015873015900e-01
2003 2003 1.6019960739666500e-01
2004 2003 -1.2361676463361899e-03
2365 2003 -1.2469062180636399e-04
2003 2004 -1.2317194789378701e-03
2004 2004 2.8714342770722900e-01
2052 2004 -2.8571428571428598e-01
2365 2004 -1.2470136541549101e-04
2005 2005 6.8752756465629006e-02
2006 2005 -6.1264659361995105e-04
2364 2005 -6.2697300208470401e-05
2005 2006 -6.1238614661403496e-04
2006 2006 5.1772496970917799e-02
2037 2006 -5.1020408163265300e-02
2364 2006 -6.2747902787932804e-05
2007 2007 6.8752259352649794e-02
2008 2007 -6.1215107810198605e-04
2367 2007 -6.2697369839880807e-05
2007 2008 -6.1188453524882100e-04
2008 2008 5.1771991901775199e-02
2037 2008 -5.1020408163265300e-02
2367 2008 -6.2748091973744596e-05
2009 2009 2.0343573320329400e-01
2010 2009 -1.1824349991627900e-09
2367 2009 -7.0346275959809807e-05
2009 2010 -8.0035925832181404e-10
2010 2010 7.6566838875315499e-02
2011 2010 -7.6219512195121894e-02
2367 2010 -7.0345195007478906e-05
2010 2011 -7.6219512195121894e-02
2011 2011 1.9818783427392400e-01
2012 2011 -1.2195121951219499e-01
2364 2011 -1.2056933852606700e-05
2011 2012 -1.2195121951219499e-01
2012 2012 1.2223651392775800e-01
2013 2012 -5.3819516302939897e-10
2364 2012 -7.0345077757659705e-05
2012 2013 -2.1916051481448599e-12
2013 2013 2.0338942655270800e-01
2037 2013 -2.0325203252032500e-01
2364 2013 -7.0306060436597595e-05
2014 2014 3.9792375795290900e-02
2017 2014 -8.9504820004657499e-10
2037 2014 -1.9553414973250001e-05
2015 2015 5.6189025688667703e-02
2016 2015 -4.7705044372315302e-04
2037 2015 -1.2676254219737900e-04
2015 2016 -4.8203305740539200e-04
2016 2016 4.4329469494429098e-02
2036 2016 -4.3554006968641097e-02
2037 2016 -1.2673964074776399e-04
2014 2017 -7.8988941838676497e-12
2017 2017 5.2956686364491697e-02
2036 2017 -5.2910052910052900e-02
2037 2017 -1.8973588170883000e-05
2018 2018 5.0940743446688197e-02
2019 2018 -3.9843125940424898e-10
2036 2018 -3.5173262683654597e-05
2018 2019 -1.6166322437954699e-12
2019 2019 4.0768204818870300e-02
2036 2019 -3.5153092384345501e-05
2342 2019 -4.0650406504064998e-02
2020 2020 2.8580466158985401e-01
2021 2020 -1.3364788670408499e-09
2020 2021 -1.8164505864088999e-11
2021 2021 1.0215522059848900e-01
2022 2021 -1.0204081632653100e-01
2021 2022 -1.0204081632653100e-01
2022 2022 2.6078100372129598e-01
2023 2022 -1.5873015873015900e-01
2022 2023 -1.5873015873015900e-01
2023 2023 1.5916063362295901e-01
2028 2023 -2.0358095282917900e-04
2024 2024 5.1152093483456999e-02
2027 2024 -1.2099361837603500e-04
2025 2025 5.1460682498698500e-02
2026 2025 -4.3148648536493099e-04
2025 2026 -4.3256294366838399e-04
2026 2026 4.1355918945968802e-02
2365 2026 -4.0650406504064998e-02
2024 2027 -1.2527477340802800e-04
2027 2027 4.1046671543948199e-02
2365 2027 -4.0650406504064998e-02
2023 2028 -6.0447470295665297e-06
2028 2028 2.8577707155624499e-01
2365 2028 -2.8571428571428598e-01
2029 2029 5.0940743192458698e-02
2030 2029 -2.9773672411952801e-10
2365 2029 -3.5172394701063399e-05
2029 2030 -1.2068803677914899e-12
2030 2030 4.0768204785374601e-02
2342 2030 -4.0650406504064998e-02
2365 2030 -3.5152827724893697e-05
2031 2031 2.8713617373400602e-01
2032 2031 -1.2347717393183600e-03
2365 2031 -1.2469089662483701e-04
2031 2032 -1.2302531212511200e-03
2032 2032 1.0354939219691700e-01
2033 2032 -1.0204081632653100e-01
2365 2032 -1.2470720794904901e-04
2032 2033 -1.0204081632653100e-01
2033 2033 2.6078100372129598e-01
2034 2033 -1.5873015873015900e-01
2036 2033 -4.9830318518561402e-06
2033 2034 -1.5873015873015900e-01
2034 2034 1.6019468880176799e-01
2035 2034 -1.2210837776486900e-03
2036 2034 -1.2469983492495099e-04
2034 2035 -1.2260562200698600e-03
2035 2035 2.8712751863956498e-01
2036 2035 -1.2469827195408400e-04
2342 2035 -2.8571428571428598e-01
2016 2036 -4.3554006968641097e-02
2017 2036 -5.2910052910052900e-02
2018 2036 -3.5144467360077797e-05
2019 2036 -3.5143826148264801e-05
2033 2036 -4.9830318518561402e-06
2034 2036 -1.2400888918059401e-04
2035 2036 -1.2386328727047300e-04
2036 2036 9.7036530780939295e-02
2342 2036 -6.0973279192310098e-06
2345 2036 -4.0502784021996501e-06
2365 2036 -2.8045204392356201e-06
2006 2037 -5.1020408163265300e-02
2008 2037 -5.1020408163265300e-02
2013 2037 -2.0325203252032500e-01
2014 2037 -1.8615755015309699e-05
2015 2037 -1.2556048272624701e-04
2016 2037 -1.2529545454403101e-04
2017 2037 -1.8614253815543099e-05
2037 2037 3.0589884223575903e-01
2052 2037 -9.8909426205184702e-07
2343 2037 -9.8909426205184702e-07
2345 2037 -1.9719284338375401e-06
2364 2037 -4.5823860748224796e-06
2038 2038 3.9792375762374703e-02
2041 2038 -9.3366228710511800e-10
2052 2038 -1.9557234300670800e-05
2039 2039 5.6188558375807600e-02
2040 2039 -4.7657695929616002e-04
2052 2039 -1.2677255107287501e-04
2039 2040 -4.8142498022320099e-04
2040 2040 4.4328803491726097e-02
2051 2040 -4.3554006968641097e-02
2052 2040 -1.2672962623681201e-04
2038 2041 -8.2464762690906602e-12
2041 2041 5.2956688954681697e-02
2051 2041 -5.2910052910052900e-02
2052 2041 -1.8975106342810900e-05
2042 2042 6.8751317433006900e-02
2043 2042 -6.1119093336374204e-04
2051 2042 -6.2719023613196393e-05
2042 2043 -6.0951398592493599e-04
2043 2043 5.3657511863389698e-02
2051 2043 -6.2738376144758307e-05
2343 2043 -5.2910052910052900e-02
2044 2044 6.8752788373327198e-02
2045 2044 -6.1266263590571300e-04
2364 2044 -6.2718964442603204e-05
2044 2045 -6.1098926053602801e-04
2045 2045 5.3658992647504698e-02
2343 2045 -5.2910052910052900e-02
2364 2045 -6.2738180752345906e-05
2046 2046 2.0343573217489300e-01
2047 2046 -1.1426747999262201e-09
2364 2046 -7.0346098727228602e-05
2046 2047 -7.6374686555554098e-10
2047 2047 8.7448354990885102e-02
2048 2047 -8.7108013937282194e-02
2364 2047 -7.0344990723216806e-05
2047 2048 -8.7108013937282194e-02
2048 2048 2.0907633601608400e-01
2049 2048 -1.2195121951219499e-01
2051 2048 -1.2056933852606700e-05
2048 2049 -1.2195121951219499e-01
2049 2049 1.2223646702387100e-01
2050 2049 -5.8435712891277104e-10
2051 2049 -7.0345580697311707e-05
2049 2050 -2.3801330352554899e-12
2050 2050 2.0338944463092801e-01
2051 2050 -7.0306237454236803e-05
2343 2050 -2.0325203252032500e-01
2040 2051 -4.3554006968641097e-02
2041 2051 -5.2910052910052900e-02
2042 2051 -6.1520911968009499e-05
2043 2051 -6.2416148865807695e-05
2048 2051 -1.2056933852606700e-05
2049 2051 -7.0288768012577798e-05
2050 2051 -7.0287819004107493e-05
2051 2051 9.7036262662664005e-02
2343 2051 -5.5652202466081803e-06
2346 2051 -9.8909426205184702e-07
2348 2051 -9.8909426205184702e-07
2349 2051 -9.8909426205184702e-07
2364 2051 -7.9816150893424393e-06
2365 2051 -9.8909426205184702e-07
1997 2052 -4.0650406504064998e-02
1999 2052 -4.0650406504064998e-02
2004 2052 -2.8571428571428598e-01
2037 2052 -9.8909426205184702e-07
2038 2052 -1.8615787503874100e-05
2039 2052 -1.2567644987233700e-04
2040 2052 -1.2518030249004800e-04
2041 2052 -1.8614221326978698e-05
2052 2052 3.6766993937489101e-01
2339 2052 -1.9719284338375401e-06
2341 2052 -1.9719284338375401e-06
2343 2052 -9.8909426205184702e-07
2345 2052 -1.9719284338375401e-06
2365 2052 -6.0973279192310098e-06
2367 2052 -9.8909426205184702e-07
2053 2053 4.0486994879846798e-02
2056 2053 -6.4345630419800298e-04
2364 2053 -6.5791281617589106e-05
2054 2054 5.5603062665341603e-02
2055 2054 -4.1473641627265900e-10
2364 2054 -3.9192805550062900e-05
2054 2055 -1.6837081849828400e-12
2055 2055 4.3685231895873103e-02
2066 2055 -4.3554006968641097e-02
2364 2055 -3.9170502078803703e-05
2053 2056 -6.4335889709125004e-04
2056 2056 5.3700072580648898e-02
2066 2056 -5.2910052910052900e-02
2364 2056 -6.5848979573971997e-05
2057 2057 5.1462490458328299e-02
2058 2057 -4.3309416498757799e-04
2108 2057 -1.1388510428061700e-04
2057 2058 -4.2852976563649000e-04
2058 2058 4.1348180000049799e-02
2108 2058 -1.1388752019852501e-04
2368 2058 -4.0650406504064998e-02
2059 2059 5.1462095813625201e-02
2060 2059 -4.3269666287222802e-04
2066 2059 -1.1388509827131999e-04
2059 2060 -4.2813537181457398e-04
2060 2060 4.1347782795683803e-02
2066 2060 -1.1388751557030000e-04
2368 2060 -4.0650406504064998e-02
2061 2061 2.8580466171776903e-01
2062 2061 -1.4478276309786499e-09
2066 2061 -3.7146114922568200e-05
2061 2062 -7.3049937949608999e-10
2062 2062 1.1005431130405700e-01
2063 2062 -1.0989010989011000e-01
2066 2062 -3.7106431940741597e-05
2062 2063 -1.0989010989011000e-01
2063 2063 2.6863029728487497e-01
2064 2063 -1.5873015873015900e-01
2108 2063 -4.9830318518561402e-06
2063 2064 -1.5873015873015900e-01
2064 2064 1.5886396473593700e-01
2065 2064 -9.5659924959653599e-10
2108 2064 -3.7199923161817302e-05
2064 2065 -8.5967219487213202e-12
2065 2065 2.8577242061512997e-01
2108 2065 -3.6139022330981398e-05
2368 2065 -2.8571428571428598e-01
2055 2066 -4.3554006968641097e-02
2056 2066 -5.2910052910052900e-02
2059 2066 -1.1254434831977500e-04
2060 2066 -1.1258206730168400e-04
2061 2066 -3.5457752702024898e-05
2062 2066 -3.5456549832932799e-05
2066 2066 9.7070060819896095e-02
2108 2066 -3.7936147012874600e-06
2364 2066 -9.8909426205184702e-07
2369 2066 -9.8909426205184702e-07
2370 2066 -9.8909426205184702e-07
2067 2067 4.0451535116859103e-02
2079 2067 -6.0789735313003404e-04
2107 2067 -6.5803223574403098e-05
2068 2068 6.8091355034391093e-02
2076 2068 -8.9510739174584004e-10
2069 2069 6.8531277794355402e-02
2075 2069 -3.7176924982723701e-04
2070 2070 2.0386183269834299e-01
2071 2070 -2.4488187967759299e-04
2070 2071 -2.4710429522948100e-04
2071 2071 7.7000267687934901e-02
2072 2071 -7.6219512195121894e-02
2071 2072 -7.6219512195121894e-02
2072 2072 1.9818783427392400e-01
2073 2072 -1.2195121951219499e-01
2072 2073 -1.2195121951219499e-01
2073 2073 1.2328552070045901e-01
2074 2073 -8.4945236295599805e-04
2073 2074 -8.1035166105899504e-04
2074 2074 2.0441178725903200e-01
2107 2074 -2.0325203252032500e-01
2069 2075 -2.2661628520809399e-05
2075 2075 5.2977517313267497e-02
2107 2075 -5.2910052910052900e-02
2068 2076 -8.0565261845801599e-12
2076 2076 5.2955295561709699e-02
2107 2076 -5.2910052910052900e-02
2077 2077 5.5603064076295297e-02
2078 2077 -3.5412803274598500e-09
2107 2077 -3.9199460721746902e-05
2077 2078 -1.4480740304919400e-11
2078 2078 4.3685246376627199e-02
2107 2078 -3.9172550002478799e-05
2341 2078 -4.3554006968641097e-02
2067 2079 -6.0700077523673300e-04
2079 2079 5.3663554650756000e-02
2107 2079 -6.5843959725850494e-05
2341 2079 -5.2910052910052900e-02
2080 2080 4.0493156199163799e-02
2083 2080 -6.4422414217084095e-04
2365 2080 -6.5833442692453704e-05
2081 2081 5.5603064715241103e-02
2082 2081 -3.3593707393253901e-10
2365 2081 -3.9192110040698003e-05
2081 2082 -1.3626222491941601e-12
2082 2082 4.3685278620163498e-02
2365 2082 -3.9170299504133401e-05
2366 2082 -4.3554006968641097e-02
2080 2083 -6.4681354667333105e-04
2083 2083 5.3697898697794497e-02
2365 2083 -6.5828153714622201e-05
2366 2083 -5.2910052910052900e-02
2084 2084 4.0488418567284100e-02
2087 2084 -6.3949488956971195e-04
2106 2084 -6.5839483325790297e-05
2085 2085 5.5603065042055103e-02
2086 2085 -4.4657628402524299e-10
2106 2085 -3.9193048208790301e-05
2085 2086 -1.8130986383506800e-12
2086 2086 4.3685285237235097e-02
2106 2086 -3.9170589480181200e-05
2338 2086 -4.3554006968641097e-02
2084 2087 -6.4184373418845701e-04
2087 2087 5.3692878943004702e-02
2106 2087 -6.5822125494172706e-05
2338 2087 -5.2910052910052900e-02
2088 2088 5.1467089759181302e-02
2089 2088 -4.2847759510718599e-04
2108 2088 -1.1389151310733600e-04
2088 2089 -4.3301971915178601e-04
2089 2089 4.1346926297940900e-02
2106 2089 -4.0650406504064998e-02
2108 2089 -1.1388195371238100e-04
2090 2090 5.1465847454761002e-02
2091 2090 -4.2724373445598599e-04
2366 2090 -1.1389151209547101e-04
2090 2091 -4.3177734680427702e-04
2091 2091 4.1345693197436598e-02
2106 2091 -4.0650406504064998e-02
2366 2091 -1.1388195472442901e-04
2092 2092 2.8580466182613201e-01
2093 2092 -1.5692598248177400e-09
2366 2092 -3.7161453860218599e-05
2092 2093 -7.7549398461706795e-10
2093 2093 1.0220803540973500e-01
2094 2093 -1.0204081632653100e-01
2366 2093 -3.7120612095695097e-05
2093 2094 -1.0204081632653100e-01
2094 2094 2.6078100372129598e-01
2095 2094 -1.5873015873015900e-01
2108 2094 -4.9830318518561402e-06
2094 2095 -1.5873015873015900e-01
2095 2095 1.5886391194778501e-01
2096 2095 -9.4465190184921895e-10
2108 2095 -3.7199088857339503e-05
2095 2096 -8.4922438567885897e-12
2096 2096 2.8577242200180297e-01
2106 2096 -2.8571428571428598e-01
2108 2096 -3.6139093001205099e-05
2097 2097 6.8750522340357695e-02
2098 2097 -6.1042343052510495e-04
2337 2097 -6.2674763680947503e-05
2097 2098 -6.1161476582702800e-04
2098 2098 5.1771847987189000e-02
2108 2098 -5.1020408163265300e-02
2337 2098 -6.2758215884086904e-05
2099 2099 6.8718918286743105e-02
2100 2099 -5.7874466144083902e-04
2107 2099 -6.2671186936001506e-05
2099 2100 -5.8002091686712204e-04
2100 2100 5.1740181983111998e-02
2107 2100 -6.2761616116808401e-05
2108 2100 -5.1020408163265300e-02
2101 2101 2.0343573866847300e-01
2102 2101 -8.3605396309966992e-09
2107 2101 -7.0358077039069100e-05
2101 2102 -3.6152552048550401e-09
2102 2102 7.6564918844857596e-02
2103 2102 -7.6219512195121894e-02
2107 2102 -7.0355753576675101e-05
2102 2103 -7.6219512195121894e-02
2103 2103 1.9818783427392400e-01
2104 2103 -1.2195121951219499e-01
2337 2103 -1.2056933852606700e-05
2103 2104 -1.2195121951219499e-01
2104 2104 1.2223503544098201e-01
2105 2104 -4.5679354170824199e-10
2337 2104 -7.0345027836882503e-05
2104 2105 -1.8617231010916700e-12
2105 2105 2.0338940803901900e-01
2108 2105 -2.0325203252032500e-01
2337 2105 -7.0306302005663303e-05
2084 2106 -6.5357590594511303e-05
2085 2106 -3.9160980533539303e-05
2086 2106 -3.9160260804328198e-05
2087 2106 -6.4775899854387797e-05
2089 2106 -4.0650406504064998e-02
2091 2106 -4.0650406504064998e-02
2096 2106 -2.8571428571428598e-01
2106 2106 3.6759813955459902e-01
2107 2106 -9.8909426205184702e-07
2108 2106 -6.0973279192310098e-06
2337 2106 -9.8909426205184702e-07
2340 2106 -1.9719284338375401e-06
2364 2106 -9.8909426205184702e-07
2365 2106 -1.9719284338375401e-06
2067 2107 -6.4195740609035597e-05
2074 2107 -2.0325203252032500e-01
2075 2107 -5.2910052910052900e-02
2076 2107 -5.2910052910052900e-02
2077 2107 -3.9163491746021301e-05
2078 2107 -3.9157749591846200e-05
2079 2107 -6.5939212959139506e-05
2099 2107 -6.0038074192939000e-05
2100 2107 -6.3902634962726006e-05
2101 2107 -7.0292173571370395e-05
2102 2107 -7.0284413445314897e-05
2106 2107 -9.8909426205184702e-07
2107 2107 3.1013029261625102e-01
2337 2107 -9.9535435231799793e-06
2338 2107 -9.8909426205184702e-07
2340 2107 -1.9719284338375401e-06
2362 2107 -1.9719284338375401e-06
2363 2107 -1.9719284338375401e-06
2365 2107 -1.9719284338375401e-06
2057 2108 -1.1254439731151600e-04
2058 2108 -1.1258201784792400e-04
2063 2108 -4.9830318518561402e-06
2064 2108 -3.5457961214220201e-05
2065 2108 -3.5456341320737503e-05
2066 2108 -3.7936147012874600e-06
2088 2108 -1.1261851146232900e-04
2089 2108 -1.1250816096109000e-04
2094 2108 -4.9830318518561402e-06
2095 2108 -3.5457951144764698e-05
2096 2108 -3.5456351390193101e-05
2098 2108 -5.1020408163265300e-02
2100 2108 -5.1020408163265300e-02
2105 2108 -2.0325203252032500e-01
2106 2108 -6.0973279192310098e-06
2108 2108 3.0641247913197500e-01
2337 2108 -4.5823860748224796e-06
2364 2108 -9.8909426205184702e-07
2366 2108 -2.8796415224294300e-06
2367 2108 -1.9719284338375401e-06
2368 2108 -6.0973279192310098e-06
2369 2108 -1.9719284338375401e-06
2370 2108 -9.8909426205184702e-07
2109 2109 6.8754293870134098e-02
2110 2109 -6.0905197714972701e-04
2368 2109 -6.2734046752568098e-05
2109 2110 -6.1154181569685897e-04
2110 2110 5.3654350282206199e-02
2344 2110 -5.2910052910052900e-02
2368 2110 -6.2730764123779500e-05
2111 2111 6.8754862607652498e-02
2112 2111 -6.0961937859120498e-04
2367 2111 -6.2734045451404196e-05
2111 2112 -6.1211055096784602e-04
2112 2112 5.3654917653314302e-02
2344 2112 -5.2910052910052900e-02
2367 2112 -6.2730765425078399e-05
2113 2113 2.0343573319868999e-01
2114 2113 -1.1778307643139900e-09
2367 2113 -7.0346275982268702e-05
2113 2114 -7.8710044329312802e-10
2114 2114 8.7448356184997897e-02
2115 2114 -8.7108013937282194e-02
2367 2114 -7.0345164043004595e-05
2114 2115 -8.7108013937282194e-02
2115 2115 2.0907633601608400e-01
2116 2115 -1.2195121951219499e-01
2368 2115 -1.2056933852606700e-05
2115 2116 -1.2195121951219499e-01
2116 2116 1.2223646461048800e-01
2117 2116 -5.6902691980691400e-10
2368 2116 -7.0345430327804306e-05
2116 2117 -2.3173656601594098e-12
2117 2117 2.0338945705774900e-01
2344 2117 -2.0325203252032500e-01
2368 2117 -7.0306198427517799e-05
2118 2118 4.0489672153601400e-02
2121 2118 -6.4613942731316803e-04
2336 2118 -6.5806110507500001e-05
2119 2119 5.5603064702562301e-02
2120 2119 -3.5217930727245500e-10
2336 2119 -3.9192265772384101e-05
2119 2120 -1.4288724611533200e-12
2120 2120 4.7033843699602798e-02
2140 2120 -4.6904315196998100e-02
2336 2120 -3.9170340074082697e-05
2118 2121 -6.4507484080896297e-04
2121 2121 5.7933589767029198e-02
2140 2121 -5.7142857142857099e-02
2336 2121 -6.5842258357222102e-05
2122 2122 6.8091354972835194e-02
2123 2122 -8.3227569847081604e-10
2140 2122 -1.8572955748675099e-05
2122 2123 -8.8624849611532601e-10
2123 2123 5.2994929500602701e-02
2140 2123 -1.8677991342932099e-05
2204 2123 -5.2910052910052900e-02
2124 2124 6.8750585386144494e-02
2125 2124 -6.1045516816212700e-04
2337 2124 -6.2717340055477906e-05
2124 2125 -6.0888953797389703e-04
2125 2125 5.3657650415925497e-02
2204 2125 -5.2910052910052900e-02
2337 2125 -6.2738905828743795e-05
2126 2126 6.8534723853559396e-02
2134 2126 -3.7525539037523101e-04
2127 2127 6.8091355053581201e-02
2133 2127 -9.1429825848254403e-10
2128 2128 2.0447291571093501e-01
2129 2128 -8.6248607256692901e-04
2128 2129 -8.8529623033706500e-04
2129 2129 7.7645831656556002e-02
2130 2129 -7.6219512195121894e-02
2129 2130 -7.6219512195121894e-02
2130 2130 1.9818783427392400e-01
2131 2130 -1.2195121951219499e-01
2130 2131 -1.2195121951219499e-01
2131 2131 1.2270082882282200e-01
2132 2131 -2.6620711320349499e-04
2131 2132 -2.3617828608612999e-04
2132 2132 2.0384423245764199e-01
2337 2132 -2.0325203252032500e-01
2127 2133 -8.0782500387195496e-12
2133 2133 5.2954846142084400e-02
2337 2133 -5.2910052910052900e-02
2126 2134 -2.2404378442235399e-05
2134 2134 5.2976820001989298e-02
2337 2134 -5.2910052910052900e-02
2135 2135 2.0343573174240201e-01
2136 2135 -8.6289756616320195e-10
2337 2135 -7.0346973306231395e-05
2135 2136 -3.4673682836268801e-12
2136 2136 7.6460652721158498e-02
2137 2136 -7.6219512195121894e-02
2337 2136 -7.0308607904185898e-05
2136 2137 -7.6219512195121894e-02
2137 2137 1.9818783427392400e-01
2138 2137 -1.2195121951219499e-01
2140 2137 -1.2056933852606700e-05
2137 2138 -1.2195121951219499e-01
2138 2138 1.2215700294305799e-01
2139 2138 -1.8550899813455601e-08
2140 2138 -7.0361548807314697e-05
2138 2139 -7.8559443814906305e-11
2139 2139 2.0338944341076701e-01
2140 2139 -7.0353302090645395e-05
2204 2139 -2.0325203252032500e-01
2120 2140 -4.6904315196998100e-02
2121 2140 -5.7142857142857099e-02
2122 2140 -1.7728547736095399e-05
2123 2140 -1.7728603531383399e-05
2137 2140 -1.2056933852606700e-05
2138 2140 -7.0305044371704497e-05
2139 2140 -7.0271542644980794e-05
2140 2140 1.0450089222628900e-01
2204 2140 -4.5823860748224796e-06
2337 2140 -8.9644492611281306e-06
2340 2140 -1.9719284338375401e-06
2141 2141 5.1465978501239497e-02
2142 2141 -4.2737410431036498e-04
2342 2141 -1.1389119286951200e-04
2141 2142 -4.3191280603924398e-04
2142 2142 4.1343212228041000e-02
2203 2142 -4.0650406504064998e-02
2342 2142 -1.1388227400649500e-04
2143 2143 5.1466423673718301e-02
2144 2143 -4.2781643638408498e-04
2341 2143 -1.1389120441664500e-04
2143 2144 -4.3235802920104402e-04
2144 2144 4.1343653837685498e-02
2203 2144 -4.0650406504064998e-02
2341 2144 -1.1388226245740101e-04
2145 2145 2.8580466173665497e-01
2146 2145 -1.4665908822629000e-09
2341 2145 -3.7151073592816503e-05
2145 2146 -7.1235991193206398e-10
2146 2146 1.1005566187639200e-01
2147 2146 -1.0989010989011000e-01
2341 2146 -3.7109803547607400e-05
2146 2147 -1.0989010989011000e-01
2147 2147 2.6863029728487497e-01
2148 2147 -1.5873015873015900e-01
2342 2147 -4.9830318518561402e-06
2147 2148 -1.5873015873015900e-01
2148 2148 1.5886386998664900e-01
2149 2148 -1.0529056198690300e-09
2342 2148 -3.7218486463212203e-05
2148 2149 -9.4855664916718203e-12
2149 2149 2.8577242193390101e-01
2203 2149 -2.8571428571428598e-01
2342 2149 -3.6146956263903602e-05
2150 2150 4.0488421930833497e-02
2153 2150 -6.3949177142903204e-04
2202 2150 -6.5850356725837198e-05
2151 2151 5.5603065038205397e-02
2152 2151 -4.4582072699570298e-10
2202 2151 -3.9193043038489197e-05
2151 2152 -1.8099505709457999e-12
2152 2152 4.7033891294169301e-02
2202 2152 -3.9170590844046600e-05
2369 2152 -4.6904315196998100e-02
2150 2153 -6.4142411789775398e-04
2153 2153 5.7924245843468301e-02
2202 2153 -6.5811243003095006e-05
2369 2153 -5.7142857142857099e-02
2154 2154 1.0292772349640700e-01
2155 2154 -8.5677530288860704e-04
2341 2154 -2.2647299098737600e-04
2154 2155 -8.6571904366761795e-04
2155 2155 7.7605532765202795e-02
2339 2155 -7.6219512195121894e-02
2341 2155 -2.2642675305575800e-04
2156 2156 1.4292840267839099e-01
2157 2156 -1.1522695343135699e-11
2339 2156 -1.4285714285714299e-01
2341 2156 -3.6143561957879701e-05
2156 2157 -1.2867759482453900e-09
2157 2157 1.3001863549330900e-01
2167 2157 -1.2987012987013000e-01
2341 2157 -3.7227098172702601e-05
2158 2158 1.4298556730320500e-01
2159 2158 -1.7131939128837400e-09
2343 2158 -3.7154753183005802e-05
2158 2159 -1.1743900468956600e-09
2159 2159 1.1005721531881800e-01
2167 2159 -1.0989010989011000e-01
2343 2159 -3.7129900738990200e-05
2160 2160 1.4298556734527701e-01
2161 2160 -1.7743763863339201e-09
2201 2160 -3.7160758528319599e-05
2160 2161 -1.2163817018664001e-09
2161 2161 1.1005721532805400e-01
2167 2161 -1.0989010989011000e-01
2201 2161 -3.7135838295079399e-05
2162 2162 1.0292658914750499e-01
2163 2162 -8.5565803216723104e-04
2201 2162 -2.2646246752236601e-04
2162 2163 -8.6473383396620405e-04
2163 2163 7.7604621061181295e-02
2164 2163 -7.6219512195121894e-02
2201 2163 -2.2643728012642199e-04
2163 2164 -7.6219512195121894e-02
2164 2164 1.7787602135497099e-01
2165 2164 -1.0162601626016300e-01
2343 2164 -2.0695858419894999e-05
2164 2165 -1.0162601626016300e-01
2165 2165 1.0292702475942800e-01
2166 2165 -8.5615039659624203e-04
2343 2165 -2.2646041074581000e-04
2165 2166 -8.6525059206295403e-04
2166 2166 1.0291758838546800e-01
2339 2166 -1.0162601626016300e-01
2343 2166 -2.2643933735938001e-04
2157 2167 -1.2987012987013000e-01
2159 2167 -1.0989010989011000e-01
2161 2167 -1.0989010989011000e-01
2167 2167 3.4968928741180499e-01
2201 2167 -4.1441797561919198e-06
2341 2167 -6.5230140573292702e-06
2343 2167 -3.9814174092719904e-06
2168 2168 2.8712694456970900e-01
2169 2168 -1.2255143937586600e-03
2339 2168 -1.2469921852943400e-04
2168 2169 -1.2204607233637600e-03
2169 2169 1.1138707695260000e-01
2170 2169 -1.0989010989011000e-01
2339 2169 -1.2470125920396500e-04
2169 2170 -1.0989010989011000e-01
2170 2170 2.2894678102825400e-01
2172 2170 -1.1904761904761900e-01
2202 2170 -1.0016144425841501e-06
2339 2170 -3.0048433277524500e-06
2171 2171 2.8577242173086198e-01
2172 2171 -1.6828643964592399e-11
2202 2171 -2.8571428571428598e-01
2204 2171 -3.6144532665435101e-05
2170 2172 -1.1904761904761900e-01
2171 2172 -1.8969644361002400e-09
2172 2172 1.1920332356785100e-01
2204 2172 -3.7263640226584203e-05
2173 2173 1.0189245458505200e-01
2174 2173 -1.3210912665597901e-09
2339 2173 -7.0346584255092705e-05
2173 2174 -1.3128409541924701e-09
2174 2174 7.6563971133763398e-02
2181 2174 -7.6219512195121894e-02
2339 2174 -7.0346565569073705e-05
2175 2175 1.0294330206747200e-01
2176 2175 -8.5639704869182201e-04
2204 2175 -2.2645796255984599e-04
2175 2176 -8.6553765662807699e-04
2176 2176 7.7605446804820205e-02
2181 2176 -7.6219512195121894e-02
2204 2176 -2.2644178598277401e-04
2177 2177 1.1920331430427300e-01
2178 2177 -1.9740638132193000e-09
2200 2177 -3.7263592867185201e-05
2177 2178 -1.7555917693374300e-11
2178 2178 1.0997966148986400e-01
2200 2178 -3.6147389252839100e-05
2202 2178 -1.0989010989011000e-01
2179 2179 1.0294237727367100e-01
2180 2179 -8.5551793539211704e-04
2200 2179 -2.2645112328988600e-04
2202 2179 -1.0162601626016300e-01
2179 2180 -8.6473968036227401e-04
2180 2180 1.5374470355860501e-01
2181 2180 -1.5243902439024401e-01
2200 2180 -2.2644862586531801e-04
2174 2181 -7.6219512195121894e-02
2176 2181 -7.6219512195121894e-02
2180 2181 -1.5243902439024401e-01
2181 2181 3.0493383244485001e-01
2200 2181 -1.9637903164915501e-05
2204 2181 -5.9721261139079898e-06
2339 2181 -3.9814174092719904e-06
2182 2182 4.0498196791849697e-02
2185 2182 -6.4925409293070701e-04
2340 2182 -6.5833569009702005e-05
2183 2183 5.5603064969195599e-02
2184 2183 -2.4781571947234799e-10
2340 2183 -3.9191314678213701e-05
2183 2184 -1.0041043517794400e-12
2184 2184 4.7033873409526902e-02
2201 2184 -4.6904315196998100e-02
2340 2184 -3.9169985922096301e-05
2182 2185 -6.5185081875155000e-04
2185 2185 5.7934812250542603e-02
2201 2185 -5.7142857142857099e-02
2340 2185 -6.5828041813670995e-05
2186 2186 2.8713235367696299e-01
2187 2186 -1.2206517195206400e-03
2203 2186 -1.2470722280691999e-04
2186 2187 -1.2255207709511099e-03
2187 2187 1.1138179800063100e-01
2188 2187 -1.0989010989011000e-01
2203 2187 -1.2469358921208301e-04
2187 2188 -1.0989010989011000e-01
2188 2188 2.2894678102825400e-01
2190 2188 -1.1904761904761900e-01
2200 2188 -1.0016144425841501e-06
2203 2188 -3.0048433277524500e-06
2189 2189 2.8714536975877802e-01
2190 2189 -1.2440201402170901e-03
2200 2189 -2.8571428571428598e-01
2340 2189 -1.2469808089465799e-04
2188 2190 -1.1904761904761900e-01
2189 2190 -1.2389390625608301e-03
2190 2190 1.2054926911742100e-01
2340 2190 -1.2470273176682099e-04
2191 2191 1.0189245408090999e-01
2192 2191 -8.0575922842343201e-10
2203 2191 -7.0346583146679606e-05
2191 2192 -3.2350608483922301e-12
2192 2192 7.6461146522413398e-02
2199 2192 -7.6219512195121894e-02
2203 2192 -7.0308606552358299e-05
2193 2193 1.0189245390762799e-01
2194 2193 -4.4647494114724000e-10
2340 2193 -7.0343457041537904e-05
2193 2194 -1.7888140076664101e-12
2194 2194 7.6461146570624597e-02
2199 2194 -7.6219512195121894e-02
2340 2194 -7.0307378963310402e-05
2195 2195 1.1920331418607000e-01
2196 2195 -1.8079110541194500e-09
2204 2195 -3.7153070366900703e-05
2195 2196 -1.7860590388143499e-09
2196 2196 1.1005949432420301e-01
2200 2196 -1.0989010989011000e-01
2204 2196 -3.7152175031408298e-05
2197 2197 1.0181212059541400e-01
2198 2197 -1.2674916490124800e-10
2200 2197 -1.0162601626016300e-01
2204 2197 -7.0353324030113595e-05
2197 2198 -2.9923225404841599e-08
2198 2198 1.5263141345289699e-01
2199 2198 -1.5243902439024401e-01
2204 2198 -7.0362018853470598e-05
2192 2199 -7.6219512195121894e-02
2194 2199 -7.6219512195121894e-02
2198 2199 -1.5243902439024401e-01
2199 2199 3.0493383244485001e-01
2203 2199 -3.9814174092719904e-06
2204 2199 -1.9637903164915501e-05
2340 2199 -5.9721261139079898e-06
2177 2200 -3.5458818484235403e-05
2178 2200 -3.5455484050722301e-05
2179 2200 -2.2514096941556101e-04
2180 2200 -2.2511169831410701e-04
2181 2200 -1.9637903164915501e-05
2188 2200 -1.0016144425841501e-06
2189 2200 -2.8571428571428598e-01
2196 2200 -1.0989010989011000e-01
2197 2200 -1.0162601626016300e-01
2200 2200 4.9810119792349200e-01
2201 2200 -1.9719284338375401e-06
2202 2200 -3.1989061260031302e-06
2203 2200 -3.1989061260031302e-06
2204 2200 -7.9816150893424393e-06
2340 2200 -6.1849691829571196e-06
2160 2201 -3.5457618987752699e-05
2161 2201 -3.5456683547204997e-05
2162 2201 -2.2527443049879099e-04
2163 2201 -2.2497917991929299e-04
2167 2201 -4.1441797561919198e-06
2184 2201 -4.6904315196998100e-02
2185 2201 -5.7142857142857099e-02
2200 2201 -1.9719284338375401e-06
2201 2201 1.0497818332918300e-01
2202 2201 -2.2724127666127902e-06
2203 2201 -1.9719284338375401e-06
2204 2201 -1.9719284338375401e-06
2339 2201 -1.9719284338375401e-06
2340 2201 -1.9719284338375401e-06
2341 2201 -1.9719284338375401e-06
2343 2201 -6.4478929741354603e-07
2150 2202 -6.5722379920642098e-05
2151 2202 -3.9160979923057098e-05
2152 2202 -3.9160261414810403e-05
2153 2202 -6.4411965864552594e-05
2170 2202 -1.0016144425841501e-06
2171 2202 -2.8571428571428598e-01
2178 2202 -1.0989010989011000e-01
2179 2202 -1.0162601626016300e-01
2200 2202 -3.1989061260031302e-06
2201 2202 -2.2724127666127902e-06
2202 2202 4.9782703477979201e-01
2203 2202 -2.5728970993880302e-06
2204 2202 -5.1958749209052700e-06
2339 2202 -2.2160719542174299e-06
2340 2202 -1.9719284338375401e-06
2341 2202 -9.8909426205184702e-07
2142 2203 -4.0650406504064998e-02
2144 2203 -4.0650406504064998e-02
2149 2203 -2.8571428571428598e-01
2186 2203 -1.2416875144043000e-04
2187 2203 -1.2370380328475899e-04
2188 2203 -3.0048433277524500e-06
2191 2203 -7.0288946517523798e-05
2192 2203 -7.0287640499161493e-05
2199 2203 -3.9814174092719904e-06
2200 2203 -3.1989061260031302e-06
2201 2203 -1.9719284338375401e-06
2202 2203 -2.5728970993880302e-06
2203 2203 3.6778015565498701e-01
2204 2203 -9.8909426205184702e-07
2340 2203 -1.9719284338375401e-06
2341 2203 -9.8909426205184702e-07
2342 2203 -6.0973279192310098e-06
2123 2204 -5.2910052910052900e-02
2125 2204 -5.2910052910052900e-02
2139 2204 -2.0325203252032500e-01
2140 2204 -4.5823860748224796e-06
2171 2204 -3.5455552121733300e-05
2172 2204 -3.5458750413224498e-05
2175 2204 -2.2522152681408699e-04
2176 2204 -2.2503170971566300e-04
2181 2204 -5.9721261139079898e-06
2195 2204 -3.5457169561518800e-05
2196 2204 -3.5457132973438897e-05
2197 2204 -7.0261279581757793e-05
2198 2204 -7.0315307434927498e-05
2199 2204 -1.9637903164915501e-05
2200 2204 -7.9816150893424393e-06
2201 2204 -1.9719284338375401e-06
2202 2204 -5.1958749209052700e-06
2203 2204 -9.8909426205184702e-07
2204 2204 3.1040033272567402e-01
2339 2204 -9.8909426205184702e-07
2340 2204 -2.9610226958893901e-06
2341 2204 -1.9719284338375401e-06
2205 2205 1.0187648065725900e-01
2206 2205 -4.2586756649841799e-10
2363 2205 -7.0342990058254806e-05
2205 2206 -1.7295279315403400e-12
2206 2206 7.6452052425030795e-02
2351 2206 -7.6219512195121894e-02
2363 2206 -7.0304960845526498e-05
2207 2207 1.4432876130004499e-01
2208 2207 -1.2466081155665400e-03
2351 2207 -1.4285714285714299e-01
2363 2207 -1.2466124773454401e-04
2207 2208 -1.2436422949933801e-03
2208 2208 1.3137143361493900e-01
2218 2208 -1.2987012987013000e-01
2363 2208 -1.2473270170439599e-04
2209 2209 1.4430805026960500e-01
2210 2209 -1.2257322377603800e-03
2335 2209 -1.2467601444854701e-04
2209 2210 -1.2222153100948799e-03
2210 2210 1.1138896003151599e-01
2218 2210 -1.0989010989011000e-01
2335 2210 -1.2471790743065800e-04
2211 2211 1.4426961910986200e-01
2212 2211 -1.1872036070667399e-03
2362 2211 -1.2467490905989899e-04
2211 2212 -1.1837966035705600e-03
2212 2212 1.1135045444092900e-01
2218 2212 -1.0989010989011000e-01
2362 2212 -1.2471872340519101e-04
2213 2213 1.0187648018643000e-01
2214 2213 -3.8567874330411996e-09
2362 2213 -7.0353488082918600e-05
2213 2214 -2.0371733220769399e-09
2214 2214 7.6560453684855104e-02
2215 2214 -7.6219512195121894e-02
2362 2214 -7.0351674962604801e-05
2214 2215 -7.6219512195121894e-02
2215 2215 1.7787602135497099e-01
2216 2215 -1.0162601626016300e-01
2335 2215 -2.0695858419894999e-05
2215 2216 -1.0162601626016300e-01
2216 2216 1.0187412699221400e-01
2217 2216 -4.8013615962040900e-10
2335 2216 -7.0344979302447704e-05
2216 2217 -1.9557375548789602e-12
2217 2217 1.0180246709387700e-01
2335 2217 -7.0306218041713795e-05
2351 2217 -1.0162601626016300e-01
2208 2218 -1.2987012987013000e-01
2210 2218 -1.0989010989011000e-01
2212 2218 -1.0989010989011000e-01
2218 2218 3.4968928741180499e-01
2335 2218 -3.9814174092719904e-06
2362 2218 -4.1441797561919198e-06
2363 2218 -6.5230140573292702e-06
2219 2219 5.0940743445765997e-02
2220 2219 -3.9433885367519402e-10
2261 2219 -3.5173239184355702e-05
2219 2220 -1.5999954743878600e-12
2220 2220 4.0766665175612997e-02
2246 2220 -4.0650406504064998e-02
2261 2220 -3.5153081896336298e-05
2221 2221 2.8580466158988499e-01
2222 2221 -1.3365097074998800e-09
2221 2222 -1.8164306439222801e-11
2222 2222 1.1000460858751400e-01
2223 2222 -1.0989010989011000e-01
2222 2223 -1.0989010989011000e-01
2223 2223 2.6863029728487497e-01
2224 2223 -1.5873015873015900e-01
2223 2224 -1.5873015873015900e-01
2224 2224 1.5916051763466799e-01
2229 2224 -2.0346538307348399e-04
2225 2225 5.1152573796401701e-02
2228 2225 -1.2120455644617000e-04
2226 2226 5.1460787570835498e-02
2227 2226 -4.3155628629861599e-04
2226 2227 -4.3170018984178799e-04
2227 2227 4.1352375943771599e-02
2336 2227 -4.0650406504064998e-02
2225 2228 -1.2458559253050199e-04
2228 2228 4.1043084640408803e-02
2336 2228 -4.0650406504064998e-02
2224 2229 -6.0446630919724802e-06
2229 2229 2.8577707896626597e-01
2336 2229 -2.8571428571428598e-01
2230 2230 5.0940743186723501e-02
2231 2230 -3.1204544747551800e-10
2336 2230 -3.5172534340709200e-05
2230 2231 -1.2651024704131500e-12
2231 2231 4.0766665137923999e-02
2246 2231 -4.0650406504064998e-02
2336 2231 -3.5152869532046102e-05
2232 2232 2.8713468583212498e-01
2233 2232 -1.2332842606667400e-03
2336 2232 -1.2468579675996999e-04
2232 2233 -1.2291084285711400e-03
2233 2233 1.1139581721183400e-01
2234 2233 -1.0989010989011000e-01
2336 2233 -1.2471086598908100e-04
2233 2234 -1.0989010989011000e-01
2234 2234 2.6863029728487497e-01
2235 2234 -1.5873015873015900e-01
2261 2234 -4.9830318518561402e-06
2234 2235 -1.5873015873015900e-01
2235 2235 1.6019027955489901e-01
2236 2235 -1.2268594554103900e-03
2261 2235 -1.2469881648428900e-04
2235 2236 -1.2218683731225000e-03
2236 2236 2.8713355728716200e-01
2246 2236 -2.8571428571428598e-01
2261 2236 -1.2469738649183401e-04
2237 2237 6.8091355039323703e-02
2238 2237 -8.9858239057129003e-10
2246 2237 -1.8627178332723801e-05
2237 2238 -7.9323989267799406e-12
2238 2238 5.2954832206900698e-02
2246 2238 -1.8071940092828700e-05
2335 2238 -5.2910052910052900e-02
2239 2239 6.8091355070598103e-02
2240 2239 -9.3175808146231101e-10
2338 2239 -1.8630315439687499e-05
2239 2240 -8.2302564176787493e-12
2240 2240 5.2954832207023697e-02
2335 2240 -5.2910052910052900e-02
2338 2240 -1.8073139327813699e-05
2241 2241 2.0448562533909900e-01
2242 2241 -8.5545068811876401e-04
2338 2241 -2.2645485773296100e-04
2241 2242 -8.6462588235827699e-04
2242 2242 7.7604561416028200e-02
2243 2242 -7.6219512195121894e-02
2338 2242 -2.2644489119899201e-04
2242 2243 -7.6219512195121894e-02
2243 2243 1.9818783427392400e-01
2244 2243 -1.2195121951219499e-01
2246 2243 -1.2056933852606700e-05
2243 2244 -1.2195121951219499e-01
2244 2244 1.2328886813117100e-01
2245 2244 -8.5605806813519696e-04
2246 2244 -2.2645617671701799e-04
2244 2245 -8.6521756807195996e-04
2245 2245 2.0447686873761900e-01
2246 2245 -2.2644357207213901e-04
2335 2245 -2.0325203252032500e-01
2220 2246 -4.0650406504064998e-02
2231 2246 -4.0650406504064998e-02
2236 2246 -2.8571428571428598e-01
2237 2246 -1.7729328804211400e-05
2238 2246 -1.7727822463267401e-05
2243 2246 -1.2056933852606700e-05
2244 2246 -2.2520046295759600e-04
2245 2246 -2.2505262502008400e-04
2246 2246 3.6788092167160102e-01
2261 2246 -6.0973279192310098e-06
2335 2246 -4.5823860748224796e-06
2336 2246 -1.9719284338375401e-06
2337 2246 -9.8909426205184702e-07
2338 2246 -7.9816150893424393e-06
2340 2246 -9.8909426205184702e-07
2247 2247 3.9792375799406601e-02
2250 2247 -9.4358107651451093e-10
2260 2247 -1.9558206316146901e-05
2248 2248 5.6188491638302099e-02
2249 2248 -4.7652858285416499e-04
2260 2248 -1.2675318611062600e-04
2248 2249 -4.8163055306753901e-04
2249 2249 4.4329128631277498e-02
2260 2249 -1.2674899900198201e-04
2261 2249 -4.3554006968641097e-02
2247 2250 -8.3338531635501602e-12
2250 2250 5.2956683951720998e-02
2260 2250 -1.8975386190388100e-05
2261 2250 -5.2910052910052900e-02
2251 2251 6.8760883581040502e-02
2252 2251 -6.2077793540068799e-04
2340 2251 -6.2721544430694901e-05
2251 2252 -6.1892591828574702e-04
2252 2252 5.3667688310747301e-02
2260 2252 -5.2910052910052900e-02
2340 2252 -6.2737156765055194e-05
2253 2253 6.8750591007976897e-02
2254 2253 -6.1045795229780302e-04
2337 2253 -6.2721227265515893e-05
2253 2254 -6.0863902797199897e-04
2254 2254 5.3657379749998603e-02
2260 2254 -5.2910052910052900e-02
2337 2254 -6.2737163156683604e-05
2255 2255 2.0343573222749500e-01
2256 2255 -1.3479854923565100e-09
2337 2255 -7.0346921552484395e-05
2255 2256 -9.8371085472671492e-10
2256 2256 7.6562049166888996e-02
2257 2256 -7.6219512195121894e-02
2337 2256 -7.0346019926721494e-05
2256 2257 -7.6219512195121894e-02
2257 2257 1.9818783427392400e-01
2258 2257 -1.2195121951219499e-01
2340 2257 -1.2056933852606700e-05
2257 2258 -1.2195121951219499e-01
2258 2258 1.2223684906045100e-01
2259 2258 -3.4326373760873399e-10
2340 2258 -7.0342227337383305e-05
2258 2259 -1.3952001021903199e-12
2259 2259 2.0338944655968300e-01
2260 2259 -2.0325203252032500e-01
2340 2259 -7.0305123048539699e-05
2247 2260 -1.8615795848236600e-05
2248 2260 -1.2545178425401300e-04
2249 2260 -1.2540338731564500e-04
2250 2260 -1.8614212982616202e-05
2252 2260 -5.2910052910052900e-02
2254 2260 -5.2910052910052900e-02
2259 2260 -2.0325203252032500e-01
2260 2260 3.0973134801444402e-01
2336 2260 -9.8909426205184702e-07
2339 2260 -9.8909426205184702e-07
2340 2260 -4.5823860748224796e-06
2341 2260 -9.8909426205184702e-07
2345 2260 -9.8909426205184702e-07
2353 2260 -9.8909426205184702e-07
2365 2260 -9.8909426205184702e-07
2369 2260 -9.8909426205184702e-07
2219 2261 -3.5144464056872303e-05
2220 2261 -3.5143829451470397e-05
2234 2261 -4.9830318518561402e-06
2235 2261 -1.2388181071787299e-04
2236 2261 -1.2399032171709601e-04
2246 2261 -6.0973279192310098e-06
2249 2261 -4.3554006968641097e-02
2250 2261 -5.2910052910052900e-02
2261 2261 9.7112507646982205e-02
2336 2261 -2.8796415224294300e-06
2339 2261 -9.8909426205184702e-07
2341 2261 -9.8909426205184702e-07
2345 2261 -9.8909426205184702e-07
2353 2261 -9.8909426205184702e-07
2365 2261 -9.8909426205184702e-07
2369 2261 -9.8909426205184702e-07
2262 2262 4.0465538628991798e-02
2265 2262 -6.2195836564065299e-04
2362 2262 -6.5774382522322002e-05
2263 2263 5.5603063381220598e-02
2264 2263 -1.5156712795901100e-09
2362 2263 -3.9196912282086702e-05
2263 2264 -6.1805584603616497e-12
2264 2264 4.7033811405433203e-02
2284 2264 -4.6904315196998100e-02
2362 2264 -3.9171758475129201e-05
2262 2265 -6.2287696099012099e-04
2265 2265 5.7911498648571098e-02
2284 2265 -5.7142857142857099e-02
2362 2265 -6.5858035694595302e-05
2266 2266 2.8665740879758600e-01
2267 2266 -7.5526791685563298e-04
2266 2267 -7.7697967643469798e-04
2267 2267 1.1094486916258500e-01
2268 2267 -1.0989010989011000e-01
2267 2268 -1.0989010989011000e-01
2268 2268 2.6863029728487497e-01
2269 2268 -1.5873015873015900e-01
2268 2269 -1.5873015873015900e-01
2269 2269 1.5886899045040700e-01
2274 2269 -5.4204288049943098e-09
2270 2270 5.1459800742752498e-02
2273 2270 -4.3090263959297102e-04
2271 2271 5.1148148392540803e-02
2272 2271 -1.1927291516000100e-04
2271 2272 -1.3092949292996099e-04
2272 2272 4.1051845206805798e-02
2363 2272 -4.0650406504064998e-02
2270 2273 -4.3956311765841602e-04
2273 2273 4.1360735235975103e-02
2363 2273 -4.0650406504064998e-02
2269 2274 -3.1919535281127097e-11
2274 2274 2.8577230315283098e-01
2363 2274 -2.8571428571428598e-01
2275 2275 5.0940743460775803e-02
2276 2275 -3.1128568379192699e-10
2363 2275 -3.5171173632017698e-05
2275 2276 -3.2722085172746801e-10
2276 2276 4.0822764540960697e-02
2334 2276 -4.0650406504064998e-02
2363 2276 -3.5327444706083402e-05
2277 2277 5.1462337212151502e-02
2278 2277 -4.3295729117697401e-04
2284 2277 -1.1386650485001499e-04
2277 2278 -4.2886939421289899e-04
2278 2278 4.1349410266777402e-02
2284 2278 -1.1389593213693600e-04
2334 2278 -4.0650406504064998e-02
2279 2279 2.8580466189986398e-01
2280 2279 -1.6292226114984899e-09
2284 2279 -3.7231882022735702e-05
2279 2280 -1.5340271479883100e-11
2280 2280 1.0998258894596000e-01
2281 2280 -1.0989010989011000e-01
2284 2280 -3.6185715420424901e-05
2280 2281 -1.0989010989011000e-01
2281 2281 2.6863029728487497e-01
2282 2281 -1.5873015873015900e-01
2363 2281 -4.9830318518561402e-06
2281 2282 -1.5873015873015900e-01
2282 2282 1.5881275289811300e-01
2283 2282 -3.4743801044313597e-08
2363 2282 -3.8114100121433498e-05
2282 2283 -7.9476550037235396e-10
2283 2283 2.8577241734867398e-01
2334 2283 -2.8571428571428598e-01
2363 2283 -3.7929297471424597e-05
2264 2284 -4.6904315196998100e-02
2265 2284 -5.7142857142857099e-02
2277 2284 -1.1233045898650000e-04
2278 2284 -1.1279747105177101e-04
2279 2284 -3.5458523567240003e-05
2280 2284 -3.5455778967717700e-05
2284 2284 1.0459174536749900e-01
2363 2284 -2.8796415224294300e-06
2369 2284 -3.4305294658507100e-06
2285 2285 2.8712685413991501e-01
2286 2285 -1.2254623730862100e-03
2339 2285 -1.2464960464931600e-04
2285 2286 -1.2236885345552600e-03
2286 2286 1.1139057893368400e-01
2287 2286 -1.0989010989011000e-01
2339 2286 -1.2473694851592899e-04
2286 2287 -1.0989010989011000e-01
2287 2287 2.2894678102825400e-01
2289 2287 -1.1904761904761900e-01
2333 2287 -1.0016144425841501e-06
2339 2287 -3.0048433277524500e-06
2288 2288 2.8714601676249202e-01
2289 2288 -1.2343169209625699e-03
2333 2288 -2.8571428571428598e-01
2336 2288 -1.2471581011415901e-04
2287 2289 -1.1904761904761900e-01
2288 2289 -1.2365957257885500e-03
2289 2289 1.2053707870800100e-01
2336 2289 -1.2465896651386499e-04
2290 2290 1.0189245456347100e-01
2291 2290 -1.2995227674458600e-09
2339 2290 -7.0346584691218504e-05
2290 2291 -1.0451475704713201e-09
2291 2291 7.6562627870520997e-02
2298 2291 -7.6219512195121894e-02
2339 2291 -7.0345951085901799e-05
2292 2292 1.0189245393144900e-01
2293 2292 -1.0143470719671301e-09
2336 2292 -7.0345126008687796e-05
2292 2293 -8.1565502613563701e-10
2293 2293 7.6562627004615497e-02
2298 2293 -7.6219512195121894e-02
2336 2293 -7.0344508189068398e-05
2294 2294 1.2052372889136000e-01
2295 2294 -1.2236982211299701e-03
2337 2294 -1.2460821558604100e-04
2294 2295 -1.2246408880278599e-03
2295 2295 1.1139176741974000e-01
2333 2295 -1.0989010989011000e-01
2337 2295 -1.2476642294780501e-04
2296 2296 1.0181204607262900e-01
2297 2296 -2.9546195476968100e-12
2333 2296 -1.0162601626016300e-01
2337 2296 -7.0306307031811204e-05
2296 2297 -7.2532109506506701e-10
2297 2297 1.5270306167729000e-01
2298 2297 -1.5243902439024401e-01
2337 2297 -7.0346341694498603e-05
2291 2298 -7.6219512195121894e-02
2293 2298 -7.6219512195121894e-02
2297 2298 -1.5243902439024401e-01
2298 2298 3.0493383244485001e-01
2336 2298 -5.9721261139079898e-06
2337 2298 -1.9637903164915501e-05
2339 2298 -3.9814174092719904e-06
2299 2299 4.0488407616027802e-02
2302 2299 -6.3948629728649597e-04
2335 2299 -6.5835480297136097e-05
2300 2300 5.5603065032606799e-02
2301 2300 -4.4712020003558698e-10
2335 2300 -3.9193052058309299e-05
2300 2301 -1.8153404329123201e-12
2301 2301 4.7033875370542703e-02
2332 2301 -4.6904315196998100e-02
2335 2301 -3.9170589574606400e-05
2299 2302 -6.4198850262977105e-04
2302 2302 5.7924955121212103e-02
2332 2302 -5.7142857142857099e-02
2335 2302 -6.5826130105292794e-05
2303 2303 1.0187648086459000e-01
2304 2303 -8.3761922413450098e-10
2331 2303 -7.0346559479363995e-05
2303 2304 -3.4096579125998500e-12
2304 2304 7.6455146271322799e-02
2331 2304 -7.0306208761589694e-05
2370 2304 -7.6219512195121894e-02
2305 2305 1.4430692163435599e-01
2306 2305 -1.2247897354316800e-03
2331 2305 -1.2468574313647001e-04
2370 2305 -1.4285714285714299e-01
2305 2306 -1.2202328059110199e-03
2306 2306 1.3134774857603099e-01
2316 2306 -1.2987012987013000e-01
2331 2306 -1.2471506624609399e-04
2307 2307 1.4298556728620701e-01
2308 2307 -1.6860846569882599e-09
2333 2307 -3.7141061206347400e-05
2307 2308 -1.6545095458871899e-09
2308 2308 1.0221189629354700e-01
2316 2308 -1.0204081632653100e-01
2333 2308 -3.7139714914655800e-05
2309 2309 1.4431420607098100e-01
2310 2309 -1.2215914259434300e-03
2334 2309 -1.2471463676093600e-04
2309 2310 -1.2261750489937101e-03
2310 2310 1.0353482399957500e-01
2316 2310 -1.0204081632653100e-01
2334 2310 -1.2468617281608701e-04
2311 2311 1.0187648080892400e-01
2312 2311 -7.8319865887404896e-10
2334 2311 -7.0346404386568699e-05
2311 2312 -3.1460350025205301e-12
2312 2312 7.6463903420751503e-02
2313 2312 -7.6219512195121894e-02
2334 2312 -7.0308411750644300e-05
2312 2313 -7.6219512195121894e-02
2313 2313 1.7787602135497099e-01
2314 2313 -1.0162601626016300e-01
2333 2313 -2.0695858419894999e-05
2313 2314 -1.0162601626016300e-01
2314 2314 1.0180816365290300e-01
2315 2314 -1.9619486873848599e-08
2333 2314 -7.0361593487334106e-05
2314 2315 -8.3086247476622599e-11
2315 2315 1.0180247619731900e-01
2333 2315 -7.0353393249276400e-05
2370 2315 -1.0162601626016300e-01
2306 2316 -1.2987012987013000e-01
2308 2316 -1.0204081632653100e-01
2310 2316 -1.0204081632653100e-01
2316 2316 3.3399070028464700e-01
2331 2316 -6.5230140573292702e-06
2333 2316 -3.9814174092719904e-06
2334 2316 -4.1441797561919198e-06
2317 2317 1.0187648129527400e-01
2318 2317 -1.2695146497531701e-09
2334 2317 -7.0346352153386903e-05
2317 2318 -1.2692225070330100e-09
2318 2318 7.6569261321187396e-02
2331 2318 -7.6219512195121894e-02
2334 2318 -7.0346351469531302e-05
2319 2319 1.4292839899330301e-01
2320 2319 -6.8717038388789896e-10
2331 2319 -1.4285714285714299e-01
2334 2319 -3.7912393493996297e-05
2319 2320 -3.0550914808635302e-08
2320 2320 1.2995642884352701e-01
2330 2320 -1.2987012987013000e-01
2334 2320 -3.8111469164153201e-05
2321 2321 1.4298556739698601e-01
2322 2321 -1.8252252306937499e-09
2344 2321 -3.7251700608428599e-05
2321 2322 -1.7309821935765500e-11
2322 2322 1.0213289443725700e-01
2330 2322 -1.0204081632653100e-01
2344 2322 -3.6198408786704202e-05
2323 2323 1.4298556740764001e-01
2324 2323 -1.8366581118244600e-09
2332 2323 -3.7252780205516297e-05
2323 2324 -1.7420090190373401e-11
2324 2324 1.0213289443726500e-01
2330 2324 -1.0204081632653100e-01
2332 2324 -3.6198854822716201e-05
2325 2325 1.0292654320618400e-01
2326 2325 -8.5562407243691598e-04
2332 2325 -2.2644988168099700e-04
2325 2326 -8.6486639742471396e-04
2326 2326 7.7610082167748798e-02
2327 2326 -7.6219512195121894e-02
2332 2326 -2.2644986721388999e-04
2326 2327 -7.6219512195121894e-02
2327 2327 1.7787602135497099e-01
2328 2327 -1.0162601626016300e-01
2344 2327 -2.0695858419894999e-05
2327 2328 -1.0162601626016300e-01
2328 2328 1.0292666012618600e-01
2329 2328 -8.5573994740457699e-04
2344 2328 -2.2645016266788101e-04
2328 2329 -8.6497938554770605e-04
2329 2329 1.0291741149950100e-01
2331 2329 -1.0162601626016300e-01
2344 2329 -2.2644958650148400e-04
2320 2330 -1.2987012987013000e-01
2322 2330 -1.0204081632653100e-01
2324 2330 -1.0204081632653100e-01
2330 2330 3.3399070028464700e-01
2332 2330 -4.1441797561919198e-06
2334 2330 -6.5230140573292702e-06
2344 2330 -3.9814174092719904e-06
2303 2331 -7.0288972314349994e-05
2304 2331 -7.0287614702335298e-05
2305 2331 -1.2343679618799600e-04
2306 2331 -1.2443638934169700e-04
2316 2331 -6.5230140573292702e-06
2318 2331 -7.6219512195121894e-02
2319 2331 -1.4285714285714299e-01
2329 2331 -1.0162601626016300e-01
2331 2331 3.2145056368025898e-01
2332 2331 -9.8909426205184702e-07
2334 2331 -1.7828737077997899e-05
2370 2331 -1.6839642815946000e-05
2301 2332 -4.6904315196998100e-02
2302 2332 -5.7142857142857099e-02
2323 2332 -3.5458698576659700e-05
2324 2332 -3.5455603958297997e-05
2325 2332 -2.2512636862873401e-04
2326 2332 -2.2512619581650599e-04
2330 2332 -4.1441797561919198e-06
2331 2332 -9.8909426205184702e-07
2332 2332 1.0484812552609200e-01
2333 2332 -9.8909426205184702e-07
2334 2332 -9.8909426205184702e-07
2337 2332 -9.8909426205184702e-07
2340 2332 -9.8909426205184702e-07
2341 2332 -9.8909426205184702e-07
2344 2332 -6.4478929741354603e-07
2365 2332 -9.8909426205184702e-07
2369 2332 -9.8909426205184702e-07
2287 2333 -1.0016144425841501e-06
2288 2333 -2.8571428571428598e-01
2295 2333 -1.0989010989011000e-01
2296 2333 -1.0162601626016300e-01
2307 2333 -3.5457177700938799e-05
2308 2333 -3.5457124834018898e-05
2313 2333 -2.0695858419894999e-05
2314 2333 -7.0306009606665900e-05
2315 2333 -7.0270577410019405e-05
2316 2333 -3.9814174092719904e-06
2332 2333 -9.8909426205184702e-07
2333 2333 4.9785391277965502e-01
2334 2333 -1.6276234691992399e-06
2335 2333 -2.9610226958893901e-06
2336 2333 -5.1958749209052700e-06
2337 2333 -4.1880003880549696e-06
2339 2333 -3.1989061260031302e-06
2340 2333 -9.8909426205184702e-07
2341 2333 -9.8909426205184702e-07
2365 2333 -9.8909426205184702e-07
2369 2333 -9.8909426205184702e-07
2276 2334 -4.0650406504064998e-02
2278 2334 -4.0650406504064998e-02
2283 2334 -2.8571428571428598e-01
2309 2334 -1.2442228613234599e-04
2310 2334 -1.2345086626439300e-04
2311 2334 -7.0288928176505397e-05
2312 2334 -7.0287658840179895e-05
2316 2334 -4.1441797561919198e-06
2317 2334 -7.0288293745454002e-05
2318 2334 -7.0288293271231303e-05
2319 2334 -3.5428628617664697e-05
2320 2334 -3.5485673917293000e-05
2330 2334 -6.5230140573292702e-06
2331 2334 -1.7828737077997899e-05
2332 2334 -9.8909426205184702e-07
2333 2334 -1.6276234691992399e-06
2334 2334 3.6823611289397101e-01
2335 2334 -9.8909426205184702e-07
2337 2334 -1.0892557063102601e-06
2338 2334 -9.8909426205184702e-07
2340 2334 -1.9719284338375401e-06
2341 2334 -1.9719284338375401e-06
2363 2334 -6.0973279192310098e-06
2365 2334 -1.9719284338375401e-06
2369 2334 -9.8909426205184702e-07
2209 2335 -1.2310493338053900e-04
2210 2335 -1.2476903725143701e-04
2215 2335 -2.0695858419894999e-05
2216 2335 -7.0288683707875406e-05
2217 2335 -7.0287903308809900e-05
2218 2335 -3.9814174092719904e-06
2238 2335 -5.2910052910052900e-02
2240 2335 -5.2910052910052900e-02
2245 2335 -2.0325203252032500e-01
2246 2335 -4.5823860748224796e-06
2299 2335 -6.5223270232260202e-05
2300 2335 -3.9160980973081301e-05
2301 2335 -3.9160260364786200e-05
2302 2335 -6.4909903235983401e-05
2333 2335 -2.9610226958893901e-06
2334 2335 -9.8909426205184702e-07
2335 2335 3.1026755430093300e-01
2338 2335 -9.8909426205184702e-07
2351 2335 -1.2645382337624900e-06
2362 2335 -6.4478929741354603e-07
2363 2335 -1.2269776921655799e-06
2369 2335 -2.9610226958893901e-06
2118 2336 -6.4233799138461195e-05
2119 2336 -3.9160904268524702e-05
2120 2336 -3.9160337069342799e-05
2121 2336 -6.5900956344657101e-05
2227 2336 -4.0650406504064998e-02
2228 2336 -4.0650406504064998e-02
2229 2336 -2.8571428571428598e-01
2230 2336 -3.5144397669450098e-05
2231 2336 -3.5143895838892500e-05
2232 2336 -1.2343496752096101e-04
2233 2336 -1.2443821766453599e-04
2246 2336 -1.9719284338375401e-06
2260 2336 -9.8909426205184702e-07
2261 2336 -2.8796415224294300e-06
2288 2336 -1.2536303657689001e-04
2289 2336 -1.2251231584953600e-04
2292 2336 -7.0288454719195202e-05
2293 2336 -7.0288132297490104e-05
2298 2336 -5.9721261139079898e-06
2333 2336 -5.1958749209052700e-06
2336 2336 3.6887404901177201e-01
2337 2336 -2.9610226958893901e-06
2339 2336 -9.8909426205184702e-07
2340 2336 -2.9610226958893901e-06
2362 2336 -1.9719284338375401e-06
2369 2336 -1.9719284338375401e-06
2097 2337 -6.0043332074773401e-05
2098 2337 -6.3897160557561294e-05
2103 2337 -1.2056933852606700e-05
2104 2337 -7.0288665012954699e-05
2105 2337 -7.0287922003730606e-05
2106 2337 -9.8909426205184702e-07
2107 2337 -9.9535435231799793e-06
2108 2337 -4.5823860748224796e-06
2124 2337 -6.1465313998513099e-05
2125 2337 -6.2471879145288800e-05
2132 2337 -2.0325203252032500e-01
2133 2337 -5.2910052910052900e-02
2134 2337 -5.2910052910052900e-02
2135 2337 -7.0288992962535304e-05
2136 2337 -7.0287594054150001e-05
2140 2337 -8.9644492611281306e-06
2246 2337 -9.8909426205184702e-07
2253 2337 -6.1595042009473397e-05
2254 2337 -6.2341844930775605e-05
2255 2337 -7.0288589374182096e-05
2256 2337 -7.0287997642503195e-05
2294 2337 -1.2079874860568100e-04
2295 2337 -1.2708060067622700e-04
2296 2337 -7.0287704945669194e-05
2297 2337 -7.0288882071016097e-05
2298 2337 -1.9637903164915501e-05
2332 2337 -9.8909426205184702e-07
2333 2337 -4.1880003880549696e-06
2334 2337 -1.0892557063102601e-06
2336 2337 -2.9610226958893901e-06
2337 2337 3.1143294512366299e-01
2338 2337 -9.8909426205184702e-07
2339 2337 -1.9719284338375401e-06
2340 2337 -9.9535435231799793e-06
2351 2337 -3.5932918127706301e-06
2362 2337 -1.9719284338375401e-06
2363 2337 -9.8909426205184702e-07
2365 2337 -9.8909426205184702e-07
2369 2337 -2.9610226958893901e-06
2086 2338 -4.3554006968641097e-02
2087 2338 -5.2910052910052900e-02
2107 2338 -9.8909426205184702e-07
2239 2338 -1.7729356694406900e-05
2240 2338 -1.7727794573071901e-05
2241 2338 -2.2518488897916900e-04
2242 2338 -2.2506808936849200e-04
2246 2338 -7.9816150893424393e-06
2334 2338 -9.8909426205184702e-07
2335 2338 -9.8909426205184702e-07
2337 2338 -9.8909426205184702e-07
2338 2338 9.7322968399172302e-02
2340 2338 -9.8909426205184702e-07
2351 2338 -9.8909426205184702e-07
2365 2338 -9.8909426205184702e-07
2369 2338 -1.9719284338375401e-06
2052 2339 -1.9719284338375401e-06
2155 2339 -7.6219512195121894e-02
2156 2339 -1.4285714285714299e-01
2166 2339 -1.0162601626016300e-01
2168 2339 -1.2389554633010201e-04
2169 2339 -1.2397655341396600e-04
2170 2339 -3.0048433277524500e-06
2173 2339 -7.0288300205362904e-05
2174 2339 -7.0288286811322293e-05
2181 2339 -3.9814174092719904e-06
2201 2339 -1.9719284338375401e-06
2202 2339 -2.2160719542174299e-06
2204 2339 -9.8909426205184702e-07
2260 2339 -9.8909426205184702e-07
2261 2339 -9.8909426205184702e-07
2285 2339 -1.2220510701763300e-04
2286 2339 -1.2567097451241701e-04
2287 2339 -3.0048433277524500e-06
2290 2339 -7.0288500049060199e-05
2291 2339 -7.0288086967625106e-05
2298 2339 -3.9814174092719904e-06
2333 2339 -3.1989061260031302e-06
2336 2339 -9.8909426205184702e-07
2337 2339 -1.9719284338375401e-06
2339 2339 3.2226302371924298e-01
2340 2339 -2.9610226958893901e-06
2341 2339 -1.7828737077997899e-05
2343 2339 -1.2645382337624900e-06
2352 2339 -9.8909426205184702e-07
2353 2339 -9.8909426205184702e-07
2369 2339 -1.9719284338375401e-06
1928 2340 -4.0650406504064998e-02
1929 2340 -4.0650406504064998e-02
1930 2340 -2.8571428571428598e-01
1931 2340 -3.5144140327753602e-05
1932 2340 -3.5144153180589003e-05
1937 2340 -4.9830318518561402e-06
1938 2340 -3.5486882141233702e-05
1939 2340 -3.5427420393724001e-05
1993 2340 -6.0973279192310098e-06
2106 2340 -1.9719284338375401e-06
2107 2340 -1.9719284338375401e-06
2140 2340 -1.9719284338375401e-06
2182 2340 -6.5160657808137205e-05
2183 2340 -3.9160820013341502e-05
2184 2340 -3.9160421324525999e-05
2185 2340 -6.4972364586426303e-05
2189 2340 -1.2385550711620200e-04
2190 2340 -1.2401668513920699e-04
2193 2340 -7.0288654699343894e-05
2194 2340 -7.0287932317341398e-05
2199 2340 -5.9721261139079898e-06
2200 2340 -6.1849691829571196e-06
2201 2340 -1.9719284338375401e-06
2202 2340 -1.9719284338375401e-06
2203 2340 -1.9719284338375401e-06
2204 2340 -2.9610226958893901e-06
2246 2340 -9.8909426205184702e-07
2251 2340 -6.1599009587911903e-05
2252 2340 -6.2337855211058501e-05
2257 2340 -1.2056933852606700e-05
2258 2340 -7.0288571651558299e-05
2259 2340 -7.0288015365127006e-05
2260 2340 -4.5823860748224796e-06
2332 2340 -9.8909426205184702e-07
2333 2340 -9.8909426205184702e-07
2334 2340 -1.9719284338375401e-06
2336 2340 -2.9610226958893901e-06
2337 2340 -9.9535435231799793e-06
2338 2340 -9.8909426205184702e-07
2339 2340 -2.9610226958893901e-06
2340 2340 3.6946969835953902e-01
2341 2340 -7.7374715689625498e-06
2351 2340 -1.1894171505686801e-06
2362 2340 -9.8909426205184702e-07
2363 2340 -9.8909426205184702e-07
2364 2340 -1.9719284338375401e-06
2365 2340 -1.9719284338375401e-06
2369 2340 -1.9719284338375401e-06
1933 2341 -1.1239098761366800e-04
1934 2341 -1.1273651648322900e-04
1935 2341 -3.5458608453094100e-05
1936 2341 -3.5455694081863597e-05
2052 2341 -1.9719284338375401e-06
2078 2341 -4.3554006968641097e-02
2079 2341 -5.2910052910052900e-02
2143 2341 -1.1261484288792000e-04
2144 2341 -1.1251180420787700e-04
2145 2341 -3.5457783749529099e-05
2146 2341 -3.5456518785428598e-05
2154 2341 -2.2539864546902100e-04
2155 2341 -2.2485583759066701e-04
2156 2341 -3.5456062755261803e-05
2157 2341 -3.5458239779695900e-05
2167 2341 -6.5230140573292702e-06
2201 2341 -1.9719284338375401e-06
2202 2341 -9.8909426205184702e-07
2203 2341 -9.8909426205184702e-07
2204 2341 -1.9719284338375401e-06
2260 2341 -9.8909426205184702e-07
2261 2341 -9.8909426205184702e-07
2332 2341 -9.8909426205184702e-07
2333 2341 -9.8909426205184702e-07
2334 2341 -1.9719284338375401e-06
2339 2341 -1.7828737077997899e-05
2340 2341 -7.7374715689625498e-06
2341 2341 9.8647170256738095e-02
2342 2341 -2.8796415224294300e-06
2343 2341 -1.2269776921655799e-06
2351 2341 -9.8909426205184702e-07
2352 2341 -9.8909426205184702e-07
2353 2341 -9.8909426205184702e-07
2365 2341 -9.8909426205184702e-07
2369 2341 -1.9719284338375401e-06
1848 2342 -1.9719284338375401e-06
1849 2342 -9.8909426205184702e-07
1898 2342 -1.1258915343166799e-04
1899 2342 -1.1253731249031999e-04
1904 2342 -4.9830318518561402e-06
1905 2342 -3.5458788531014598e-05
1906 2342 -3.5455514003943099e-05
1921 2342 -7.0864221812828501e-06
1991 2342 -9.8909426205184702e-07
1992 2342 -9.8909426205184702e-07
1993 2342 -5.7655431351250098e-06
1994 2342 -9.8909426205184702e-07
1995 2342 -9.8909426205184702e-07
2019 2342 -4.0650406504064998e-02
2030 2342 -4.0650406504064998e-02
2035 2342 -2.8571428571428598e-01
2036 2342 -6.0973279192310098e-06
2141 2342 -1.1261464772025600e-04
2142 2342 -1.1251199834494100e-04
2147 2342 -4.9830318518561402e-06
2148 2342 -3.5458043143371300e-05
2149 2342 -3.5456259391586397e-05
2203 2342 -6.0973279192310098e-06
2341 2342 -2.8796415224294300e-06
2342 2342 3.6851390461801198e-01
2345 2342 -9.8909426205184702e-07
2346 2342 -2.9610226958893901e-06
2348 2342 -9.8909426205184702e-07
2369 2342 -5.8719646696495704e-06
2390 2342 -1.9719284338375401e-06
2391 2342 -9.8909426205184702e-07
1911 2343 -3.5457151013245497e-05
1912 2343 -3.5457151521712199e-05
1917 2343 -2.0695858419894999e-05
1918 2343 -7.0304967559490898e-05
1919 2343 -7.0271619457194394e-05
1920 2343 -3.9814174092719904e-06
1993 2343 -1.6276234691992399e-06
1994 2343 -9.8909426205184702e-07
1995 2343 -9.8909426205184702e-07
2037 2343 -9.8909426205184702e-07
2043 2343 -5.2910052910052900e-02
2045 2343 -5.2910052910052900e-02
2050 2343 -2.0325203252032500e-01
2051 2343 -5.5652202466081803e-06
2052 2343 -9.8909426205184702e-07
2158 2343 -3.5457602841514598e-05
2159 2343 -3.5456699693443200e-05
2164 2343 -2.0695858419894999e-05
2165 2343 -2.2525031789085500e-04
2166 2343 -2.2500312155834199e-04
2167 2343 -3.9814174092719904e-06
2201 2343 -6.4478929741354603e-07
2339 2343 -1.2645382337624900e-06
2341 2343 -1.2269776921655799e-06
2343 2343 3.1053335997943499e-01
2345 2343 -9.8909426205184702e-07
2346 2343 -9.8909426205184702e-07
2348 2343 -9.8909426205184702e-07
2349 2343 -9.8909426205184702e-07
2364 2343 -1.9719284338375401e-06
2365 2343 -9.8909426205184702e-07
2369 2343 -9.8909426205184702e-07
2371 2343 -9.8909426205184702e-07
1689 2344 -1.9719284338375401e-06
1795 2344 -7.1803235352751197e-06
1796 2344 -1.9719284338375401e-06
2110 2344 -5.2910052910052900e-02
2112 2344 -5.2910052910052900e-02
2117 2344 -2.0325203252032500e-01
2321 2344 -3.5458688916337698e-05
2322 2344 -3.5455613618620100e-05
2327 2344 -2.0695858419894999e-05
2328 2344 -2.2512967138319800e-04
2329 2344 -2.2512291642819699e-04
2330 2344 -3.9814174092719904e-06
2332 2344 -6.4478929741354603e-07
2344 2344 3.1006032628075603e-01
2346 2344 -2.2724127666127902e-06
2351 2344 -9.8909426205184702e-07
2364 2344 -9.8909426205184702e-07
2367 2344 -9.8909426205184702e-07
2368 2344 -4.5823860748224796e-06
2370 2344 -1.9719284338375401e-06
1669 2345 -4.3554006968641097e-02
1670 2345 -5.2910052910052900e-02
1823 2345 -1.1265802987109100e-04
1824 2345 -1.1246892142942899e-04
1825 2345 -3.5458583594218102e-05
1826 2345 -3.5455718940739602e-05
1834 2345 -2.2538380005749501e-04
1835 2345 -2.2487057808347099e-04
1836 2345 -3.5456075713923101e-05
1837 2345 -3.5458226821034602e-05
1847 2345 -6.5230140573292702e-06
1942 2345 -1.1264224708287199e-04
1943 2345 -1.1248459306668900e-04
1944 2345 -3.5457773964074500e-05
1945 2345 -3.5456528570883203e-05
1993 2345 -9.8909426205184702e-07
1994 2345 -2.8796415224294300e-06
2036 2345 -4.0502784021996501e-06
2037 2345 -1.9719284338375401e-06
2052 2345 -1.9719284338375401e-06
2260 2345 -9.8909426205184702e-07
2261 2345 -9.8909426205184702e-07
2342 2345 -9.8909426205184702e-07
2343 2345 -9.8909426205184702e-07
2345 2345 9.8416645543214304e-02
2346 2345 -2.8796415224294300e-06
2348 2345 -1.6839642815946000e-05
2352 2345 -9.8909426205184702e-07
2353 2345 -9.8909426205184702e-07
2365 2345 -9.8909426205184702e-07
2367 2345 -1.9719284338375401e-06
1689 2346 -1.9719284338375401e-06
1704 2346 -6.1150355083645005e-05
1705 2346 -6.2787564988664395e-05
1710 2346 -1.2056933852606700e-05
1711 2346 -7.0288611959565503e-05
1712 2346 -7.0287975057119803e-05
1713 2346 -4.5823860748224796e-06
1795 2346 -1.2895785948270899e-06
1796 2346 -7.9816150893424393e-06
1821 2346 -3.5144151649665903e-05
1822 2346 -3.5144141858676703e-05
1827 2346 -4.9830318518561402e-06
1828 2346 -3.5479452907947999e-05
1829 2346 -3.5434849627009697e-05
1830 2346 -6.4803717108503095e-05
1831 2346 -3.9160905532687298e-05
1832 2346 -3.9160335805180203e-05
1833 2346 -6.5329704788529794e-05
1849 2346 -8.0692563530685507e-06
1921 2346 -1.9719284338375401e-06
1970 2346 -1.2414082522952300e-04
1971 2346 -1.2373166141525400e-04
1980 2346 -4.0650406504064998e-02
1981 2346 -4.0650406504064998e-02
1982 2346 -2.8571428571428598e-01
1983 2346 -7.0288810260459397e-05
1984 2346 -7.0287776756225895e-05
1989 2346 -5.9721261139079898e-06
1990 2346 -4.2130407491195804e-06
1991 2346 -9.8909426205184702e-07
1992 2346 -9.8909426205184702e-07
1993 2346 -9.8909426205184702e-07
1994 2346 -9.8909426205184702e-07
1995 2346 -1.9719284338375401e-06
2051 2346 -9.8909426205184702e-07
2342 2346 -2.9610226958893901e-06
2343 2346 -9.8909426205184702e-07
2344 2346 -2.2724127666127902e-06
2345 2346 -2.8796415224294300e-06
2346 2346 3.6943831070582100e-01
2347 2346 -9.8909426205184702e-07
2348 2346 -1.9719284338375401e-06
2349 2346 -1.9719284338375401e-06
2350 2346 -9.8909426205184702e-07
2352 2346 -9.8909426205184702e-07
2353 2346 -9.8909426205184702e-07
2364 2346 -1.9719284338375401e-06
2367 2346 -9.8909426205184702e-07
2370 2346 -1.9719284338375401e-06
1643 2347 -1.9719284338375401e-06
1713 2347 -1.9719284338375401e-06
1727 2347 -9.8909426205184702e-07
1728 2347 -6.4823039547364596e-05
1735 2347 -4.0650406504064998e-02
1736 2347 -4.0650406504064998e-02
1737 2347 -2.8571428571428598e-01
1738 2347 -3.9160814024159200e-05
1739 2347 -3.9160427313708301e-05
1740 2347 -6.5310331911283095e-05
1864 2347 -3.5144317877435401e-05
1865 2347 -3.5143975630907299e-05
1870 2347 -4.9830318518561402e-06
1871 2347 -1.2414316527466199e-04
1872 2347 -1.2372932195462300e-04
1875 2347 -3.5144317885470098e-05
1876 2347 -3.5143975622872501e-05
1877 2347 -1.2415655844973000e-04
1878 2347 -1.2371596024821500e-04
1896 2347 -7.0864221812828501e-06
1897 2347 -3.8624756942151201e-06
2346 2347 -9.8909426205184702e-07
2347 2347 3.6872420279230000e-01
2348 2347 -9.8909426205184702e-07
2349 2347 -9.8909426205184702e-07
2350 2347 -1.9719284338375401e-06
2353 2347 -9.8909426205184702e-07
2355 2347 -3.8624756942151201e-06
2361 2347 -9.8909426205184702e-07
2364 2347 -9.8909426205184702e-07
2367 2347 -1.6401436497315400e-06
2371 2347 -1.9719284338375401e-06
1644 2348 -1.2278597346342999e-04
1645 2348 -1.2508874790112800e-04
1646 2348 -3.0048433277524500e-06
1649 2348 -7.0288581905146900e-05
1650 2348 -7.0288005111538405e-05
1666 2348 -3.9814174092719904e-06
1796 2348 -9.8909426205184702e-07
1835 2348 -7.6219512195121894e-02
1836 2348 -1.4285714285714299e-01
1846 2348 -1.0162601626016300e-01
1848 2348 -9.8909426205184702e-07
1849 2348 -9.8909426205184702e-07
1953 2348 -1.2389345094938501e-04
1954 2348 -1.2397865377296500e-04
1955 2348 -3.0048433277524500e-06
1958 2348 -7.0288306311772701e-05
1959 2348 -7.0288280704912604e-05
1966 2348 -3.9814174092719904e-06
1991 2348 -2.2160719542174299e-06
1992 2348 -9.8909426205184702e-07
1993 2348 -9.8909426205184702e-07
1994 2348 -9.8909426205184702e-07
1995 2348 -1.2645382337624900e-06
2051 2348 -9.8909426205184702e-07
2342 2348 -9.8909426205184702e-07
2343 2348 -9.8909426205184702e-07
2345 2348 -1.6839642815946000e-05
2346 2348 -1.9719284338375401e-06
2347 2348 -9.8909426205184702e-07
2348 2348 3.2231647269472802e-01
2349 2348 -1.1894171505686801e-06
2350 2348 -9.8909426205184702e-07
2352 2348 -9.8909426205184702e-07
2353 2348 -9.8909426205184702e-07
2361 2348 -2.2160719542174299e-06
2364 2348 -9.8909426205184702e-07
1626 2349 -5.2910052910052900e-02
1628 2349 -5.2910052910052900e-02
1642 2349 -2.0325203252032500e-01
1643 2349 -4.5823860748224796e-06
1795 2349 -9.8909426205184702e-07
1796 2349 -9.8909426205184702e-07
1849 2349 -9.8909426205184702e-07
1956 2349 -3.5455568377457701e-05
1957 2349 -3.5458734157500003e-05
1960 2349 -2.2530893667083900e-04
1961 2349 -2.2494491578120801e-04
1966 2349 -5.9721261139079898e-06
1985 2349 -3.5457104247452097e-05
1986 2349 -3.5457198287505599e-05
1987 2349 -7.0262187423329297e-05
1988 2349 -7.0314399593355995e-05
1989 2349 -1.9637903164915501e-05
1990 2349 -2.2160719542174299e-06
1991 2349 -4.2130407491195804e-06
1992 2349 -9.8909426205184702e-07
1993 2349 -9.8909426205184702e-07
1994 2349 -9.8909426205184702e-07
1995 2349 -9.8909426205184702e-07
2051 2349 -9.8909426205184702e-07
2343 2349 -9.8909426205184702e-07
2346 2349 -1.9719284338375401e-06
2347 2349 -9.8909426205184702e-07
2348 2349 -1.1894171505686801e-06
2349 2349 3.1059265792223500e-01
2350 2349 -9.8909426205184702e-07
2352 2349 -9.8909426205184702e-07
2353 2349 -9.8909426205184702e-07
2364 2349 -9.8909426205184702e-07
1714 2350 -6.3176806979320396e-05
1715 2350 -3.9161986018017499e-05
1716 2350 -3.9159255319850002e-05
1717 2350 -6.6960535017048699e-05
1752 2350 -6.1280790624653402e-05
1753 2350 -6.2656883583582797e-05
1760 2350 -2.0325203252032500e-01
1761 2350 -5.1020408163265300e-02
1762 2350 -5.1020408163265300e-02
1763 2350 -7.0290789280776499e-05
1764 2350 -7.0285797735908807e-05
1792 2350 -7.9064940061486307e-06
1856 2350 -6.1376828558504796e-05
1857 2350 -6.2560613512813900e-05
1858 2350 -7.0289969445437600e-05
1859 2350 -7.0286617571247706e-05
1863 2350 -7.9064940061486307e-06
1886 2350 -6.0428786698273601e-05
1887 2350 -6.3510924396156402e-05
1892 2350 -1.2056933852606700e-05
1893 2350 -7.0289725187350997e-05
1894 2350 -7.0286861829334295e-05
1895 2350 -4.5823860748224796e-06
1896 2350 -9.8909426205184702e-07
2346 2350 -9.8909426205184702e-07
2347 2350 -1.9719284338375401e-06
2348 2350 -9.8909426205184702e-07
2349 2350 -9.8909426205184702e-07
2350 2350 3.0738081917788801e-01
2352 2350 -2.9610226958893901e-06
2353 2350 -9.8909426205184702e-07
2355 2350 -8.9644492611281306e-06
2359 2350 -1.5650225665377299e-06
2361 2350 -9.8909426205184702e-07
2364 2350 -9.8909426205184702e-07
2367 2350 -9.8909426205184702e-07
2371 2350 -9.8909426205184702e-07
1096 2351 -1.8615829419712301e-05
1097 2351 -1.2545286504360100e-04
1098 2351 -1.2540231431445599e-04
1099 2351 -1.8614179411140500e-05
1793 2351 -1.9719284338375401e-06
2206 2351 -7.6219512195121894e-02
2207 2351 -1.4285714285714299e-01
2217 2351 -1.0162601626016300e-01
2335 2351 -1.2645382337624900e-06
2337 2351 -3.5932918127706301e-06
2338 2351 -9.8909426205184702e-07
2340 2351 -1.1894171505686801e-06
2341 2351 -9.8909426205184702e-07
2344 2351 -9.8909426205184702e-07
2351 2351 3.2167194430437102e-01
2356 2351 -9.8909426205184702e-07
2363 2351 -1.7828737077997899e-05
2364 2351 -9.8909426205184702e-07
2365 2351 -1.1894171505686801e-06
2367 2351 -1.6401436497315400e-06
2369 2351 -9.8909426205184702e-07
2370 2351 -9.8909426205184702e-07
2371 2351 -9.8909426205184702e-07
2379 2351 -9.8909426205184702e-07
2380 2351 -2.2911930374112398e-06
2383 2351 -1.1894171505686801e-06
2384 2351 -9.8909426205184702e-07
1269 2352 -6.1290862790583394e-05
1270 2352 -6.2646743623459206e-05
1271 2352 -7.0289051591195797e-05
1272 2352 -7.0287535425489494e-05
1276 2352 -8.8955882682004692e-06
1352 2352 -6.0441120634965002e-05
1353 2352 -6.3498465799959795e-05
1358 2352 -1.2056933852606700e-05
1359 2352 -7.0288816731860503e-05
1360 2352 -7.0287770284824803e-05
1363 2352 -6.1388354135541396e-05
1364 2352 -6.2549022716624399e-05
1371 2352 -2.0325203252032500e-01
1372 2352 -5.2910052910052900e-02
1373 2352 -5.2910052910052900e-02
1374 2352 -7.0288700247549197e-05
1375 2352 -7.0287886769136094e-05
1379 2352 -8.2820994221176805e-06
1380 2352 -5.5652202466081803e-06
1617 2352 -9.8909426205184702e-07
1618 2352 -9.8909426205184702e-07
1619 2352 -9.8909426205184702e-07
1620 2352 -9.9535435231799793e-06
1896 2352 -9.8909426205184702e-07
1897 2352 -7.0426015494198003e-06
1994 2352 -9.8909426205184702e-07
2339 2352 -9.8909426205184702e-07
2341 2352 -9.8909426205184702e-07
2345 2352 -9.8909426205184702e-07
2346 2352 -9.8909426205184702e-07
2348 2352 -9.8909426205184702e-07
2349 2352 -9.8909426205184702e-07
2350 2352 -2.9610226958893901e-06
2352 2352 3.1107180052981498e-01
2353 2352 -1.9719284338375401e-06
2361 2352 -9.8909426205184702e-07
2364 2352 -2.9422424250909400e-06
2365 2352 -9.8909426205184702e-07
2367 2352 -9.8909426205184702e-07
2369 2352 -3.4305294658507100e-06
2371 2352 -9.8909426205184702e-07
2383 2352 -9.8909426205184702e-07
2384 2352 -9.8909426205184702e-07
2390 2352 -2.9610226958893901e-06
2391 2352 -1.9719284338375401e-06
2392 2352 -9.8909426205184702e-07
2393 2352 -9.8909426205184702e-07
1262 2353 -1.9719284338375401e-06
1263 2353 -6.4224740741253397e-05
1264 2353 -3.9160898245527402e-05
1265 2353 -3.9160343092340099e-05
1266 2353 -6.5910034874920494e-05
1328 2353 -4.0650406504064998e-02
1329 2353 -4.0650406504064998e-02
1330 2353 -2.8571428571428598e-01
1331 2353 -3.5144392334369698e-05
1332 2353 -3.5143901173972900e-05
1333 2353 -1.2357093764235301e-04
1334 2353 -1.2430192707889101e-04
1338 2353 -3.7936147012874600e-06
1339 2353 -3.5144392368362303e-05
1340 2353 -3.5143901139980397e-05
1345 2353 -4.9830318518561402e-06
1346 2353 -1.2356737621713201e-04
1347 2353 -1.2430549778327999e-04
1380 2353 -1.9719284338375401e-06
1614 2353 -9.8909426205184702e-07
1616 2353 -8.0692563530685507e-06
1617 2353 -9.8909426205184702e-07
1620 2353 -2.8045204392356201e-06
2260 2353 -9.8909426205184702e-07
2261 2353 -9.8909426205184702e-07
2339 2353 -9.8909426205184702e-07
2341 2353 -9.8909426205184702e-07
2345 2353 -9.8909426205184702e-07
2346 2353 -9.8909426205184702e-07
2347 2353 -9.8909426205184702e-07
2348 2353 -9.8909426205184702e-07
2349 2353 -9.8909426205184702e-07
2350 2353 -9.8909426205184702e-07
2352 2353 -1.9719284338375401e-06
2353 2353 3.6911485760489798e-01
2355 2353 -9.8909426205184702e-07
2361 2353 -1.9719284338375401e-06
2364 2353 -9.8909426205184702e-07
2365 2353 -1.1894171505686801e-06
2367 2353 -9.8909426205184702e-07
2369 2353 -9.8909426205184702e-07
2371 2353 -9.8909426205184702e-07
2383 2353 -9.8909426205184702e-07
2384 2353 -9.8909426205184702e-07
2390 2353 -1.9719284338375401e-06
2391 2353 -1.9719284338375401e-06
2393 2353 -9.8909426205184702e-07
1075 2354 -1.2163002642127801e-04
1076 2354 -1.2624742460500200e-04
1083 2354 -2.0325203252032500e-01
1084 2354 -5.2910052910052900e-02
1085 2354 -5.2910052910052900e-02
1086 2354 -7.0288762780469500e-05
1087 2354 -7.0287824236215805e-05
1091 2354 -4.1441797561919198e-06
1211 2354 -6.2929465563155702e-05
1212 2354 -3.9161090137910997e-05
1213 2354 -3.9160151199956497e-05
1214 2354 -6.7208338308713100e-05
1743 2354 -6.1214487789402702e-05
1744 2354 -6.2723302888850098e-05
1745 2354 -7.0288765355954898e-05
1746 2354 -7.0287821660730394e-05
1792 2354 -9.8909426205184702e-07
1793 2354 -9.8909426205184702e-07
1794 2354 -9.8909426205184702e-07
2354 2354 3.1074536979800899e-01
2355 2354 -1.9719284338375401e-06
2356 2354 -1.9719284338375401e-06
2357 2354 -2.6167177312510901e-06
2358 2354 -9.8909426205184702e-07
2359 2354 -7.9064940061486307e-06
2371 2354 -3.5932918127706301e-06
2383 2354 -1.9719284338375401e-06
2384 2354 -1.9719284338375401e-06
1094 2355 -4.3554006968641097e-02
1095 2355 -5.2910052910052900e-02
1188 2355 -1.2385570142790201e-04
1189 2355 -1.2401649293207999e-04
1192 2355 -3.5144150181827499e-05
1193 2355 -3.5144143326515201e-05
1194 2355 -1.2389134955926201e-04
1195 2355 -1.2398076012326499e-04
1199 2355 -7.0288943976630602e-05
1200 2355 -7.0287643040054703e-05
1203 2355 -4.1441797561919198e-06
1205 2355 -9.8909426205184702e-07
1206 2355 -9.8909426205184702e-07
1207 2355 -1.9719284338375401e-06
1208 2355 -1.9719284338375401e-06
1210 2355 -9.8909426205184702e-07
1236 2355 -6.1978342863163596e-05
1237 2355 -6.1957683464358503e-05
1238 2355 -7.0288629636705704e-05
1239 2355 -7.0287957379979601e-05
1643 2355 -1.9719284338375401e-06
1866 2355 -3.5144463125158199e-05
1867 2355 -3.5143830383184501e-05
1868 2355 -1.2430668739293600e-04
1869 2355 -1.2356619305556500e-04
1888 2355 -6.0434036316411803e-05
1889 2355 -6.3505554265603706e-05
1890 2355 -7.0288742879730498e-05
1891 2355 -7.0287844136954794e-05
2347 2355 -3.8624756942151201e-06
2350 2355 -8.9644492611281306e-06
2353 2355 -9.8909426205184702e-07
2354 2355 -1.9719284338375401e-06
2355 2355 9.9308755488492800e-02
2356 2355 -9.8909426205184702e-07
2357 2355 -9.8909426205184702e-07
2358 2355 -9.8909426205184702e-07
2359 2355 -8.8955882682004692e-06
2360 2355 -5.4212381704867103e-06
2361 2355 -9.8909426205184702e-07
2371 2355 -9.8909426205184702e-07
2383 2355 -9.8909426205184702e-07
2384 2355 -9.8909426205184702e-07
2390 2355 -2.9610226958893901e-06
2391 2355 -1.9719284338375401e-06
2392 2355 -9.8909426205184702e-07
2393 2355 -9.8909426205184702e-07
1069 2356 -7.0288867625959903e-05
1070 2356 -7.0287719390725402e-05
1071 2356 -1.2409966985590801e-04
1072 2356 -1.2377272118450699e-04
1091 2356 -6.5230140573292702e-06
1210 2356 -1.7828737077997899e-05
1221 2356 -4.0650406504064998e-02
1222 2356 -4.0650406504064998e-02
1223 2356 -2.8571428571428598e-01
1224 2356 -3.5144157503641403e-05
1225 2356 -3.5144136004701202e-05
1230 2356 -4.9830318518561402e-06
1231 2356 -3.5478667624040302e-05
1232 2356 -3.5435634910917503e-05
1233 2356 -4.8515699562669697e-06
1619 2356 -6.0973279192310098e-06
1791 2356 -9.8909426205184702e-07
1793 2356 -9.8909426205184702e-07
2351 2356 -9.8909426205184702e-07
2354 2356 -1.9719284338375401e-06
2355 2356 -9.8909426205184702e-07
2356 2356 3.6832005453940198e-01
2358 2356 -9.8909426205184702e-07
2360 2356 -9.8909426205184702e-07
2371 2356 -9.8909426205184702e-07
2383 2356 -9.8909426205184702e-07
2384 2356 -9.8909426205184702e-07
2390 2356 -1.9719284338375401e-06
1073 2357 -1.2164206252381600e-04
1074 2357 -1.2623532870672001e-04
1088 2357 -2.0695858419894999e-05
1089 2357 -7.0288740942625995e-05
1090 2357 -7.0287846074059296e-05
1091 2357 -3.9814174092719904e-06
1210 2357 -1.2645382337624900e-06
1233 2357 -1.9719284338375401e-06
1243 2357 -6.5043758927077399e-05
1244 2357 -3.9160981665547900e-05
1245 2357 -3.9160259672319601e-05
1246 2357 -6.5089096807495207e-05
1619 2357 -9.8909426205184702e-07
1773 2357 -5.2910052910052900e-02
1775 2357 -5.2910052910052900e-02
1780 2357 -2.0325203252032500e-01
1791 2357 -9.8909426205184702e-07
1793 2357 -4.5823860748224796e-06
2354 2357 -2.6167177312510901e-06
2355 2357 -9.8909426205184702e-07
2357 2357 3.1037773808283198e-01
2358 2357 -9.8909426205184702e-07
2360 2357 -9.8909426205184702e-07
2383 2357 -9.8909426205184702e-07
2384 2357 -9.8909426205184702e-07
2390 2357 -1.9719284338375401e-06
2392 2357 -1.9719284338375401e-06
1134 2358 -2.2911930374112398e-06
1173 2358 -1.8615776326161702e-05
1174 2358 -1.2548145804869301e-04
1175 2358 -1.2537392294605001e-04
1176 2358 -1.8614232504691202e-05
1205 2358 -9.8909426205184702e-07
1206 2358 -9.8909426205184702e-07
1207 2358 -1.1894171505686801e-06
1208 2358 -1.0892557063102601e-06
1742 2358 -5.2910052910052900e-02
1744 2358 -5.2910052910052900e-02
1749 2358 -2.0325203252032500e-01
1792 2358 -9.8909426205184702e-07
2354 2358 -9.8909426205184702e-07
2355 2358 -9.8909426205184702e-07
2356 2358 -9.8909426205184702e-07
2357 2358 -9.8909426205184702e-07
2358 2358 3.0977102290496700e-01
2359 2358 -5.5652202466081803e-06
2360 2358 -9.8909426205184702e-07
2383 2358 -2.2911930374112398e-06
2384 2358 -9.8909426205184702e-07
2390 2358 -2.1722513223543700e-06
2391 2358 -9.8909426205184702e-07
2392 2358 -1.0892557063102601e-06
2393 2358 -9.8909426205184702e-07
1234 2359 -6.1978328113932896e-05
1235 2359 -6.1957698195090600e-05
1240 2359 -1.2056933852606700e-05
1241 2359 -7.0288765603408295e-05
1242 2359 -7.0287821413276996e-05
1262 2359 -4.5823860748224796e-06
1719 2359 -4.0650406504064998e-02
1721 2359 -4.0650406504064998e-02
1726 2359 -2.8571428571428598e-01
1741 2359 -6.1219011916170902e-05
1742 2359 -6.2718758446002906e-05
1747 2359 -1.2056933852606700e-05
1748 2359 -7.0288749103051605e-05
1749 2359 -7.0287837913633701e-05
1792 2359 -1.9719284338375401e-06
1794 2359 -6.0973279192310098e-06
2350 2359 -1.5650225665377299e-06
2354 2359 -7.9064940061486307e-06
2355 2359 -8.8955882682004692e-06
2358 2359 -5.5652202466081803e-06
2359 2359 3.6814084940676900e-01
2360 2359 -9.8909426205184702e-07
1186 2360 -3.5457146573764603e-05
1187 2360 -3.5457155961193100e-05
1190 2360 -1.1261601780550601e-04
1191 2360 -1.1251063766016599e-04
1196 2360 -4.9830318518561402e-06
1197 2360 -3.5458731414518102e-05
1198 2360 -3.5455571120439602e-05
1201 2360 -2.0695858419894999e-05
1202 2360 -7.0305123842640094e-05
1203 2360 -3.9814174092719904e-06
1204 2360 -7.0271463174045198e-05
1205 2360 -8.3133998734484402e-06
1206 2360 -9.8909426205184702e-07
1207 2360 -1.9719284338375401e-06
1208 2360 -1.2895785948270899e-06
1210 2360 -9.8909426205184702e-07
1233 2360 -9.8909426205184702e-07
1751 2360 -5.2910052910052900e-02
1753 2360 -5.2910052910052900e-02
1767 2360 -2.0325203252032500e-01
1792 2360 -4.5823860748224796e-06
2355 2360 -5.4212381704867103e-06
2356 2360 -9.8909426205184702e-07
2357 2360 -9.8909426205184702e-07
2358 2360 -9.8909426205184702e-07
2359 2360 -9.8909426205184702e-07
2360 2360 3.1029265249946703e-01
2383 2360 -9.8909426205184702e-07
2384 2360 -9.8909426205184702e-07
2390 2360 -2.9610226958893901e-06
2391 2360 -1.9719284338375401e-06
2392 2360 -9.8909426205184702e-07
2393 2360 -9.8909426205184702e-07
1276 2361 -9.8909426205184702e-07
1281 2361 -3.5457143375747502e-05
1282 2361 -3.5457159159210303e-05
1287 2361 -2.0695858419894999e-05
1288 2361 -7.0305634119591199e-05
1289 2361 -7.0270952897094106e-05
1290 2361 -3.9814174092719904e-06
1617 2361 -9.8909426205184702e-07
1619 2361 -6.4478929741354603e-07
1646 2361 -1.0016144425841501e-06
1647 2361 -2.8571428571428598e-01
1663 2361 -1.0989010989011000e-01
1664 2361 -1.0162601626016300e-01
1795 2361 -4.2130407491195804e-06
1796 2361 -2.2160719542174299e-06
2347 2361 -9.8909426205184702e-07
2348 2361 -2.2160719542174299e-06
2350 2361 -9.8909426205184702e-07
2352 2361 -9.8909426205184702e-07
2353 2361 -1.9719284338375401e-06
2355 2361 -9.8909426205184702e-07
2361 2361 4.9792320191622402e-01
2371 2361 -9.8909426205184702e-07
2383 2361 -9.8909426205184702e-07
2384 2361 -9.8909426205184702e-07
523 2362 -6.1380700486710898e-05
524 2362 -6.2556728702935601e-05
531 2362 -2.0325203252032500e-01
532 2362 -5.2910052910052900e-02
533 2362 -5.2910052910052900e-02
534 2362 -7.0289766301011406e-05
535 2362 -7.0286820715673899e-05
855 2362 -9.8909426205184702e-07
856 2362 -9.8909426205184702e-07
1052 2362 -9.8909426205184702e-07
1053 2362 -1.3897400390855100e-06
1054 2362 -2.9610226958893901e-06
1055 2362 -9.8909426205184702e-07
1056 2362 -2.3725742108711999e-06
1057 2362 -9.8909426205184702e-07
1058 2362 -1.9719284338375401e-06
1059 2362 -9.8909426205184702e-07
1060 2362 -9.8909426205184702e-07
1061 2362 -9.8909426205184702e-07
1062 2362 -9.8909426205184702e-07
1063 2362 -9.8909426205184702e-07
2107 2362 -1.9719284338375401e-06
2211 2362 -1.2309670369293099e-04
2212 2362 -1.2477734218858301e-04
2213 2362 -7.0289777193858604e-05
2214 2362 -7.0286809822826701e-05
2218 2362 -4.1441797561919198e-06
2262 2362 -6.3239874922057406e-05
2263 2362 -3.9161846427539298e-05
2264 2362 -3.9159394910328203e-05
2265 2362 -6.6897308052062598e-05
2335 2362 -6.4478929741354603e-07
2336 2362 -1.9719284338375401e-06
2337 2362 -1.9719284338375401e-06
2340 2362 -9.8909426205184702e-07
2362 2362 3.1127070630597597e-01
2363 2362 -2.5228163772588302e-06
2364 2362 -9.8909426205184702e-07
2365 2362 -9.8909426205184702e-07
2366 2362 -9.8909426205184702e-07
2367 2362 -9.8909426205184702e-07
2368 2362 -7.9816150893424393e-06
803 2363 -2.0720898780959599e-06
1052 2363 -1.9719284338375401e-06
1053 2363 -9.8909426205184702e-07
1054 2363 -1.9719284338375401e-06
1055 2363 -1.9719284338375401e-06
1056 2363 -1.9719284338375401e-06
1057 2363 -9.8909426205184702e-07
1058 2363 -9.8909426205184702e-07
1063 2363 -9.8909426205184702e-07
2107 2363 -1.9719284338375401e-06
2205 2363 -7.0288637926288103e-05
2206 2363 -7.0287949090397202e-05
2207 2363 -1.2257702074215001e-04
2208 2363 -1.2529814003079699e-04
2218 2363 -6.5230140573292702e-06
2272 2363 -4.0650406504064998e-02
2273 2363 -4.0650406504064998e-02
2274 2363 -2.8571428571428598e-01
2275 2363 -3.5144138774598598e-05
2276 2363 -3.5144154733744102e-05
2281 2363 -4.9830318518561402e-06
2282 2363 -3.5489593155086699e-05
2283 2363 -3.5424709379871100e-05
2284 2363 -2.8796415224294300e-06
2334 2363 -6.0973279192310098e-06
2335 2363 -1.2269776921655799e-06
2337 2363 -9.8909426205184702e-07
2340 2363 -9.8909426205184702e-07
2351 2363 -1.7828737077997899e-05
2362 2363 -2.5228163772588302e-06
2363 2363 3.6851726218363501e-01
2369 2363 -1.9719284338375401e-06
462 2364 -6.1397898331830495e-05
463 2364 -6.2539449369585900e-05
470 2364 -2.0325203252032500e-01
471 2364 -5.1020408163265300e-02
472 2364 -5.1020408163265300e-02
473 2364 -7.0288901053374195e-05
474 2364 -7.0287685963311096e-05
697 2364 -4.6950676996132002e-06
1051 2364 -9.8909426205184702e-07
1054 2364 -2.9610226958893901e-06
1055 2364 -9.8909426205184702e-07
1056 2364 -3.2990675702615398e-06
1057 2364 -9.8909426205184702e-07
1058 2364 -1.9719284338375401e-06
1059 2364 -1.6401436497315400e-06
1060 2364 -9.8909426205184702e-07
1061 2364 -9.8909426205184702e-07
1062 2364 -9.8909426205184702e-07
1063 2364 -9.8909426205184702e-07
1689 2364 -9.8909426205184702e-07
1795 2364 -9.8909426205184702e-07
1796 2364 -9.8909426205184702e-07
2005 2364 -6.0791691375062203e-05
2006 2364 -6.3147069234026495e-05
2011 2364 -1.2056933852606700e-05
2012 2364 -7.0288730393849001e-05
2013 2364 -7.0287856622836304e-05
2037 2364 -4.5823860748224796e-06
2044 2364 -6.1517777354056004e-05
2045 2364 -6.2419288714729695e-05
2046 2364 -7.0288601186962505e-05
2047 2364 -7.0287985829722800e-05
2051 2364 -7.9816150893424393e-06
2053 2364 -6.3739520570501305e-05
2054 2364 -3.9160954805166603e-05
2055 2364 -3.9160286532700898e-05
2056 2364 -6.6396390299346898e-05
2066 2364 -9.8909426205184702e-07
2106 2364 -9.8909426205184702e-07
2108 2364 -9.8909426205184702e-07
2340 2364 -1.9719284338375401e-06
2343 2364 -1.9719284338375401e-06
2344 2364 -9.8909426205184702e-07
2346 2364 -1.9719284338375401e-06
2347 2364 -9.8909426205184702e-07
2348 2364 -9.8909426205184702e-07
2349 2364 -9.8909426205184702e-07
2350 2364 -9.8909426205184702e-07
2351 2364 -9.8909426205184702e-07
2352 2364 -2.9422424250909400e-06
2353 2364 -9.8909426205184702e-07
2362 2364 -9.8909426205184702e-07
2364 2364 3.0809231036282297e-01
2365 2364 -1.9719284338375401e-06
2366 2364 -9.9535435231799793e-06
2367 2364 -9.8784224399861707e-06
2369 2364 -9.8909426205184702e-07
2370 2364 -9.8909426205184702e-07
632 2365 -1.9719284338375401e-06
697 2365 -1.9719284338375401e-06
1055 2365 -9.8909426205184702e-07
1056 2365 -2.9610226958893901e-06
1057 2365 -9.8909426205184702e-07
1058 2365 -9.8909426205184702e-07
1060 2365 -1.9719284338375401e-06
1063 2365 -9.8909426205184702e-07
1996 2365 -3.5144386162566097e-05
1997 2365 -3.5143907345776501e-05
2002 2365 -4.9830318518561402e-06
2003 2365 -1.2359980295752001e-04
2004 2365 -1.2427299408366999e-04
2026 2365 -4.0650406504064998e-02
2027 2365 -4.0650406504064998e-02
2028 2365 -2.8571428571428598e-01
2029 2365 -3.5144386131067598e-05
2030 2365 -3.5143907377275102e-05
2031 2365 -1.2360945753725399e-04
2032 2365 -1.2426331603375101e-04
2036 2365 -2.8045204392356201e-06
2051 2365 -9.8909426205184702e-07
2052 2365 -6.0973279192310098e-06
2080 2365 -6.5156089510745805e-05
2081 2365 -3.9160891152072597e-05
2082 2365 -3.9160350185794897e-05
2083 2365 -6.4976923641767300e-05
2106 2365 -1.9719284338375401e-06
2107 2365 -1.9719284338375401e-06
2260 2365 -9.8909426205184702e-07
2261 2365 -9.8909426205184702e-07
2332 2365 -9.8909426205184702e-07
2333 2365 -9.8909426205184702e-07
2334 2365 -1.9719284338375401e-06
2337 2365 -9.8909426205184702e-07
2338 2365 -9.8909426205184702e-07
2340 2365 -1.9719284338375401e-06
2341 2365 -9.8909426205184702e-07
2343 2365 -9.8909426205184702e-07
2345 2365 -9.8909426205184702e-07
2351 2365 -1.1894171505686801e-06
2352 2365 -9.8909426205184702e-07
2353 2365 -1.1894171505686801e-06
2362 2365 -9.8909426205184702e-07
2364 2365 -1.9719284338375401e-06
2365 2365 3.6924501069223398e-01
2367 2365 -3.8624756942151201e-06
2369 2365 -9.8909426205184702e-07
460 2366 -1.7728541923780099e-05
461 2366 -1.7728609343698699e-05
475 2366 -1.2056933852606700e-05
476 2366 -7.0304651561214606e-05
477 2366 -7.0271935455470700e-05
502 2366 -4.5823860748224796e-06
762 2366 -1.9719284338375401e-06
763 2366 -1.1768969700363800e-06
764 2366 -9.8909426205184702e-07
766 2366 -9.8909426205184702e-07
767 2366 -9.8909426205184702e-07
855 2366 -9.8909426205184702e-07
856 2366 -1.9719284338375401e-06
1051 2366 -1.9719284338375401e-06
1055 2366 -9.8909426205184702e-07
1058 2366 -1.9719284338375401e-06
1059 2366 -9.8909426205184702e-07
1061 2366 -2.9610226958893901e-06
1062 2366 -9.8909426205184702e-07
1063 2366 -9.8909426205184702e-07
2082 2366 -4.3554006968641097e-02
2083 2366 -5.2910052910052900e-02
2090 2366 -1.1261831552891700e-04
2091 2366 -1.1250835654481100e-04
2092 2366 -3.5457817031500597e-05
2093 2366 -3.5456485503457099e-05
2108 2366 -2.8796415224294300e-06
2362 2366 -9.8909426205184702e-07
2364 2366 -9.9535435231799793e-06
2366 2366 9.7813110686465296e-02
2367 2366 -9.8909426205184702e-07
447 2367 -4.6904315196998100e-02
448 2367 -5.4945054945054903e-02
484 2367 -1.2410921535131400e-04
485 2367 -1.2376319814987901e-04
488 2367 -3.5144149944698498e-05
489 2367 -3.5144143563644203e-05
490 2367 -1.2390108978708200e-04
491 2367 -1.2397099668290301e-04
495 2367 -7.0288919845710697e-05
496 2367 -7.0287667170974594e-05
501 2367 -4.1441797561919198e-06
502 2367 -5.4963592536805197e-06
589 2367 -1.9719284338375401e-06
767 2367 -9.8909426205184702e-07
1066 2367 -1.9719284338375401e-06
1067 2367 -3.9438568676750903e-06
1689 2367 -9.8909426205184702e-07
1795 2367 -9.8909426205184702e-07
1796 2367 -9.8909426205184702e-07
1998 2367 -3.5144451525147798e-05
1999 2367 -3.5143841983194902e-05
2000 2367 -1.2321205063568300e-04
2001 2367 -1.2466166569234199e-04
2007 2367 -6.0795026442664698e-05
2008 2367 -6.3143728168310495e-05
2009 2367 -7.0288603764078597e-05
2010 2367 -7.0287983252606694e-05
2052 2367 -9.8909426205184702e-07
2108 2367 -1.9719284338375401e-06
2111 2367 -6.2023003904491394e-05
2112 2367 -6.1913128215627001e-05
2113 2367 -7.0288610797745798e-05
2114 2367 -7.0287976218939494e-05
2344 2367 -9.8909426205184702e-07
2345 2367 -1.9719284338375401e-06
2346 2367 -9.8909426205184702e-07
2347 2367 -1.6401436497315400e-06
2350 2367 -9.8909426205184702e-07
2351 2367 -1.6401436497315400e-06
2352 2367 -9.8909426205184702e-07
2353 2367 -9.8909426205184702e-07
2362 2367 -9.8909426205184702e-07
2364 2367 -9.8784224399861707e-06
2365 2367 -3.8624756942151201e-06
2366 2367 -9.8909426205184702e-07
2367 2367 1.0532808965137599e-01
2368 2367 -9.8784224399861707e-06
2369 2367 -2.9610226958893901e-06
2370 2367 -5.9157853015126304e-06
2371 2367 -1.9719284338375401e-06
2372 2367 -9.8909426205184702e-07
2373 2367 -9.8909426205184702e-07
521 2368 -6.1385057701212998e-05
522 2368 -6.2552322104566401e-05
536 2368 -1.2056933852606700e-05
537 2368 -7.0288683097548499e-05
538 2368 -7.0287903919136806e-05
539 2368 -4.5823860748224796e-06
767 2368 -9.8909426205184702e-07
1067 2368 -9.8909426205184702e-07
2058 2368 -4.0650406504064998e-02
2060 2368 -4.0650406504064998e-02
2065 2368 -2.8571428571428598e-01
2108 2368 -6.0973279192310098e-06
2109 2368 -6.2022992506907698e-05
2110 2368 -6.1913139691913095e-05
2115 2368 -1.2056933852606700e-05
2116 2368 -7.0288755531487906e-05
2117 2368 -7.0287831485197399e-05
2344 2368 -4.5823860748224796e-06
2362 2368 -7.9816150893424393e-06
2367 2368 -9.8784224399861707e-06
2368 2368 3.6840369691977898e-01
2369 2368 -9.8909426205184702e-07
2370 2368 -9.8909426205184702e-07
2371 2368 -2.9610226958893901e-06
47 2369 -1.9719284338375401e-06
90 2369 -9.8909426205184702e-07
378 2369 -9.8909426205184702e-07
720 2369 -9.8909426205184702e-07
765 2369 -9.8909426205184702e-07
1796 2369 -9.8909426205184702e-07
2066 2369 -9.8909426205184702e-07
2108 2369 -1.9719284338375401e-06
2152 2369 -4.6904315196998100e-02
2153 2369 -5.7142857142857099e-02
2260 2369 -9.8909426205184702e-07
2261 2369 -9.8909426205184702e-07
2284 2369 -3.4305294658507100e-06
2332 2369 -9.8909426205184702e-07
2333 2369 -9.8909426205184702e-07
2334 2369 -9.8909426205184702e-07
2335 2369 -2.9610226958893901e-06
2336 2369 -1.9719284338375401e-06
2337 2369 -2.9610226958893901e-06
2338 2369 -1.9719284338375401e-06
2339 2369 -1.9719284338375401e-06
2340 2369 -1.9719284338375401e-06
2341 2369 -1.9719284338375401e-06
2342 2369 -5.8719646696495704e-06
2343 2369 -9.8909426205184702e-07
2351 2369 -9.8909426205184702e-07
2352 2369 -3.4305294658507100e-06
2353 2369 -9.8909426205184702e-07
2363 2369 -1.9719284338375401e-06
2364 2369 -9.8909426205184702e-07
2365 2369 -9.8909426205184702e-07
2367 2369 -2.9610226958893901e-06
2368 2369 -9.8909426205184702e-07
2369 2369 1.0536500272205300e-01
2370 2369 -9.8909426205184702e-07
2371 2369 -4.1441797561919198e-06
2376 2369 -2.5728970993880302e-06
2378 2369 -1.9719284338375401e-06
2379 2369 -9.8909426205184702e-07
2380 2369 -9.8909426205184702e-07
2383 2369 -9.8909426205184702e-07
2387 2369 -9.8909426205184702e-07
2388 2369 -9.8909426205184702e-07
2389 2369 -1.9719284338375401e-06
2390 2369 -9.8909426205184702e-07
2392 2369 -9.8909426205184702e-07
2393 2369 -9.8909426205184702e-07
2394 2369 -9.8909426205184702e-07
46 2370 -9.8909426205184702e-07
47 2370 -9.8909426205184702e-07
440 2370 -9.8909426205184702e-07
588 2370 -9.8909426205184702e-07
589 2370 -9.8909426205184702e-07
678 2370 -9.8909426205184702e-07
720 2370 -1.9719284338375401e-06
762 2370 -1.9719284338375401e-06
763 2370 -1.9719284338375401e-06
764 2370 -1.9719284338375401e-06
765 2370 -9.8909426205184702e-07
766 2370 -1.9719284338375401e-06
1055 2370 -9.8909426205184702e-07
1063 2370 -9.8909426205184702e-07
1065 2370 -9.8909426205184702e-07
1066 2370 -1.9719284338375401e-06
1067 2370 -3.9438568676750903e-06
1068 2370 -1.9719284338375401e-06
1689 2370 -1.9719284338375401e-06
1795 2370 -1.9719284338375401e-06
1796 2370 -1.9719284338375401e-06
2066 2370 -9.8909426205184702e-07
2108 2370 -9.8909426205184702e-07
2304 2370 -7.6219512195121894e-02
2305 2370 -1.4285714285714299e-01
2315 2370 -1.0162601626016300e-01
2331 2370 -1.6839642815946000e-05
2344 2370 -1.9719284338375401e-06
2346 2370 -1.9719284338375401e-06
2351 2370 -9.8909426205184702e-07
2364 2370 -9.8909426205184702e-07
2367 2370 -5.9157853015126304e-06
2368 2370 -9.8909426205184702e-07
2369 2370 -9.8909426205184702e-07
2370 2370 3.2195312434309098e-01
2372 2370 -1.9719284338375401e-06
2373 2370 -1.9719284338375401e-06
2374 2370 -1.9719284338375401e-06
2375 2370 -1.9719284338375401e-06
2376 2370 -9.8909426205184702e-07
2377 2370 -1.9719284338375401e-06
2379 2370 -9.8909426205184702e-07
2380 2370 -1.2895785948270899e-06
2381 2370 -1.9719284338375401e-06
2385 2370 -9.8909426205184702e-07
2386 2370 -9.8909426205184702e-07
90 2371 -1.9719284338375401e-06
322 2371 -1.9719284338375401e-06
323 2371 -9.8909426205184702e-07
377 2371 -9.8909426205184702e-07
1643 2371 -1.9719284338375401e-06
1713 2371 -1.9719284338375401e-06
1793 2371 -9.8909426205184702e-07
1794 2371 -9.8909426205184702e-07
1807 2371 -8.7108013937282194e-02
1808 2371 -1.4285714285714299e-01
1818 2371 -1.0162601626016300e-01
1820 2371 -1.7828737077997899e-05
1849 2371 -9.8909426205184702e-07
1897 2371 -1.9719284338375401e-06
1994 2371 -9.8909426205184702e-07
2343 2371 -9.8909426205184702e-07
2347 2371 -1.9719284338375401e-06
2350 2371 -9.8909426205184702e-07
2351 2371 -9.8909426205184702e-07
2352 2371 -9.8909426205184702e-07
2353 2371 -9.8909426205184702e-07
2354 2371 -3.5932918127706301e-06
2355 2371 -9.8909426205184702e-07
2356 2371 -9.8909426205184702e-07
2361 2371 -9.8909426205184702e-07
2367 2371 -1.9719284338375401e-06
2368 2371 -2.9610226958893901e-06
2369 2371 -4.1441797561919198e-06
2371 2371 3.3260706050297900e-01
2378 2371 -1.2895785948270899e-06
2379 2371 -9.8909426205184702e-07
2380 2371 -9.8909426205184702e-07
2382 2371 -1.9719284338375401e-06
2383 2371 -9.8909426205184702e-07
2384 2371 -9.8909426205184702e-07
2387 2371 -3.8624756942151201e-06
2388 2371 -9.8909426205184702e-07
2390 2371 -1.9719284338375401e-06
2391 2371 -9.8909426205184702e-07
2392 2371 -9.8909426205184702e-07
2393 2371 -9.8909426205184702e-07
2394 2371 -9.8909426205184702e-07
238 2372 -2.9610226958893901e-06
239 2372 -1.9719284338375401e-06
241 2372 -1.9719284338375401e-06
242 2372 -1.9719284338375401e-06
243 2372 -1.9719284338375401e-06
414 2372 -9.1397317885803597e-07
415 2372 -1.9719284338375401e-06
479 2372 -8.7108013937282194e-02
480 2372 -1.4285714285714299e-01
499 2372 -1.0162601626016300e-01
500 2372 -1.6839642815946000e-05
502 2372 -1.2645382337624900e-06
555 2372 -9.1397317885803597e-07
587 2372 -1.9719284338375401e-06
588 2372 -1.9719284338375401e-06
589 2372 -2.9610226958893901e-06
1046 2372 -2.9610226958893901e-06
1051 2372 -2.9610226958893901e-06
1064 2372 -1.9719284338375401e-06
1065 2372 -2.9610226958893901e-06
1067 2372 -1.9719284338375401e-06
1068 2372 -9.8909426205184702e-07
2367 2372 -9.8909426205184702e-07
2370 2372 -1.9719284338375401e-06
2372 2372 3.3250358121087897e-01
2373 2372 -1.9719284338375401e-06
2385 2372 -1.9719284338375401e-06
2386 2372 -3.9438568676750903e-06
2387 2372 -1.9719284338375401e-06
2395 2372 -3.1613455844062199e-06
156 2373 -7.6219512195121894e-02
157 2373 -1.4285714285714299e-01
176 2373 -1.0162601626016300e-01
193 2373 -1.6839642815946000e-05
238 2373 -9.8909426205184702e-07
239 2373 -9.8909426205184702e-07
242 2373 -9.8909426205184702e-07
452 2373 -1.7729299326270702e-05
453 2373 -1.7727851941208201e-05
454 2373 -2.2525906000011900e-04
455 2373 -2.2499444078212001e-04
502 2373 -9.8909426205184702e-07
503 2373 -1.1247159609893301e-04
504 2373 -1.1265533663695101e-04
509 2373 -4.9830318518561402e-06
510 2373 -3.5458004360925099e-05
511 2373 -3.5456298174032700e-05
539 2373 -3.8624756942151201e-06
1066 2373 -9.8784224399861707e-06
1067 2373 -1.9719284338375401e-06
1068 2373 -1.9719284338375401e-06
2367 2373 -9.8909426205184702e-07
2370 2373 -1.9719284338375401e-06
2372 2373 -1.9719284338375401e-06
2373 2373 3.2215232206683903e-01
2379 2373 -6.0973279192310098e-06
2381 2373 -1.9719284338375401e-06
2385 2373 -4.8953905881300296e-06
2387 2373 -9.8909426205184702e-07
2388 2373 -1.9719284338375401e-06
2395 2373 -1.2645382337624900e-06
15 2374 -6.1044270916972999e-05
16 2374 -6.2893896382612595e-05
21 2374 -1.2056933852606700e-05
22 2374 -7.0288618629209601e-05
23 2374 -7.0287968387475704e-05
47 2374 -4.5823860748224796e-06
48 2374 -6.4730429492709896e-05
49 2374 -3.9160910499595903e-05
50 2374 -3.9160330838271598e-05
51 2374 -6.5403165100946393e-05
114 2374 -3.5144153258116600e-05
115 2374 -3.5144140250225998e-05
120 2374 -4.9830318518561402e-06
121 2374 -3.5479258879224498e-05
122 2374 -3.5435043655733300e-05
241 2374 -7.7875522910917595e-06
242 2374 -9.8909426205184702e-07
243 2374 -1.9719284338375401e-06
337 2374 -1.2417501367252199e-04
338 2374 -1.2369755378090799e-04
347 2374 -4.0650406504064998e-02
348 2374 -4.0650406504064998e-02
349 2374 -2.8571428571428598e-01
350 2374 -7.0288819294272306e-05
351 2374 -7.0287767722412999e-05
356 2374 -5.9721261139079898e-06
357 2374 -9.8909426205184702e-07
378 2374 -4.2130407491195804e-06
1067 2374 -1.9719284338375401e-06
1068 2374 -1.9719284338375401e-06
2370 2374 -1.9719284338375401e-06
2374 2374 3.6902208981243800e-01
2375 2374 -1.0379229661278200e-05
2377 2374 -1.9719284338375401e-06
2378 2374 -9.8909426205184702e-07
2379 2374 -9.8909426205184702e-07
2380 2374 -9.8909426205184702e-07
2381 2374 -1.9719284338375401e-06
2383 2374 -1.9719284338375401e-06
2387 2374 -2.6229778215172399e-06
2388 2374 -9.8909426205184702e-07
2389 2374 -3.8624756942151201e-06
2390 2374 -9.8909426205184702e-07
2392 2374 -1.9719284338375401e-06
2394 2374 -9.8909426205184702e-07
17 2375 -6.1039791870376599e-05
18 2375 -6.2898458805977605e-05
19 2375 -7.0289765140313295e-05
20 2375 -7.0286821876371997e-05
30 2375 -6.1188769085423206e-05
31 2375 -6.2749123870242695e-05
38 2375 -2.0325203252032500e-01
39 2375 -5.2910052910052900e-02
40 2375 -5.2910052910052900e-02
41 2375 -7.0290609758312506e-05
42 2375 -7.0285977258372894e-05
46 2375 -7.9064940061486307e-06
47 2375 -9.8909426205184702e-07
109 2375 -1.2131145921840999e-04
110 2375 -1.2656687224748799e-04
111 2375 -7.0286520849735206e-05
112 2375 -7.0290066166950099e-05
113 2375 -1.9637903164915501e-05
241 2375 -9.8909426205184702e-07
242 2375 -4.1880003880549696e-06
243 2375 -1.9719284338375401e-06
429 2375 -5.9803773403116103e-05
430 2375 -6.4137397718503801e-05
435 2375 -1.2056933852606700e-05
436 2375 -7.0289516777108794e-05
437 2375 -7.0287070239576403e-05
438 2375 -9.8909426205184702e-07
439 2375 -4.5823860748224796e-06
440 2375 -8.8955882682004692e-06
2370 2375 -1.9719284338375401e-06
2374 2375 -1.0379229661278200e-05
2375 2375 3.1138378973609698e-01
2376 2375 -9.8909426205184702e-07
2377 2375 -2.9610226958893901e-06
2378 2375 -3.9438568676750903e-06
2379 2375 -9.8909426205184702e-07
2380 2375 -2.9610226958893901e-06
2381 2375 -2.9610226958893901e-06
2383 2375 -1.9719284338375401e-06
2385 2375 -1.9719284338375401e-06
2388 2375 -9.8909426205184702e-07
2389 2375 -9.8909426205184702e-07
2390 2375 -9.8909426205184702e-07
2392 2375 -1.9719284338375401e-06
29 2376 -5.2910052910052900e-02
31 2376 -5.2910052910052900e-02
45 2376 -2.0325203252032500e-01
46 2376 -5.5652202466081803e-06
47 2376 -9.8909426205184702e-07
243 2376 -9.8909426205184702e-07
352 2376 -3.5457097655774502e-05
353 2376 -3.5457204879183202e-05
354 2376 -7.0262063253526602e-05
355 2376 -7.0314523763158703e-05
356 2376 -1.9637903164915501e-05
361 2376 -3.5455580879797203e-05
362 2376 -3.5458721655160500e-05
365 2376 -2.2532490842396100e-04
366 2376 -2.2492905625254401e-04
376 2376 -5.9721261139079898e-06
377 2376 -4.2130407491195804e-06
378 2376 -4.1880003880549696e-06
2369 2376 -2.5728970993880302e-06
2370 2376 -9.8909426205184702e-07
2375 2376 -9.8909426205184702e-07
2376 2376 3.1045632489002700e-01
2377 2376 -9.8909426205184702e-07
2378 2376 -2.9422424250909400e-06
2379 2376 -9.8909426205184702e-07
2380 2376 -9.8909426205184702e-07
2381 2376 -9.8909426205184702e-07
2383 2376 -9.8909426205184702e-07
2387 2376 -9.8909426205184702e-07
2388 2376 -9.8909426205184702e-07
2389 2376 -1.9719284338375401e-06
2390 2376 -9.8909426205184702e-07
2391 2376 -9.8909426205184702e-07
2392 2376 -9.8909426205184702e-07
2393 2376 -1.9719284338375401e-06
2394 2376 -1.9719284338375401e-06
7 2377 -3.5144319696364197e-05
8 2377 -3.5143973811978503e-05
9 2377 -1.2436169173281000e-04
10 2377 -1.2351130499211300e-04
14 2377 -2.8796415224294300e-06
24 2377 -6.4750804102029605e-05
25 2377 -3.9160816088963698e-05
26 2377 -3.9160425248903803e-05
27 2377 -6.5382736060377706e-05
46 2377 -1.9719284338375401e-06
47 2377 -9.8909426205184702e-07
94 2377 -1.2543258639795201e-04
95 2377 -1.2244289659614800e-04
104 2377 -4.0650406504064998e-02
105 2377 -4.0650406504064998e-02
106 2377 -2.8571428571428598e-01
107 2377 -7.0288445334692004e-05
108 2377 -7.0288141681993302e-05
113 2377 -5.9721261139079898e-06
242 2377 -4.2130407491195804e-06
1068 2377 -1.9719284338375401e-06
2370 2377 -1.9719284338375401e-06
2374 2377 -1.9719284338375401e-06
2375 2377 -2.9610226958893901e-06
2376 2377 -9.8909426205184702e-07
2377 2377 3.6875129570889398e-01
2378 2377 -9.8909426205184702e-07
2379 2377 -9.8909426205184702e-07
2380 2377 -9.8909426205184702e-07
2381 2377 -2.9610226958893901e-06
2388 2377 -1.1393364284394700e-06
47 2378 -2.9610226958893901e-06
69 2378 -6.1397903822468306e-05
70 2378 -6.2539485730758504e-05
71 2378 -7.0289874611934800e-05
72 2378 -7.0286712404750505e-05
90 2378 -7.9064940061486307e-06
250 2378 -6.1181807549557195e-05
251 2378 -6.2756103310470401e-05
258 2378 -2.0325203252032500e-01
259 2378 -5.2910052910052900e-02
260 2378 -5.2910052910052900e-02
261 2378 -7.0290672802905395e-05
262 2378 -7.0285914213779897e-05
266 2378 -6.0506323973730899e-05
267 2378 -6.3433199668604500e-05
272 2378 -1.2056933852606700e-05
273 2378 -7.0289671307046604e-05
274 2378 -7.0286915709638701e-05
323 2378 -4.5823860748224796e-06
416 2378 -6.3217182625317593e-05
417 2378 -3.9161922570325398e-05
418 2378 -3.9159318767542102e-05
419 2378 -6.6920059622432198e-05
440 2378 -9.8909426205184702e-07
1067 2378 -1.9719284338375401e-06
1068 2378 -1.9719284338375401e-06
2369 2378 -1.9719284338375401e-06
2371 2378 -1.2895785948270899e-06
2374 2378 -9.8909426205184702e-07
2375 2378 -3.9438568676750903e-06
2376 2378 -2.9422424250909400e-06
2377 2378 -9.8909426205184702e-07
2378 2378 3.1126119133228303e-01
2379 2378 -3.9438568676750903e-06
2380 2378 -3.9438568676750903e-06
2382 2378 -1.9719284338375401e-06
2383 2378 -1.9719284338375401e-06
2387 2378 -7.9816150893424393e-06
2388 2378 -1.1925471957017501e-05
66 2379 -2.7481796268402599e-06
439 2379 -6.6544759529184399e-06
440 2379 -9.8909426205184702e-07
504 2379 -4.0650406504064998e-02
506 2379 -4.0650406504064998e-02
511 2379 -2.8571428571428598e-01
539 2379 -9.8909426205184702e-07
1066 2379 -9.8909426205184702e-07
1067 2379 -9.8909426205184702e-07
1068 2379 -9.8909426205184702e-07
1100 2379 -3.5144460207579301e-05
1101 2379 -3.5143833300763298e-05
1106 2379 -4.9830318518561402e-06
1107 2379 -1.2392229164255399e-04
1108 2379 -1.2394974450938699e-04
1113 2379 -3.5144460182397499e-05
1114 2379 -3.5143833325945201e-05
1119 2379 -4.9830318518561402e-06
1120 2379 -1.2417227166380999e-04
1121 2379 -1.2370029103196301e-04
1122 2379 -6.0973279192310098e-06
1133 2379 -5.6153009687373798e-06
1209 2379 -6.0973279192310098e-06
2351 2379 -9.8909426205184702e-07
2369 2379 -9.8909426205184702e-07
2370 2379 -9.8909426205184702e-07
2371 2379 -9.8909426205184702e-07
2373 2379 -6.0973279192310098e-06
2374 2379 -9.8909426205184702e-07
2375 2379 -9.8909426205184702e-07
2376 2379 -9.8909426205184702e-07
2377 2379 -9.8909426205184702e-07
2378 2379 -3.9438568676750903e-06
2379 2379 3.6848645456162099e-01
2381 2379 -9.8909426205184702e-07
2382 2379 -1.9719284338375401e-06
2383 2379 -9.8909426205184702e-07
2384 2379 -9.8909426205184702e-07
2388 2379 -2.9610226958893901e-06
47 2380 -1.9719284338375401e-06
440 2380 -9.8909426205184702e-07
513 2380 -4.0650406504064998e-02
515 2380 -4.0650406504064998e-02
520 2380 -2.8571428571428598e-01
1066 2380 -6.0973279192310098e-06
1067 2380 -9.8909426205184702e-07
1068 2380 -1.1393364284394700e-06
1123 2380 -3.5144462559244401e-05
1124 2380 -3.5143830949098197e-05
1129 2380 -4.9830318518561402e-06
1130 2380 -1.2391395579429900e-04
1131 2380 -1.2395810017317100e-04
1132 2380 -2.8796415224294300e-06
1134 2380 -6.0973279192310098e-06
1163 2380 -3.5144462557165897e-05
1164 2380 -3.5143830951176803e-05
1165 2380 -1.2392821487173099e-04
1166 2380 -1.2394380720780299e-04
1170 2380 -9.8909426205184702e-07
1171 2380 -2.8045204392356201e-06
1172 2380 -9.8909426205184702e-07
1208 2380 -1.9719284338375401e-06
1209 2380 -9.8909426205184702e-07
2351 2380 -2.2911930374112398e-06
2369 2380 -9.8909426205184702e-07
2370 2380 -1.2895785948270899e-06
2371 2380 -9.8909426205184702e-07
2374 2380 -9.8909426205184702e-07
2375 2380 -2.9610226958893901e-06
2376 2380 -9.8909426205184702e-07
2377 2380 -9.8909426205184702e-07
2378 2380 -3.9438568676750903e-06
2380 2380 3.6862245290235501e-01
2381 2380 -9.8909426205184702e-07
2382 2380 -1.9719284338375401e-06
2383 2380 -9.8909426205184702e-07
2384 2380 -9.8909426205184702e-07
2390 2380 -1.9719284338375401e-06
2391 2380 -9.8909426205184702e-07
2392 2380 -9.8909426205184702e-07
2393 2380 -9.8909426205184702e-07
6 2381 -4.0650406504064998e-02
8 2381 -4.0650406504064998e-02
13 2381 -2.8571428571428598e-01
14 2381 -7.0864221812828501e-06
46 2381 -1.9719284338375401e-06
47 2381 -9.8909426205184702e-07
405 2381 -1.7729359870118699e-05
406 2381 -1.7727791397360200e-05
411 2381 -1.2056933852606700e-05
412 2381 -2.2529581924123600e-04
413 2381 -2.2495794221276901e-04
414 2381 -7.9816150893424393e-06
440 2381 -9.8909426205184702e-07
502 2381 -1.9719284338375401e-06
539 2381 -2.9610226958893901e-06
1066 2381 -1.9719284338375401e-06
1067 2381 -1.9719284338375401e-06
1068 2381 -1.9719284338375401e-06
2370 2381 -1.9719284338375401e-06
2373 2381 -1.9719284338375401e-06
2374 2381 -1.9719284338375401e-06
2375 2381 -2.9610226958893901e-06
2376 2381 -9.8909426205184702e-07
2377 2381 -2.9610226958893901e-06
2379 2381 -9.8909426205184702e-07
2380 2381 -9.8909426205184702e-07
2381 2381 3.6809060822984002e-01
2395 2381 -4.5823860748224796e-06
47 2382 -1.9719284338375401e-06
80 2382 -3.5144316855924203e-05
81 2382 -3.5143976652418497e-05
86 2382 -4.9830318518561402e-06
87 2382 -1.2408595102417200e-04
88 2382 -1.2378640273821701e-04
89 2382 -7.0864221812828501e-06
244 2382 -6.5070105369656006e-05
245 2382 -3.9160812850436501e-05
246 2382 -3.9160428487431000e-05
247 2382 -6.5062705175143303e-05
287 2382 -4.0650406504064998e-02
288 2382 -4.0650406504064998e-02
289 2382 -2.8571428571428598e-01
290 2382 -3.5144316863793898e-05
291 2382 -3.5143976644548802e-05
292 2382 -1.2410780380295300e-04
293 2382 -1.2376460109702500e-04
321 2382 -9.8909426205184702e-07
322 2382 -2.8045204392356201e-06
324 2382 -9.8909426205184702e-07
2371 2382 -1.9719284338375401e-06
2378 2382 -1.9719284338375401e-06
2379 2382 -1.9719284338375401e-06
2380 2382 -1.9719284338375401e-06
2382 2382 3.6866667595840102e-01
2383 2382 -1.9719284338375401e-06
2384 2382 -9.8909426205184702e-07
2387 2382 -5.3648973580913500e-06
2388 2382 -1.9719284338375401e-06
2390 2382 -1.9719284338375401e-06
2391 2382 -2.4915159259280701e-06
2392 2382 -1.5399822054731300e-06
2393 2382 -9.8909426205184702e-07
2394 2382 -9.8909426205184702e-07
47 2383 -1.9719284338375401e-06
90 2383 -9.8909426205184702e-07
240 2383 -9.8909426205184702e-07
241 2383 -1.9719284338375401e-06
242 2383 -1.9719284338375401e-06
243 2383 -2.9610226958893901e-06
1262 2383 -9.8909426205184702e-07
1524 2383 -8.7108013937282194e-02
1525 2383 -1.4285714285714299e-01
1535 2383 -1.0162601626016300e-01
1575 2383 -1.7828737077997899e-05
1603 2383 -9.8909426205184702e-07
1605 2383 -9.8909426205184702e-07
1607 2383 -1.9719284338375401e-06
1608 2383 -1.9719284338375401e-06
1613 2383 -9.8909426205184702e-07
1617 2383 -9.8909426205184702e-07
2351 2383 -1.1894171505686801e-06
2352 2383 -9.8909426205184702e-07
2353 2383 -9.8909426205184702e-07
2354 2383 -1.9719284338375401e-06
2355 2383 -9.8909426205184702e-07
2356 2383 -9.8909426205184702e-07
2357 2383 -9.8909426205184702e-07
2358 2383 -2.2911930374112398e-06
2360 2383 -9.8909426205184702e-07
2361 2383 -9.8909426205184702e-07
2369 2383 -9.8909426205184702e-07
2371 2383 -9.8909426205184702e-07
2374 2383 -1.9719284338375401e-06
2375 2383 -1.9719284338375401e-06
2376 2383 -9.8909426205184702e-07
2378 2383 -1.9719284338375401e-06
2379 2383 -9.8909426205184702e-07
2380 2383 -9.8909426205184702e-07
2382 2383 -1.9719284338375401e-06
2383 2383 3.3257110254449002e-01
2387 2383 -9.8909426205184702e-07
2388 2383 -9.8909426205184702e-07
2389 2383 -1.9719284338375401e-06
2390 2383 -9.8909426205184702e-07
2392 2383 -9.8909426205184702e-07
321 2384 -1.9719284338375401e-06
322 2384 -2.1722513223543700e-06
323 2384 -9.8909426205184702e-07
324 2384 -9.8909426205184702e-07
377 2384 -9.8909426205184702e-07
1262 2384 -9.8909426205184702e-07
1603 2384 -9.8909426205184702e-07
1605 2384 -2.9610226958893901e-06
1606 2384 -9.8909426205184702e-07
1607 2384 -1.9719284338375401e-06
1608 2384 -9.8909426205184702e-07
1611 2384 -1.9719284338375401e-06
1613 2384 -9.8909426205184702e-07
1617 2384 -9.8909426205184702e-07
1908 2384 -8.7108013937282194e-02
1909 2384 -1.4285714285714299e-01
1919 2384 -1.0162601626016300e-01
1921 2384 -1.7828737077997899e-05
1993 2384 -9.8909426205184702e-07
2351 2384 -9.8909426205184702e-07
2352 2384 -9.8909426205184702e-07
2353 2384 -9.8909426205184702e-07
2354 2384 -1.9719284338375401e-06
2355 2384 -9.8909426205184702e-07
2356 2384 -9.8909426205184702e-07
2357 2384 -9.8909426205184702e-07
2358 2384 -9.8909426205184702e-07
2360 2384 -9.8909426205184702e-07
2361 2384 -9.8909426205184702e-07
2371 2384 -9.8909426205184702e-07
2379 2384 -9.8909426205184702e-07
2380 2384 -9.8909426205184702e-07
2382 2384 -9.8909426205184702e-07
2384 2384 3.3255065082959001e-01
2387 2384 -1.9719284338375401e-06
2390 2384 -1.9719284338375401e-06
2391 2384 -9.8909426205184702e-07
2392 2384 -9.8909426205184702e-07
2393 2384 -9.8909426205184702e-07
2394 2384 -9.8909426205184702e-07
209 2385 -6.1938878372888505e-05
210 2385 -6.1997192709474093e-05
215 2385 -1.2056933852606700e-05
216 2385 -7.0288762436195100e-05
217 2385 -7.0287824580490206e-05
237 2385 -5.5652202466081803e-06
240 2385 -9.8909426205184702e-07
241 2385 -9.8909426205184702e-07
242 2385 -1.0391749841810499e-06
243 2385 -9.8909426205184702e-07
421 2385 -3.8109756097561003e-02
423 2385 -3.8109756097561003e-02
428 2385 -2.8571428571428598e-01
438 2385 -9.8909426205184702e-07
439 2385 -6.0973279192310098e-06
560 2385 -6.1234509542573801e-05
561 2385 -6.2703224265499806e-05
566 2385 -1.2056933852606700e-05
567 2385 -7.0288748313520702e-05
568 2385 -7.0287838703164603e-05
587 2385 -1.9719284338375401e-06
588 2385 -4.5823860748224796e-06
1065 2385 -1.9719284338375401e-06
1067 2385 -9.8909426205184702e-07
2370 2385 -9.8909426205184702e-07
2372 2385 -1.9719284338375401e-06
2373 2385 -4.8953905881300296e-06
2375 2385 -1.9719284338375401e-06
2385 2385 3.6324201978209197e-01
2386 2385 -7.9064940061486307e-06
2387 2385 -9.9535435231799793e-06
2395 2385 -9.8909426205184702e-07
132 2386 -6.2861792168899101e-05
133 2386 -3.9161079055731498e-05
134 2386 -3.9160162282136098e-05
135 2386 -6.7276163728343299e-05
161 2386 -1.2187211147673601e-04
162 2386 -1.2600477143308501e-04
169 2386 -2.0325203252032500e-01
170 2386 -5.1020408163265300e-02
171 2386 -5.1020408163265300e-02
172 2386 -7.0288750068368298e-05
173 2386 -7.0287836948317007e-05
177 2386 -4.1441797561919198e-06
193 2386 -1.9719284338375401e-06
238 2386 -9.8909426205184702e-07
239 2386 -9.8909426205184702e-07
242 2386 -9.8909426205184702e-07
562 2386 -6.1229274899514006e-05
563 2386 -6.2708480020291606e-05
564 2386 -7.0288750357538896e-05
565 2386 -7.0287836659146396e-05
1067 2386 -9.8909426205184702e-07
2370 2386 -9.8909426205184702e-07
2372 2386 -3.9438568676750903e-06
2385 2386 -7.9064940061486307e-06
2386 2386 3.0702151796935900e-01
2395 2386 -6.4478929741354603e-07
82 2387 -3.5144466022148599e-05
83 2387 -3.5143827486193999e-05
84 2387 -1.2424555937595700e-04
85 2387 -1.2362717691403601e-04
89 2387 -9.8909426205184702e-07
211 2387 -6.1938896738215099e-05
212 2387 -6.1997174278187594e-05
213 2387 -7.0288632826497600e-05
214 2387 -7.0287954190187705e-05
237 2387 -9.8909426205184702e-07
240 2387 -9.8909426205184702e-07
241 2387 -1.9719284338375401e-06
242 2387 -9.8909426205184702e-07
243 2387 -9.8909426205184702e-07
268 2387 -6.0512021627950603e-05
269 2387 -6.3427390097436004e-05
270 2387 -7.0288742665432504e-05
271 2387 -7.0287844351252802e-05
304 2387 -1.2385561360978099e-04
305 2387 -1.2401658099794600e-04
308 2387 -3.5144150207484703e-05
309 2387 -3.5144143300857902e-05
310 2387 -1.2389246691698100e-04
311 2387 -1.2397964013212800e-04
315 2387 -7.0288949952238794e-05
316 2387 -7.0287637064446497e-05
319 2387 -4.1441797561919198e-06
321 2387 -9.8909426205184702e-07
322 2387 -1.9719284338375401e-06
323 2387 -9.8909426205184702e-07
324 2387 -4.4384039987010096e-06
542 2387 -4.3554006968641097e-02
543 2387 -5.2910052910052900e-02
2369 2387 -9.8909426205184702e-07
2371 2387 -3.8624756942151201e-06
2372 2387 -1.9719284338375401e-06
2373 2387 -9.8909426205184702e-07
2374 2387 -2.6229778215172399e-06
2376 2387 -9.8909426205184702e-07
2378 2387 -7.9816150893424393e-06
2382 2387 -5.3648973580913500e-06
2383 2387 -9.8909426205184702e-07
2384 2387 -1.9719284338375401e-06
2385 2387 -9.9535435231799793e-06
2387 2387 9.9473333135837297e-02
2389 2387 -1.9719284338375401e-06
2390 2387 -3.9438568676750903e-06
2391 2387 -1.9719284338375401e-06
2392 2387 -2.9610226958893901e-06
2393 2387 -3.2615070286646402e-06
2394 2387 -9.8909426205184702e-07
2395 2387 -9.8909426205184702e-07
47 2388 -1.9719284338375401e-06
246 2388 -4.3554006968641097e-02
247 2388 -5.2910052910052900e-02
248 2388 -1.7728528813264601e-05
249 2388 -1.7728622454214301e-05
263 2388 -1.2056933852606700e-05
264 2388 -7.0301265699235999e-05
265 2388 -7.0275321317449306e-05
324 2388 -4.5823860748224796e-06
394 2388 -1.1266921338940801e-04
395 2388 -1.1245781770762000e-04
396 2388 -3.5457811553035300e-05
397 2388 -3.5456490981922498e-05
439 2388 -2.8796415224294300e-06
440 2388 -9.8909426205184702e-07
1068 2388 -1.9719284338375401e-06
2369 2388 -9.8909426205184702e-07
2371 2388 -9.8909426205184702e-07
2373 2388 -1.9719284338375401e-06
2374 2388 -9.8909426205184702e-07
2375 2388 -9.8909426205184702e-07
2376 2388 -9.8909426205184702e-07
2377 2388 -1.1393364284394700e-06
2378 2388 -1.1925471957017501e-05
2379 2388 -2.9610226958893901e-06
2382 2388 -1.9719284338375401e-06
2383 2388 -9.8909426205184702e-07
2388 2388 9.7705563605691104e-02
52 2389 -2.2531046488400000e-04
53 2389 -2.2494339693663199e-04
54 2389 -3.5456099271348500e-05
55 2389 -3.5458203263609298e-05
65 2389 -6.5230140573292702e-06
116 2389 -1.1268725008318200e-04
117 2389 -1.1243990637481500e-04
118 2389 -3.5458548558184599e-05
119 2389 -3.5455753976773097e-05
241 2389 -9.8909426205184702e-07
242 2389 -1.9907087046359999e-06
243 2389 -2.2160719542174299e-06
327 2389 -1.1265341580444100e-04
328 2389 -1.1247350269573900e-04
329 2389 -3.5457756607726303e-05
330 2389 -3.5456545927231502e-05
378 2389 -1.9719284338375401e-06
390 2389 -4.3554006968641097e-02
391 2389 -5.2910052910052900e-02
2369 2389 -1.9719284338375401e-06
2374 2389 -3.8624756942151201e-06
2375 2389 -9.8909426205184702e-07
2376 2389 -1.9719284338375401e-06
2383 2389 -1.9719284338375401e-06
2387 2389 -1.9719284338375401e-06
2389 2389 9.8280978944165404e-02
2390 2389 -1.7828737077997899e-05
2392 2389 -1.9719284338375401e-06
2393 2389 -1.9719284338375401e-06
2394 2389 -3.7936147012874600e-06
53 2390 -7.6219512195121894e-02
54 2390 -1.4285714285714299e-01
64 2390 -1.0162601626016300e-01
89 2390 -1.9719284338375401e-06
90 2390 -1.9719284338375401e-06
91 2390 -1.2279235478183099e-04
92 2390 -1.2508235135777701e-04
93 2390 -3.0048433277524500e-06
96 2390 -7.0288574771503899e-05
97 2390 -7.0288012245181406e-05
113 2390 -3.9814174092719904e-06
242 2390 -3.1989061260031302e-06
243 2390 -2.2536324958143402e-06
321 2390 -2.3725742108711999e-06
322 2390 -2.1722513223543700e-06
323 2390 -1.9719284338375401e-06
324 2390 -2.9610226958893901e-06
358 2390 -1.2389277565614000e-04
359 2390 -1.2397933066205901e-04
360 2390 -3.0048433277524500e-06
363 2390 -7.0288307376605304e-05
364 2390 -7.0288279640079906e-05
376 2390 -3.9814174092719904e-06
377 2390 -4.1880003880549696e-06
378 2390 -9.8909426205184702e-07
1132 2390 -3.4305294658507100e-06
1133 2390 -2.9610226958893901e-06
1134 2390 -2.1722513223543700e-06
1171 2390 -1.9719284338375401e-06
1172 2390 -1.9719284338375401e-06
1205 2390 -1.9719284338375401e-06
1207 2390 -1.9719284338375401e-06
1208 2390 -1.9719284338375401e-06
1209 2390 -4.4133636376364098e-06
1210 2390 -1.9719284338375401e-06
1233 2390 -1.9719284338375401e-06
1261 2390 -2.7481796268402599e-06
1315 2390 -1.9719284338375401e-06
1338 2390 -4.2506012907164796e-06
1379 2390 -2.1722513223543700e-06
1380 2390 -1.9719284338375401e-06
1426 2390 -1.9719284338375401e-06
1469 2390 -1.9719284338375401e-06
1470 2390 -3.1613455844062199e-06
1471 2390 -2.9610226958893901e-06
1472 2390 -2.9610226958893901e-06
1608 2390 -1.9719284338375401e-06
1609 2390 -2.9610226958893901e-06
1610 2390 -1.9719284338375401e-06
1611 2390 -1.9719284338375401e-06
1612 2390 -3.9438568676750903e-06
1613 2390 -1.9719284338375401e-06
1614 2390 -2.9610226958893901e-06
1616 2390 -1.9719284338375401e-06
1617 2390 -2.9610226958893901e-06
1618 2390 -1.9719284338375401e-06
1619 2390 -2.9610226958893901e-06
1620 2390 -1.7403050939899601e-06
1921 2390 -1.9719284338375401e-06
1993 2390 -1.9719284338375401e-06
2342 2390 -1.9719284338375401e-06
2352 2390 -2.9610226958893901e-06
2353 2390 -1.9719284338375401e-06
2355 2390 -2.9610226958893901e-06
2356 2390 -1.9719284338375401e-06
2357 2390 -1.9719284338375401e-06
2358 2390 -2.1722513223543700e-06
2360 2390 -2.9610226958893901e-06
2369 2390 -9.8909426205184702e-07
2371 2390 -1.9719284338375401e-06
2374 2390 -9.8909426205184702e-07
2375 2390 -9.8909426205184702e-07
2376 2390 -9.8909426205184702e-07
2380 2390 -1.9719284338375401e-06
2382 2390 -1.9719284338375401e-06
2383 2390 -9.8909426205184702e-07
2384 2390 -1.9719284338375401e-06
2387 2390 -3.9438568676750903e-06
2389 2390 -1.7828737077997899e-05
2390 2390 3.2349351739988702e-01
2391 2390 -9.8909426205184702e-07
2392 2390 -9.8909426205184702e-07
2393 2390 -9.8909426205184702e-07
2394 2390 -9.8909426205184702e-07
321 2391 -1.9719284338375401e-06
322 2391 -1.9719284338375401e-06
323 2391 -9.8909426205184702e-07
324 2391 -1.9719284338375401e-06
377 2391 -1.9719284338375401e-06
378 2391 -9.8909426205184702e-07
1170 2391 -1.9719284338375401e-06
1171 2391 -1.9719284338375401e-06
1172 2391 -1.9719284338375401e-06
1205 2391 -1.9719284338375401e-06
1206 2391 -1.9719284338375401e-06
1207 2391 -1.9719284338375401e-06
1208 2391 -1.9719284338375401e-06
1209 2391 -9.8909426205184702e-07
1210 2391 -9.8909426205184702e-07
1315 2391 -1.9719284338375401e-06
1338 2391 -1.9719284338375401e-06
1379 2391 -1.9719284338375401e-06
1380 2391 -1.9719284338375401e-06
1469 2391 -1.9719284338375401e-06
1470 2391 -2.9610226958893901e-06
1471 2391 -9.8909426205184702e-07
1472 2391 -1.9719284338375401e-06
1611 2391 -9.8909426205184702e-07
1612 2391 -2.9610226958893901e-06
1613 2391 -9.8909426205184702e-07
1614 2391 -2.9610226958893901e-06
1615 2391 -2.9610226958893901e-06
1616 2391 -1.9719284338375401e-06
1617 2391 -1.9719284338375401e-06
1620 2391 -4.9329511297269297e-06
1921 2391 -9.8909426205184702e-07
1951 2391 -4.3554006968641097e-02
1952 2391 -5.2910052910052900e-02
1993 2391 -9.8909426205184702e-07
2342 2391 -9.8909426205184702e-07
2352 2391 -1.9719284338375401e-06
2353 2391 -1.9719284338375401e-06
2355 2391 -1.9719284338375401e-06
2358 2391 -9.8909426205184702e-07
2360 2391 -1.9719284338375401e-06
2371 2391 -9.8909426205184702e-07
2376 2391 -9.8909426205184702e-07
2380 2391 -9.8909426205184702e-07
2382 2391 -2.4915159259280701e-06
2384 2391 -9.8909426205184702e-07
2387 2391 -1.9719284338375401e-06
2390 2391 -9.8909426205184702e-07
2391 2391 9.7389858368064797e-02
2394 2391 -9.8909426205184702e-07
90 2392 -1.9719284338375401e-06
240 2392 -9.8909426205184702e-07
241 2392 -1.9719284338375401e-06
242 2392 -1.9719284338375401e-06
243 2392 -2.9610226958893901e-06
322 2392 -1.9719284338375401e-06
323 2392 -9.8909426205184702e-07
324 2392 -9.8909426205184702e-07
1134 2392 -1.9719284338375401e-06
1208 2392 -1.9719284338375401e-06
1209 2392 -9.8909426205184702e-07
1210 2392 -9.8909426205184702e-07
1233 2392 -1.9719284338375401e-06
1278 2392 -7.6219512195121894e-02
1279 2392 -1.4285714285714299e-01
1289 2392 -1.0162601626016300e-01
1616 2392 -1.9719284338375401e-06
1617 2392 -9.8909426205184702e-07
1618 2392 -1.8811571249783499e-05
2352 2392 -9.8909426205184702e-07
2355 2392 -9.8909426205184702e-07
2357 2392 -1.9719284338375401e-06
2358 2392 -1.0892557063102601e-06
2360 2392 -9.8909426205184702e-07
2369 2392 -9.8909426205184702e-07
2371 2392 -9.8909426205184702e-07
2374 2392 -1.9719284338375401e-06
2375 2392 -1.9719284338375401e-06
2376 2392 -9.8909426205184702e-07
2380 2392 -9.8909426205184702e-07
2382 2392 -1.5399822054731300e-06
2383 2392 -9.8909426205184702e-07
2384 2392 -9.8909426205184702e-07
2387 2392 -2.9610226958893901e-06
2389 2392 -1.9719284338375401e-06
2390 2392 -9.8909426205184702e-07
2392 2392 3.2153744808932799e-01
90 2393 -1.9719284338375401e-06
322 2393 -1.9719284338375401e-06
323 2393 -2.2911930374112398e-06
324 2393 -1.0391749841810499e-06
378 2393 -9.8909426205184702e-07
1208 2393 -1.9719284338375401e-06
1209 2393 -9.8909426205184702e-07
1210 2393 -9.8909426205184702e-07
1233 2393 -1.9719284338375401e-06
1474 2393 -7.6219512195121894e-02
1475 2393 -1.4285714285714299e-01
1485 2393 -1.0162601626016300e-01
1610 2393 -1.8811571249783499e-05
1611 2393 -2.2536324958143402e-06
1612 2393 -1.9719284338375401e-06
1613 2393 -9.8909426205184702e-07
1616 2393 -1.9719284338375401e-06
1617 2393 -4.4822246305640704e-06
2352 2393 -9.8909426205184702e-07
2353 2393 -9.8909426205184702e-07
2355 2393 -9.8909426205184702e-07
2358 2393 -9.8909426205184702e-07
2360 2393 -9.8909426205184702e-07
2369 2393 -9.8909426205184702e-07
2371 2393 -9.8909426205184702e-07
2376 2393 -1.9719284338375401e-06
2380 2393 -9.8909426205184702e-07
2382 2393 -9.8909426205184702e-07
2384 2393 -9.8909426205184702e-07
2387 2393 -3.2615070286646402e-06
2389 2393 -1.9719284338375401e-06
2390 2393 -9.8909426205184702e-07
2393 2393 3.2154424654735703e-01
2394 2393 -9.8909426205184702e-07
123 2394 -1.1257515078582600e-04
124 2394 -1.1255121613382601e-04
129 2394 -4.9830318518561402e-06
130 2394 -3.5458812844785802e-05
131 2394 -3.5455489690172003e-05
240 2394 -7.0864221812828501e-06
241 2394 -2.8045204392356201e-06
280 2394 -4.0650406504064998e-02
291 2394 -4.0650406504064998e-02
296 2394 -2.8571428571428598e-01
321 2394 -9.8909426205184702e-07
322 2394 -7.0864221812828501e-06
324 2394 -9.8909426205184702e-07
325 2394 -1.1265313874002100e-04
326 2394 -1.1247377911100400e-04
331 2394 -4.9830318518561402e-06
332 2394 -3.5458058820652300e-05
333 2394 -3.5456243714305397e-05
357 2394 -6.0973279192310098e-06
377 2394 -1.9719284338375401e-06
378 2394 -1.9719284338375401e-06
2369 2394 -9.8909426205184702e-07
2371 2394 -9.8909426205184702e-07
2374 2394 -9.8909426205184702e-07
2376 2394 -1.9719284338375401e-06
2382 2394 -9.8909426205184702e-07
2384 2394 -9.8909426205184702e-07
2387 2394 -9.8909426205184702e-07
2389 2394 -3.7936147012874600e-06
2390 2394 -9.8909426205184702e-07
2391 2394 -9.8909426205184702e-07
2393 2394 -9.8909426205184702e-07
2394 2394 3.6824698738903200e-01
159 2395 -1.2188396888648100e-04
160 2395 -1.2599286095034599e-04
174 2395 -2.0695858419894999e-05
175 2395 -7.0288744049275495e-05
176 2395 -7.0287842967409797e-05
177 2395 -3.9814174092719904e-06
193 2395 -1.2269776921655799e-06
218 2395 -6.5043784126745706e-05
219 2395 -3.9160983474994102e-05
220 2395 -3.9160257862873399e-05
221 2395 -6.5089071553957393e-05
238 2395 -1.9719284338375401e-06
239 2395 -1.9719284338375401e-06
240 2395 -9.8909426205184702e-07
241 2395 -1.9719284338375401e-06
242 2395 -9.8909426205184702e-07
243 2395 -1.9719284338375401e-06
406 2395 -5.1020408163265300e-02
408 2395 -5.1020408163265300e-02
413 2395 -2.0325203252032500e-01
415 2395 -9.8909426205184702e-07
2372 2395 -3.1613455844062199e-06
2373 2395 -1.2645382337624900e-06
2381 2395 -4.5823860748224796e-06
2385 2395 -9.8909426205184702e-07
2386 2395 -6.4478929741354603e-07
2387 2395 -9.8909426205184702e-07
2395 2395 3.0649113473964501e-01
