%%MatrixMarket matrix coordinate real general
2395 2395 17159
1 1 0.0397924
4 1 -9.09911e-10
47 1 -1.95549e-05
2 2 0.0561889
3 2 -0.000476896
47 2 -0.000126757
2 3 -0.000481948
3 3 0.0476759
14 3 -0.0469043
47 3 -0.000126745
1 4 -8.03194e-12
4 4 0.0549913
14 4 -0.0549451
47 4 -1.89741e-05
5 5 0.0509407
6 5 -3.95997e-10
14 5 -3.51732e-05
5 6 -1.60664e-12
6 6 0.0407662
14 6 -3.51531e-05
2381 6 -0.0406504
7 7 0.0509407
8 7 -2.1532e-10
2377 7 -3.51716e-05
7 8 -8.71758e-13
8 8 0.0407662
2377 8 -3.51525e-05
2381 8 -0.0406504
9 9 0.287152
10 9 -0.00123982
2377 9 -0.000124713
9 10 -0.00124451
10 10 0.10355
11 10 -0.102041
2377 10 -0.000124688
10 11 -0.102041
11 11 0.260781
12 11 -0.15873
14 11 -4.98303e-06
2377 11 0
11 12 -0.15873
12 12 0.160194
13 12 -0.00122012
14 12 -0.000124708
2377 12 0
12 13 -0.00122494
13 13 0.287126
14 13 -0.000124693
2377 13 0
2381 13 -0.285714
3 14 -0.0469043
4 14 -0.0549451
5 14 -3.51445e-05
6 14 -3.51438e-05
11 14 -4.98303e-06
12 14 -0.0001242
13 14 -0.000123673
14 14 0.102457
47 14 -9.89094e-07
2377 14 -2.87964e-06
2381 14 -7.08642e-06
15 15 0.068755
16 15 -0.000614876
2374 15 -6.27049e-05
15 16 -0.00061412
16 16 0.0536623
47 16 -0.0529101
2374 16 -6.27446e-05
17 17 0.0687318
18 17 -0.000591653
2375 17 -6.27036e-05
17 18 -0.000590961
18 18 0.0536391
47 18 -0.0529101
2375 18 -6.27456e-05
19 19 0.203436
20 19 -4.07241e-09
2375 19 -7.03537e-05
19 20 -2.26763e-09
20 20 0.0874476
21 20 -0.087108
2375 20 -7.0352e-05
20 21 -0.087108
21 21 0.209076
22 21 -0.121951
2374 21 -1.20569e-05
2375 21 0
21 22 -0.121951
22 22 0.122236
23 22 -4.00372e-10
2374 22 -7.03438e-05
2375 22 0
22 23 -1.62983e-12
23 23 0.203389
47 23 -0.203252
2374 23 -7.03058e-05
2375 23 0
24 24 0.0404958
27 24 -0.000652293
2377 24 -6.58215e-05
25 25 0.0556031
26 25 -2.42952e-10
2377 25 -3.91913e-05
25 26 -9.84372e-13
26 26 0.0470334
46 26 -0.0469043
2377 26 -3.917e-05
24 27 -0.000650206
27 27 0.0557402
46 27 -0.0549451
2377 27 -6.58351e-05
28 28 0.0680914
29 28 -8.59158e-10
46 28 -1.85757e-05
28 29 -9.47203e-10
29 29 0.0529944
46 29 -1.8738e-05
2376 29 -0.0529101
30 30 0.0687318
31 30 -0.000591657
2375 30 -6.27083e-05
30 31 -0.000590675
31 31 0.0536388
2375 31 -6.27434e-05
2376 31 -0.0529101
32 32 0.0680914
40 32 -9.02908e-10
33 33 0.0685327
39 33 -0.000373192
34 34 0.203856
35 34 -0.000242436
34 35 -0.000255278
35 35 0.0878984
36 35 -0.087108
35 36 -0.087108
36 36 0.209076
37 36 -0.121951
36 37 -0.121951
37 37 0.123299
38 37 -0.000863868
37 38 -0.000830784
38 38 0.204436
2375 38 -0.203252
33 39 -2.25529e-05
39 39 0.0529765
2375 39 -0.0529101
32 40 -8.06493e-12
40 40 0.0529544
2375 40 -0.0529101
41 41 0.203436
42 41 -2.84747e-09
2375 41 -7.03537e-05
41 42 -1.14922e-11
42 42 0.087348
43 42 -0.087108
2375 42 -7.03109e-05
42 43 -0.087108
43 43 0.209076
44 43 -0.121951
46 43 -1.20569e-05
2375 43 0
43 44 -0.121951
44 44 0.122157
45 44 -1.46303e-08
46 44 -7.03613e-05
2375 44 0
44 45 -6.19488e-11
45 45 0.203389
46 45 -7.03533e-05
2375 45 0
2376 45 -0.203252
26 46 -0.0469043
27 46 -0.0549451
28 46 -1.77285e-05
29 46 -1.77286e-05
43 46 -1.20569e-05
44 46 -7.03015e-05
45 46 -7.02751e-05
46 46 0.102345
2370 46 -9.89094e-07
2375 46 -7.90649e-06
2376 46 -5.56522e-06
2377 46 -1.97193e-06
2381 46 -1.97193e-06
1 47 -1.86158e-05
2 47 -0.000125498
3 47 -0.000125358
4 47 -1.86142e-05
14 47 -9.89094e-07
16 47 -0.0529101
18 47 -0.0529101
23 47 -0.203252
47 47 0.309829
2369 47 -1.97193e-06
2370 47 -9.89094e-07
2374 47 -4.58239e-06
2375 47 -9.89094e-07
2376 47 -9.89094e-07
2377 47 -9.89094e-07
2378 47 -2.96102e-06
2380 47 -1.97193e-06
2381 47 -9.89094e-07
2382 47 -1.97193e-06
2383 47 -1.97193e-06
2388 47 -1.97193e-06
48 48 0.0404893
51 48 -0.000645782
2374 48 -6.58208e-05
49 49 0.0556031
50 49 -3.59894e-10
2374 49 -3.91923e-05
49 50 -1.4602e-12
50 50 0.0436865
66 50 -0.043554
2374 50 -3.91704e-05
48 51 -0.00064375
51 51 0.0537012
66 51 -0.0529101
2374 51 -6.58354e-05
52 52 0.102929
53 52 -0.000857562
2389 52 -0.000226465
52 53 -0.00086661
53 53 0.0776153
2389 53 -0.000226434
2390 53 -0.0762195
54 54 0.142928
55 54 -1.11282e-11
2389 54 -3.61408e-05
2390 54 -0.142857
54 55 -1.24379e-09
55 55 0.130019
65 55 -0.12987
2389 55 -3.72206e-05
2390 55 0
56 56 0.142986
57 56 -1.70415e-09
243 56 -3.71534e-05
56 57 -1.1775e-09
57 57 0.102211
65 57 -0.102041
243 57 -3.7129e-05
58 58 0.142986
59 58 -1.73136e-09
66 58 -3.71561e-05
58 59 -1.19632e-09
59 59 0.102211
65 59 -0.102041
66 59 -3.71317e-05
60 60 0.102927
61 60 -0.000856173
66 60 -0.00022646
60 61 -0.00086528
61 61 0.077614
62 61 -0.0762195
66 61 -0.000226439
61 62 -0.0762195
62 62 0.177876
63 62 -0.101626
66 62 0
243 62 -2.06959e-05
62 63 -0.101626
63 63 0.102927
64 63 -0.000856342
66 63 0
243 63 -0.000226455
63 64 -0.000865516
64 64 0.102918
66 64 0
243 64 -0.000226445
2390 64 -0.101626
55 65 -0.12987
57 65 -0.102041
59 65 -0.102041
65 65 0.333991
66 65 -4.14418e-06
243 65 -3.98142e-06
2389 65 -6.52301e-06
2390 65 0
50 66 -0.043554
51 66 -0.0529101
58 66 -3.54576e-05
59 66 -3.54567e-05
60 66 -0.00022525
61 66 -0.000225004
62 66 0
63 66 0
64 66 0
65 66 -4.14418e-06
66 66 0.0972318
243 66 -6.44789e-07
2374 66 0
2379 66 -2.74818e-06
2389 66 0
2390 66 0
67 67 0.0687513
68 67 -0.000611197
90 67 -6.27155e-05
67 68 -0.000609751
68 68 0.0517706
90 68 -6.274e-05
243 68 -0.0510204
69 69 0.0687314
70 69 -0.00059124
2378 69 -6.27147e-05
69 70 -0.000589852
70 70 0.0517507
243 70 -0.0510204
2378 70 -6.27404e-05
71 71 0.203436
72 71 -4.09244e-09
2378 71 -7.03538e-05
71 72 -2.15371e-09
72 72 0.0765692
73 72 -0.0762195
2378 72 -7.0352e-05
72 73 -0.0762195
73 73 0.198188
74 73 -0.121951
90 73 -1.20569e-05
2378 73 0
73 74 -0.121951
74 74 0.122236
75 74 -4.87152e-10
90 74 -7.03451e-05
2378 74 0
74 75 -1.98461e-12
75 75 0.203389
90 75 -7.03062e-05
243 75 -0.203252
2378 75 0
76 76 0.0397924
79 76 -9.81057e-10
89 76 -1.95617e-05
77 77 0.056188
78 77 -0.000476061
89 77 -0.000126772
77 78 -0.000480912
78 78 0.0443303
89 78 -0.00012673
90 78 -0.043554
76 79 -8.67223e-12
79 79 0.0529569
89 79 -1.89768e-05
90 79 -0.0529101
80 80 0.0509407
81 80 -2.11794e-10
2382 80 -3.51716e-05
80 81 -8.57445e-13
81 81 0.0382286
89 81 -0.0381098
2382 81 -3.51525e-05
82 82 0.0509407
83 82 -3.96773e-10
2387 82 -3.51732e-05
82 83 -1.60982e-12
83 83 0.0382286
89 83 -0.0381098
2387 83 -3.51531e-05
84 84 0.287132
85 84 -0.00122055
2387 84 -0.000124709
84 85 -0.00122533
85 85 0.103536
86 85 -0.102041
2387 85 -0.000124691
85 86 -0.102041
86 86 0.260781
87 86 -0.15873
2382 86 -4.98303e-06
2387 86 0
86 87 -0.15873
87 87 0.160214
88 87 -0.00124
2382 87 -0.000124705
2387 87 0
87 88 -0.001245
88 88 0.287146
89 88 -0.285714
2382 88 -0.000124696
2387 88 0
76 89 -1.86158e-05
77 89 -0.00012567
78 89 -0.000125187
79 89 -1.86142e-05
81 89 -0.0381098
83 89 -0.0381098
88 89 -0.285714
89 89 0.362549
90 89 -9.89094e-07
2382 89 -7.08642e-06
2387 89 -9.89094e-07
2390 89 -1.97193e-06
67 90 -6.1403e-05
68 90 -6.25344e-05
73 90 -1.20569e-05
74 90 -7.02887e-05
75 90 -7.02879e-05
78 90 -0.043554
79 90 -0.0529101
89 90 -9.89094e-07
90 90 0.0970977
243 90 -5.56522e-06
2369 90 -9.89094e-07
2371 90 -1.97193e-06
2378 90 -7.90649e-06
2382 90 0
2383 90 -9.89094e-07
2387 90 0
2390 90 -1.97193e-06
2392 90 -1.97193e-06
2393 90 -1.97193e-06
91 91 0.287127
92 91 -0.00122563
2390 91 -0.000124667
91 92 -0.00122272
92 92 0.103544
93 92 -0.102041
2390 92 -0.000124725
92 93 -0.102041
93 93 0.221097
95 93 -0.119048
242 93 -1.00161e-06
2390 93 -3.00484e-06
94 94 0.287157
95 94 -0.00124498
242 94 -0.285714
2377 94 -0.000124722
93 95 -0.119048
94 95 -0.00124719
95 95 0.120547
242 95 0
2377 95 -0.000124657
2390 95 0
96 96 0.101892
97 96 -1.2652e-09
2390 96 -7.03466e-05
96 97 -9.18847e-10
97 97 0.0765708
113 97 -0.0762195
2390 97 -7.03456e-05
98 98 0.286657
99 98 -0.000755259
98 99 -0.000777316
99 99 0.103095
100 99 -0.102041
99 100 -0.102041
100 100 0.260781
101 100 -0.15873
100 101 -0.15873
101 101 0.158869
106 101 -5.4893e-09
102 102 0.05146
105 102 -0.000431008
103 103 0.0511489
104 103 -0.00011958
103 104 -0.000129928
104 104 0.0410496
2377 104 -0.0406504
102 105 -0.000438334
105 105 0.0413586
2377 105 -0.0406504
101 106 -3.22276e-11
106 106 0.285772
2377 106 -0.285714
107 107 0.101892
108 107 -6.83349e-10
2377 107 -7.03433e-05
107 108 -4.96026e-10
108 108 0.0765708
113 108 -0.0762195
2377 108 -7.0342e-05
109 109 0.120486
110 109 -0.00118612
2375 109 -0.000124621
109 110 -0.00118617
110 110 0.103507
242 110 -0.102041
2375 110 -0.000124758
111 111 0.101812
112 111 -8.90008e-12
242 111 -0.101626
2375 111 -7.03084e-05
111 112 -2.17608e-09
112 112 0.152703
113 112 -0.152439
242 112 0
2375 112 -7.03527e-05
97 113 -0.0762195
108 113 -0.0762195
112 113 -0.152439
113 113 0.304934
242 113 0
2375 113 -1.96379e-05
2377 113 -5.97213e-06
2390 113 -3.98142e-06
114 114 0.0509407
115 114 -4.95526e-10
2374 114 -3.51726e-05
114 115 -4.87451e-10
115 115 0.0382864
241 115 -0.0381098
2374 115 -3.51725e-05
116 116 0.0514668
117 116 -0.000428179
2389 116 -0.000113897
116 117 -0.000432641
117 117 0.0388077
241 117 -0.0381098
2389 117 -0.000113876
118 118 0.285805
119 118 -1.65887e-09
2389 118 -3.72351e-05
118 119 -1.56403e-11
119 119 0.102133
120 119 -0.102041
2389 119 -3.61879e-05
119 120 -0.102041
120 120 0.260781
121 120 -0.15873
2374 120 -4.98303e-06
2389 120 0
120 121 -0.15873
121 121 0.158813
122 121 -2.36805e-08
2374 121 -3.8104e-05
2389 121 0
121 122 -5.39849e-10
122 122 0.285772
241 122 -0.285714
2374 122 -3.7918e-05
2389 122 0
123 123 0.0514659
124 123 -0.000427254
2394 123 -0.000113888
123 124 -0.000431837
124 124 0.0413444
240 124 -0.0406504
2394 124 -0.000113886
125 125 0.0509407
126 125 -6.19605e-10
241 125 -3.51732e-05
125 126 -6.18622e-10
126 126 0.0408239
240 126 -0.0406504
241 126 -3.51732e-05
127 127 0.287127
128 127 -0.00122556
241 127 -0.0001247
127 128 -0.00122048
128 128 0.103536
129 128 -0.102041
241 128 -0.000124701
128 129 -0.102041
129 129 0.260781
130 129 -0.15873
241 129 0
2394 129 -4.98303e-06
129 130 -0.15873
130 130 0.158867
131 130 -1.96985e-09
241 130 0
2394 130 -3.72682e-05
130 131 -1.74946e-11
131 131 0.285772
240 131 -0.285714
241 131 0
2394 131 -3.61471e-05
132 132 0.0404818
135 132 -0.000638238
2386 132 -6.57646e-05
133 133 0.0556031
134 133 -5.68434e-10
2386 133 -3.91938e-05
133 134 -2.31036e-12
134 134 0.0436843
145 134 -0.043554
2386 134 -3.91708e-05
132 135 -0.000639847
135 135 0.0536951
145 135 -0.0529101
2386 135 -6.58618e-05
136 136 0.0509407
137 136 -5.38523e-10
193 136 -3.51728e-05
136 137 -5.23792e-10
137 137 0.0408238
193 137 -3.51728e-05
238 137 -0.0406504
138 138 0.0514672
139 138 -0.000428561
145 138 -0.000113905
138 139 -0.000432929
139 139 0.0413454
145 139 -0.000113869
238 139 -0.0406504
140 140 0.285805
141 140 -1.58818e-09
145 140 -3.72275e-05
140 141 -1.4967e-11
141 141 0.10213
142 141 -0.102041
145 141 -3.6185e-05
141 142 -0.102041
142 142 0.260781
143 142 -0.15873
145 142 0
193 142 -4.98303e-06
142 143 -0.15873
143 143 0.158813
144 143 -2.2333e-08
145 143 0
193 143 -3.81025e-05
143 144 -5.08717e-10
144 144 0.285772
145 144 0
193 144 -3.7916e-05
238 144 -0.285714
134 145 -0.043554
135 145 -0.0529101
138 145 -0.000112773
139 145 -0.000112355
140 145 -3.54585e-05
141 145 -3.54558e-05
142 145 0
143 145 0
144 145 0
145 145 0.0970084
193 145 -6.23505e-06
238 145 0
2386 145 0
146 146 0.285805
147 146 -1.33736e-09
146 147 -1.81588e-11
147 147 0.102152
148 147 -0.102041
147 148 -0.102041
148 148 0.260781
149 148 -0.15873
148 149 -0.15873
149 149 0.159159
154 149 -0.000201654
150 150 0.0511537
153 150 -0.000121681
151 151 0.051461
152 151 -0.000431713
151 152 -0.000429746
152 152 0.0413516
193 152 -0.0406504
150 153 -0.000123031
153 153 0.0410422
193 153 -0.0406504
149 154 -5.99104e-06
154 154 0.285777
193 154 -0.285714
155 155 0.101876
156 155 -7.37501e-10
193 155 -7.03458e-05
155 156 -3.00127e-12
156 156 0.0764535
193 156 -7.0306e-05
2373 156 -0.0762195
157 157 0.144316
158 157 -0.00123339
193 157 -0.000124692
2373 157 -0.142857
157 158 -0.00122893
158 158 0.131357
177 158 -0.12987
193 158 -0.000124692
2373 158 0
159 159 0.144308
160 159 -0.00122549
2395 159 -0.00012464
159 160 -0.00122433
160 160 0.103541
177 160 -0.102041
2395 160 -0.000124744
161 161 0.1443
162 161 -0.00121817
2386 161 -0.000124639
161 162 -0.00121706
162 162 0.103533
177 162 -0.102041
2386 162 -0.000124744
163 163 0.0685344
171 163 -0.000374946
164 164 0.0680914
170 164 -9.1262e-10
165 165 0.204473
166 165 -0.00086257
165 166 -0.00088437
166 166 0.0776474
167 166 -0.0762195
166 167 -0.0762195
167 167 0.198188
168 167 -0.121951
167 168 -0.121951
168 168 0.122698
169 168 -0.000262055
168 169 -0.000229948
169 169 0.203835
2386 169 -0.203252
164 170 -8.07621e-12
170 170 0.0510635
2386 170 -0.0510204
163 171 -2.24258e-05
171 171 0.0510855
2386 171 -0.0510204
172 172 0.101876
173 172 -1.54233e-09
2386 172 -7.03479e-05
172 173 -9.80614e-10
173 173 0.0765638
174 173 -0.0762195
2386 173 -7.03467e-05
173 174 -0.0762195
174 174 0.177876
175 174 -0.101626
2386 174 0
2395 174 -2.06959e-05
174 175 -0.101626
175 175 0.101875
176 175 -5.54747e-10
2386 175 0
2395 175 -7.03454e-05
175 176 -2.25966e-12
176 176 0.101802
2373 176 -0.101626
2386 176 0
2395 176 -7.03062e-05
158 177 -0.12987
160 177 -0.102041
162 177 -0.102041
177 177 0.333991
193 177 -6.52301e-06
2373 177 0
2386 177 -4.14418e-06
2395 177 -3.98142e-06
178 178 0.101876
179 178 -8.40607e-10
239 178 -7.03466e-05
178 179 -3.42208e-12
179 179 0.0764535
180 179 -0.0762195
239 179 -7.03062e-05
179 180 -0.0762195
180 180 0.320838
181 180 -0.142857
192 180 -0.101626
239 180 -1.68396e-05
180 181 -0.142857
181 181 0.144314
182 181 -0.0012211
192 181 0
239 181 -0.000124701
181 182 -0.0012261
182 182 0.131343
191 182 -0.12987
192 182 0
239 182 -0.000124699
183 183 0.142986
184 183 -1.71433e-09
242 183 -3.71439e-05
183 184 -1.72788e-09
184 184 0.102209
191 184 -0.102041
242 184 -3.71705e-05
185 185 0.144308
186 185 -0.00122527
238 185 -0.000124697
185 186 -0.00122038
186 186 0.103536
191 186 -0.102041
238 186 -0.000124703
187 187 0.101876
188 187 -8.21225e-10
238 187 -7.03467e-05
187 188 -3.29934e-12
188 188 0.0764622
189 188 -0.0762195
238 188 -7.03085e-05
188 189 -0.0762195
189 189 0.177876
190 189 -0.101626
238 189 0
242 189 -2.06959e-05
189 190 -0.101626
190 190 0.101808
192 190 -1.91913e-08
238 190 0
242 190 -7.03616e-05
182 191 -0.12987
184 191 -0.102041
186 191 -0.102041
191 191 0.333991
192 191 0
238 191 -4.14418e-06
239 191 -6.52301e-06
242 191 -3.98142e-06
180 192 -0.101626
181 192 0
182 192 0
190 192 -8.12726e-11
191 192 0
192 192 0.101802
238 192 0
239 192 0
242 192 -7.03534e-05
136 193 -3.51442e-05
137 193 -3.51441e-05
142 193 -4.98303e-06
143 193 -3.5478e-05
144 193 -3.54363e-05
145 193 -6.23505e-06
152 193 -0.0406504
153 193 -0.0406504
154 193 -0.285714
155 193 -7.02889e-05
156 193 -7.02877e-05
157 193 -0.000123649
158 193 -0.000124224
177 193 -6.52301e-06
193 193 0.368114
238 193 -8.06926e-06
239 193 -9.89094e-07
242 193 -9.89094e-07
2373 193 -1.68396e-05
2386 193 -1.97193e-06
2395 193 -1.22698e-06
194 194 0.101876
195 194 -8.38681e-10
240 194 -7.03466e-05
194 195 -3.4142e-12
195 195 0.0764535
196 195 -0.0762195
240 195 -7.03062e-05
195 196 -0.0762195
196 196 0.320838
197 196 -0.142857
208 196 -0.101626
240 196 -1.68396e-05
196 197 -0.142857
197 197 0.144314
198 197 -0.00122097
208 197 0
240 197 -0.0001247
197 198 -0.00122606
198 198 0.131343
207 198 -0.12987
208 198 0
240 198 -0.0001247
199 199 0.142986
200 199 -1.79979e-09
243 199 -3.71522e-05
199 200 -1.80714e-09
200 200 0.102209
207 200 -0.102041
243 200 -3.7166e-05
201 201 0.144308
202 201 -0.00122555
241 201 -0.000124699
201 202 -0.00122055
202 202 0.103536
207 202 -0.102041
241 202 -0.000124702
203 203 0.101876
204 203 -8.13724e-10
241 203 -7.03466e-05
203 204 -3.26905e-12
204 204 0.0764622
205 204 -0.0762195
241 204 -7.03085e-05
204 205 -0.0762195
205 205 0.177876
206 205 -0.101626
241 205 0
243 205 -2.06959e-05
205 206 -0.101626
206 206 0.101808
208 206 -1.84772e-08
241 206 0
243 206 -7.03616e-05
198 207 -0.12987
200 207 -0.102041
202 207 -0.102041
207 207 0.333991
208 207 0
240 207 -6.52301e-06
241 207 -4.14418e-06
243 207 -3.98142e-06
196 208 -0.101626
197 208 0
198 208 0
206 208 -7.82464e-11
207 208 0
208 208 0.101802
240 208 0
241 208 0
243 208 -7.03533e-05
209 209 0.0687514
210 209 -0.000611216
2385 209 -6.27315e-05
209 210 -0.000608721
210 210 0.051767
237 210 -0.0510204
2385 210 -6.27328e-05
211 211 0.0687516
212 211 -0.000611441
2387 211 -6.27315e-05
211 212 -0.000608945
212 212 0.0517673
237 212 -0.0510204
2387 212 -6.27328e-05
213 213 0.203436
214 213 -1.22966e-09
2387 213 -7.03465e-05
213 214 -8.11868e-10
214 214 0.076564
215 214 -0.0762195
2387 214 -7.03454e-05
214 215 -0.0762195
215 215 0.198188
216 215 -0.121951
2385 215 -1.20569e-05
2387 215 0
215 216 -0.121951
216 216 0.122236
217 216 -5.77461e-10
2385 216 -7.03455e-05
2387 216 0
216 217 -2.35195e-12
217 217 0.203389
237 217 -0.203252
2385 217 -7.03062e-05
2387 217 0
218 218 0.0404856
221 218 -0.000642067
2395 218 -6.58301e-05
219 219 0.0556031
220 219 -4.50216e-10
2395 219 -3.91931e-05
219 220 -1.82799e-12
220 220 0.0436844
236 220 -0.043554
2395 220 -3.91706e-05
218 221 -0.00063943
221 221 0.0536943
236 221 -0.0529101
2395 221 -6.58311e-05
222 222 0.101876
223 222 -1.33145e-09
238 222 -7.03466e-05
222 223 -1.32561e-09
223 223 0.0765665
238 223 -7.03466e-05
239 223 -0.0762195
224 224 0.142928
225 224 -6.59664e-10
238 224 -3.79112e-05
239 224 -0.142857
224 225 -2.93371e-08
225 225 0.129956
235 225 -0.12987
238 225 -3.81104e-05
239 225 0
226 226 0.142986
227 226 -1.81502e-09
237 226 -3.72507e-05
226 227 -1.7213e-11
227 227 0.10213
235 227 -0.102041
237 227 -3.61981e-05
228 228 0.142986
229 228 -1.8159e-09
236 228 -3.72508e-05
228 229 -1.72214e-11
229 229 0.10213
235 229 -0.102041
236 229 -3.61981e-05
230 230 0.102927
231 230 -0.000855828
236 230 -0.000226452
230 231 -0.00086504
231 231 0.0776075
232 231 -0.0762195
236 231 -0.000226447
231 232 -0.0762195
232 232 0.177876
233 232 -0.101626
236 232 0
237 232 -2.06959e-05
232 233 -0.101626
233 233 0.102927
234 233 -0.000855801
236 233 0
237 233 -0.000226453
233 234 -0.000865
234 234 0.102917
236 234 0
237 234 -0.000226447
239 234 -0.101626
225 235 -0.12987
227 235 -0.102041
229 235 -0.102041
235 235 0.333991
236 235 -4.14418e-06
237 235 -3.98142e-06
238 235 -6.52301e-06
239 235 0
220 236 -0.043554
221 236 -0.0529101
228 236 -3.54587e-05
229 236 -3.54556e-05
230 236 -0.000225155
231 236 -0.000225098
232 236 0
233 236 0
234 236 0
235 236 -4.14418e-06
236 236 0.0972282
237 236 -6.44789e-07
238 236 0
239 236 0
240 236 -2.74818e-06
2395 236 0
210 237 -0.0510204
212 237 -0.0510204
217 237 -0.203252
226 237 -3.54587e-05
227 237 -3.54556e-05
232 237 -2.06959e-05
233 237 -0.000225165
234 237 -0.000225088
235 237 -3.98142e-06
236 237 -6.44789e-07
237 237 0.306137
238 237 -1.22698e-06
239 237 -1.26454e-06
240 237 -1.97193e-06
2385 237 -5.56522e-06
2387 237 -9.89094e-07
2395 237 0
137 238 -0.0406504
139 238 -0.0406504
144 238 -0.285714
145 238 0
185 238 -0.000123811
186 238 -0.000124062
187 238 -7.0289e-05
188 238 -7.02876e-05
189 238 0
190 238 0
191 238 -4.14418e-06
192 238 0
193 238 -8.06926e-06
222 238 -7.02883e-05
223 238 -7.02883e-05
224 238 -3.54298e-05
225 238 -3.54845e-05
235 238 -6.52301e-06
236 238 0
237 238 -1.22698e-06
238 238 0.368267
239 238 -1.78287e-05
240 238 -9.89094e-07
241 238 -9.89094e-07
242 238 -1.62762e-06
243 238 -9.89094e-07
2372 238 -2.96102e-06
2373 238 -9.89094e-07
2385 238 0
2386 238 -9.89094e-07
2387 238 0
2395 238 -1.97193e-06
178 239 -7.0289e-05
179 239 -7.02876e-05
180 239 -1.68396e-05
181 239 -0.000123996
182 239 -0.000123876
191 239 -6.52301e-06
192 239 0
193 239 -9.89094e-07
223 239 -0.0762195
224 239 -0.142857
225 239 0
234 239 -0.101626
235 239 0
236 239 0
237 239 -1.26454e-06
238 239 -1.78287e-05
239 239 0.321539
240 239 -9.89094e-07
241 239 -9.89094e-07
242 239 0
243 239 -9.89094e-07
2372 239 -1.97193e-06
2373 239 -9.89094e-07
2385 239 0
2386 239 -9.89094e-07
2387 239 0
2395 239 -1.97193e-06
124 240 -0.0406504
126 240 -0.0406504
131 240 -0.285714
194 240 -7.0289e-05
195 240 -7.02876e-05
196 240 -1.68396e-05
197 240 -0.000123959
198 240 -0.000123913
207 240 -6.52301e-06
208 240 0
236 240 -2.74818e-06
237 240 -1.97193e-06
238 240 -9.89094e-07
239 240 -9.89094e-07
240 240 0.367836
241 240 -9.89094e-07
242 240 0
243 240 0
2372 240 0
2373 240 0
2383 240 -9.89094e-07
2385 240 -9.89094e-07
2386 240 0
2387 240 -9.89094e-07
2392 240 -9.89094e-07
2394 240 -7.08642e-06
2395 240 -9.89094e-07
115 241 -0.0381098
117 241 -0.0381098
122 241 -0.285714
125 241 -3.51441e-05
126 241 -3.51441e-05
127 241 -0.000123907
128 241 -0.000123965
129 241 0
130 241 0
131 241 0
201 241 -0.000123871
202 241 -0.000124001
203 241 -7.0289e-05
204 241 -7.02876e-05
205 241 0
206 241 0
207 241 -4.14418e-06
208 241 0
238 241 -9.89094e-07
239 241 -9.89094e-07
240 241 -9.89094e-07
241 241 0.363306
242 241 -9.89094e-07
243 241 -2.61672e-06
2372 241 -1.97193e-06
2373 241 0
2374 241 -7.78755e-06
2375 241 -9.89094e-07
2383 241 -1.97193e-06
2385 241 -9.89094e-07
2386 241 0
2387 241 -1.97193e-06
2389 241 -9.89094e-07
2392 241 -1.97193e-06
2394 241 -2.80452e-06
2395 241 -1.97193e-06
93 242 -1.00161e-06
94 242 -0.285714
95 242 0
110 242 -0.102041
111 242 -0.101626
112 242 0
113 242 0
183 242 -3.54571e-05
184 242 -3.54572e-05
189 242 -2.06959e-05
190 242 -7.03056e-05
191 242 -3.98142e-06
192 242 -7.0271e-05
193 242 -9.89094e-07
238 242 -1.62762e-06
239 242 0
240 242 0
241 242 -9.89094e-07
242 242 0.490167
243 242 -1.97193e-06
2372 242 -1.97193e-06
2373 242 -9.89094e-07
2374 242 -9.89094e-07
2375 242 -4.188e-06
2377 242 -4.21304e-06
2383 242 -1.97193e-06
2385 242 -1.03918e-06
2386 242 -9.89094e-07
2387 242 -9.89094e-07
2389 242 -1.99071e-06
2390 242 -3.19891e-06
2392 242 -1.97193e-06
2394 242 0
2395 242 -9.89094e-07
56 243 -3.54576e-05
57 243 -3.54567e-05
62 243 -2.06959e-05
63 243 -0.000225187
64 243 -0.000225066
65 243 -3.98142e-06
66 243 -6.44789e-07
68 243 -0.0510204
70 243 -0.0510204
75 243 -0.203252
90 243 -5.56522e-06
199 243 -3.54571e-05
200 243 -3.54572e-05
205 243 -2.06959e-05
206 243 -7.0305e-05
207 243 -3.98142e-06
208 243 -7.02716e-05
238 243 -9.89094e-07
239 243 -9.89094e-07
240 243 0
241 243 -2.61672e-06
242 243 -1.97193e-06
243 243 0.306777
2369 243 0
2371 243 0
2372 243 -1.97193e-06
2373 243 0
2374 243 -1.97193e-06
2375 243 -1.97193e-06
2376 243 -9.89094e-07
2377 243 0
2378 243 0
2379 243 0
2382 243 0
2383 243 -2.96102e-06
2385 243 -9.89094e-07
2386 243 0
2387 243 -9.89094e-07
2389 243 -2.21607e-06
2390 243 -2.25363e-06
2392 243 -2.96102e-06
2393 243 0
2394 243 0
2395 243 -1.97193e-06
244 244 0.0404988
247 244 -0.000649865
2382 244 -6.58309e-05
245 245 0.0556031
246 245 -2.38939e-10
2382 245 -3.91912e-05
245 246 -9.68018e-13
246 246 0.0436865
2382 246 -3.91699e-05
2388 246 -0.043554
244 247 -0.000652567
247 247 0.0537046
2382 247 -6.58307e-05
2388 247 -0.0529101
248 248 0.0680914
249 248 -8.76415e-10
2388 248 -1.85774e-05
248 249 -9.67024e-10
249 249 0.0511071
324 249 -0.0510204
2388 249 -1.87408e-05
250 250 0.0687314
251 250 -0.000591235
2378 250 -6.2708e-05
250 251 -0.000590267
251 251 0.0517511
324 251 -0.0510204
2378 251 -6.27436e-05
252 252 0.0680914
260 252 -9.02652e-10
253 253 0.0685326
259 253 -0.000373146
254 254 0.203856
255 254 -0.000242497
254 255 -0.000255073
255 255 0.0878981
256 255 -0.087108
255 256 -0.087108
256 256 0.209076
257 256 -0.121951
256 257 -0.121951
257 257 0.123298
258 257 -0.000863478
257 258 -0.000830109
258 258 0.204435
2378 258 -0.203252
253 259 -2.25564e-05
259 259 0.0529765
2378 259 -0.0529101
252 260 -8.06465e-12
260 260 0.0529544
2378 260 -0.0529101
261 261 0.203436
262 261 -2.92474e-09
2378 261 -7.03539e-05
261 262 -1.18052e-11
262 262 0.076466
263 262 -0.0762195
2378 262 -7.03109e-05
262 263 -0.0762195
263 263 0.198188
264 263 -0.121951
2378 263 0
2388 263 -1.20569e-05
263 264 -0.121951
264 264 0.122157
265 264 -1.43653e-08
2378 264 0
2388 264 -7.03613e-05
264 265 -6.08261e-11
265 265 0.203389
324 265 -0.203252
2378 265 0
2388 265 -7.03532e-05
266 266 0.0687314
267 266 -0.000591219
2378 266 -6.26871e-05
266 267 -0.000591562
267 267 0.0517525
323 267 -0.0510204
2378 267 -6.27534e-05
268 268 0.0687515
269 268 -0.000611408
2387 268 -6.26889e-05
268 269 -0.000611692
269 269 0.0517727
323 269 -0.0510204
2387 269 -6.2752e-05
270 270 0.203436
271 270 -1.11392e-09
2387 270 -7.03465e-05
270 271 -5.61096e-10
271 271 0.076569
272 271 -0.0762195
2387 271 -7.03449e-05
271 272 -0.0762195
272 272 0.198188
273 272 -0.121951
2378 272 -1.20569e-05
2387 272 0
272 273 -0.121951
273 273 0.122235
274 273 -1.68906e-09
2378 273 -7.0352e-05
2387 273 0
273 274 -6.91025e-12
274 274 0.203389
323 274 -0.203252
2378 274 -7.03084e-05
2387 274 0
275 275 0.0397924
278 275 -8.78641e-10
323 275 -1.95517e-05
276 276 0.0561892
277 276 -0.000477255
323 276 -0.000126759
276 277 -0.000482285
277 277 0.0443282
322 277 -0.043554
323 277 -0.000126743
275 278 -7.75142e-12
278 278 0.0529553
322 278 -0.0529101
323 278 -1.89729e-05
279 279 0.0509407
280 279 -3.96882e-10
322 279 -3.51732e-05
279 280 -1.61029e-12
280 280 0.0407674
322 280 -3.51531e-05
2394 280 -0.0406504
281 281 0.286657
282 281 -0.000755259
281 282 -0.000777316
282 282 0.103095
283 282 -0.102041
282 283 -0.102041
283 283 0.260781
284 283 -0.15873
283 284 -0.15873
284 284 0.158869
289 284 -5.49018e-09
285 285 0.0514599
288 285 -0.000430983
286 286 0.0511487
287 286 -0.000119509
286 287 -0.000130161
287 287 0.04105
2382 287 -0.0406504
285 288 -0.000438621
288 288 0.0413589
2382 288 -0.0406504
284 289 -3.22283e-11
289 289 0.285772
2382 289 -0.285714
290 290 0.0509407
291 290 -2.11804e-10
2382 290 -3.51716e-05
290 291 -8.57498e-13
291 291 0.0407674
2382 291 -3.51525e-05
2394 291 -0.0406504
292 292 0.287152
293 292 -0.00124035
2382 292 -0.000124705
292 293 -0.00124534
293 293 0.103551
294 293 -0.102041
2382 293 -0.000124695
293 294 -0.102041
294 294 0.260781
295 294 -0.15873
322 294 -4.98303e-06
2382 294 0
294 295 -0.15873
295 295 0.160194
296 295 -0.00122036
322 295 -0.000124701
2382 295 0
295 296 -0.00122549
296 296 0.287127
322 296 -0.0001247
2382 296 0
2394 296 -0.285714
297 297 0.101876
298 297 -8.42342e-10
321 297 -7.03466e-05
297 298 -3.42916e-12
298 298 0.0764535
299 298 -0.0762195
321 298 -7.03062e-05
298 299 -0.0762195
299 299 0.320838
300 299 -0.142857
320 299 -0.101626
321 299 -1.68396e-05
299 300 -0.142857
300 300 0.144314
301 300 -0.0012209
320 300 0
321 300 -0.000124701
300 301 -0.00122595
301 301 0.131343
319 301 -0.12987
320 301 0
321 301 -0.000124699
302 302 0.142986
303 302 -1.77457e-09
324 302 -3.71498e-05
302 303 -1.78355e-09
303 303 0.102209
319 303 -0.102041
324 303 -3.71669e-05
304 304 0.144308
305 304 -0.0012257
2387 304 -0.000124698
304 305 -0.00122072
305 305 0.103537
319 305 -0.102041
2387 305 -0.000124702
306 306 0.0514664
307 306 -0.000427777
324 306 -0.000113891
306 307 -0.000432317
307 307 0.0413449
321 307 -0.0406504
324 307 -0.000113882
308 308 0.0509407
309 308 -6.16842e-10
2387 308 -3.51732e-05
308 309 -6.12557e-10
309 309 0.0408239
321 309 -0.0406504
2387 309 -3.51732e-05
310 310 0.287127
311 310 -0.0012257
2387 310 -0.000124699
310 311 -0.00122065
311 311 0.103537
312 311 -0.102041
2387 311 -0.000124701
311 312 -0.102041
312 312 0.260781
313 312 -0.15873
324 312 -4.98303e-06
2387 312 0
312 313 -0.15873
313 313 0.158867
314 313 -1.86253e-09
324 313 -3.7261e-05
2387 313 0
313 314 -1.65161e-11
314 314 0.285772
321 314 -0.285714
324 314 -3.61433e-05
2387 314 0
315 315 0.101876
316 315 -8.0999e-10
2387 315 -7.03466e-05
315 316 -3.25401e-12
316 316 0.0764622
317 316 -0.0762195
2387 316 -7.03085e-05
316 317 -0.0762195
317 317 0.177876
318 317 -0.101626
324 317 -2.06959e-05
2387 317 0
317 318 -0.101626
318 318 0.101808
320 318 -1.87062e-08
324 318 -7.03616e-05
2387 318 0
301 319 -0.12987
303 319 -0.102041
305 319 -0.102041
319 319 0.333991
320 319 0
321 319 -6.52301e-06
324 319 -3.98142e-06
2387 319 -4.14418e-06
299 320 -0.101626
300 320 0
301 320 0
318 320 -7.9217e-11
319 320 0
320 320 0.101802
321 320 0
324 320 -7.03533e-05
2387 320 0
297 321 -7.0289e-05
298 321 -7.02876e-05
299 321 -1.68396e-05
300 321 -0.000123976
301 321 -0.000123896
307 321 -0.0406504
309 321 -0.0406504
314 321 -0.285714
319 321 -6.52301e-06
320 321 0
321 321 0.367826
322 321 -2.17225e-06
323 321 -9.89094e-07
324 321 -8.51372e-06
2382 321 -9.89094e-07
2384 321 -1.97193e-06
2387 321 -9.89094e-07
2390 321 -2.37257e-06
2391 321 -1.97193e-06
2394 321 -9.89094e-07
277 322 -0.043554
278 322 -0.0529101
279 322 -3.51445e-05
280 322 -3.51438e-05
294 322 -4.98303e-06
295 322 -0.00012394
296 322 -0.000123932
321 322 -2.17225e-06
322 322 0.0971333
323 322 -9.89094e-07
324 322 -1.97193e-06
2371 322 -1.97193e-06
2382 322 -2.80452e-06
2384 322 -2.17225e-06
2387 322 -1.97193e-06
2390 322 -2.17225e-06
2391 322 -1.97193e-06
2392 322 -1.97193e-06
2393 322 -1.97193e-06
2394 322 -7.08642e-06
267 323 -0.0510204
269 323 -0.0510204
274 323 -0.203252
275 323 -1.86157e-05
276 323 -0.00012552
277 323 -0.000125335
278 323 -1.86143e-05
321 323 -9.89094e-07
322 323 -9.89094e-07
323 323 0.305897
324 323 -1.38974e-06
2371 323 -9.89094e-07
2378 323 -4.58239e-06
2382 323 0
2384 323 -9.89094e-07
2387 323 -9.89094e-07
2390 323 -1.97193e-06
2391 323 -9.89094e-07
2392 323 -9.89094e-07
2393 323 -2.29119e-06
2394 323 0
249 324 -0.0510204
251 324 -0.0510204
265 324 -0.203252
302 324 -3.54571e-05
303 324 -3.54572e-05
306 324 -0.000112616
307 324 -0.000112511
312 324 -4.98303e-06
313 324 -3.54587e-05
314 324 -3.54556e-05
317 324 -2.06959e-05
318 324 -7.03052e-05
319 324 -3.98142e-06
320 324 -7.02714e-05
321 324 -8.51372e-06
322 324 -1.97193e-06
323 324 -1.38974e-06
324 324 0.306396
2371 324 0
2378 324 0
2382 324 -9.89094e-07
2384 324 -9.89094e-07
2387 324 -4.4384e-06
2388 324 -4.58239e-06
2390 324 -2.96102e-06
2391 324 -1.97193e-06
2392 324 -9.89094e-07
2393 324 -1.03918e-06
2394 324 -9.89094e-07
325 325 0.0514658
326 325 -0.000427233
2394 325 -0.000113895
325 326 -0.000431727
326 326 0.0413442
357 326 -0.0406504
2394 326 -0.000113879
327 327 0.0514668
328 327 -0.000428188
2389 327 -0.000113895
327 328 -0.000432688
328 328 0.0413452
357 328 -0.0406504
2389 328 -0.000113879
329 329 0.285805
330 329 -1.41181e-09
2389 329 -3.71441e-05
329 330 -6.89829e-10
330 330 0.102205
331 330 -0.102041
2389 330 -3.71032e-05
330 331 -0.102041
331 331 0.260781
332 331 -0.15873
2389 331 0
2394 331 -4.98303e-06
331 332 -0.15873
332 332 0.158864
333 332 -1.07139e-09
2389 332 0
2394 332 -3.72211e-05
332 333 -9.65393e-12
333 333 0.285772
357 333 -0.285714
2389 333 0
2394 333 -3.61479e-05
334 334 0.287127
335 334 -0.00122565
357 334 -0.000124681
334 335 -0.00122181
335 335 0.103538
336 335 -0.102041
357 335 -0.000124714
335 336 -0.102041
336 336 0.221097
338 336 -0.119048
357 336 -3.00484e-06
378 336 -1.00161e-06
337 337 0.287141
338 337 -0.00122925
378 337 -0.285714
2374 337 -0.0001247
336 338 -0.119048
337 338 -0.00123389
338 338 0.120534
357 338 0
378 338 0
2374 338 -0.000124693
339 339 0.101892
340 339 -8.09237e-10
357 339 -7.03466e-05
339 340 -3.24926e-12
340 340 0.0764627
356 340 -0.0762195
357 340 -7.03086e-05
341 341 0.285805
342 341 -1.33693e-09
341 342 -1.81616e-11
342 342 0.102154
343 342 -0.102041
342 343 -0.102041
343 343 0.260781
344 343 -0.15873
343 344 -0.15873
344 344 0.15916
349 344 -0.000202617
345 345 0.0511528
348 345 -0.000121305
346 346 0.0514608
347 346 -0.000431589
346 347 -0.000431296
347 347 0.0413512
2374 347 -0.0406504
345 348 -0.000124263
348 348 0.0410418
2374 348 -0.0406504
344 349 -6.01727e-06
349 349 0.285777
2374 349 -0.285714
350 350 0.101892
351 350 -6.49189e-10
2374 350 -7.03453e-05
350 351 -2.60464e-12
351 351 0.0764627
356 351 -0.0762195
2374 351 -7.03081e-05
352 352 0.119203
353 352 -1.77591e-09
2376 352 -3.71498e-05
352 353 -1.87914e-09
353 353 0.102209
378 353 -0.102041
2376 353 -3.73397e-05
354 354 0.101812
355 354 -1.23068e-10
378 354 -0.101626
2376 354 -7.03533e-05
354 355 -2.90544e-08
355 355 0.152631
356 355 -0.152439
378 355 0
2376 355 -7.0362e-05
340 356 -0.0762195
351 356 -0.0762195
355 356 -0.152439
356 356 0.304934
357 356 -3.98142e-06
378 356 0
2374 356 -5.97213e-06
2376 356 -1.96379e-05
326 357 -0.0406504
328 357 -0.0406504
333 357 -0.285714
334 357 -0.000123273
335 357 -0.000124601
336 357 -3.00484e-06
338 357 0
339 357 -7.0289e-05
340 357 -7.02876e-05
356 357 -3.98142e-06
357 357 0.367735
378 357 -2.21607e-06
2374 357 -9.89094e-07
2376 357 0
2389 357 0
2394 357 -6.09733e-06
358 358 0.287127
359 358 -0.00122566
2390 358 -0.000124699
358 359 -0.00122061
359 359 0.103537
360 359 -0.102041
2390 359 -0.000124701
359 360 -0.102041
360 360 0.221097
362 360 -0.119048
377 360 -1.00161e-06
2390 360 -3.00484e-06
361 361 0.285772
362 361 -1.65231e-11
377 361 -0.285714
2376 361 -3.61434e-05
360 362 -0.119048
361 362 -1.86317e-09
362 362 0.119203
377 362 0
2376 362 -3.7261e-05
2390 362 0
363 363 0.101892
364 363 -1.31505e-09
2390 363 -7.03466e-05
363 364 -1.29796e-09
364 364 0.0765664
376 364 -0.0762195
2390 364 -7.03465e-05
365 365 0.102944
366 365 -0.000856709
2376 365 -0.000226467
365 366 -0.000865735
366 366 0.0776081
376 366 -0.0762195
2376 366 -0.000226433
367 367 0.0556031
368 367 -4.4946e-10
377 367 -3.91931e-05
367 368 -1.82491e-12
368 368 0.0436844
369 368 -0.043554
377 368 -3.91706e-05
368 369 -0.043554
369 369 0.0965667
371 369 -0.0529101
377 369 0
370 370 0.0404857
371 370 -0.000642094
377 370 -6.58305e-05
369 371 -0.0529101
370 371 -0.000639433
371 371 0.0536943
377 371 -6.5831e-05
372 372 0.119203
373 372 -1.89686e-09
378 372 -3.72567e-05
372 373 -1.68592e-11
373 373 0.102127
377 373 -0.102041
378 373 -3.61448e-05
374 374 0.102934
375 374 -0.000865321
377 374 -0.101626
378 374 -0.000226447
374 375 -0.000856119
375 375 0.153755
376 375 -0.152439
377 375 0
378 375 -0.000226453
364 376 -0.0762195
366 376 -0.0762195
375 376 -0.152439
376 376 0.304934
377 376 0
378 376 -1.96379e-05
2376 376 -5.97213e-06
2390 376 -3.98142e-06
360 377 -1.00161e-06
361 377 -0.285714
362 377 0
367 377 -3.9161e-05
368 377 -3.91603e-05
369 377 0
370 377 -6.50562e-05
371 377 -6.50766e-05
373 377 -0.102041
374 377 -0.101626
375 377 0
376 377 0
377 377 0.489941
378 377 -2.21607e-06
2371 377 -9.89094e-07
2376 377 -4.21304e-06
2384 377 -9.89094e-07
2390 377 -4.188e-06
2391 377 -1.97193e-06
2394 377 -1.97193e-06
336 378 -1.00161e-06
337 378 -0.285714
338 378 0
353 378 -0.102041
354 378 -0.101626
355 378 0
356 378 0
357 378 -2.21607e-06
372 378 -3.54588e-05
373 378 -3.54555e-05
374 378 -0.000225095
375 378 -0.000225158
376 378 -1.96379e-05
377 378 -2.21607e-06
378 378 0.49026
2369 378 -9.89094e-07
2371 378 0
2374 378 -4.21304e-06
2376 378 -4.188e-06
2384 378 0
2389 378 -1.97193e-06
2390 378 -9.89094e-07
2391 378 -9.89094e-07
2393 378 -9.89094e-07
2394 378 -1.97193e-06
379 379 0.0404735
391 379 -0.00062989
440 379 -6.57846e-05
380 380 0.0685336
388 380 -0.000374074
381 381 0.0680914
387 381 -9.07785e-10
382 382 0.204473
383 382 -0.000862862
382 383 -0.000881123
383 383 0.0885281
384 383 -0.087108
383 384 -0.087108
384 384 0.209076
385 384 -0.121951
384 385 -0.121951
385 385 0.12269
386 385 -0.000249335
385 386 -0.000211799
386 386 0.203809
440 386 -0.203252
381 387 -8.07049e-12
387 387 0.0529542
440 387 -0.0529101
380 388 -2.24875e-05
388 388 0.0529763
440 388 -0.0529101
389 389 0.0556031
390 389 -9.41374e-10
440 389 -3.91954e-05
389 390 -3.83241e-12
390 390 0.0436864
440 390 -3.91713e-05
2389 390 -0.043554
379 391 -0.00063019
391 391 0.0536878
440 391 -6.58523e-05
2389 391 -0.0529101
392 392 0.0514672
393 392 -0.00042861
439 392 -0.000113896
392 393 -0.000433095
393 393 0.0388081
415 393 -0.0381098
439 393 -0.000113878
394 394 0.0514659
395 394 -0.00042728
2388 394 -0.000113896
394 395 -0.000431756
395 395 0.0388068
415 395 -0.0381098
2388 395 -0.000113878
396 396 0.285805
397 396 -1.56421e-09
2388 396 -3.71605e-05
396 397 -7.76958e-10
397 397 0.10221
398 397 -0.102041
2388 397 -3.71199e-05
397 398 -0.102041
398 398 0.260781
399 398 -0.15873
439 398 -4.98303e-06
2388 398 0
398 399 -0.15873
399 399 0.158864
400 399 -9.32762e-10
439 399 -3.71966e-05
2388 399 0
399 400 -8.3831e-12
400 400 0.285772
415 400 -0.285714
439 400 -3.61381e-05
2388 400 0
401 401 0.0404857
404 401 -0.00064211
415 401 -6.58299e-05
402 402 0.0556031
403 402 -4.49047e-10
415 402 -3.91931e-05
402 403 -1.82323e-12
403 403 0.0436865
414 403 -0.043554
415 403 -3.91706e-05
401 404 -0.000639485
404 404 0.0536969
414 404 -0.0529101
415 404 -6.58312e-05
405 405 0.0680914
406 405 -9.35538e-10
2381 405 -1.86307e-05
405 406 -8.26472e-12
406 406 0.051065
2381 406 -1.80733e-05
2395 406 -0.0510204
407 407 0.0680914
408 407 -9.13186e-10
414 407 -1.86286e-05
407 408 -8.064e-12
408 408 0.051065
414 408 -1.80725e-05
2395 408 -0.0510204
409 409 0.204486
410 409 -0.000855819
414 409 -0.000226458
409 410 -0.000864958
410 410 0.0776137
411 410 -0.0762195
414 410 -0.000226442
410 411 -0.0762195
411 411 0.198188
412 411 -0.121951
414 411 0
2381 411 -1.20569e-05
411 412 -0.121951
412 412 0.123288
413 412 -0.000855235
414 412 0
2381 412 -0.000226464
412 413 -0.00086428
413 413 0.204476
414 413 0
2381 413 -0.000226435
2395 413 -0.203252
403 414 -0.043554
404 414 -0.0529101
407 414 -1.77293e-05
408 414 -1.77278e-05
409 414 -0.000225219
410 414 -0.000225034
411 414 0
412 414 0
413 414 0
414 414 0.0971748
415 414 0
2372 414 -9.13973e-07
2381 414 -7.98162e-06
2395 414 0
393 415 -0.0381098
395 415 -0.0381098
400 415 -0.285714
401 415 -6.50374e-05
402 415 -3.9161e-05
403 415 -3.91603e-05
404 415 -6.50954e-05
414 415 0
415 415 0.362513
439 415 -7.08642e-06
2372 415 -1.97193e-06
2381 415 0
2388 415 0
2395 415 -9.89094e-07
416 416 0.0404645
419 416 -0.000620961
2378 416 -6.57736e-05
417 417 0.0556031
418 417 -1.60954e-09
2378 417 -3.91971e-05
417 418 -6.56468e-12
418 418 0.0436864
438 418 -0.043554
2378 418 -3.91718e-05
416 419 -0.000621926
419 419 0.0536796
438 419 -0.0529101
2378 419 -6.58585e-05
420 420 0.0514672
421 420 -0.000428581
439 420 -0.000113905
420 421 -0.000432944
421 421 0.0388079
439 421 -0.000113868
2385 421 -0.0381098
422 422 0.051467
423 422 -0.000428348
438 422 -0.000113905
422 423 -0.000432709
423 423 0.0388077
438 423 -0.000113868
2385 423 -0.0381098
424 424 0.285805
425 424 -1.40736e-09
438 424 -3.71405e-05
424 425 -7.17469e-10
425 425 0.10221
426 425 -0.102041
438 425 -3.71013e-05
425 426 -0.102041
426 426 0.260781
427 426 -0.15873
438 426 0
439 426 -4.98303e-06
426 427 -0.15873
427 427 0.158864
428 427 -9.47515e-10
438 427 0
439 427 -3.71976e-05
427 428 -8.51368e-12
428 428 0.285772
438 428 0
439 428 -3.61381e-05
2385 428 -0.285714
429 429 0.0687318
430 429 -0.000591624
2375 429 -6.26654e-05
429 430 -0.00059332
430 430 0.0517544
439 430 -0.0510204
2375 430 -6.27637e-05
431 431 0.0687398
432 431 -0.000599687
440 431 -6.26663e-05
431 432 -0.000601367
432 432 0.0517625
439 432 -0.0510204
440 432 -6.27626e-05
433 433 0.203436
434 433 -2.19714e-09
440 433 -7.03508e-05
433 434 -9.33811e-10
434 434 0.0765684
435 434 -0.0762195
440 434 -7.03487e-05
434 435 -0.0762195
435 435 0.198188
436 435 -0.121951
440 435 0
2375 435 -1.20569e-05
435 436 -0.121951
436 436 0.122235
437 436 -1.4991e-09
440 436 0
2375 436 -7.03515e-05
436 437 -6.13345e-12
437 437 0.203389
439 437 -0.203252
440 437 0
2375 437 -7.03084e-05
418 438 -0.043554
419 438 -0.0529101
422 438 -0.000112777
423 438 -0.00011235
424 438 -3.54577e-05
425 438 -3.54566e-05
426 438 0
427 438 0
428 438 0
438 438 0.0970846
439 438 -3.86248e-06
440 438 -9.89094e-07
2375 438 -9.89094e-07
2378 438 0
2385 438 -9.89094e-07
392 439 -0.000112669
393 439 -0.000112458
398 439 -4.98303e-06
399 439 -3.54579e-05
400 439 -3.54564e-05
415 439 -7.08642e-06
420 439 -0.000112777
421 439 -0.00011235
426 439 -4.98303e-06
427 439 -3.5458e-05
428 439 -3.54563e-05
430 439 -0.0510204
432 439 -0.0510204
437 439 -0.203252
438 439 -3.86248e-06
439 439 0.306359
440 439 0
2372 439 0
2375 439 -4.58239e-06
2378 439 0
2379 439 -6.65448e-06
2381 439 0
2385 439 -6.09733e-06
2388 439 -2.87964e-06
2395 439 0
379 440 -6.35515e-05
386 440 -0.203252
387 440 -0.0529101
388 440 -0.0529101
389 440 -3.91614e-05
390 440 -3.91599e-05
391 440 -6.65849e-05
431 440 -5.98026e-05
432 440 -6.41385e-05
433 440 -7.02893e-05
434 440 -7.02873e-05
435 440 0
436 440 0
437 440 0
438 440 -9.89094e-07
439 440 0
440 440 0.310096
1067 440 -9.89094e-07
1068 440 -9.89094e-07
2370 440 -9.89094e-07
2372 440 0
2375 440 -8.89559e-06
2378 440 -9.89094e-07
2379 440 -9.89094e-07
2380 440 -9.89094e-07
2381 440 -9.89094e-07
2385 440 0
2388 440 -9.89094e-07
2389 440 0
2395 440 0
441 441 0.0404858
444 441 -0.000642196
459 441 -6.58304e-05
442 442 0.0556031
443 442 -4.46704e-10
459 442 -3.9193e-05
442 443 -1.81368e-12
443 443 0.0470334
449 443 -0.0469043
459 443 -3.91706e-05
441 444 -0.000639539
444 444 0.0557295
449 444 -0.0549451
459 444 -6.5831e-05
445 445 0.0397924
448 445 -9.66368e-10
449 445 -1.95604e-05
446 446 0.056183
447 446 -0.000481354
449 446 -0.000126717
446 447 -0.000477102
447 447 0.0476814
449 447 -0.000126769
2367 447 -0.0469043
445 448 -8.53541e-12
448 448 0.0549913
449 448 -1.89761e-05
2367 448 -0.0549451
443 449 -0.0469043
444 449 -0.0549451
445 449 -1.86158e-05
446 449 -0.000125032
447 449 -0.000125826
448 449 -1.86142e-05
449 449 0.102391
459 449 0
2367 449 0
450 450 0.0680914
451 450 -9.1386e-10
1066 450 -1.86286e-05
450 451 -8.06947e-12
451 451 0.0529541
459 451 -0.0529101
1066 451 -1.80725e-05
452 452 0.0680914
453 452 -8.63517e-10
2373 452 -1.86237e-05
452 453 -7.61768e-12
453 453 0.0529541
459 453 -0.0529101
2373 453 -1.80706e-05
454 454 0.204487
455 454 -0.00085686
2373 454 -0.000226461
454 455 -0.000865961
455 455 0.0884927
456 455 -0.087108
2373 455 -0.000226439
455 456 -0.087108
456 456 0.209076
457 456 -0.121951
1066 456 -1.20569e-05
2373 456 0
456 457 -0.121951
457 457 0.123279
458 457 -0.000864909
1066 457 -0.000226448
2373 457 0
457 458 -0.000855691
458 458 0.204486
459 458 -0.203252
1066 458 -0.000226451
2373 458 0
441 459 -6.50541e-05
442 459 -3.9161e-05
443 459 -3.91603e-05
444 459 -6.50787e-05
449 459 0
451 459 -0.0529101
453 459 -0.0529101
458 459 -0.203252
459 459 0.309574
1066 459 -4.58239e-06
2367 459 0
2373 459 0
460 460 0.0680914
461 460 -8.81436e-10
2366 460 -1.85779e-05
460 461 -9.46652e-10
461 461 0.0529943
502 461 -0.0529101
2366 461 -1.86967e-05
462 462 0.0687528
463 462 -0.00061266
2364 462 -6.27154e-05
462 463 -0.000611221
463 463 0.0536594
502 463 -0.0529101
2364 463 -6.27398e-05
464 464 0.068535
472 464 -0.000375493
465 465 0.0680914
471 465 -9.15639e-10
466 466 0.204473
467 466 -0.000862408
466 467 -0.000886155
467 467 0.0776522
468 467 -0.0762195
467 468 -0.0762195
468 468 0.198188
469 468 -0.121951
468 469 -0.121951
469 469 0.122703
470 469 -0.000269586
469 470 -0.000242508
470 470 0.203853
2364 470 -0.203252
465 471 -8.0799e-12
471 471 0.0510648
2364 471 -0.0510204
464 472 -2.23881e-05
472 472 0.0510868
2364 472 -0.0510204
473 473 0.203436
474 473 -7.49821e-10
2364 473 -7.03461e-05
473 474 -3.0114e-12
474 474 0.0873483
475 474 -0.087108
2364 474 -7.03083e-05
474 475 -0.087108
475 475 0.209076
476 475 -0.121951
2364 475 0
2366 475 -1.20569e-05
475 476 -0.121951
476 476 0.122157
477 476 -1.81166e-08
2364 476 0
2366 476 -7.03615e-05
476 477 -7.67188e-11
477 477 0.203389
502 477 -0.203252
2364 477 0
2366 477 -7.03533e-05
478 478 0.101876
479 478 -8.42124e-10
500 478 -7.03466e-05
478 479 -3.42817e-12
479 479 0.0873397
500 479 -7.03062e-05
2372 479 -0.087108
480 480 0.144308
481 480 -0.00122536
500 480 -0.000124695
2372 480 -0.142857
480 481 -0.00122045
481 481 0.131348
500 481 -0.000124706
501 481 -0.12987
2372 481 0
482 482 0.142986
483 482 -1.79972e-09
502 482 -3.71523e-05
482 483 -1.78764e-09
483 483 0.102209
501 483 -0.102041
502 483 -3.71518e-05
484 484 0.144315
485 484 -0.00122203
2367 484 -0.000124705
484 485 -0.00122696
485 485 0.103533
501 485 -0.102041
2367 485 -0.000124695
486 486 0.0514663
487 486 -0.000427646
502 486 -0.000113891
486 487 -0.000432187
487 487 0.0413427
500 487 -0.0406504
502 487 -0.000113882
488 488 0.0509407
489 488 -5.8869e-10
2367 488 -3.51731e-05
488 489 -5.8473e-10
489 489 0.0408218
500 489 -0.0406504
2367 489 -3.51731e-05
490 490 0.287129
491 490 -0.00122717
2367 490 -0.000124699
490 491 -0.0012221
491 491 0.103538
492 491 -0.102041
2367 491 -0.000124701
491 492 -0.102041
492 492 0.260781
493 492 -0.15873
502 492 -4.98303e-06
2367 492 0
492 493 -0.15873
493 493 0.158867
494 493 -1.88764e-09
502 493 -3.72618e-05
2367 493 0
493 494 -1.67489e-11
494 494 0.285772
500 494 -0.285714
502 494 -3.61442e-05
2367 494 0
495 495 0.101876
496 495 -7.72948e-10
2367 495 -7.03463e-05
495 496 -3.10465e-12
496 496 0.0873482
497 496 -0.087108
2367 496 -7.03084e-05
496 497 -0.087108
497 497 0.188765
498 497 -0.101626
502 497 -2.06959e-05
2367 497 0
497 498 -0.101626
498 498 0.101808
499 498 -1.86491e-08
502 498 -7.03616e-05
2367 498 0
498 499 -7.89746e-11
499 499 0.101802
502 499 -7.03533e-05
2367 499 0
2372 499 -0.101626
478 500 -7.0289e-05
479 500 -7.02876e-05
480 500 -0.000123742
481 500 -0.00012413
487 500 -0.0406504
489 500 -0.0406504
494 500 -0.285714
500 500 0.367721
501 500 -6.52301e-06
502 500 -6.34147e-06
2367 500 0
2372 500 -1.68396e-05
481 501 -0.12987
483 501 -0.102041
485 501 -0.102041
500 501 -6.52301e-06
501 501 0.333991
502 501 -3.98142e-06
2367 501 -4.14418e-06
2372 501 0
461 502 -0.0529101
463 502 -0.0529101
477 502 -0.203252
482 502 -3.54572e-05
483 502 -3.54571e-05
486 502 -0.000112614
487 502 -0.000112512
492 502 -4.98303e-06
493 502 -3.54587e-05
494 502 -3.54556e-05
497 502 -2.06959e-05
498 502 -7.03051e-05
499 502 -7.02715e-05
500 502 -6.34147e-06
501 502 -3.98142e-06
502 502 0.310161
1066 502 -9.89094e-07
2364 502 0
2366 502 -4.58239e-06
2367 502 -5.49636e-06
2372 502 -1.26454e-06
2373 502 -9.89094e-07
2381 502 -1.97193e-06
503 503 0.0514618
504 503 -0.000432439
2373 503 -0.000113879
503 504 -0.000428042
504 504 0.0413478
2373 504 -0.00011389
2379 504 -0.0406504
505 505 0.0514616
506 505 -0.000432253
539 505 -0.000113879
505 506 -0.000427858
506 506 0.0413476
539 506 -0.00011389
2379 506 -0.0406504
507 507 0.285805
508 507 -1.49768e-09
539 507 -3.7154e-05
507 508 -7.3438e-10
508 508 0.102205
509 508 -0.102041
539 508 -3.7113e-05
508 509 -0.102041
509 509 0.260781
510 509 -0.15873
539 509 0
2373 509 -4.98303e-06
509 510 -0.15873
510 510 0.158864
511 510 -1.00728e-09
539 510 0
2373 510 -3.72104e-05
510 511 -9.0649e-12
511 511 0.285772
539 511 0
2373 511 -3.61435e-05
2379 511 -0.285714
512 512 0.0514613
513 512 -0.000431915
1066 512 -0.000113885
512 513 -0.000427367
513 513 0.0413471
1066 513 -0.000113888
2380 513 -0.0406504
514 514 0.0514617
515 514 -0.000432265
539 514 -0.000113885
514 515 -0.000427714
515 515 0.0413474
539 515 -0.000113888
2380 515 -0.0406504
516 516 0.285805
517 516 -1.48831e-09
539 516 -3.7154e-05
516 517 -7.18601e-10
517 517 0.102205
518 517 -0.102041
539 517 -3.71125e-05
517 518 -0.102041
518 518 0.260781
519 518 -0.15873
539 518 0
1066 518 -4.98303e-06
518 519 -0.15873
519 519 0.158864
520 519 -1.05686e-09
539 519 0
1066 519 -3.72195e-05
519 520 -9.52231e-12
520 520 0.285772
539 520 0
1066 520 -3.61474e-05
2380 520 -0.285714
521 521 0.0687517
522 521 -0.000611596
2368 521 -6.2715e-05
521 522 -0.000610183
522 522 0.0536583
539 522 -0.0529101
2368 522 -6.27402e-05
523 523 0.0687324
524 523 -0.000592189
2362 523 -6.27142e-05
523 524 -0.000590832
524 524 0.0536389
539 524 -0.0529101
2362 524 -6.27406e-05
525 525 0.0680914
533 525 -9.03228e-10
526 526 0.0685327
532 526 -0.00037325
527 527 0.203856
528 527 -0.000242169
527 528 -0.000256163
528 528 0.0770127
529 528 -0.0762195
528 529 -0.0762195
529 529 0.198188
530 529 -0.121951
529 530 -0.121951
530 530 0.1233
531 530 -0.000865062
530 531 -0.00083157
531 531 0.204437
2362 531 -0.203252
526 532 -2.25486e-05
532 532 0.0529772
2362 532 -0.0529101
525 533 -8.06529e-12
533 533 0.0529551
2362 533 -0.0529101
534 534 0.203436
535 534 -3.87431e-09
2362 534 -7.03535e-05
534 535 -2.06802e-09
535 535 0.0874474
536 535 -0.087108
2362 535 -7.03517e-05
535 536 -0.087108
536 536 0.209076
537 536 -0.121951
2362 536 0
2368 536 -1.20569e-05
536 537 -0.121951
537 537 0.122236
538 537 -4.79414e-10
2362 537 0
2368 537 -7.03449e-05
537 538 -1.95291e-12
538 538 0.203389
539 538 -0.203252
2362 538 0
2368 538 -7.03062e-05
505 539 -0.000112472
506 539 -0.000112655
507 539 -3.54578e-05
508 539 -3.54565e-05
509 539 0
510 539 0
511 539 0
514 539 -0.000112541
515 539 -0.000112585
516 539 -3.54578e-05
517 539 -3.54565e-05
518 539 0
519 539 0
520 539 0
522 539 -0.0529101
524 539 -0.0529101
538 539 -0.203252
539 539 0.310145
1066 539 -2.87964e-06
2362 539 0
2368 539 -4.58239e-06
2373 539 -3.86248e-06
2379 539 -9.89094e-07
2380 539 0
2381 539 -2.96102e-06
540 540 0.0397924
543 540 -9.65582e-10
555 540 -1.95603e-05
541 541 0.0561882
542 541 -0.000476269
555 541 -0.000126759
541 542 -0.000481295
542 542 0.0443307
555 542 -0.000126743
2387 542 -0.043554
540 543 -8.53202e-12
543 543 0.0529569
555 543 -1.89762e-05
2387 543 -0.0529101
544 544 0.0509407
545 544 -3.91795e-10
589 544 -3.51732e-05
544 545 -1.5896e-12
545 545 0.0382286
555 545 -0.0381098
589 545 -3.51531e-05
546 546 0.0514613
547 546 -0.000431904
546 547 -0.000427356
547 547 0.041347
1065 547 -0.0406504
548 548 0.0509407
549 548 -3.92475e-10
1065 548 -3.51732e-05
548 549 -1.59237e-12
549 549 0.0382286
555 549 -0.0381098
1065 549 -3.51531e-05
550 550 0.287127
551 550 -0.00122605
1065 550 -0.0001247
550 551 -0.00122095
551 551 0.103542
552 551 -0.102041
1065 551 -0.000124701
551 552 -0.102041
552 552 0.260781
553 552 -0.15873
589 552 -4.98303e-06
1065 552 0
552 553 -0.15873
553 553 0.160189
554 553 -0.00122613
589 553 -0.0001247
1065 553 0
553 554 -0.00122104
554 554 0.287133
555 554 -0.285714
589 554 -0.000124701
1065 554 0
540 555 -1.86158e-05
541 555 -0.000125517
542 555 -0.000125338
543 555 -1.86142e-05
545 555 -0.0381098
549 555 -0.0381098
554 555 -0.285714
555 555 0.3625
589 555 -6.09733e-06
1065 555 0
2372 555 -9.13973e-07
2387 555 0
556 556 0.0397924
559 556 -9.4712e-10
1064 556 -1.95585e-05
557 557 0.0561833
558 557 -0.000481619
1064 557 -0.000126747
557 558 -0.000476584
558 558 0.0476808
589 558 -0.0469043
1064 558 -0.000126753
556 559 -8.36513e-12
559 559 0.0549913
589 559 -0.0549451
1064 559 -1.89755e-05
560 560 0.0687513
561 560 -0.0006112
2385 560 -6.27105e-05
560 561 -0.000610081
561 561 0.051771
588 561 -0.0510204
2385 561 -6.27422e-05
562 562 0.0687478
563 562 -0.000607686
2386 562 -6.27102e-05
562 563 -0.000606587
563 563 0.0517675
588 563 -0.0510204
2386 563 -6.27421e-05
564 564 0.203436
565 564 -1.54309e-09
2386 564 -7.03479e-05
564 565 -9.81021e-10
565 565 0.07657
566 565 -0.0762195
2386 565 -7.03467e-05
565 566 -0.0762195
566 566 0.198188
567 566 -0.121951
2385 566 -1.20569e-05
2386 566 0
566 567 -0.121951
567 567 0.122236
568 567 -5.59984e-10
2385 567 -7.03455e-05
2386 567 0
567 568 -2.28103e-12
568 568 0.203389
588 568 -0.203252
2385 568 -7.03062e-05
2386 568 0
569 569 0.0397924
572 569 -9.21293e-10
588 569 -1.9556e-05
570 570 0.0561887
571 570 -0.00047677
588 570 -0.000126756
570 571 -0.000481841
571 571 0.0443313
587 571 -0.043554
588 571 -0.000126746
569 572 -8.13393e-12
572 572 0.0529569
587 572 -0.0529101
588 572 -1.89746e-05
573 573 0.287127
574 573 -0.00122605
1065 573 -0.0001247
573 574 -0.00122095
574 574 0.103542
575 574 -0.102041
1065 574 -0.000124701
574 575 -0.102041
575 575 0.221097
577 575 -0.119048
1065 575 -3.00484e-06
1066 575 -1.00161e-06
576 576 0.287133
577 576 -0.00122104
589 576 -0.000124701
1066 576 -0.285714
575 577 -0.119048
576 577 -0.00122614
577 577 0.120526
589 577 -0.0001247
1065 577 0
1066 577 0
578 578 0.101892
579 578 -1.27456e-09
1065 578 -7.03465e-05
578 579 -1.01125e-09
579 579 0.0765713
586 579 -0.0762195
1065 579 -7.03458e-05
580 580 0.101892
581 580 -1.27234e-09
589 580 -7.03465e-05
580 581 -1.00949e-09
581 581 0.0765713
586 581 -0.0762195
589 581 -7.03458e-05
582 582 0.120526
583 582 -0.00122581
587 582 -0.000124699
582 583 -0.00122075
583 583 0.103542
587 583 -0.000124701
1066 583 -0.102041
584 584 0.101812
585 584 -2.72686e-12
587 584 -7.03062e-05
1066 584 -0.101626
584 585 -6.69668e-10
585 585 0.152703
586 585 -0.152439
587 585 -7.03459e-05
1066 585 0
579 586 -0.0762195
581 586 -0.0762195
585 586 -0.152439
586 586 0.304934
587 586 -1.96379e-05
589 586 -5.97213e-06
1065 586 -3.98142e-06
1066 586 0
571 587 -0.043554
572 587 -0.0529101
582 587 -0.0001239
583 587 -0.000123972
584 587 -7.02878e-05
585 587 -7.02888e-05
586 587 -1.96379e-05
587 587 0.0971791
588 587 0
589 587 -9.89094e-07
1065 587 -9.89094e-07
1066 587 -2.21607e-06
2372 587 -1.97193e-06
2385 587 -1.97193e-06
561 588 -0.0510204
563 588 -0.0510204
568 588 -0.203252
569 588 -1.86158e-05
570 588 -0.000125481
571 588 -0.000125374
572 588 -1.86142e-05
587 588 0
588 588 0.305914
589 588 0
1065 588 0
1066 588 0
1067 588 -9.89094e-07
2370 588 -9.89094e-07
2372 588 -1.97193e-06
2385 588 -4.58239e-06
2386 588 0
544 589 -3.51445e-05
545 589 -3.51438e-05
552 589 -4.98303e-06
553 589 -0.000123919
554 589 -0.000123953
555 589 -6.09733e-06
558 589 -0.0469043
559 589 -0.0549451
576 589 -0.000123952
577 589 -0.00012392
580 589 -7.02885e-05
581 589 -7.02881e-05
586 589 -5.97213e-06
587 589 -9.89094e-07
588 589 0
589 589 0.103126
1064 589 0
1065 589 -5.8344e-06
1066 589 -4.21304e-06
1067 589 -9.89094e-07
1068 589 -9.89094e-07
2367 589 -1.97193e-06
2370 589 -9.89094e-07
2372 589 -2.96102e-06
2385 589 0
2386 589 0
2387 589 0
590 590 0.0404888
593 590 -0.00063987
767 590 -6.58312e-05
591 591 0.0556031
592 591 -4.37184e-10
767 591 -3.9193e-05
591 592 -1.77489e-12
592 592 0.0470334
767 592 -3.91706e-05
1068 592 -0.0469043
590 593 -0.000642538
593 593 0.0557271
767 593 -6.58304e-05
1068 593 -0.0549451
594 594 0.0514614
595 594 -0.000431999
766 594 -0.000113882
594 595 -0.000427532
595 595 0.0413507
632 595 -0.0406504
766 595 -0.000113889
596 596 0.0514619
597 596 -0.000432477
1057 596 -0.000113882
596 597 -0.000428006
597 597 0.0413512
632 597 -0.0406504
1057 597 -0.000113889
598 598 0.285805
599 598 -1.45906e-09
1057 598 -3.715e-05
598 599 -7.10115e-10
599 599 0.102208
600 599 -0.102041
1057 599 -3.71089e-05
599 600 -0.102041
600 600 0.260781
601 600 -0.15873
766 600 -4.98303e-06
1057 600 0
600 601 -0.15873
601 601 0.158864
602 601 -1.05166e-09
766 601 -3.72182e-05
1057 601 0
601 602 -9.47273e-12
602 602 0.285772
632 602 -0.285714
766 602 -3.61467e-05
1057 602 0
603 603 0.287127
604 603 -0.00122594
1061 603 -0.000124699
603 604 -0.00122088
604 604 0.10354
605 604 -0.102041
1061 604 -0.000124701
604 605 -0.102041
605 605 0.221097
607 605 -0.119048
767 605 -1.00161e-06
1061 605 -3.00484e-06
606 606 0.285772
607 606 -1.70133e-11
767 606 -0.285714
1059 606 -3.61451e-05
605 607 -0.119048
606 607 -1.91769e-09
607 607 0.119203
767 607 0
1059 607 -3.72653e-05
1061 607 0
608 608 0.101892
609 608 -1.30338e-09
1061 608 -7.03465e-05
608 609 -1.31731e-09
609 609 0.0765693
616 609 -0.0762195
1061 609 -7.04106e-05
610 610 0.102934
611 610 -0.000865451
1059 610 -0.000226441
610 611 -0.000856423
611 611 0.0776201
616 611 -0.0762195
1059 611 -0.000226456
612 612 0.119203
613 612 -1.99705e-09
631 612 -3.72656e-05
612 613 -1.77606e-11
613 613 0.10213
631 613 -3.6148e-05
767 613 -0.102041
614 614 0.102943
615 614 -0.000856023
631 614 -0.000226459
767 614 -0.101626
614 615 -0.000864822
615 615 0.153745
616 615 -0.152439
631 615 -0.000226434
767 615 0
609 616 -0.0762195
611 616 -0.0762195
615 616 -0.152439
616 616 0.304934
631 616 -1.96379e-05
767 616 0
1059 616 -5.97213e-06
1061 616 -3.98142e-06
617 617 0.287133
618 617 -0.00122101
632 617 -0.000124712
617 618 -0.00122568
618 618 0.103534
619 618 -0.102041
632 618 -0.000124688
618 619 -0.102041
619 619 0.221097
621 619 -0.119048
631 619 -1.00161e-06
632 619 -3.00484e-06
620 620 0.287146
621 620 -0.00124469
631 620 -0.285714
1056 620 -0.000124693
619 621 -0.119048
620 621 -0.0012398
621 621 0.12055
631 621 0
632 621 0
1056 621 -0.000124708
622 622 0.101892
623 622 -7.96285e-10
632 622 -7.03465e-05
622 623 -3.19687e-12
623 623 0.0764644
630 623 -0.0762195
632 623 -7.03086e-05
624 624 0.101892
625 624 -4.3139e-10
1056 624 -7.03433e-05
624 625 -1.72815e-12
625 625 0.0764644
630 625 -0.0762195
1056 625 -7.03073e-05
626 626 0.119203
627 626 -1.82755e-09
1059 626 -3.71549e-05
626 627 -1.7813e-09
627 627 0.102212
631 627 -0.102041
1059 627 -3.71531e-05
628 628 0.101812
629 628 -1.26147e-10
631 628 -0.101626
1059 628 -7.03533e-05
628 629 -2.97813e-08
629 629 0.152631
630 629 -0.152439
631 629 0
1059 629 -7.0362e-05
623 630 -0.0762195
625 630 -0.0762195
629 630 -0.152439
630 630 0.304934
631 630 0
632 630 -3.98142e-06
1056 630 -5.97213e-06
1059 630 -1.96379e-05
612 631 -3.54588e-05
613 631 -3.54555e-05
614 631 -0.000225318
615 631 -0.000224936
616 631 -1.96379e-05
619 631 -1.00161e-06
620 631 -0.285714
621 631 0
627 631 -0.102041
628 631 -0.101626
629 631 0
630 631 0
631 631 0.490223
632 631 -3.19891e-06
767 631 -2.21607e-06
1056 631 -5.19588e-06
1059 631 -2.21607e-06
1061 631 0
595 632 -0.0406504
597 632 -0.0406504
602 632 -0.285714
617 632 -0.000124347
618 632 -0.000123526
619 632 -3.00484e-06
621 632 0
622 632 -7.02889e-05
623 632 -7.02876e-05
630 632 -3.98142e-06
631 632 -3.19891e-06
632 632 0.367805
766 632 -6.09733e-06
767 632 0
1056 632 0
1057 632 -9.89094e-07
1059 632 0
1061 632 0
2365 632 -1.97193e-06
633 633 0.0397924
636 633 -8.78397e-10
646 633 -1.95517e-05
634 634 0.0561892
635 634 -0.000477237
646 634 -0.000126765
634 635 -0.000482183
635 635 0.047676
646 635 -0.000126737
678 635 -0.0469043
633 636 -7.74972e-12
636 636 0.0549913
646 636 -1.89729e-05
678 636 -0.0549451
637 637 0.0687499
638 637 -0.000609753
1055 637 -6.26885e-05
637 638 -0.000610054
638 638 0.0536582
646 638 -0.0529101
1055 638 -6.27519e-05
639 639 0.0687519
640 639 -0.00061175
1062 639 -6.26888e-05
639 640 -0.00061204
640 640 0.0536602
646 640 -0.0529101
1062 640 -6.2752e-05
641 641 0.203436
642 641 -1.19815e-09
1062 641 -7.03464e-05
641 642 -7.8072e-10
642 642 0.0874482
643 642 -0.087108
1062 642 -7.03452e-05
642 643 -0.087108
643 643 0.209076
644 643 -0.121951
1055 643 -1.20569e-05
1062 643 0
643 644 -0.121951
644 644 0.122236
645 644 -6.26374e-10
1055 644 -7.0346e-05
1062 644 0
644 645 -2.55239e-12
645 645 0.203389
646 645 -0.203252
1055 645 -7.03064e-05
1062 645 0
633 646 -1.86157e-05
634 646 -0.000125594
635 646 -0.000125262
636 646 -1.86143e-05
638 646 -0.0529101
640 646 -0.0529101
645 646 -0.203252
646 646 0.309632
678 646 0
1055 646 -4.58239e-06
1062 646 0
647 647 0.0509407
648 647 -3.26451e-10
1063 647 -3.51727e-05
647 648 -1.32375e-12
648 648 0.0407662
765 648 -0.0406504
1063 648 -3.51529e-05
649 649 0.0397924
652 649 -9.6686e-10
650 650 0.0561831
651 650 -0.000481388
650 651 -0.000476562
651 651 0.0476807
1062 651 -0.0469043
649 652 -8.5418e-12
652 652 0.0549913
1062 652 -0.0549451
653 653 0.0509407
654 653 -3.8838e-10
1062 653 -3.51732e-05
653 654 -1.5758e-12
654 654 0.0407662
765 654 -0.0406504
1062 654 -3.51531e-05
655 655 0.287128
656 655 -0.00122636
1062 655 -0.000124676
655 656 -0.00122287
656 656 0.111388
657 656 -0.10989
1062 656 -0.000124718
656 657 -0.10989
657 657 0.26863
658 657 -0.15873
1062 657 0
1063 657 -4.98303e-06
657 658 -0.15873
658 658 0.160197
659 658 -0.00123349
1062 658 0
1063 658 -0.00012469
658 659 -0.00122909
659 659 0.287141
765 659 -0.285714
1062 659 0
1063 659 -0.000124701
660 660 0.0509407
661 660 -3.99724e-10
678 660 -3.51733e-05
660 661 -1.6219e-12
661 661 0.0407662
678 661 -3.51531e-05
766 661 -0.0406504
662 662 0.285805
663 662 -1.3365e-09
662 663 -1.81644e-11
663 663 0.110005
664 663 -0.10989
663 664 -0.10989
664 664 0.26863
665 664 -0.15873
664 665 -0.15873
665 665 0.15916
670 665 -0.000203418
666 666 0.051153
669 666 -0.00012141
667 667 0.0514609
668 667 -0.000431624
667 668 -0.000430864
668 668 0.0413515
1063 668 -0.0406504
666 669 -0.00012392
669 669 0.0410422
1063 669 -0.0406504
665 670 -6.04679e-06
670 670 0.285777
1063 670 -0.285714
671 671 0.0509407
672 671 -3.26405e-10
1063 671 -3.51727e-05
671 672 -1.3235e-12
672 672 0.0407662
766 672 -0.0406504
1063 672 -3.51529e-05
673 673 0.287133
674 673 -0.00123186
1063 673 -0.000124688
673 674 -0.00122752
674 674 0.111393
675 674 -0.10989
1063 674 -0.000124709
674 675 -0.10989
675 675 0.26863
676 675 -0.15873
678 675 -4.98303e-06
1063 675 0
675 676 -0.15873
676 676 0.160195
677 676 -0.00122115
678 676 -0.000124699
1063 676 0
676 677 -0.0012261
677 677 0.287128
678 677 -0.000124698
766 677 -0.285714
1063 677 0
635 678 -0.0469043
636 678 -0.0549451
646 678 0
660 678 -3.51445e-05
661 678 -3.51438e-05
675 678 -4.98303e-06
676 678 -0.000124018
677 678 -0.000123854
678 678 0.102451
765 678 -1.08988e-05
766 678 -6.09733e-06
1055 678 0
1062 678 0
1063 678 -4.0941e-06
2370 678 -9.89094e-07
679 679 0.0404988
682 679 -0.000649805
1056 679 -6.58394e-05
680 680 0.0556031
681 680 -2.39459e-10
1056 680 -3.91912e-05
680 681 -9.70111e-13
681 681 0.0436853
697 681 -0.043554
1056 681 -3.917e-05
679 682 -0.000652176
682 682 0.0537032
697 682 -0.0529101
1056 682 -6.58222e-05
683 683 0.102928
684 683 -0.000856954
1057 683 -0.000226452
683 684 -0.000866183
684 684 0.0776114
1057 684 -0.000226448
1061 684 -0.0762195
685 685 0.142928
686 685 -1.14482e-11
1057 685 -3.61431e-05
1061 685 -0.142857
685 686 -1.27872e-09
686 686 0.130019
696 686 -0.12987
1057 686 -3.72261e-05
1061 686 0
687 687 0.142986
688 687 -1.70927e-09
764 687 -3.71544e-05
687 688 -1.17115e-09
688 688 0.10221
696 688 -0.102041
764 688 -3.71295e-05
689 689 0.142986
690 689 -1.79621e-09
697 689 -3.71629e-05
689 690 -1.2308e-09
690 690 0.10221
696 690 -0.102041
697 690 -3.71379e-05
691 691 0.102926
692 691 -0.000855455
697 691 -0.000226453
691 692 -0.000864659
692 692 0.0776099
693 692 -0.0762195
697 692 -0.000226447
692 693 -0.0762195
693 693 0.177876
694 693 -0.101626
697 693 0
764 693 -2.06959e-05
693 694 -0.101626
694 694 0.102918
695 694 -0.000865603
697 694 0
764 694 -0.000226449
694 695 -0.000856372
695 695 0.102927
697 695 0
764 695 -0.000226451
1061 695 -0.101626
686 696 -0.12987
688 696 -0.102041
690 696 -0.102041
696 696 0.333991
697 696 -4.14418e-06
764 696 -3.98142e-06
1057 696 -6.52301e-06
1061 696 0
681 697 -0.043554
682 697 -0.0529101
689 697 -3.54576e-05
690 697 -3.54567e-05
691 697 -0.000225159
692 697 -0.000225093
693 697 0
694 697 0
695 697 0
696 697 -4.14418e-06
697 697 0.0972662
764 697 -6.44789e-07
1056 697 0
1057 697 -1.97193e-06
1061 697 0
2364 697 -4.69507e-06
2365 697 -1.97193e-06
698 698 0.0397924
701 698 -9.29468e-10
765 698 -1.95568e-05
699 699 0.0561886
700 699 -0.000476611
765 699 -0.000126777
699 700 -0.000481406
700 700 0.0476752
720 700 -0.0469043
765 700 -0.000126726
698 701 -8.20915e-12
701 701 0.0549914
720 701 -0.0549451
765 701 -1.8975e-05
702 702 0.0687512
703 702 -0.00061112
720 702 -6.2718e-05
702 703 -0.000609507
703 703 0.0536575
720 703 -6.27388e-05
764 703 -0.0529101
704 704 0.0687499
705 704 -0.000609774
1055 704 -6.27179e-05
704 705 -0.000608174
705 705 0.0536562
764 705 -0.0529101
1055 705 -6.27387e-05
706 706 0.0685346
714 706 -0.00037518
707 707 0.0680914
713 707 -9.13885e-10
708 708 0.204473
709 708 -0.000862508
708 709 -0.000885051
709 709 0.0776456
710 709 -0.0762195
709 710 -0.0762195
710 710 0.198188
711 710 -0.121951
710 711 -0.121951
711 711 0.1227
712 711 -0.000265175
711 712 -0.000234651
712 712 0.203842
1055 712 -0.203252
707 713 -8.07775e-12
713 713 0.0529549
1055 713 -0.0529101
706 714 -2.24095e-05
714 714 0.0529768
1055 714 -0.0529101
715 715 0.203436
716 715 -1.36028e-09
1055 715 -7.03472e-05
715 716 -8.82152e-10
716 716 0.0874482
717 716 -0.087108
1055 716 -7.0346e-05
716 717 -0.087108
717 717 0.209076
718 717 -0.121951
720 717 -1.20569e-05
1055 717 0
717 718 -0.121951
718 718 0.122236
719 718 -5.72255e-10
720 718 -7.03455e-05
1055 718 0
718 719 -2.33095e-12
719 719 0.203389
720 719 -7.03062e-05
764 719 -0.203252
1055 719 0
700 720 -0.0469043
701 720 -0.0549451
702 720 -6.1488e-05
703 720 -6.24492e-05
717 720 -1.20569e-05
718 720 -7.02888e-05
719 720 -7.02878e-05
720 720 0.102442
764 720 -5.56522e-06
765 720 -9.89094e-07
1055 720 -7.98162e-06
2369 720 -9.89094e-07
2370 720 -1.97193e-06
721 721 0.286657
722 721 -0.000755268
721 722 -0.00077698
722 722 0.110945
723 722 -0.10989
722 723 -0.10989
723 723 0.26863
724 723 -0.15873
723 724 -0.15873
724 724 0.158869
729 724 -5.41745e-09
725 725 0.0514599
728 725 -0.000430987
726 726 0.0511487
727 726 -0.000119518
726 727 -0.00013013
727 727 0.0410507
1056 727 -0.0406504
725 728 -0.000438582
728 728 0.0413597
1056 728 -0.0406504
724 729 -3.19172e-11
729 729 0.285772
1056 729 -0.285714
730 730 0.0509407
731 730 -3.29499e-10
1056 730 -3.51713e-05
730 731 -3.37776e-10
731 731 0.0408253
763 731 -0.0406504
1056 731 -3.52489e-05
732 732 0.0514619
733 732 -0.000432468
1057 732 -0.000113877
732 733 -0.000428124
733 733 0.0413513
763 733 -0.0406504
1057 733 -0.000113891
734 734 0.285805
735 734 -1.71947e-09
1057 734 -3.72413e-05
734 735 -1.62051e-11
735 735 0.102133
736 735 -0.102041
1057 735 -3.61896e-05
735 736 -0.102041
736 736 0.260781
737 736 -0.15873
1056 736 -4.98303e-06
1057 736 0
736 737 -0.15873
737 737 0.158813
738 737 -3.27621e-08
1056 737 -3.81125e-05
1057 737 0
737 738 -7.49583e-10
738 738 0.285772
763 738 -0.285714
1056 738 -3.79281e-05
1057 738 0
739 739 0.0514614
740 739 -0.00043199
766 739 -0.000113877
739 740 -0.000427643
740 740 0.0413473
762 740 -0.0406504
766 740 -0.000113891
741 741 0.0509407
742 741 -6.04088e-10
763 741 -3.51732e-05
741 742 -6.18858e-10
742 742 0.0408218
762 742 -0.0406504
763 742 -3.52456e-05
743 743 0.287128
744 743 -0.00122636
763 743 -0.0001247
743 744 -0.00122126
744 744 0.111386
745 744 -0.10989
763 744 -0.000124701
744 745 -0.10989
745 745 0.26863
746 745 -0.15873
763 745 0
766 745 -4.98303e-06
745 746 -0.15873
746 746 0.158867
747 746 -1.93603e-09
763 746 0
766 746 -3.7263e-05
746 747 -1.71969e-11
747 747 0.285772
762 747 -0.285714
763 747 0
766 747 -3.61459e-05
748 748 0.101876
749 748 -8.2743e-10
762 748 -7.03465e-05
748 749 -3.36813e-12
749 749 0.0873396
762 749 -7.03062e-05
1067 749 -0.087108
750 750 0.144308
751 750 -0.00122574
762 750 -0.000124693
1067 750 -0.142857
750 751 -0.00122091
751 751 0.131348
761 751 -0.12987
762 751 -0.000124708
1067 751 0
752 752 0.142986
753 752 -1.81013e-09
764 752 -3.71533e-05
752 753 -1.79249e-09
753 753 0.110058
761 753 -0.10989
764 753 -3.71526e-05
754 754 0.144314
755 754 -0.00122121
763 754 -0.000124708
754 755 -0.00122606
755 755 0.111381
761 755 -0.10989
763 755 -0.000124693
756 756 0.101876
757 756 -7.93077e-10
763 756 -7.03465e-05
756 757 -3.1858e-12
757 757 0.0873481
758 757 -0.087108
763 757 -7.03084e-05
757 758 -0.087108
758 758 0.188765
759 758 -0.101626
763 758 0
764 758 -2.06959e-05
758 759 -0.101626
759 759 0.101808
760 759 -1.84766e-08
763 759 0
764 759 -7.03616e-05
759 760 -7.82433e-11
760 760 0.101802
763 760 0
764 760 -7.03533e-05
1067 760 -0.101626
751 761 -0.12987
753 761 -0.10989
755 761 -0.10989
761 761 0.349689
762 761 -6.52301e-06
763 761 -4.14418e-06
764 761 -3.98142e-06
1067 761 0
740 762 -0.0406504
742 762 -0.0406504
747 762 -0.285714
748 762 -7.0289e-05
749 762 -7.02876e-05
750 762 -0.000123671
751 762 -0.000124202
761 762 -6.52301e-06
762 762 0.367804
763 762 -2.7607e-06
764 762 -1.22698e-06
765 762 -1.97193e-06
766 762 -6.09733e-06
1055 762 -1.97193e-06
1061 762 -1.97193e-06
1067 762 -1.68396e-05
2366 762 -1.97193e-06
2370 762 -1.97193e-06
731 763 -0.0406504
733 763 -0.0406504
738 763 -0.285714
741 763 -3.51441e-05
742 763 -3.51442e-05
743 763 -0.00012392
744 763 -0.000123952
745 763 0
746 763 0
747 763 0
754 763 -0.000124188
755 763 -0.000123684
756 763 -7.02889e-05
757 763 -7.02876e-05
758 763 0
759 763 0
760 763 0
761 763 -4.14418e-06
762 763 -2.7607e-06
763 763 0.368246
764 763 -6.44789e-07
765 763 -1.97193e-06
766 763 -3.79361e-06
1055 763 -1.1769e-06
1056 763 -6.09733e-06
1057 763 0
1061 763 -1.1769e-06
1067 763 0
2366 763 -1.1769e-06
2370 763 -1.97193e-06
687 764 -3.54576e-05
688 764 -3.54567e-05
693 764 -2.06959e-05
694 764 -0.000225113
695 764 -0.00022514
696 764 -3.98142e-06
697 764 -6.44789e-07
703 764 -0.0529101
705 764 -0.0529101
719 764 -0.203252
720 764 -5.56522e-06
752 764 -3.54572e-05
753 764 -3.54571e-05
758 764 -2.06959e-05
759 764 -7.0305e-05
760 764 -7.02716e-05
761 764 -3.98142e-06
762 764 -1.22698e-06
763 764 -6.44789e-07
764 764 0.310349
765 764 -1.97193e-06
766 764 0
1055 764 -9.89094e-07
1056 764 0
1057 764 0
1061 764 -1.26454e-06
1067 764 0
2364 764 0
2365 764 0
2366 764 -9.89094e-07
2369 764 0
2370 764 -1.97193e-06
648 765 -0.0406504
654 765 -0.0406504
659 765 -0.285714
678 765 -1.08988e-05
698 765 -1.86158e-05
699 765 -0.000125723
700 765 -0.000125134
701 765 -1.86142e-05
720 765 -9.89094e-07
762 765 -1.97193e-06
763 765 -1.97193e-06
764 765 -1.97193e-06
765 765 0.367823
766 765 -1.97193e-06
767 765 -9.89094e-07
1055 765 -2.52282e-06
1056 765 0
1057 765 0
1061 765 0
1062 765 -9.89094e-07
1063 765 -7.08642e-06
1067 765 0
2364 765 0
2365 765 0
2366 765 0
2369 765 -9.89094e-07
2370 765 -9.89094e-07
594 766 -0.000112504
595 766 -0.000112622
600 766 -4.98303e-06
601 766 -3.5458e-05
602 766 -3.54563e-05
632 766 -6.09733e-06
661 766 -0.0406504
672 766 -0.0406504
677 766 -0.285714
678 766 -6.09733e-06
739 766 -0.00011245
740 766 -0.000112677
745 766 -4.98303e-06
746 766 -3.54588e-05
747 766 -3.54555e-05
762 766 -6.09733e-06
763 766 -3.79361e-06
764 766 0
765 766 -1.97193e-06
766 766 0.368106
767 766 0
1055 766 -9.89094e-07
1056 766 0
1057 766 -2.87964e-06
1059 766 0
1061 766 -9.89094e-07
1062 766 0
1063 766 0
1067 766 0
2364 766 0
2365 766 0
2366 766 -9.89094e-07
2369 766 0
2370 766 -1.97193e-06
590 767 -6.50792e-05
591 767 -3.9161e-05
592 767 -3.91603e-05
593 767 -6.50536e-05
605 767 -1.00161e-06
606 767 -0.285714
607 767 0
613 767 -0.102041
614 767 -0.101626
615 767 0
616 767 0
631 767 -2.21607e-06
632 767 0
765 767 -9.89094e-07
766 767 0
767 767 0.490028
1055 767 -4.89539e-06
1056 767 0
1057 767 0
1059 767 -5.19588e-06
1061 767 -3.19891e-06
1062 767 -9.89094e-07
1063 767 -9.89094e-07
1067 767 -9.89094e-07
1068 767 0
2364 767 0
2365 767 0
2366 767 -9.89094e-07
2367 767 -9.89094e-07
2368 767 -9.89094e-07
2369 767 0
2370 767 0
768 768 0.0404519
780 768 -0.000608314
804 768 -6.58003e-05
769 769 0.0680914
777 769 -8.95348e-10
770 770 0.0685313
776 770 -0.000371813
771 771 0.203862
772 771 -0.000244848
771 772 -0.00024722
772 772 0.0770004
773 772 -0.0762195
772 773 -0.0762195
773 773 0.198188
774 773 -0.121951
773 774 -0.121951
774 774 0.123286
775 774 -0.000849727
774 775 -0.000810997
775 775 0.204413
804 775 -0.203252
770 776 -2.26582e-05
776 776 0.0529775
804 776 -0.0529101
769 777 -8.05678e-12
777 777 0.0529553
804 777 -0.0529101
778 778 0.0556031
779 778 -3.45322e-09
804 778 -3.91994e-05
778 779 -1.41196e-11
779 779 0.0470338
804 779 -3.91725e-05
1057 779 -0.0469043
768 780 -0.000607599
780 780 0.0578961
804 780 -6.58454e-05
1057 780 -0.0571429
781 781 0.0687512
782 781 -0.00061107
1052 781 -6.26819e-05
781 782 -0.000611804
782 782 0.0536608
1052 782 -6.27549e-05
1054 782 -0.0529101
783 783 0.0687193
784 783 -0.000579149
804 783 -6.26788e-05
783 784 -0.000579967
784 784 0.0536288
804 784 -6.27579e-05
1054 784 -0.0529101
785 785 0.203436
786 785 -8.19948e-09
804 785 -7.03579e-05
785 786 -3.59916e-09
786 786 0.0765598
787 786 -0.0762195
804 786 -7.03557e-05
786 787 -0.0762195
787 787 0.198188
788 787 -0.121951
804 787 0
1052 787 -1.20569e-05
787 788 -0.121951
788 788 0.122235
789 788 -4.4181e-10
804 788 0
1052 788 -7.03448e-05
788 789 -1.80036e-12
789 789 0.203389
804 789 0
1052 789 -7.03062e-05
1054 789 -0.203252
790 790 0.0397924
793 790 -9.36607e-10
803 790 -1.95575e-05
791 791 0.0561834
792 791 -0.000481683
803 791 -0.000126717
791 792 -0.000477434
792 792 0.0476826
803 792 -0.000126769
1053 792 -0.0469043
790 793 -8.26814e-12
793 793 0.0571899
803 793 -1.8975e-05
1053 793 -0.0571429
794 794 0.0687614
795 794 -0.000621316
1056 794 -6.2718e-05
794 795 -0.000619696
795 795 0.0536685
803 795 -0.0529101
1056 795 -6.27387e-05
796 796 0.0687512
797 796 -0.000611096
1052 796 -6.27177e-05
796 797 -0.00060951
797 797 0.0536583
803 797 -0.0529101
1052 797 -6.27388e-05
798 798 0.203436
799 798 -1.29793e-09
1052 798 -7.03467e-05
798 799 -9.58534e-10
799 799 0.0765621
800 799 -0.0762195
1052 799 -7.03458e-05
799 800 -0.0762195
800 800 0.198188
801 800 -0.121951
1052 800 0
1056 800 -1.20569e-05
800 801 -0.121951
801 801 0.122237
802 801 -3.35326e-10
1052 801 0
1056 801 -7.03421e-05
801 802 -1.36278e-12
802 802 0.203389
803 802 -0.203252
1052 802 0
1056 802 -7.03051e-05
790 803 -1.86158e-05
791 803 -0.00012503
792 803 -0.000125828
793 803 -1.86142e-05
795 803 -0.0529101
797 803 -0.0529101
802 803 -0.203252
803 803 0.309714
804 803 -2.07209e-06
1052 803 0
1053 803 -1.97193e-06
1056 803 -4.58239e-06
2363 803 -2.07209e-06
768 804 -6.41016e-05
775 804 -0.203252
776 804 -0.0529101
777 804 -0.0529101
778 804 -3.91634e-05
779 804 -3.91578e-05
780 804 -6.60336e-05
783 804 -6.02755e-05
784 804 -6.36646e-05
785 804 -7.02921e-05
786 804 -7.02845e-05
787 804 0
788 804 0
789 804 0
803 804 -2.07209e-06
804 804 0.31017
1052 804 -9.87842e-06
1053 804 -9.89094e-07
1054 804 -9.89094e-07
1056 804 -1.97193e-06
1057 804 0
2363 804 0
805 805 0.0404889
808 805 -0.000645399
1063 805 -6.58283e-05
806 806 0.0556031
807 806 -3.68326e-10
1063 806 -3.91924e-05
806 807 -1.49449e-12
807 807 0.0436853
1060 807 -0.043554
1063 807 -3.91704e-05
805 808 -0.000642879
808 808 0.0536994
1060 808 -0.0529101
1063 808 -6.58319e-05
809 809 0.040484
812 809 -0.000640425
1055 809 -6.57779e-05
810 810 0.0556031
811 810 -4.98078e-10
1055 810 -3.91934e-05
810 811 -2.0234e-12
811 811 0.0470338
822 811 -0.0469043
1055 811 -3.91707e-05
809 812 -0.000641184
812 812 0.0579298
822 812 -0.0571429
1055 812 -6.58554e-05
813 813 0.051467
814 813 -0.000428344
1054 813 -0.000113888
813 814 -0.000432937
814 814 0.0413443
1054 814 -0.000113886
1058 814 -0.0406504
815 815 0.051467
816 815 -0.000428355
822 815 -0.000113888
815 816 -0.000432948
816 816 0.0413443
822 816 -0.000113886
1058 816 -0.0406504
817 817 0.285805
818 817 -1.40958e-09
822 817 -3.71414e-05
817 818 -7.12604e-10
818 818 0.110056
819 818 -0.10989
822 818 -3.71019e-05
818 819 -0.10989
819 819 0.26863
820 819 -0.15873
822 819 0
1054 819 -4.98303e-06
819 820 -0.15873
820 820 0.158864
821 820 -9.72783e-10
822 820 0
1054 820 -3.72026e-05
820 821 -8.74438e-12
821 821 0.285772
822 821 0
1054 821 -3.61401e-05
1058 821 -0.285714
811 822 -0.0469043
812 822 -0.0571429
815 822 -0.000112573
816 822 -0.000112554
817 822 -3.54577e-05
818 822 -3.54566e-05
819 822 0
820 822 0
821 822 0
822 822 0.104638
1054 822 -3.86248e-06
1055 822 -9.89094e-07
1058 822 -9.89094e-07
823 823 0.0680914
824 823 -8.71955e-10
1060 823 -1.8577e-05
823 824 -9.15331e-10
824 824 0.0511061
856 824 -0.0510204
1060 824 -1.8658e-05
825 825 0.0687499
826 825 -0.000609777
1055 825 -6.27207e-05
825 826 -0.000607992
826 826 0.051768
856 826 -0.0510204
1055 826 -6.27374e-05
827 827 0.203436
828 827 -9.01084e-10
1055 827 -7.03472e-05
827 828 -3.62134e-12
828 828 0.0764639
829 828 -0.0762195
1055 828 -7.03087e-05
828 829 -0.0762195
829 829 0.198188
830 829 -0.121951
1055 829 0
1060 829 -1.20569e-05
829 830 -0.121951
830 830 0.122157
831 830 -1.77063e-08
1055 830 0
1060 830 -7.03615e-05
830 831 -7.49804e-11
831 831 0.203389
856 831 -0.203252
1055 831 0
1060 831 -7.03533e-05
832 832 0.101876
833 832 -8.16364e-10
855 832 -7.03464e-05
832 833 -3.32302e-12
833 833 0.0873396
855 833 -7.03062e-05
1051 833 -0.087108
834 834 0.144309
835 834 -0.0012267
855 834 -0.000124699
1051 834 -0.142857
834 835 -0.00122162
835 835 0.131349
854 835 -0.12987
855 835 -0.000124702
1051 835 0
836 836 0.142986
837 836 -1.82086e-09
856 836 -3.71543e-05
836 837 -1.8198e-09
837 837 0.110058
854 837 -0.10989
856 837 -3.71542e-05
838 838 0.144314
839 838 -0.00122125
1062 838 -0.000124701
838 839 -0.00122637
839 839 0.111381
854 839 -0.10989
1062 839 -0.0001247
840 840 0.0514615
841 840 -0.000432107
856 840 -0.000113866
840 841 -0.000428039
841 841 0.0413477
855 841 -0.0406504
856 841 -0.000113896
842 842 0.0509407
843 842 -6.03751e-10
1062 842 -3.51732e-05
842 843 -6.3542e-10
843 843 0.0408219
855 843 -0.0406504
1062 843 -3.53262e-05
844 844 0.287128
845 844 -0.00122638
1062 844 -0.000124699
844 845 -0.00122134
845 845 0.111386
846 845 -0.10989
1062 845 -0.000124701
845 846 -0.10989
846 846 0.26863
847 846 -0.15873
856 846 -4.98303e-06
1062 846 0
846 847 -0.15873
847 847 0.158867
848 847 -1.91275e-09
856 847 -3.72662e-05
1062 847 0
847 848 -1.69615e-11
848 848 0.285772
855 848 -0.285714
856 848 -3.61448e-05
1062 848 0
849 849 0.101876
850 849 -7.92543e-10
1062 849 -7.03465e-05
849 850 -3.18364e-12
850 850 0.0873481
851 850 -0.087108
1062 850 -7.03084e-05
850 851 -0.087108
851 851 0.188765
852 851 -0.101626
856 851 -2.06959e-05
1062 851 0
851 852 -0.101626
852 852 0.101808
853 852 -1.83889e-08
856 852 -7.03615e-05
1062 852 0
852 853 -7.78722e-11
853 853 0.101802
856 853 -7.03533e-05
1051 853 -0.101626
1062 853 0
835 854 -0.12987
837 854 -0.10989
839 854 -0.10989
854 854 0.349689
855 854 -6.52301e-06
856 854 -3.98142e-06
1051 854 0
1062 854 -4.14418e-06
832 855 -7.0289e-05
833 855 -7.02876e-05
834 855 -0.000123882
835 855 -0.00012399
841 855 -0.0406504
843 855 -0.0406504
848 855 -0.285714
854 855 -6.52301e-06
855 855 0.367815
856 855 -7.33057e-06
1051 855 -1.68396e-05
1062 855 -9.89094e-07
2362 855 -9.89094e-07
2366 855 -9.89094e-07
824 856 -0.0510204
826 856 -0.0510204
831 856 -0.203252
836 856 -3.54572e-05
837 856 -3.54571e-05
840 856 -0.000112324
841 856 -0.000112804
846 856 -4.98303e-06
847 856 -3.54588e-05
848 856 -3.54555e-05
851 856 -2.06959e-05
852 856 -7.03049e-05
853 856 -7.02717e-05
854 856 -3.98142e-06
855 856 -7.33057e-06
856 856 0.306392
1051 856 0
1055 856 -9.89094e-07
1059 856 -9.89094e-07
1060 856 -4.58239e-06
1061 856 -9.89094e-07
1062 856 -5.42124e-06
2362 856 -9.89094e-07
2366 856 -1.97193e-06
857 857 0.286657
858 857 -0.000755268
857 858 -0.00077698
858 858 0.110945
859 858 -0.10989
858 859 -0.10989
859 859 0.26863
860 859 -0.15873
859 860 -0.15873
860 860 0.158869
865 860 -5.4195e-09
861 861 0.0514598
864 861 -0.000430929
862 862 0.0511483
863 862 -0.000119349
862 863 -0.00013068
863 863 0.0410515
1047 863 -0.0406504
861 864 -0.000439258
864 864 0.0413604
1047 864 -0.0406504
860 865 -3.19188e-11
865 865 0.285772
1047 865 -0.285714
866 866 0.101876
867 866 -4.33593e-10
1047 866 -7.03431e-05
866 867 -1.76112e-12
867 867 0.0873396
1047 867 -7.0305e-05
1064 867 -0.087108
868 868 0.14433
869 868 -0.0012479
1047 868 -0.000124679
1064 868 -0.142857
868 869 -0.00124422
869 869 0.131372
888 869 -0.12987
1047 869 -0.000124711
1064 869 0
870 870 0.144308
871 870 -0.0012254
917 870 -0.00012466
870 871 -0.00122294
871 871 0.103539
888 871 -0.102041
917 871 -0.000124729
872 872 0.144261
873 872 -0.00117899
1050 872 -0.000124658
872 873 -0.00117666
873 873 0.103493
888 873 -0.102041
1050 873 -0.000124731
874 874 0.0680914
882 874 -9.00744e-10
875 875 0.0685323
881 875 -0.000372798
876 876 0.203858
877 876 -0.000243064
876 877 -0.000253172
877 877 0.0770086
878 877 -0.0762195
877 878 -0.0762195
878 878 0.198188
879 878 -0.121951
878 879 -0.121951
879 879 0.123295
880 879 -0.000860039
879 880 -0.000825106
880 880 0.204429
1050 880 -0.203252
875 881 -2.25824e-05
881 881 0.0529773
1050 881 -0.0529101
874 882 -8.06254e-12
882 882 0.0529552
1050 882 -0.0529101
883 883 0.101876
884 883 -4.88518e-09
1050 883 -7.03549e-05
883 884 -2.42727e-09
884 884 0.0874471
885 884 -0.087108
1050 884 -7.03529e-05
884 885 -0.087108
885 885 0.188765
886 885 -0.101626
917 885 -2.06959e-05
1050 885 0
885 886 -0.101626
886 886 0.101874
887 886 -4.66607e-10
917 886 -7.03449e-05
1050 886 0
886 887 -1.90089e-12
887 887 0.101802
917 887 -7.03062e-05
1050 887 0
1064 887 -0.101626
869 888 -0.12987
871 888 -0.102041
873 888 -0.102041
888 888 0.333991
917 888 -3.98142e-06
1047 888 -6.52301e-06
1050 888 -4.14418e-06
1064 888 0
889 889 0.0404882
892 889 -0.000639328
917 889 -6.58325e-05
890 890 0.0556031
891 890 -4.51642e-10
917 890 -3.91931e-05
890 891 -1.83378e-12
891 891 0.0470333
917 891 -3.91706e-05
1049 891 -0.0469043
889 892 -0.000641944
892 892 0.0557263
917 892 -6.58291e-05
1049 892 -0.0549451
893 893 0.0514623
894 893 -0.000432944
1054 893 -0.000113883
893 894 -0.000428425
894 894 0.0413516
916 894 -0.0406504
1054 894 -0.000113888
895 895 0.0514614
896 895 -0.000431953
1060 895 -0.000113883
895 896 -0.000427441
896 896 0.0413506
916 896 -0.0406504
1060 896 -0.000113888
897 897 0.285805
898 897 -1.55117e-09
1060 897 -3.71596e-05
897 898 -7.65357e-10
898 898 0.102208
899 898 -0.102041
1060 898 -3.71187e-05
898 899 -0.102041
899 899 0.260781
900 899 -0.15873
1054 899 -4.98303e-06
1060 899 0
899 900 -0.15873
900 900 0.158864
901 900 -9.58726e-10
1054 900 -3.72017e-05
1060 900 0
900 901 -8.62032e-12
901 901 0.285772
916 901 -0.285714
1054 901 -3.61401e-05
1060 901 0
902 902 0.0404859
905 902 -0.000642365
916 902 -6.58288e-05
903 903 0.0556031
904 903 -4.42181e-10
916 903 -3.9193e-05
903 904 -1.79526e-12
904 904 0.0436853
915 904 -0.043554
916 904 -3.91706e-05
902 905 -0.000639818
905 905 0.0536963
915 905 -0.0529101
916 905 -6.58318e-05
906 906 0.0680914
907 906 -9.27279e-10
974 906 -1.86299e-05
906 907 -8.19079e-12
907 907 0.0510648
917 907 -0.0510204
974 907 -1.8073e-05
908 908 0.0680914
909 908 -9.10876e-10
915 908 -1.86284e-05
908 909 -8.0435e-12
909 909 0.0510648
915 909 -1.80724e-05
917 909 -0.0510204
910 910 0.204486
911 910 -0.000855852
915 910 -0.000226462
910 911 -0.000864932
911 911 0.0776101
912 911 -0.0762195
915 911 -0.000226438
911 912 -0.0762195
912 912 0.198188
913 912 -0.121951
915 912 0
974 912 -1.20569e-05
912 913 -0.121951
913 913 0.123288
914 913 -0.000855337
915 913 0
974 913 -0.000226465
913 914 -0.000864372
914 914 0.204476
915 914 0
917 914 -0.203252
974 914 -0.000226435
904 915 -0.043554
905 915 -0.0529101
908 915 -1.77293e-05
909 915 -1.77278e-05
910 915 -0.000225271
911 915 -0.000224982
912 915 0
913 915 0
914 915 0
915 915 0.0972255
916 915 -9.89094e-07
917 915 0
974 915 -8.96445e-06
1050 915 -1.97193e-06
894 916 -0.0406504
896 916 -0.0406504
901 916 -0.285714
902 916 -6.49976e-05
903 916 -3.9161e-05
904 916 -3.91603e-05
905 916 -6.51353e-05
915 916 -9.89094e-07
916 916 0.36765
917 916 0
974 916 0
1047 916 -1.08926e-06
1050 916 -9.89094e-07
1054 916 -7.08642e-06
1060 916 -9.89094e-07
870 917 -0.000122563
871 917 -0.000125313
885 917 -2.06959e-05
886 917 -7.02887e-05
887 917 -7.02879e-05
888 917 -3.98142e-06
889 917 -6.51233e-05
890 917 -3.9161e-05
891 917 -3.91603e-05
892 917 -6.50096e-05
907 917 -0.0510204
909 917 -0.0510204
914 917 -0.203252
915 917 0
916 917 0
917 917 0.30643
974 917 -4.58239e-06
1047 917 0
1049 917 0
1050 917 -1.62762e-06
1054 917 0
1060 917 0
1064 917 0
918 918 0.0404893
921 918 -0.000645719
973 918 -6.58054e-05
919 919 0.0556031
920 919 -3.61213e-10
973 919 -3.91923e-05
919 920 -1.46565e-12
920 920 0.0436852
940 920 -0.043554
973 920 -3.91704e-05
918 921 -0.000644701
921 921 0.0537013
940 921 -0.0529101
973 921 -6.58426e-05
922 922 0.0680914
923 922 -8.31096e-10
940 922 -1.85728e-05
922 923 -8.66968e-10
923 923 0.0511061
940 923 -1.86436e-05
1059 923 -0.0510204
924 924 0.0687512
925 924 -0.0006111
1052 924 -6.27222e-05
924 925 -0.000609214
925 925 0.0517692
1052 925 -6.27367e-05
1059 925 -0.0510204
926 926 0.0685348
934 926 -0.000375326
927 927 0.0680914
933 927 -9.14687e-10
928 928 0.204473
929 928 -0.000862457
928 929 -0.000885616
929 929 0.0776462
930 929 -0.0762195
929 930 -0.0762195
930 930 0.198188
931 930 -0.121951
930 931 -0.121951
931 931 0.122702
932 931 -0.000267248
931 932 -0.000237595
932 932 0.203846
1052 932 -0.203252
927 933 -8.07873e-12
933 933 0.0529548
1052 933 -0.0529101
926 934 -2.23995e-05
934 934 0.0529768
1052 934 -0.0529101
935 935 0.203436
936 935 -8.28442e-10
1052 935 -7.03467e-05
935 936 -3.32842e-12
936 936 0.0764639
937 936 -0.0762195
1052 936 -7.03085e-05
936 937 -0.0762195
937 937 0.198188
938 937 -0.121951
940 937 -1.20569e-05
1052 937 0
937 938 -0.121951
938 938 0.122157
939 938 -1.87084e-08
940 938 -7.03616e-05
1052 938 0
938 939 -7.92267e-11
939 939 0.203389
940 939 -7.03533e-05
1052 939 0
1059 939 -0.203252
920 940 -0.043554
921 940 -0.0529101
922 940 -1.77286e-05
923 940 -1.77286e-05
937 940 -1.20569e-05
938 940 -7.03052e-05
939 940 -7.02714e-05
940 940 0.0969028
973 940 0
1052 940 -7.90649e-06
1059 940 -4.58239e-06
941 941 0.0509407
942 941 -3.78621e-10
1053 941 -3.51731e-05
941 942 -1.53593e-12
942 942 0.0407667
974 942 -0.0406504
1053 942 -3.51531e-05
943 943 0.0509407
944 943 -3.1999e-10
973 943 -3.51726e-05
943 944 -1.29735e-12
944 944 0.0407667
973 944 -3.51529e-05
974 944 -0.0406504
945 945 0.287134
946 945 -0.0012325
973 945 -0.000124699
945 946 -0.00122743
946 946 0.111394
947 946 -0.10989
973 946 -0.000124701
946 947 -0.10989
947 947 0.26863
948 947 -0.15873
973 947 0
1053 947 -4.98303e-06
947 948 -0.15873
948 948 0.160196
949 948 -0.00122208
973 948 0
1053 948 -0.000124713
948 949 -0.00122668
949 949 0.287128
973 949 0
974 949 -0.285714
1053 949 -0.000124687
950 950 0.287127
951 950 -0.00122588
1061 950 -0.000124648
950 951 -0.00122421
951 951 0.103544
952 951 -0.102041
1061 951 -0.000124738
951 952 -0.102041
952 952 0.221097
954 952 -0.119048
1048 952 -1.00161e-06
1061 952 -3.00484e-06
953 953 0.287145
954 953 -0.00123365
973 953 -0.000124716
1048 953 -0.285714
952 954 -0.119048
953 954 -0.0012359
954 954 0.120536
973 954 -0.000124658
1048 954 0
1061 954 0
955 955 0.101892
956 955 -1.28284e-09
1061 955 -7.03465e-05
955 956 -1.03515e-09
956 956 0.0765679
972 956 -0.0762195
1061 956 -7.03459e-05
957 957 0.285805
958 957 -1.33651e-09
957 958 -1.81643e-11
958 958 0.110005
959 958 -0.10989
958 959 -0.10989
959 959 0.26863
960 959 -0.15873
959 960 -0.15873
960 960 0.15916
965 960 -0.00020343
961 961 0.0511528
964 961 -0.000121319
962 962 0.0514608
963 962 -0.000431594
962 963 -0.000431232
963 963 0.0413519
973 963 -0.0406504
961 964 -0.000124212
964 964 0.0410426
973 964 -0.0406504
960 965 -6.04556e-06
965 965 0.285777
973 965 -0.285714
966 966 0.101892
967 966 -1.04109e-09
973 966 -7.03453e-05
966 967 -8.39961e-10
967 967 0.0765679
972 967 -0.0762195
973 967 -7.03447e-05
968 968 0.120525
969 968 -0.00122498
1052 968 -0.000124606
968 969 -0.00122605
969 969 0.103546
1048 969 -0.102041
1052 969 -0.000124768
970 970 0.101812
971 970 -2.84536e-12
1048 970 -0.101626
1052 970 -7.03062e-05
970 971 -6.98594e-10
971 971 0.152703
972 971 -0.152439
1048 971 0
1052 971 -7.03461e-05
956 972 -0.0762195
967 972 -0.0762195
971 972 -0.152439
972 972 0.304934
973 972 -5.97213e-06
1048 972 0
1052 972 -1.96379e-05
1061 972 -3.98142e-06
918 973 -6.42108e-05
919 973 -3.91609e-05
920 973 -3.91603e-05
921 973 -6.5924e-05
940 973 0
943 973 -3.51444e-05
944 973 -3.51439e-05
945 973 -0.000123897
946 973 -0.000123975
947 973 0
948 973 0
949 973 0
953 973 -0.000125379
954 973 -0.000122496
963 973 -0.0406504
964 973 -0.0406504
965 973 -0.285714
966 973 -7.02885e-05
967 973 -7.02881e-05
972 973 -5.97213e-06
973 973 0.368666
974 973 -1.97193e-06
1048 973 -4.21304e-06
1052 973 -2.96102e-06
1053 973 -2.87964e-06
1054 973 -2.96102e-06
1059 973 0
1060 973 -1.97193e-06
1061 973 0
906 974 -1.77294e-05
907 974 -1.77278e-05
912 974 -1.20569e-05
913 974 -0.000225303
914 974 -0.00022495
915 974 -8.96445e-06
916 974 0
917 974 -4.58239e-06
942 974 -0.0406504
944 974 -0.0406504
949 974 -0.285714
973 974 -1.97193e-06
974 974 0.367969
1047 974 -9.89094e-07
1048 974 0
1049 974 0
1050 974 -9.89094e-07
1052 974 -9.89094e-07
1053 974 -7.08642e-06
1054 974 0
1059 974 0
1060 974 0
1061 974 0
1064 974 0
975 975 0.285805
976 975 -1.47153e-09
991 975 -3.71519e-05
975 976 -7.12407e-10
976 976 0.110054
977 976 -0.10989
991 976 -3.71105e-05
976 977 -0.10989
977 977 0.26863
978 977 -0.15873
991 977 0
977 978 -0.15873
978 978 0.158864
981 978 -1.05973e-09
991 978 0
979 979 0.0514618
980 979 -0.000432383
991 979 -0.000113885
979 980 -0.000427832
980 980 0.0413475
991 980 -0.000113888
1065 980 -0.0406504
978 981 -9.54803e-12
981 981 0.285772
991 981 0
1065 981 -0.285714
982 982 0.0687517
983 982 -0.000611543
1058 982 -6.27093e-05
982 983 -0.000610502
983 983 0.0536586
991 983 -0.0529101
1058 983 -6.27428e-05
984 984 0.0687283
985 984 -0.000588085
1050 984 -6.27081e-05
984 985 -0.000587111
985 985 0.0536351
991 985 -0.0529101
1050 985 -6.27436e-05
986 986 0.203436
987 986 -4.91908e-09
1050 986 -7.03549e-05
986 987 -2.48408e-09
987 987 0.0874471
988 987 -0.087108
1050 987 -7.0353e-05
987 988 -0.087108
988 988 0.209076
989 988 -0.121951
1050 988 0
1058 988 -1.20569e-05
988 989 -0.121951
989 989 0.122235
990 989 -4.64028e-10
1050 989 0
1058 989 -7.03449e-05
989 990 -1.89036e-12
990 990 0.203389
991 990 -0.203252
1050 990 0
1058 990 -7.03062e-05
975 991 -3.54578e-05
976 991 -3.54565e-05
977 991 0
978 991 0
979 991 -0.000112541
980 991 -0.000112585
981 991 0
983 991 -0.0529101
985 991 -0.0529101
990 991 -0.203252
991 991 0.309639
1050 991 0
1058 991 -4.58239e-06
1065 991 0
992 992 0.0404612
995 992 -0.000617655
1050 992 -6.57694e-05
993 993 0.0556031
994 993 -1.96485e-09
1050 993 -3.91977e-05
993 994 -8.0194e-12
994 994 0.0436852
1005 994 -0.043554
1050 994 -3.9172e-05
992 995 -0.000618869
995 995 0.0536756
1005 995 -0.0529101
1050 995 -6.58607e-05
996 996 0.0509407
997 996 -3.16848e-10
1047 996 -3.51712e-05
996 997 -3.27873e-10
997 997 0.0408219
1045 997 -0.0406504
1047 997 -3.52784e-05
998 998 0.0514624
999 998 -0.000433057
1005 998 -0.000113873
998 999 -0.000428806
999 999 0.0413485
1005 999 -0.000113893
1045 999 -0.0406504
1000 1000 0.285805
1001 1000 -1.61391e-09
1005 1000 -3.72302e-05
1000 1001 -1.51944e-11
1001 1001 0.109981
1002 1001 -0.10989
1005 1001 -3.61851e-05
1001 1002 -0.10989
1002 1002 0.26863
1003 1002 -0.15873
1005 1002 0
1047 1002 -4.98303e-06
1002 1003 -0.15873
1003 1003 0.158813
1004 1003 -3.42727e-08
1005 1003 0
1047 1003 -3.81137e-05
1003 1004 -7.84043e-10
1004 1004 0.285772
1005 1004 0
1045 1004 -0.285714
1047 1004 -3.7929e-05
994 1005 -0.043554
995 1005 -0.0529101
998 1005 -0.000112404
999 1005 -0.000112724
1000 1005 -3.54585e-05
1001 1005 -3.54558e-05
1002 1005 0
1003 1005 0
1004 1005 0
1005 1005 0.0970396
1045 1005 0
1047 1005 -2.87964e-06
1050 1005 0
1058 1005 -9.89094e-07
1006 1006 0.0687517
1007 1006 -0.00061156
1058 1006 -6.27318e-05
1006 1007 -0.000609049
1007 1007 0.053657
1044 1007 -0.0529101
1058 1007 -6.27327e-05
1008 1008 0.0687519
1009 1008 -0.000611783
1062 1008 -6.27318e-05
1008 1009 -0.000609271
1009 1009 0.0536572
1044 1009 -0.0529101
1062 1009 -6.27327e-05
1010 1010 0.203436
1011 1010 -1.20603e-09
1062 1010 -7.03464e-05
1010 1011 -8.02291e-10
1011 1011 0.0874483
1012 1011 -0.087108
1062 1011 -7.03453e-05
1011 1012 -0.087108
1012 1012 0.209076
1013 1012 -0.121951
1058 1012 -1.20569e-05
1062 1012 0
1012 1013 -0.121951
1013 1013 0.122236
1014 1013 -5.68582e-10
1058 1013 -7.03454e-05
1062 1013 0
1013 1014 -2.31561e-12
1014 1014 0.203389
1044 1014 -0.203252
1058 1014 -7.03062e-05
1062 1014 0
1015 1015 0.101876
1016 1015 -1.28003e-09
1045 1015 -7.03464e-05
1015 1016 -1.31568e-09
1016 1016 0.0874509
1043 1016 -0.087108
1045 1016 -7.05119e-05
1017 1017 0.142928
1018 1017 -6.83229e-10
1043 1017 -0.142857
1045 1017 -3.79118e-05
1017 1018 -3.03928e-08
1018 1018 0.129956
1028 1018 -0.12987
1043 1018 0
1045 1018 -3.81113e-05
1019 1019 0.142986
1020 1019 -1.81609e-09
1044 1019 -3.72508e-05
1019 1020 -1.72221e-11
1020 1020 0.109981
1028 1020 -0.10989
1044 1020 -3.61981e-05
1021 1021 0.142986
1022 1021 -1.82512e-09
1049 1021 -3.72517e-05
1021 1022 -1.73093e-11
1022 1022 0.109981
1028 1022 -0.10989
1049 1022 -3.61984e-05
1023 1023 0.102917
1024 1023 -0.000864965
1049 1023 -0.000226439
1023 1024 -0.000855994
1024 1024 0.0885012
1025 1024 -0.087108
1049 1024 -0.000226458
1024 1025 -0.087108
1025 1025 0.188765
1026 1025 -0.101626
1044 1025 -2.06959e-05
1049 1025 0
1025 1026 -0.101626
1026 1026 0.102918
1027 1026 -0.000865316
1044 1026 -0.000226438
1049 1026 0
1026 1027 -0.000856394
1027 1027 0.102927
1043 1027 -0.101626
1044 1027 -0.000226455
1049 1027 0
1018 1028 -0.12987
1020 1028 -0.10989
1022 1028 -0.10989
1028 1028 0.349689
1043 1028 0
1044 1028 -3.98142e-06
1045 1028 -6.52301e-06
1049 1028 -4.14418e-06
1029 1029 0.101876
1030 1029 -8.26113e-10
1043 1029 -7.03465e-05
1029 1030 -3.36283e-12
1030 1030 0.0873396
1043 1030 -7.03062e-05
1046 1030 -0.087108
1031 1031 0.144309
1032 1031 -0.00122637
1043 1031 -0.000124699
1046 1031 -0.142857
1031 1032 -0.00122128
1032 1032 0.131349
1042 1032 -0.12987
1043 1032 -0.000124701
1046 1032 0
1033 1033 0.142986
1034 1033 -1.6817e-09
1048 1033 -3.71406e-05
1033 1034 -1.68202e-09
1034 1034 0.110058
1042 1034 -0.10989
1048 1034 -3.71413e-05
1035 1035 0.144309
1036 1035 -0.00122651
1045 1035 -0.0001247
1035 1036 -0.00122138
1036 1036 0.111387
1042 1036 -0.10989
1045 1036 -0.0001247
1037 1037 0.101876
1038 1037 -7.89401e-10
1045 1037 -7.03465e-05
1037 1038 -3.17105e-12
1038 1038 0.0873481
1039 1038 -0.087108
1045 1038 -7.03084e-05
1038 1039 -0.087108
1039 1039 0.188765
1040 1039 -0.101626
1045 1039 0
1048 1039 -2.06959e-05
1039 1040 -0.101626
1040 1040 0.101808
1041 1040 -1.96266e-08
1045 1040 0
1048 1040 -7.03616e-05
1040 1041 -8.31171e-11
1041 1041 0.101802
1045 1041 0
1046 1041 -0.101626
1048 1041 -7.03534e-05
1032 1042 -0.12987
1034 1042 -0.10989
1036 1042 -0.10989
1042 1042 0.349689
1043 1042 -6.52301e-06
1045 1042 -4.14418e-06
1046 1042 0
1048 1042 -3.98142e-06
1016 1043 -0.087108
1017 1043 -0.142857
1018 1043 0
1027 1043 -0.101626
1028 1043 0
1029 1043 -7.0289e-05
1030 1043 -7.02876e-05
1031 1043 -0.000123902
1032 1043 -0.00012397
1042 1043 -6.52301e-06
1043 1043 0.33235
1044 1043 0
1045 1043 -1.78287e-05
1046 1043 -1.68396e-05
1048 1043 -1.22698e-06
1049 1043 0
1058 1043 -1.97193e-06
1007 1044 -0.0529101
1009 1044 -0.0529101
1014 1044 -0.203252
1019 1044 -3.54587e-05
1020 1044 -3.54556e-05
1025 1044 -2.06959e-05
1026 1044 -0.000224993
1027 1044 -0.000225261
1028 1044 -3.98142e-06
1043 1044 0
1044 1044 0.309946
1045 1044 -1.22698e-06
1046 1044 -9.89094e-07
1048 1044 0
1049 1044 -6.44789e-07
1058 1044 -4.58239e-06
1062 1044 -9.89094e-07
997 1045 -0.0406504
999 1045 -0.0406504
1004 1045 -0.285714
1005 1045 0
1015 1045 -7.02883e-05
1016 1045 -7.02883e-05
1017 1045 -3.54288e-05
1018 1045 -3.54855e-05
1028 1045 -6.52301e-06
1035 1045 -0.000123933
1036 1045 -0.000123939
1037 1045 -7.02889e-05
1038 1045 -7.02877e-05
1039 1045 0
1040 1045 0
1041 1045 0
1042 1045 -4.14418e-06
1043 1045 -1.78287e-05
1044 1045 -1.22698e-06
1045 1045 0.368187
1046 1045 0
1047 1045 -6.09733e-06
1048 1045 -6.44789e-07
1049 1045 -9.89094e-07
1050 1045 0
1058 1045 -1.97193e-06
1062 1045 0
1030 1046 -0.087108
1031 1046 -0.142857
1032 1046 0
1041 1046 -0.101626
1042 1046 0
1043 1046 -1.68396e-05
1044 1046 -9.89094e-07
1045 1046 0
1046 1046 0.332158
1047 1046 -1.97193e-06
1048 1046 0
1049 1046 0
1050 1046 0
1051 1046 -2.96102e-06
1058 1046 0
1062 1046 0
1064 1046 -9.89094e-07
1065 1046 -9.89094e-07
1068 1046 -9.89094e-07
2372 1046 -2.96102e-06
863 1047 -0.0406504
864 1047 -0.0406504
865 1047 -0.285714
866 1047 -7.02886e-05
867 1047 -7.02879e-05
868 1047 -0.000123188
869 1047 -0.000124686
888 1047 -6.52301e-06
916 1047 -1.08926e-06
917 1047 0
974 1047 -9.89094e-07
996 1047 -3.51441e-05
997 1047 -3.51442e-05
1002 1047 -4.98303e-06
1003 1047 -3.54892e-05
1004 1047 -3.54251e-05
1005 1047 -2.87964e-06
1045 1047 -6.09733e-06
1046 1047 -1.97193e-06
1047 1047 0.368262
1048 1047 0
1049 1047 -9.89094e-07
1050 1047 0
1051 1047 -1.97193e-06
1052 1047 0
1053 1047 0
1054 1047 0
1058 1047 -9.89094e-07
1059 1047 0
1060 1047 0
1061 1047 0
1062 1047 0
1064 1047 -1.68396e-05
1065 1047 -9.89094e-07
1068 1047 0
2372 1047 0
952 1048 -1.00161e-06
953 1048 -0.285714
954 1048 0
969 1048 -0.102041
970 1048 -0.101626
971 1048 0
972 1048 0
973 1048 -4.21304e-06
974 1048 0
1033 1048 -3.54571e-05
1034 1048 -3.54572e-05
1039 1048 -2.06959e-05
1040 1048 -7.0306e-05
1041 1048 -7.02706e-05
1042 1048 -3.98142e-06
1043 1048 -1.22698e-06
1044 1048 0
1045 1048 -6.44789e-07
1046 1048 0
1047 1048 0
1048 1048 0.489983
1049 1048 0
1050 1048 0
1051 1048 0
1052 1048 -2.21607e-06
1053 1048 0
1054 1048 0
1058 1048 -9.89094e-07
1059 1048 -9.89094e-07
1060 1048 0
1061 1048 -3.19891e-06
1062 1048 0
1064 1048 0
1065 1048 0
1068 1048 0
2372 1048 0
891 1049 -0.0469043
892 1049 -0.0549451
917 1049 0
974 1049 0
1021 1049 -3.54587e-05
1022 1049 -3.54556e-05
1023 1049 -0.000225003
1024 1049 -0.000225251
1025 1049 0
1026 1049 0
1027 1049 0
1028 1049 -4.14418e-06
1043 1049 0
1044 1049 -6.44789e-07
1045 1049 -9.89094e-07
1046 1049 0
1047 1049 -9.89094e-07
1048 1049 0
1049 1049 0.102731
1050 1049 -9.89094e-07
1051 1049 0
1052 1049 0
1053 1049 0
1054 1049 0
1058 1049 0
1059 1049 0
1060 1049 0
1061 1049 0
1062 1049 0
1064 1049 0
1065 1049 -9.89094e-07
1068 1049 0
2372 1049 0
872 1050 -0.00012255
873 1050 -0.000125326
880 1050 -0.203252
881 1050 -0.0529101
882 1050 -0.0529101
883 1050 -7.02903e-05
884 1050 -7.02863e-05
885 1050 0
886 1050 0
887 1050 0
888 1050 -4.14418e-06
915 1050 -1.97193e-06
916 1050 -9.89094e-07
917 1050 -1.62762e-06
974 1050 -9.89094e-07
984 1050 -6.1189e-05
985 1050 -6.27489e-05
986 1050 -7.02903e-05
987 1050 -7.02863e-05
988 1050 0
989 1050 0
990 1050 0
991 1050 0
992 1050 -6.30918e-05
993 1050 -3.91622e-05
994 1050 -3.9159e-05
995 1050 -6.70457e-05
1005 1050 0
1045 1050 0
1046 1050 0
1047 1050 0
1048 1050 0
1049 1050 -9.89094e-07
1050 1050 0.310853
1051 1050 0
1052 1050 0
1053 1050 0
1054 1050 0
1058 1050 -7.98162e-06
1059 1050 0
1060 1050 0
1061 1050 0
1062 1050 0
1064 1050 0
1065 1050 0
1068 1050 0
2372 1050 0
833 1051 -0.087108
834 1051 -0.142857
835 1051 0
853 1051 -0.101626
854 1051 0
855 1051 -1.68396e-05
856 1051 0
1046 1051 -2.96102e-06
1047 1051 -1.97193e-06
1048 1051 0
1049 1051 0
1050 1051 0
1051 1051 0.332255
1052 1051 0
1053 1051 0
1054 1051 0
1055 1051 0
1058 1051 0
1059 1051 0
1060 1051 0
1061 1051 0
1062 1051 0
1064 1051 -9.89094e-07
1065 1051 -9.89094e-07
1068 1051 -9.89094e-07
2362 1051 0
2364 1051 -9.89094e-07
2366 1051 -1.97193e-06
2372 1051 -2.96102e-06
781 1052 -6.028e-05
782 1052 -6.366e-05
787 1052 -1.20569e-05
788 1052 -7.02887e-05
789 1052 -7.02879e-05
796 1052 -6.14753e-05
797 1052 -6.24618e-05
798 1052 -7.02886e-05
799 1052 -7.0288e-05
800 1052 0
801 1052 0
802 1052 0
803 1052 0
804 1052 -9.87842e-06
924 1052 -6.16284e-05
925 1052 -6.23084e-05
932 1052 -0.203252
933 1052 -0.0529101
934 1052 -0.0529101
935 1052 -7.0289e-05
936 1052 -7.02876e-05
937 1052 0
938 1052 0
939 1052 0
940 1052 -7.90649e-06
968 1052 -0.000120731
969 1052 -0.000127149
970 1052 -7.02877e-05
971 1052 -7.02889e-05
972 1052 -1.96379e-05
973 1052 -2.96102e-06
974 1052 -9.89094e-07
1047 1052 0
1048 1052 -2.21607e-06
1049 1052 0
1050 1052 0
1051 1052 0
1052 1052 0.311426
1053 1052 -1.97193e-06
1054 1052 -8.52624e-06
1055 1052 -1.97193e-06
1056 1052 -7.90649e-06
1057 1052 0
1058 1052 -9.89094e-07
1059 1052 0
1060 1052 -1.97193e-06
1061 1052 0
1062 1052 0
1063 1052 -9.89094e-07
1064 1052 0
1065 1052 0
1068 1052 0
2362 1052 -9.89094e-07
2363 1052 -1.97193e-06
2364 1052 0
2366 1052 0
2372 1052 0
792 1053 -0.0469043
793 1053 -0.0571429
803 1053 -1.97193e-06
804 1053 -9.89094e-07
941 1053 -3.51445e-05
942 1053 -3.51438e-05
947 1053 -4.98303e-06
948 1053 -0.000124391
949 1053 -0.000123483
973 1053 -2.87964e-06
974 1053 -7.08642e-06
1047 1053 0
1048 1053 0
1049 1053 0
1050 1053 0
1051 1053 0
1052 1053 -1.97193e-06
1053 1053 0.104916
1054 1053 -1.97193e-06
1055 1053 -1.97193e-06
1056 1053 -9.89094e-07
1057 1053 0
1058 1053 -9.89094e-07
1059 1053 0
1060 1053 0
1061 1053 0
1062 1053 0
1063 1053 -9.89094e-07
1064 1053 0
1065 1053 0
1068 1053 0
2362 1053 -1.38974e-06
2363 1053 -9.89094e-07
2364 1053 0
2366 1053 0
2372 1053 0
782 1054 -0.0529101
784 1054 -0.0529101
789 1054 -0.203252
804 1054 -9.89094e-07
813 1054 -0.000112573
814 1054 -0.000112553
819 1054 -4.98303e-06
820 1054 -3.5458e-05
821 1054 -3.54563e-05
822 1054 -3.86248e-06
893 1054 -0.000112525
894 1054 -0.000112602
899 1054 -4.98303e-06
900 1054 -3.5458e-05
901 1054 -3.54563e-05
916 1054 -7.08642e-06
917 1054 0
973 1054 -2.96102e-06
974 1054 0
1047 1054 0
1048 1054 0
1049 1054 0
1050 1054 0
1051 1054 0
1052 1054 -8.52624e-06
1053 1054 -1.97193e-06
1054 1054 0.310422
1055 1054 -1.97193e-06
1056 1054 0
1057 1054 0
1058 1054 -7.08642e-06
1059 1054 0
1060 1054 -3.79361e-06
1061 1054 0
1062 1054 0
1063 1054 -9.89094e-07
1064 1054 0
1065 1054 0
1068 1054 0
2362 1054 -2.96102e-06
2363 1054 -1.97193e-06
2364 1054 -2.96102e-06
2366 1054 0
2372 1054 0
637 1055 -6.0505e-05
638 1055 -6.34345e-05
643 1055 -1.20569e-05
644 1055 -7.02888e-05
645 1055 -7.02878e-05
646 1055 -4.58239e-06
678 1055 0
704 1055 -6.14842e-05
705 1055 -6.2453e-05
712 1055 -0.203252
713 1055 -0.0529101
714 1055 -0.0529101
715 1055 -7.02887e-05
716 1055 -7.02879e-05
717 1055 0
718 1055 0
719 1055 0
720 1055 -7.98162e-06
762 1055 -1.97193e-06
763 1055 -1.1769e-06
764 1055 -9.89094e-07
765 1055 -2.52282e-06
766 1055 -9.89094e-07
767 1055 -4.89539e-06
809 1055 -6.32998e-05
810 1055 -3.9161e-05
811 1055 -3.91602e-05
812 1055 -6.68371e-05
822 1055 -9.89094e-07
825 1055 -6.15783e-05
826 1055 -6.23586e-05
827 1055 -7.0289e-05
828 1055 -7.02876e-05
829 1055 0
830 1055 0
831 1055 0
856 1055 -9.89094e-07
1051 1055 0
1052 1055 -1.97193e-06
1053 1055 -1.97193e-06
1054 1055 -1.97193e-06
1055 1055 0.311262
1056 1055 0
1057 1055 0
1058 1055 -9.89094e-07
1059 1055 -9.89094e-07
1060 1055 -8.96445e-06
1061 1055 -9.89094e-07
1062 1055 -7.98162e-06
1063 1055 -1.97193e-06
1064 1055 0
1065 1055 0
1067 1055 0
1068 1055 0
2362 1055 -9.89094e-07
2363 1055 -1.97193e-06
2364 1055 -9.89094e-07
2365 1055 -9.89094e-07
2366 1055 -9.89094e-07
2367 1055 0
2368 1055 0
2369 1055 0
2370 1055 -9.89094e-07
2372 1055 0
620 1056 -0.000123686
621 1056 -0.000124187
624 1056 -7.02886e-05
625 1056 -7.02879e-05
630 1056 -5.97213e-06
631 1056 -5.19588e-06
632 1056 0
679 1056 -6.53588e-05
680 1056 -3.91608e-05
681 1056 -3.91604e-05
682 1056 -6.47747e-05
697 1056 0
727 1056 -0.0406504
728 1056 -0.0406504
729 1056 -0.285714
730 1056 -3.51441e-05
731 1056 -3.51442e-05
736 1056 -4.98303e-06
737 1056 -3.54877e-05
738 1056 -3.54266e-05
763 1056 -6.09733e-06
764 1056 0
765 1056 0
766 1056 0
767 1056 0
794 1056 -6.14793e-05
795 1056 -6.24578e-05
800 1056 -1.20569e-05
801 1056 -7.02886e-05
802 1056 -7.0288e-05
803 1056 -4.58239e-06
804 1056 -1.97193e-06
1052 1056 -7.90649e-06
1053 1056 -9.89094e-07
1054 1056 0
1055 1056 0
1056 1056 0.369035
1057 1056 -4.77645e-06
1058 1056 0
1059 1056 0
1060 1056 0
1061 1056 0
1062 1056 0
1063 1056 0
1064 1056 0
1065 1056 0
1067 1056 0
1068 1056 0
2362 1056 -2.37257e-06
2363 1056 -1.97193e-06
2364 1056 -3.29907e-06
2365 1056 -2.96102e-06
2366 1056 0
2367 1056 0
2368 1056 0
2369 1056 0
2370 1056 0
2372 1056 0
596 1057 -0.000112505
597 1057 -0.000112622
598 1057 -3.54578e-05
599 1057 -3.54565e-05
600 1057 0
601 1057 0
602 1057 0
632 1057 -9.89094e-07
683 1057 -0.000225147
684 1057 -0.000225106
685 1057 -3.54561e-05
686 1057 -3.54582e-05
696 1057 -6.52301e-06
697 1057 -1.97193e-06
732 1057 -0.000112448
733 1057 -0.00011268
734 1057 -3.54586e-05
735 1057 -3.54557e-05
736 1057 0
737 1057 0
738 1057 0
763 1057 0
764 1057 0
765 1057 0
766 1057 -2.87964e-06
767 1057 0
779 1057 -0.0469043
780 1057 -0.0571429
804 1057 0
1052 1057 0
1053 1057 0
1054 1057 0
1055 1057 0
1056 1057 -4.77645e-06
1057 1057 0.10584
1058 1057 0
1059 1057 0
1060 1057 0
1061 1057 -1.68396e-05
1062 1057 0
1063 1057 0
1064 1057 0
1065 1057 0
1067 1057 0
1068 1057 0
2362 1057 -9.89094e-07
2363 1057 -9.89094e-07
2364 1057 -9.89094e-07
2365 1057 -9.89094e-07
2366 1057 0
2367 1057 0
2368 1057 0
2369 1057 0
2370 1057 0
2372 1057 0
814 1058 -0.0406504
816 1058 -0.0406504
821 1058 -0.285714
822 1058 -9.89094e-07
982 1058 -6.11942e-05
983 1058 -6.27436e-05
988 1058 -1.20569e-05
989 1058 -7.02887e-05
990 1058 -7.02879e-05
991 1058 -4.58239e-06
1005 1058 -9.89094e-07
1006 1058 -6.19468e-05
1007 1058 -6.19893e-05
1012 1058 -1.20569e-05
1013 1058 -7.02888e-05
1014 1058 -7.02878e-05
1043 1058 -1.97193e-06
1044 1058 -4.58239e-06
1045 1058 -1.97193e-06
1046 1058 0
1047 1058 -9.89094e-07
1048 1058 -9.89094e-07
1049 1058 0
1050 1058 -7.98162e-06
1051 1058 0
1052 1058 -9.89094e-07
1053 1058 -9.89094e-07
1054 1058 -7.08642e-06
1055 1058 -9.89094e-07
1056 1058 0
1057 1058 0
1058 1058 0.368468
1059 1058 -9.89094e-07
1060 1058 -9.89094e-07
1061 1058 -9.89094e-07
1062 1058 -7.98162e-06
1063 1058 0
1064 1058 0
1065 1058 0
1067 1058 0
1068 1058 0
2362 1058 -1.97193e-06
2363 1058 -9.89094e-07
2364 1058 -1.97193e-06
2365 1058 -9.89094e-07
2366 1058 -1.97193e-06
2367 1058 0
2368 1058 0
2369 1058 0
2370 1058 0
2372 1058 0
606 1059 -3.54555e-05
607 1059 -3.54588e-05
610 1059 -0.000225027
611 1059 -0.000225226
616 1059 -5.97213e-06
626 1059 -3.54572e-05
627 1059 -3.54571e-05
628 1059 -7.02614e-05
629 1059 -7.03152e-05
630 1059 -1.96379e-05
631 1059 -2.21607e-06
632 1059 0
766 1059 0
767 1059 -5.19588e-06
856 1059 -9.89094e-07
923 1059 -0.0510204
925 1059 -0.0510204
939 1059 -0.203252
940 1059 -4.58239e-06
973 1059 0
974 1059 0
1047 1059 0
1048 1059 -9.89094e-07
1049 1059 0
1050 1059 0
1051 1059 0
1052 1059 0
1053 1059 0
1054 1059 0
1055 1059 -9.89094e-07
1056 1059 0
1057 1059 0
1058 1059 -9.89094e-07
1059 1059 0.306694
1060 1059 0
1061 1059 -1.97193e-06
1062 1059 0
1063 1059 -9.89094e-07
1064 1059 0
1065 1059 0
1067 1059 0
1068 1059 0
2362 1059 -9.89094e-07
2363 1059 0
2364 1059 -1.64014e-06
2365 1059 0
2366 1059 -9.89094e-07
2367 1059 0
2368 1059 0
2369 1059 0
2370 1059 0
2372 1059 0
807 1060 -0.043554
808 1060 -0.0529101
823 1060 -1.77286e-05
824 1060 -1.77286e-05
829 1060 -1.20569e-05
830 1060 -7.03043e-05
831 1060 -7.02723e-05
856 1060 -4.58239e-06
895 1060 -0.000112525
896 1060 -0.000112602
897 1060 -3.54578e-05
898 1060 -3.54565e-05
899 1060 0
900 1060 0
901 1060 0
916 1060 -9.89094e-07
917 1060 0
973 1060 -1.97193e-06
974 1060 0
1047 1060 0
1048 1060 0
1049 1060 0
1050 1060 0
1051 1060 0
1052 1060 -1.97193e-06
1053 1060 0
1054 1060 -3.79361e-06
1055 1060 -8.96445e-06
1056 1060 0
1057 1060 0
1058 1060 -9.89094e-07
1059 1060 0
1060 1060 0.0975871
1061 1060 0
1062 1060 0
1063 1060 -9.89094e-07
1064 1060 0
1065 1060 0
1067 1060 0
1068 1060 0
2362 1060 -9.89094e-07
2363 1060 0
2364 1060 -9.89094e-07
2365 1060 -1.97193e-06
2366 1060 0
2367 1060 0
2368 1060 0
2369 1060 0
2370 1060 0
2372 1060 0
603 1061 -0.000123897
604 1061 -0.000123975
605 1061 -3.00484e-06
607 1061 0
608 1061 -7.02883e-05
609 1061 -7.02883e-05
616 1061 -3.98142e-06
631 1061 0
632 1061 0
684 1061 -0.0762195
685 1061 -0.142857
686 1061 0
695 1061 -0.101626
696 1061 0
697 1061 0
762 1061 -1.97193e-06
763 1061 -1.1769e-06
764 1061 -1.26454e-06
765 1061 0
766 1061 -9.89094e-07
767 1061 -3.19891e-06
856 1061 -9.89094e-07
950 1061 -0.000122154
951 1061 -0.000125722
952 1061 -3.00484e-06
954 1061 0
955 1061 -7.02885e-05
956 1061 -7.02881e-05
972 1061 -3.98142e-06
973 1061 0
974 1061 0
1047 1061 0
1048 1061 -3.19891e-06
1049 1061 0
1050 1061 0
1051 1061 0
1052 1061 0
1053 1061 0
1054 1061 0
1055 1061 -9.89094e-07
1056 1061 0
1057 1061 -1.68396e-05
1058 1061 -9.89094e-07
1059 1061 -1.97193e-06
1060 1061 0
1061 1061 0.322352
1062 1061 0
1063 1061 -9.89094e-07
1064 1061 0
1065 1061 0
1067 1061 0
1068 1061 0
2362 1061 -9.89094e-07
2363 1061 0
2364 1061 -9.89094e-07
2365 1061 0
2366 1061 -2.96102e-06
2367 1061 0
2368 1061 0
2369 1061 0
2370 1061 0
2372 1061 0
639 1062 -6.05084e-05
640 1062 -6.34311e-05
641 1062 -7.02886e-05
642 1062 -7.0288e-05
643 1062 0
644 1062 0
645 1062 0
646 1062 0
651 1062 -0.0469043
652 1062 -0.0549451
653 1062 -3.51445e-05
654 1062 -3.51438e-05
655 1062 -0.000123093
656 1062 -0.000124781
657 1062 0
658 1062 0
659 1062 0
678 1062 0
765 1062 -9.89094e-07
766 1062 0
767 1062 -9.89094e-07
838 1062 -0.000123951
839 1062 -0.000123921
842 1062 -3.51441e-05
843 1062 -3.51442e-05
844 1062 -0.000123889
845 1062 -0.000123983
846 1062 0
847 1062 0
848 1062 0
849 1062 -7.02889e-05
850 1062 -7.02876e-05
851 1062 0
852 1062 0
853 1062 0
854 1062 -4.14418e-06
855 1062 -9.89094e-07
856 1062 -5.42124e-06
1008 1062 -6.19468e-05
1009 1062 -6.19893e-05
1010 1062 -7.02886e-05
1011 1062 -7.0288e-05
1012 1062 0
1013 1062 0
1014 1062 0
1044 1062 -9.89094e-07
1045 1062 0
1046 1062 0
1047 1062 0
1048 1062 0
1049 1062 0
1050 1062 0
1051 1062 0
1052 1062 0
1053 1062 0
1054 1062 0
1055 1062 -7.98162e-06
1056 1062 0
1057 1062 0
1058 1062 -7.98162e-06
1059 1062 0
1060 1062 0
1061 1062 0
1062 1062 0.104584
1063 1062 -4.87661e-06
1064 1062 0
1065 1062 0
1067 1062 0
1068 1062 0
2362 1062 -9.89094e-07
2363 1062 0
2364 1062 -9.89094e-07
2365 1062 0
2366 1062 -9.89094e-07
2367 1062 0
2368 1062 0
2369 1062 0
2370 1062 0
2372 1062 0
647 1063 -3.51444e-05
648 1063 -3.51439e-05
657 1063 -4.98303e-06
658 1063 -0.000123582
659 1063 -0.000124291
668 1063 -0.0406504
669 1063 -0.0406504
670 1063 -0.285714
671 1063 -3.51444e-05
672 1063 -3.51439e-05
673 1063 -0.000123525
674 1063 -0.000124348
675 1063 0
676 1063 0
677 1063 0
678 1063 -4.0941e-06
765 1063 -7.08642e-06
766 1063 0
767 1063 -9.89094e-07
805 1063 -6.49807e-05
806 1063 -3.91609e-05
807 1063 -3.91603e-05
808 1063 -6.51524e-05
1052 1063 -9.89094e-07
1053 1063 -9.89094e-07
1054 1063 -9.89094e-07
1055 1063 -1.97193e-06
1056 1063 0
1057 1063 0
1058 1063 0
1059 1063 -9.89094e-07
1060 1063 -9.89094e-07
1061 1063 -9.89094e-07
1062 1063 -4.87661e-06
1063 1063 0.368621
1064 1063 0
1065 1063 0
1067 1063 0
1068 1063 0
2362 1063 -9.89094e-07
2363 1063 -9.89094e-07
2364 1063 -9.89094e-07
2365 1063 -9.89094e-07
2366 1063 -9.89094e-07
2367 1063 0
2368 1063 0
2369 1063 0
2370 1063 -9.89094e-07
2372 1063 0
556 1064 -1.86158e-05
557 1064 -0.000125385
558 1064 -0.00012547
559 1064 -1.86142e-05
589 1064 0
867 1064 -0.087108
868 1064 -0.142857
869 1064 0
887 1064 -0.101626
888 1064 0
917 1064 0
974 1064 0
1046 1064 -9.89094e-07
1047 1064 -1.68396e-05
1048 1064 0
1049 1064 0
1050 1064 0
1051 1064 -9.89094e-07
1052 1064 0
1053 1064 0
1054 1064 0
1055 1064 0
1056 1064 0
1057 1064 0
1058 1064 0
1059 1064 0
1060 1064 0
1061 1064 0
1062 1064 0
1063 1064 0
1064 1064 0.332219
1065 1064 -9.89094e-07
1066 1064 0
1067 1064 0
1068 1064 0
2362 1064 0
2363 1064 0
2364 1064 0
2365 1064 0
2366 1064 0
2367 1064 0
2368 1064 0
2369 1064 0
2370 1064 0
2372 1064 -1.97193e-06
2385 1064 0
2386 1064 0
2387 1064 0
547 1065 -0.0406504
548 1065 -3.51445e-05
549 1065 -3.51438e-05
550 1065 -0.000123919
551 1065 -0.000123953
552 1065 0
553 1065 0
554 1065 0
555 1065 0
573 1065 -0.000123916
574 1065 -0.000123956
575 1065 -3.00484e-06
577 1065 0
578 1065 -7.02885e-05
579 1065 -7.02881e-05
586 1065 -3.98142e-06
587 1065 -9.89094e-07
588 1065 0
589 1065 -5.8344e-06
980 1065 -0.0406504
981 1065 -0.285714
991 1065 0
1046 1065 -9.89094e-07
1047 1065 -9.89094e-07
1048 1065 0
1049 1065 -9.89094e-07
1050 1065 0
1051 1065 -9.89094e-07
1052 1065 0
1053 1065 0
1054 1065 0
1055 1065 0
1056 1065 0
1057 1065 0
1058 1065 0
1059 1065 0
1060 1065 0
1061 1065 0
1062 1065 0
1063 1065 0
1064 1065 -9.89094e-07
1065 1065 0.368438
1066 1065 -2.21607e-06
1067 1065 -9.89094e-07
1068 1065 -9.89094e-07
2362 1065 0
2363 1065 0
2364 1065 0
2365 1065 0
2366 1065 0
2367 1065 0
2368 1065 0
2369 1065 0
2370 1065 -9.89094e-07
2372 1065 -2.96102e-06
2385 1065 -1.97193e-06
2386 1065 0
2387 1065 0
450 1066 -1.77293e-05
451 1066 -1.77278e-05
456 1066 -1.20569e-05
457 1066 -0.000225108
458 1066 -0.000225144
459 1066 -4.58239e-06
502 1066 -9.89094e-07
512 1066 -0.000112541
513 1066 -0.000112585
518 1066 -4.98303e-06
519 1066 -3.5458e-05
520 1066 -3.54563e-05
539 1066 -2.87964e-06
575 1066 -1.00161e-06
576 1066 -0.285714
577 1066 0
583 1066 -0.102041
584 1066 -0.101626
585 1066 0
586 1066 0
587 1066 -2.21607e-06
588 1066 0
589 1066 -4.21304e-06
1064 1066 0
1065 1066 -2.21607e-06
1066 1066 0.49076
1067 1066 -9.89094e-07
1068 1066 -9.89094e-07
2362 1066 0
2363 1066 0
2364 1066 0
2365 1066 0
2366 1066 0
2367 1066 -1.97193e-06
2368 1066 0
2369 1066 0
2370 1066 -1.97193e-06
2372 1066 0
2373 1066 -9.87842e-06
2379 1066 -9.89094e-07
2380 1066 -6.09733e-06
2381 1066 -1.97193e-06
2385 1066 0
2386 1066 0
2387 1066 0
440 1067 -9.89094e-07
588 1067 -9.89094e-07
589 1067 -9.89094e-07
749 1067 -0.087108
750 1067 -0.142857
751 1067 0
760 1067 -0.101626
761 1067 0
762 1067 -1.68396e-05
763 1067 0
764 1067 0
765 1067 0
766 1067 0
767 1067 -9.89094e-07
1055 1067 0
1056 1067 0
1057 1067 0
1058 1067 0
1059 1067 0
1060 1067 0
1061 1067 0
1062 1067 0
1063 1067 0
1064 1067 0
1065 1067 -9.89094e-07
1066 1067 -9.89094e-07
1067 1067 0.332497
1068 1067 -9.89094e-07
2362 1067 0
2363 1067 0
2364 1067 0
2365 1067 0
2366 1067 0
2367 1067 -3.94386e-06
2368 1067 -9.89094e-07
2369 1067 0
2370 1067 -3.94386e-06
2372 1067 -1.97193e-06
2373 1067 -1.97193e-06
2374 1067 -1.97193e-06
2375 1067 0
2378 1067 -1.97193e-06
2379 1067 -9.89094e-07
2380 1067 -9.89094e-07
2381 1067 -1.97193e-06
2385 1067 -9.89094e-07
2386 1067 -9.89094e-07
2387 1067 0
2388 1067 0
2389 1067 0
2395 1067 0
440 1068 -9.89094e-07
589 1068 -9.89094e-07
592 1068 -0.0469043
593 1068 -0.0549451
767 1068 0
1046 1068 -9.89094e-07
1047 1068 0
1048 1068 0
1049 1068 0
1050 1068 0
1051 1068 -9.89094e-07
1052 1068 0
1053 1068 0
1054 1068 0
1055 1068 0
1056 1068 0
1057 1068 0
1058 1068 0
1059 1068 0
1060 1068 0
1061 1068 0
1062 1068 0
1063 1068 0
1064 1068 0
1065 1068 -9.89094e-07
1066 1068 -9.89094e-07
1067 1068 -9.89094e-07
1068 1068 0.102496
2362 1068 0
2363 1068 0
2364 1068 0
2365 1068 0
2366 1068 0
2367 1068 0
2368 1068 0
2369 1068 0
2370 1068 -1.97193e-06
2372 1068 -9.89094e-07
2373 1068 -1.97193e-06
2374 1068 -1.97193e-06
2375 1068 0
2377 1068 -1.97193e-06
2378 1068 -1.97193e-06
2379 1068 -9.89094e-07
2380 1068 -1.13934e-06
2381 1068 -1.97193e-06
2385 1068 0
2386 1068 0
2387 1068 0
2388 1068 -1.97193e-06
2389 1068 0
2395 1068 0
1069 1069 0.101876
1070 1069 -7.08787e-10
2356 1069 -7.03456e-05
1069 1070 -2.88414e-12
1070 1070 0.0764572
1210 1070 -0.0762195
2356 1070 -7.03059e-05
1071 1071 0.144324
1072 1071 -0.001231
1210 1071 -0.142857
2356 1071 -0.000124685
1071 1072 -0.00123566
1072 1072 0.131354
1091 1072 -0.12987
1210 1072 0
2356 1072 -0.000124696
1073 1073 0.144308
1074 1073 -0.00122564
2357 1073 -0.000124633
1073 1074 -0.00122495
1074 1074 0.103546
1091 1074 -0.102041
2357 1074 -0.000124749
1075 1075 0.1443
1076 1075 -0.00121742
2354 1075 -0.000124632
1075 1076 -0.00121677
1076 1076 0.103538
1091 1076 -0.102041
2354 1076 -0.000124749
1077 1077 0.0685344
1085 1077 -0.00037491
1078 1078 0.0680914
1084 1078 -9.12391e-10
1079 1079 0.204473
1080 1079 -0.000862585
1079 1080 -0.000884206
1080 1080 0.0885314
1081 1080 -0.087108
1080 1081 -0.087108
1081 1081 0.209076
1082 1081 -0.121951
1081 1082 -0.121951
1082 1082 0.122698
1083 1082 -0.000261434
1082 1083 -0.00022911
1083 1083 0.203834
2354 1083 -0.203252
1078 1084 -8.07594e-12
1084 1084 0.0529542
2354 1084 -0.0529101
1077 1085 -2.24283e-05
1085 1085 0.0529762
2354 1085 -0.0529101
1086 1086 0.101876
1087 1086 -1.57841e-09
2354 1086 -7.03481e-05
1086 1087 -1.0011e-09
1087 1087 0.07657
1088 1087 -0.0762195
2354 1087 -7.03468e-05
1087 1088 -0.0762195
1088 1088 0.177876
1089 1088 -0.101626
2354 1088 0
2357 1088 -2.06959e-05
1088 1089 -0.101626
1089 1089 0.101875
1090 1089 -5.50924e-10
2354 1089 0
2357 1089 -7.03454e-05
1089 1090 -2.24415e-12
1090 1090 0.101802
1210 1090 -0.101626
2354 1090 0
2357 1090 -7.03062e-05
1072 1091 -0.12987
1074 1091 -0.102041
1076 1091 -0.102041
1091 1091 0.333991
1210 1091 0
2354 1091 -4.14418e-06
2356 1091 -6.52301e-06
2357 1091 -3.98142e-06
1092 1092 0.0397924
1095 1092 -9.65201e-10
1134 1092 -1.95603e-05
1093 1093 0.0561831
1094 1093 -0.000481425
1134 1093 -0.000126751
1093 1094 -0.000476309
1094 1094 0.0443361
1134 1094 -0.000126751
2355 1094 -0.043554
1092 1095 -8.52788e-12
1095 1095 0.0529569
1134 1095 -1.89762e-05
2355 1095 -0.0529101
1096 1096 0.0397924
1099 1096 -9.83488e-10
2351 1096 -1.9562e-05
1097 1097 0.0561881
1098 1097 -0.000476095
2351 1097 -0.000126753
1097 1098 -0.000481193
1098 1098 0.0443307
1133 1098 -0.043554
2351 1098 -0.000126749
1096 1099 -8.69234e-12
1099 1099 0.0529569
1133 1099 -0.0529101
2351 1099 -1.89768e-05
1100 1100 0.0509407
1101 1100 -3.89567e-10
2379 1100 -3.51732e-05
1100 1101 -1.58053e-12
1101 1101 0.0382286
1209 1101 -0.0381098
2379 1101 -3.51531e-05
1102 1102 0.0509407
1103 1102 -3.94356e-10
1133 1102 -3.51732e-05
1102 1103 -1.60002e-12
1103 1103 0.0382286
1133 1103 -3.51531e-05
1209 1103 -0.0381098
1104 1104 0.287127
1105 1104 -0.0012259
1133 1104 -0.0001247
1104 1105 -0.00122081
1105 1105 0.103542
1106 1105 -0.102041
1133 1105 -0.000124701
1105 1106 -0.102041
1106 1106 0.260781
1107 1106 -0.15873
1133 1106 0
2379 1106 -4.98303e-06
1106 1107 -0.15873
1107 1107 0.16019
1108 1107 -0.00122633
1133 1107 0
2379 1107 -0.0001247
1107 1108 -0.00122122
1108 1108 0.287133
1133 1108 0
1209 1108 -0.285714
2379 1108 -0.0001247
1109 1109 0.0397924
1112 1109 -9.81229e-10
1122 1109 -1.95617e-05
1110 1110 0.0561881
1111 1110 -0.000476126
1122 1110 -0.000126751
1110 1111 -0.000481249
1111 1111 0.0443307
1122 1111 -0.000126751
1132 1111 -0.043554
1109 1112 -8.67194e-12
1112 1112 0.0529569
1122 1112 -1.89767e-05
1132 1112 -0.0529101
1113 1113 0.0509407
1114 1113 -3.89536e-10
2379 1113 -3.51732e-05
1113 1114 -1.58036e-12
1114 1114 0.0382286
1122 1114 -0.0381098
2379 1114 -3.51531e-05
1115 1115 0.0509407
1116 1115 -3.94324e-10
1133 1115 -3.51732e-05
1115 1116 -1.59985e-12
1116 1116 0.0382286
1122 1116 -0.0381098
1133 1116 -3.51531e-05
1117 1117 0.287132
1118 1117 -0.00122075
1133 1117 -0.000124707
1117 1118 -0.00122563
1118 1118 0.103536
1119 1118 -0.102041
1133 1118 -0.000124694
1118 1119 -0.102041
1119 1119 0.260781
1120 1119 -0.15873
1133 1119 0
2379 1119 -4.98303e-06
1119 1120 -0.15873
1120 1120 0.160194
1121 1120 -0.00122087
1133 1120 0
2379 1120 -0.000124707
1120 1121 -0.00122574
1121 1121 0.287127
1122 1121 -0.285714
1133 1121 0
2379 1121 -0.000124693
1109 1122 -1.86158e-05
1110 1122 -0.00012543
1111 1122 -0.000125425
1112 1122 -1.86142e-05
1114 1122 -0.0381098
1116 1122 -0.0381098
1121 1122 -0.285714
1122 1122 0.3625
1132 1122 0
1133 1122 0
2379 1122 -6.09733e-06
1123 1123 0.0509407
1124 1123 -3.92482e-10
2380 1123 -3.51732e-05
1123 1124 -1.5924e-12
1124 1124 0.0382286
1134 1124 -0.0381098
2380 1124 -3.51531e-05
1125 1125 0.0509407
1126 1125 -3.93499e-10
1132 1125 -3.51732e-05
1125 1126 -1.59654e-12
1126 1126 0.0382286
1132 1126 -3.51531e-05
1134 1126 -0.0381098
1127 1127 0.287127
1128 1127 -0.00122596
1132 1127 -0.0001247
1127 1128 -0.00122088
1128 1128 0.103542
1129 1128 -0.102041
1132 1128 -0.000124701
1128 1129 -0.102041
1129 1129 0.260781
1130 1129 -0.15873
1132 1129 0
2380 1129 -4.98303e-06
1129 1130 -0.15873
1130 1130 0.160189
1131 1130 -0.0012261
1132 1130 0
2380 1130 -0.0001247
1130 1131 -0.00122101
1131 1131 0.287133
1132 1131 0
1134 1131 -0.285714
2380 1131 -0.000124701
1111 1132 -0.043554
1112 1132 -0.0529101
1122 1132 0
1125 1132 -3.51445e-05
1126 1132 -3.51438e-05
1127 1132 -0.000123909
1128 1132 -0.000123963
1129 1132 0
1130 1132 0
1131 1132 0
1132 1132 0.097031
1133 1132 0
1134 1132 0
2379 1132 0
2380 1132 -2.87964e-06
2390 1132 -3.43053e-06
1098 1133 -0.043554
1099 1133 -0.0529101
1102 1133 -3.51445e-05
1103 1133 -3.51438e-05
1104 1133 -0.000123913
1105 1133 -0.000123959
1106 1133 0
1107 1133 0
1108 1133 0
1115 1133 -3.51445e-05
1116 1133 -3.51438e-05
1117 1133 -0.000124158
1118 1133 -0.000123714
1119 1133 0
1120 1133 0
1121 1133 0
1122 1133 0
1132 1133 0
1133 1133 0.0975398
1134 1133 0
1209 1133 -9.89094e-07
2351 1133 0
2379 1133 -5.6153e-06
2380 1133 0
2390 1133 -2.96102e-06
1092 1134 -1.86158e-05
1093 1134 -0.000125422
1094 1134 -0.000125433
1095 1134 -1.86142e-05
1124 1134 -0.0381098
1126 1134 -0.0381098
1131 1134 -0.285714
1132 1134 0
1133 1134 0
1134 1134 0.362559
1208 1134 -1.97193e-06
1209 1134 0
2351 1134 0
2355 1134 0
2358 1134 -2.29119e-06
2379 1134 0
2380 1134 -6.09733e-06
2390 1134 -2.17225e-06
2392 1134 -1.97193e-06
1135 1135 0.0397924
1138 1135 -9.64547e-10
1207 1135 -1.95602e-05
1136 1136 0.0561882
1137 1136 -0.00047627
1207 1136 -0.000126762
1136 1137 -0.00048125
1137 1137 0.0443271
1207 1137 -0.00012674
1620 1137 -0.043554
1135 1138 -8.52301e-12
1138 1138 0.0529553
1207 1138 -1.89762e-05
1620 1138 -0.0529101
1139 1139 0.101876
1140 1139 -8.45529e-10
1208 1139 -7.03466e-05
1139 1140 -3.44216e-12
1140 1140 0.0764535
1207 1140 -0.0762195
1208 1140 -7.03062e-05
1141 1141 0.144313
1142 1141 -0.00122067
1207 1141 -0.142857
1208 1141 -0.000124701
1141 1142 -0.00122572
1142 1142 0.131343
1152 1142 -0.12987
1207 1142 0
1208 1142 -0.000124699
1143 1143 0.144308
1144 1143 -0.00122597
1172 1143 -0.0001247
1143 1144 -0.00122088
1144 1144 0.103537
1152 1144 -0.102041
1172 1144 -0.000124701
1145 1145 0.144308
1146 1145 -0.00122581
1206 1145 -0.0001247
1145 1146 -0.00122072
1146 1146 0.103537
1152 1146 -0.102041
1206 1146 -0.000124701
1147 1147 0.101876
1148 1147 -1.22721e-09
1206 1147 -7.03465e-05
1147 1148 -8.14117e-10
1148 1148 0.076564
1149 1148 -0.0762195
1206 1148 -7.03454e-05
1148 1149 -0.0762195
1149 1149 0.177876
1150 1149 -0.101626
1172 1149 -2.06959e-05
1206 1149 0
1149 1150 -0.101626
1150 1150 0.101875
1151 1150 -5.66755e-10
1172 1150 -7.03454e-05
1206 1150 0
1150 1151 -2.30817e-12
1151 1151 0.101802
1172 1151 -7.03062e-05
1206 1151 0
1207 1151 -0.101626
1142 1152 -0.12987
1144 1152 -0.102041
1146 1152 -0.102041
1152 1152 0.333991
1172 1152 -3.98142e-06
1206 1152 -4.14418e-06
1207 1152 0
1208 1152 -6.52301e-06
1153 1153 0.0397924
1156 1153 -9.65574e-10
1209 1153 -1.95603e-05
1154 1154 0.0561883
1155 1154 -0.000476294
1209 1154 -0.000126751
1154 1155 -0.000481418
1155 1155 0.0443274
1171 1155 -0.043554
1209 1155 -0.000126751
1153 1156 -8.53129e-12
1156 1156 0.0529553
1171 1156 -0.0529101
1209 1156 -1.89762e-05
1157 1157 0.0397924
1160 1157 -9.66467e-10
1170 1157 -1.95604e-05
1158 1158 0.0561882
1159 1158 -0.000476284
1170 1158 -0.000126751
1158 1159 -0.000481409
1159 1159 0.0443274
1170 1159 -0.000126751
1172 1159 -0.043554
1157 1160 -8.5393e-12
1160 1160 0.0529553
1170 1160 -1.89762e-05
1172 1160 -0.0529101
1161 1161 0.0509407
1162 1161 -3.93505e-10
1171 1161 -3.51732e-05
1161 1162 -1.59656e-12
1162 1162 0.0407674
1170 1162 -0.0406504
1171 1162 -3.51531e-05
1163 1163 0.0509407
1164 1163 -3.92479e-10
2380 1163 -3.51732e-05
1163 1164 -1.59238e-12
1164 1164 0.0407674
1170 1164 -0.0406504
2380 1164 -3.51531e-05
1165 1165 0.287127
1166 1165 -0.00122605
2380 1165 -0.0001247
1165 1166 -0.00122093
1166 1166 0.103537
1167 1166 -0.102041
2380 1166 -0.000124701
1166 1167 -0.102041
1167 1167 0.260781
1168 1167 -0.15873
1171 1167 -4.98303e-06
2380 1167 0
1167 1168 -0.15873
1168 1168 0.160189
1169 1168 -0.00122598
1171 1168 -0.0001247
2380 1168 0
1168 1169 -0.00122085
1169 1169 0.287133
1170 1169 -0.285714
1171 1169 -0.0001247
2380 1169 0
1157 1170 -1.86158e-05
1158 1170 -0.00012543
1159 1170 -0.000125425
1160 1170 -1.86142e-05
1162 1170 -0.0406504
1164 1170 -0.0406504
1169 1170 -0.285714
1170 1170 0.367627
1171 1170 -7.08642e-06
1172 1170 -9.89094e-07
2380 1170 -9.89094e-07
2391 1170 -1.97193e-06
1155 1171 -0.043554
1156 1171 -0.0529101
1161 1171 -3.51445e-05
1162 1171 -3.51438e-05
1167 1171 -4.98303e-06
1168 1171 -0.000123936
1169 1171 -0.000123936
1170 1171 -7.08642e-06
1171 1171 0.0970908
1172 1171 -1.97193e-06
1209 1171 -9.89094e-07
2380 1171 -2.80452e-06
2390 1171 -1.97193e-06
2391 1171 -1.97193e-06
1143 1172 -0.000123913
1144 1172 -0.000123959
1149 1172 -2.06959e-05
1150 1172 -7.02888e-05
1151 1172 -7.02878e-05
1152 1172 -3.98142e-06
1159 1172 -0.043554
1160 1172 -0.0529101
1170 1172 -9.89094e-07
1171 1172 -1.97193e-06
1172 1172 0.0972212
1206 1172 -1.62762e-06
1207 1172 0
1208 1172 0
1209 1172 -9.89094e-07
2380 1172 -9.89094e-07
2390 1172 -1.97193e-06
2391 1172 -1.97193e-06
1173 1173 0.0397924
1176 1173 -9.20377e-10
2358 1173 -1.95559e-05
1174 1174 0.0561887
1175 1174 -0.000476781
2358 1174 -0.000126756
1174 1175 -0.000481851
1175 1175 0.0443278
1206 1175 -0.043554
2358 1175 -0.000126746
1173 1176 -8.12571e-12
1176 1176 0.0529553
1206 1176 -0.0529101
2358 1176 -1.89745e-05
1177 1177 0.0397924
1180 1177 -8.9189e-10
1210 1177 -1.95531e-05
1178 1178 0.0561891
1179 1178 -0.000477097
1210 1178 -0.00012676
1178 1179 -0.000482119
1179 1179 0.044328
1208 1179 -0.043554
1210 1179 -0.000126743
1177 1180 -7.8704e-12
1180 1180 0.0529553
1208 1180 -0.0529101
1210 1180 -1.89735e-05
1181 1181 0.101876
1182 1181 -8.42349e-10
1205 1181 -7.03466e-05
1181 1182 -3.42919e-12
1182 1182 0.0764535
1183 1182 -0.0762195
1205 1182 -7.03062e-05
1182 1183 -0.0762195
1183 1183 0.320838
1184 1183 -0.142857
1204 1183 -0.101626
1205 1183 -1.68396e-05
1183 1184 -0.142857
1184 1184 0.144314
1185 1184 -0.0012209
1204 1184 0
1205 1184 -0.000124701
1184 1185 -0.00122595
1185 1185 0.131343
1203 1185 -0.12987
1204 1185 0
1205 1185 -0.000124699
1186 1186 0.142986
1187 1186 -1.78604e-09
2360 1186 -3.71509e-05
1186 1187 -1.79507e-09
1187 1187 0.102209
1203 1187 -0.102041
2360 1187 -3.7168e-05
1188 1188 0.144308
1189 1188 -0.00122599
2355 1188 -0.000124698
1188 1189 -0.00122101
1189 1189 0.103537
1203 1189 -0.102041
2355 1189 -0.000124702
1190 1190 0.0514663
1191 1190 -0.000427716
2360 1190 -0.000113891
1190 1191 -0.000432256
1191 1191 0.0413448
1205 1191 -0.0406504
2360 1191 -0.000113882
1192 1192 0.0509407
1193 1192 -6.11258e-10
2355 1192 -3.51732e-05
1192 1193 -6.07005e-10
1193 1193 0.0408239
1205 1193 -0.0406504
2355 1193 -3.51732e-05
1194 1194 0.287127
1195 1194 -0.00122599
2355 1194 -0.000124699
1194 1195 -0.00122094
1195 1195 0.103537
1196 1195 -0.102041
2355 1195 -0.000124701
1195 1196 -0.102041
1196 1196 0.260781
1197 1196 -0.15873
2355 1196 0
2360 1196 -4.98303e-06
1196 1197 -0.15873
1197 1197 0.158867
1198 1197 -1.87482e-09
2355 1197 0
2360 1197 -3.72623e-05
1197 1198 -1.66261e-11
1198 1198 0.285772
1205 1198 -0.285714
2355 1198 0
2360 1198 -3.61437e-05
1199 1199 0.101876
1200 1199 -8.02638e-10
2355 1199 -7.03465e-05
1199 1200 -3.22436e-12
1200 1200 0.0764622
1201 1200 -0.0762195
2355 1200 -7.03085e-05
1200 1201 -0.0762195
1201 1201 0.177876
1202 1201 -0.101626
2355 1201 0
2360 1201 -2.06959e-05
1201 1202 -0.101626
1202 1202 0.101808
1204 1202 -1.86391e-08
2355 1202 0
2360 1202 -7.03616e-05
1185 1203 -0.12987
1187 1203 -0.102041
1189 1203 -0.102041
1203 1203 0.333991
1204 1203 0
1205 1203 -6.52301e-06
2355 1203 -4.14418e-06
2360 1203 -3.98142e-06
1183 1204 -0.101626
1184 1204 0
1185 1204 0
1202 1204 -7.89324e-11
1203 1204 0
1204 1204 0.101802
1205 1204 0
2355 1204 0
2360 1204 -7.03533e-05
1181 1205 -7.0289e-05
1182 1205 -7.02876e-05
1183 1205 -1.68396e-05
1184 1205 -0.000123975
1185 1205 -0.000123897
1191 1205 -0.0406504
1193 1205 -0.0406504
1198 1205 -0.285714
1203 1205 -6.52301e-06
1204 1205 0
1205 1205 0.367807
1206 1205 -9.89094e-07
1207 1205 -1.97193e-06
1208 1205 -9.89094e-07
1210 1205 -9.89094e-07
2355 1205 -9.89094e-07
2358 1205 -9.89094e-07
2360 1205 -8.3134e-06
2390 1205 -1.97193e-06
2391 1205 -1.97193e-06
1145 1206 -0.000123913
1146 1206 -0.000123959
1147 1206 -7.02886e-05
1148 1206 -7.0288e-05
1149 1206 0
1150 1206 0
1151 1206 0
1152 1206 -4.14418e-06
1172 1206 -1.62762e-06
1175 1206 -0.043554
1176 1206 -0.0529101
1205 1206 -9.89094e-07
1206 1206 0.0972155
1207 1206 -9.89094e-07
1208 1206 -9.89094e-07
1209 1206 0
1210 1206 0
2355 1206 -9.89094e-07
2358 1206 -9.89094e-07
2360 1206 -9.89094e-07
2380 1206 0
2390 1206 0
2391 1206 -1.97193e-06
1135 1207 -1.86158e-05
1136 1207 -0.000125557
1137 1207 -0.000125298
1138 1207 -1.86142e-05
1140 1207 -0.0762195
1141 1207 -0.142857
1142 1207 0
1151 1207 -0.101626
1152 1207 0
1172 1207 0
1205 1207 -1.97193e-06
1206 1207 -9.89094e-07
1207 1207 0.321404
1208 1207 -1.78287e-05
1209 1207 0
1210 1207 -2.09087e-06
1620 1207 0
2355 1207 -1.97193e-06
2358 1207 -1.18942e-06
2360 1207 -1.97193e-06
2380 1207 0
2390 1207 -1.97193e-06
2391 1207 -1.97193e-06
1134 1208 -1.97193e-06
1139 1208 -7.0289e-05
1140 1208 -7.02876e-05
1141 1208 -0.000123978
1142 1208 -0.000123894
1152 1208 -6.52301e-06
1172 1208 0
1179 1208 -0.043554
1180 1208 -0.0529101
1205 1208 -9.89094e-07
1206 1208 -9.89094e-07
1207 1208 -1.78287e-05
1208 1208 0.0972877
1209 1208 0
1210 1208 -9.89094e-07
1620 1208 0
2351 1208 0
2355 1208 -1.97193e-06
2358 1208 -1.08926e-06
2360 1208 -1.28958e-06
2379 1208 0
2380 1208 -1.97193e-06
2390 1208 -1.97193e-06
2391 1208 -1.97193e-06
2392 1208 -1.97193e-06
2393 1208 -1.97193e-06
1101 1209 -0.0381098
1103 1209 -0.0381098
1108 1209 -0.285714
1133 1209 -9.89094e-07
1134 1209 0
1153 1209 -1.86158e-05
1154 1209 -0.00012543
1155 1209 -0.000125425
1156 1209 -1.86142e-05
1171 1209 -9.89094e-07
1172 1209 -9.89094e-07
1206 1209 0
1207 1209 0
1208 1209 0
1209 1209 0.362543
1210 1209 0
1620 1209 0
2351 1209 0
2355 1209 0
2358 1209 0
2360 1209 0
2379 1209 -6.09733e-06
2380 1209 -9.89094e-07
2390 1209 -4.41336e-06
2391 1209 -9.89094e-07
2392 1209 -9.89094e-07
2393 1209 -9.89094e-07
1070 1210 -0.0762195
1071 1210 -0.142857
1072 1210 0
1090 1210 -0.101626
1091 1210 0
1177 1210 -1.86158e-05
1178 1210 -0.000125526
1179 1210 -0.00012533
1180 1210 -1.86143e-05
1205 1210 -9.89094e-07
1206 1210 0
1207 1210 -2.09087e-06
1208 1210 -9.89094e-07
1209 1210 0
1210 1210 0.321362
1620 1210 0
2351 1210 0
2354 1210 0
2355 1210 -9.89094e-07
2356 1210 -1.78287e-05
2357 1210 -1.26454e-06
2358 1210 0
2360 1210 -9.89094e-07
2379 1210 0
2380 1210 0
2390 1210 -1.97193e-06
2391 1210 -9.89094e-07
2392 1210 -9.89094e-07
2393 1210 -9.89094e-07
1211 1211 0.0404814
1214 1211 -0.000637844
2354 1211 -6.57666e-05
1212 1212 0.0556031
1213 1212 -5.82136e-10
2354 1212 -3.91939e-05
1212 1213 -2.36622e-12
1213 1213 0.0436864
1233 1213 -0.043554
2354 1213 -3.91708e-05
1211 1214 -0.000639324
1214 1214 0.0536971
1233 1214 -0.0529101
2354 1214 -6.58609e-05
1215 1215 0.285805
1216 1215 -1.33695e-09
1215 1216 -1.81615e-11
1216 1216 0.110003
1217 1216 -0.10989
1216 1217 -0.10989
1217 1217 0.26863
1218 1217 -0.15873
1217 1218 -0.15873
1218 1218 0.15916
1223 1218 -0.000202523
1219 1219 0.0511532
1222 1219 -0.000121499
1220 1220 0.0514609
1221 1220 -0.000431653
1220 1221 -0.000430491
1221 1221 0.0413502
2356 1221 -0.0406504
1219 1222 -0.000123623
1222 1222 0.0410409
2356 1222 -0.0406504
1218 1223 -6.01762e-06
1223 1223 0.285777
2356 1223 -0.285714
1224 1224 0.0509407
1225 1224 -5.17519e-10
2356 1224 -3.51727e-05
1224 1225 -5.04176e-10
1225 1225 0.0382863
1619 1225 -0.0381098
2356 1225 -3.51727e-05
1226 1226 0.0514671
1227 1226 -0.000428525
1233 1226 -0.000113904
1226 1227 -0.000432906
1227 1227 0.0388079
1233 1227 -0.00011387
1619 1227 -0.0381098
1228 1228 0.285805
1229 1228 -1.5951e-09
1233 1228 -3.72282e-05
1228 1229 -1.50318e-11
1229 1229 0.102133
1230 1229 -0.102041
1233 1229 -3.61852e-05
1229 1230 -0.102041
1230 1230 0.260781
1231 1230 -0.15873
1233 1230 0
2356 1230 -4.98303e-06
1230 1231 -0.15873
1231 1231 0.158813
1232 1231 -2.30476e-08
1233 1231 0
2356 1231 -3.81033e-05
1231 1232 -5.25203e-10
1232 1232 0.285772
1233 1232 0
1619 1232 -0.285714
2356 1232 -3.7917e-05
1213 1233 -0.043554
1214 1233 -0.0529101
1226 1233 -0.00011276
1227 1233 -0.000112367
1228 1233 -3.54585e-05
1229 1233 -3.54558e-05
1230 1233 0
1231 1233 0
1232 1233 0
1233 1233 0.0970744
1619 1233 0
2354 1233 0
2356 1233 -4.85157e-06
2357 1233 -1.97193e-06
2360 1233 -9.89094e-07
2390 1233 -1.97193e-06
2392 1233 -1.97193e-06
2393 1233 -1.97193e-06
1234 1234 0.0687538
1235 1234 -0.000608561
2359 1234 -6.27327e-05
1234 1235 -0.000611101
1235 1235 0.053654
1262 1235 -0.0529101
2359 1235 -6.27321e-05
1236 1236 0.0687543
1237 1236 -0.000609031
2355 1236 -6.27327e-05
1236 1237 -0.000611572
1237 1237 0.0536545
1262 1237 -0.0529101
2355 1237 -6.27321e-05
1238 1238 0.203436
1239 1238 -1.21857e-09
2355 1238 -7.03465e-05
1238 1239 -8.04694e-10
1239 1239 0.0874484
1240 1239 -0.087108
2355 1239 -7.03454e-05
1239 1240 -0.087108
1240 1240 0.209076
1241 1240 -0.121951
2355 1240 0
2359 1240 -1.20569e-05
1240 1241 -0.121951
1241 1241 0.122236
1242 1241 -5.81351e-10
2355 1241 0
2359 1241 -7.03456e-05
1241 1242 -2.36784e-12
1242 1242 0.203389
1262 1242 -0.203252
2355 1242 0
2359 1242 -7.03063e-05
1243 1243 0.0404857
1246 1243 -0.000642149
2357 1243 -6.58301e-05
1244 1244 0.0556031
1245 1244 -4.47977e-10
2357 1244 -3.91931e-05
1244 1245 -1.81887e-12
1245 1245 0.0436865
1261 1245 -0.043554
2357 1245 -3.91706e-05
1243 1246 -0.000639512
1246 1246 0.0536969
1261 1246 -0.0529101
2357 1246 -6.58311e-05
1247 1247 0.101876
1248 1247 -1.32971e-09
1619 1247 -7.03466e-05
1247 1248 -1.32377e-09
1248 1248 0.0765728
1618 1248 -0.0762195
1619 1248 -7.03466e-05
1249 1249 0.142928
1250 1249 -6.60163e-10
1618 1249 -0.142857
1619 1249 -3.79113e-05
1249 1250 -2.93586e-08
1250 1250 0.129956
1260 1250 -0.12987
1618 1250 0
1619 1250 -3.81104e-05
1251 1251 0.142986
1252 1251 -1.81974e-09
1262 1251 -3.72512e-05
1251 1252 -1.72584e-11
1252 1252 0.102133
1260 1252 -0.102041
1262 1252 -3.61983e-05
1253 1253 0.142986
1254 1253 -1.8159e-09
1261 1253 -3.72508e-05
1253 1254 -1.72214e-11
1254 1254 0.102133
1260 1254 -0.102041
1261 1254 -3.61981e-05
1255 1255 0.102927
1256 1255 -0.000855828
1261 1255 -0.000226452
1255 1256 -0.00086504
1256 1256 0.0776138
1257 1256 -0.0762195
1261 1256 -0.000226447
1256 1257 -0.0762195
1257 1257 0.177876
1258 1257 -0.101626
1261 1257 0
1262 1257 -2.06959e-05
1257 1258 -0.101626
1258 1258 0.102927
1259 1258 -0.000855752
1261 1258 0
1262 1258 -0.000226453
1258 1259 -0.000864949
1259 1259 0.102917
1261 1259 0
1262 1259 -0.000226447
1618 1259 -0.101626
1250 1260 -0.12987
1252 1260 -0.102041
1254 1260 -0.102041
1260 1260 0.333991
1261 1260 -4.14418e-06
1262 1260 -3.98142e-06
1618 1260 0
1619 1260 -6.52301e-06
1245 1261 -0.043554
1246 1261 -0.0529101
1253 1261 -3.54587e-05
1254 1261 -3.54556e-05
1255 1261 -0.000225155
1256 1261 -0.000225098
1257 1261 0
1258 1261 0
1259 1261 0
1260 1261 -4.14418e-06
1261 1261 0.0972292
1262 1261 -6.44789e-07
1618 1261 0
1619 1261 0
2357 1261 0
2390 1261 -2.74818e-06
1235 1262 -0.0529101
1237 1262 -0.0529101
1242 1262 -0.203252
1251 1262 -3.54587e-05
1252 1262 -3.54556e-05
1257 1262 -2.06959e-05
1258 1262 -0.000225166
1259 1262 -0.000225087
1260 1262 -3.98142e-06
1261 1262 -6.44789e-07
1262 1262 0.309928
1618 1262 0
1619 1262 0
2353 1262 -1.97193e-06
2355 1262 0
2357 1262 0
2359 1262 -4.58239e-06
2383 1262 -9.89094e-07
2384 1262 -9.89094e-07
2390 1262 0
1263 1263 0.04049
1266 1263 -0.000646494
2353 1263 -6.58059e-05
1264 1264 0.0556031
1265 1264 -3.44721e-10
2353 1264 -3.91922e-05
1264 1265 -1.39851e-12
1265 1265 0.0470333
1276 1265 -0.0469043
2353 1265 -3.91703e-05
1263 1266 -0.000645446
1266 1266 0.0557355
1276 1266 -0.0549451
2353 1266 -6.58424e-05
1267 1267 0.0680914
1268 1267 -8.31586e-10
1276 1267 -1.85729e-05
1267 1268 -9.05157e-10
1268 1268 0.0529943
1276 1268 -1.87144e-05
1617 1268 -0.0529101
1269 1269 0.0687493
1270 1269 -0.000609191
2352 1269 -6.27121e-05
1269 1270 -0.000607969
1270 1270 0.0536561
1617 1270 -0.0529101
2352 1270 -6.27413e-05
1271 1271 0.203436
1272 1271 -9.35005e-10
2352 1271 -7.03474e-05
1271 1272 -3.75823e-12
1272 1272 0.0873482
1273 1272 -0.087108
2352 1272 -7.03088e-05
1272 1273 -0.087108
1273 1273 0.209076
1274 1273 -0.121951
1276 1273 -1.20569e-05
2352 1273 0
1273 1274 -0.121951
1274 1274 0.122157
1275 1274 -1.83001e-08
1276 1274 -7.03615e-05
2352 1274 0
1274 1275 -7.74972e-11
1275 1275 0.203389
1276 1275 -7.03533e-05
1617 1275 -0.203252
2352 1275 0
1265 1276 -0.0469043
1266 1276 -0.0549451
1267 1276 -1.77285e-05
1268 1276 -1.77286e-05
1273 1276 -1.20569e-05
1274 1276 -7.03048e-05
1275 1276 -7.02718e-05
1276 1276 0.102319
1617 1276 -4.58239e-06
2352 1276 -8.89559e-06
2353 1276 0
2361 1276 -9.89094e-07
1277 1277 0.101876
1278 1277 -8.4067e-10
1618 1277 -7.03466e-05
1277 1278 -3.42235e-12
1278 1278 0.0764573
1618 1278 -7.03062e-05
2392 1278 -0.0762195
1279 1279 0.144314
1280 1279 -0.00122119
1618 1279 -0.000124701
2392 1279 -0.142857
1279 1280 -0.00122613
1280 1280 0.131344
1290 1280 -0.12987
1618 1280 -0.000124698
2392 1280 0
1281 1281 0.142986
1282 1281 -1.71392e-09
2361 1281 -3.71438e-05
1281 1282 -1.72911e-09
1282 1282 0.102214
1290 1282 -0.102041
2361 1282 -3.71737e-05
1283 1283 0.144308
1284 1283 -0.00122531
1619 1283 -0.000124696
1283 1284 -0.00122045
1284 1284 0.103541
1290 1284 -0.102041
1619 1284 -0.000124703
1285 1285 0.101876
1286 1285 -8.20152e-10
1619 1285 -7.03467e-05
1285 1286 -3.29502e-12
1286 1286 0.0764662
1287 1286 -0.0762195
1619 1286 -7.03085e-05
1286 1287 -0.0762195
1287 1287 0.177876
1288 1287 -0.101626
1619 1287 0
2361 1287 -2.06959e-05
1287 1288 -0.101626
1288 1288 0.101808
1289 1288 -1.92038e-08
1619 1288 0
2361 1288 -7.03616e-05
1288 1289 -8.13254e-11
1289 1289 0.101802
1619 1289 0
2361 1289 -7.03533e-05
2392 1289 -0.101626
1280 1290 -0.12987
1282 1290 -0.102041
1284 1290 -0.102041
1290 1290 0.333991
1618 1290 -6.52301e-06
1619 1290 -4.14418e-06
2361 1290 -3.98142e-06
2392 1290 0
1291 1291 0.101876
1292 1291 -8.43619e-10
1315 1291 -7.03466e-05
1291 1292 -3.43438e-12
1292 1292 0.0764535
1293 1292 -0.0762195
1315 1292 -7.03062e-05
1292 1293 -0.0762195
1293 1293 0.320838
1294 1293 -0.142857
1314 1293 -0.101626
1315 1293 -1.68396e-05
1293 1294 -0.142857
1294 1294 0.144314
1295 1294 -0.00122092
1314 1294 0
1315 1294 -0.000124701
1294 1295 -0.00122595
1295 1295 0.131343
1313 1295 -0.12987
1314 1295 0
1315 1295 -0.000124699
1296 1296 0.142986
1297 1296 -1.78716e-09
1617 1296 -3.7151e-05
1296 1297 -1.79907e-09
1297 1297 0.102209
1313 1297 -0.102041
1617 1297 -3.71735e-05
1298 1298 0.144308
1299 1298 -0.00122558
1620 1298 -0.000124697
1298 1299 -0.00122065
1299 1299 0.103537
1313 1299 -0.102041
1620 1299 -0.000124703
1300 1300 0.0514663
1301 1300 -0.000427707
1617 1300 -0.000113893
1300 1301 -0.00043223
1301 1301 0.0413448
1315 1301 -0.0406504
1617 1301 -0.000113881
1302 1302 0.0509407
1303 1302 -6.1925e-10
1620 1302 -3.51732e-05
1302 1303 -6.138e-10
1303 1303 0.0408239
1315 1303 -0.0406504
1620 1303 -3.51732e-05
1304 1304 0.287127
1305 1304 -0.00122558
1620 1304 -0.000124699
1304 1305 -0.00122056
1305 1305 0.103536
1306 1305 -0.102041
1620 1305 -0.000124702
1305 1306 -0.102041
1306 1306 0.260781
1307 1306 -0.15873
1617 1306 -4.98303e-06
1620 1306 0
1306 1307 -0.15873
1307 1307 0.158867
1308 1307 -1.87797e-09
1617 1307 -3.72649e-05
1620 1307 0
1307 1308 -1.66448e-11
1308 1308 0.285772
1315 1308 -0.285714
1617 1308 -3.61438e-05
1620 1308 0
1309 1309 0.101876
1310 1309 -8.13121e-10
1620 1309 -7.03466e-05
1309 1310 -3.26663e-12
1310 1310 0.0764622
1311 1310 -0.0762195
1620 1310 -7.03085e-05
1310 1311 -0.0762195
1311 1311 0.177876
1312 1311 -0.101626
1617 1311 -2.06959e-05
1620 1311 0
1311 1312 -0.101626
1312 1312 0.101808
1314 1312 -1.85868e-08
1617 1312 -7.03616e-05
1620 1312 0
1295 1313 -0.12987
1297 1313 -0.102041
1299 1313 -0.102041
1313 1313 0.333991
1314 1313 0
1315 1313 -6.52301e-06
1617 1313 -3.98142e-06
1620 1313 -4.14418e-06
1293 1314 -0.101626
1294 1314 0
1295 1314 0
1312 1314 -7.87111e-11
1313 1314 0
1314 1314 0.101802
1315 1314 0
1617 1314 -7.03533e-05
1620 1314 0
1291 1315 -7.0289e-05
1292 1315 -7.02876e-05
1293 1315 -1.68396e-05
1294 1315 -0.000123986
1295 1315 -0.000123886
1301 1315 -0.0406504
1303 1315 -0.0406504
1308 1315 -0.285714
1313 1315 -6.52301e-06
1314 1315 0
1315 1315 0.367767
1617 1315 -7.33057e-06
1620 1315 -1.97193e-06
2390 1315 -1.97193e-06
2391 1315 -1.97193e-06
1316 1316 0.0397924
1319 1316 -8.74752e-10
1380 1316 -1.95513e-05
1317 1317 0.0561893
1318 1317 -0.000477284
1380 1317 -0.000126765
1317 1318 -0.000482241
1318 1318 0.0443281
1338 1318 -0.043554
1380 1318 -0.000126738
1316 1319 -7.71694e-12
1319 1319 0.0529553
1338 1319 -0.0529101
1380 1319 -1.89728e-05
1320 1320 0.0509407
1321 1320 -3.99331e-10
1338 1320 -3.51733e-05
1320 1321 -1.6203e-12
1321 1321 0.0407674
1338 1321 -3.51531e-05
1615 1321 -0.0406504
1322 1322 0.285805
1323 1322 -1.33651e-09
1322 1323 -1.81643e-11
1323 1323 0.110005
1324 1323 -0.10989
1323 1324 -0.10989
1324 1324 0.26863
1325 1324 -0.15873
1324 1325 -0.15873
1325 1325 0.159161
1330 1325 -0.000203503
1326 1326 0.0511524
1329 1326 -0.000121109
1327 1327 0.0514607
1328 1327 -0.000431525
1327 1328 -0.000432094
1328 1328 0.0413528
2353 1328 -0.0406504
1326 1329 -0.0001249
1329 1329 0.0410435
2353 1329 -0.0406504
1325 1330 -6.04418e-06
1330 1330 0.285777
2353 1330 -0.285714
1331 1331 0.0509407
1332 1331 -3.0543e-10
2353 1331 -3.51725e-05
1331 1332 -1.23817e-12
1332 1332 0.0407674
1615 1332 -0.0406504
2353 1332 -3.51529e-05
1333 1333 0.287135
1334 1333 -0.00123396
2353 1333 -0.00012469
1333 1334 -0.00122952
1334 1334 0.103546
1335 1334 -0.102041
2353 1334 -0.000124708
1334 1335 -0.102041
1335 1335 0.260781
1336 1335 -0.15873
1338 1335 -4.98303e-06
2353 1335 0
1335 1336 -0.15873
1336 1336 0.160195
1337 1336 -0.00122109
1338 1336 -0.000124699
2353 1336 0
1336 1337 -0.0012261
1337 1337 0.287128
1338 1337 -0.000124699
1615 1337 -0.285714
2353 1337 0
1318 1338 -0.043554
1319 1338 -0.0529101
1320 1338 -3.51445e-05
1321 1338 -3.51438e-05
1335 1338 -4.98303e-06
1336 1338 -0.000123988
1337 1338 -0.000123884
1338 1338 0.097052
1380 1338 0
1615 1338 -6.09733e-06
2353 1338 -3.79361e-06
2390 1338 -4.2506e-06
2391 1338 -1.97193e-06
1339 1339 0.0509407
1340 1339 -3.05472e-10
2353 1339 -3.51725e-05
1339 1340 -1.2384e-12
1340 1340 0.0407674
1616 1340 -0.0406504
2353 1340 -3.51528e-05
1341 1341 0.0509407
1342 1341 -3.98407e-10
1620 1341 -3.51733e-05
1341 1342 -1.61662e-12
1342 1342 0.0407674
1616 1342 -0.0406504
1620 1342 -3.51531e-05
1343 1343 0.287127
1344 1343 -0.00122556
1620 1343 -0.000124677
1343 1344 -0.00122196
1344 1344 0.103538
1345 1344 -0.102041
1620 1344 -0.000124717
1344 1345 -0.102041
1345 1345 0.260781
1346 1345 -0.15873
1620 1345 0
2353 1345 -4.98303e-06
1345 1346 -0.15873
1346 1346 0.160199
1347 1346 -0.00123549
1620 1346 0
2353 1346 -0.00012469
1346 1347 -0.00123111
1347 1347 0.287143
1616 1347 -0.285714
1620 1347 0
2353 1347 -0.000124701
1348 1348 0.0397924
1351 1348 -9.3054e-10
1616 1348 -1.95569e-05
1349 1349 0.0561886
1350 1349 -0.000476597
1616 1349 -0.000126777
1349 1350 -0.000481384
1350 1350 0.0443272
1379 1350 -0.043554
1616 1350 -0.000126725
1348 1351 -8.21884e-12
1351 1351 0.0529553
1379 1351 -0.0529101
1616 1351 -1.8975e-05
1352 1352 0.0687493
1353 1352 -0.000609172
2352 1352 -6.26866e-05
1352 1353 -0.000609598
1353 1353 0.0517682
1380 1353 -0.0510204
2352 1353 -6.27529e-05
1354 1354 0.0687514
1355 1354 -0.000611346
1620 1354 -6.26869e-05
1354 1355 -0.000611758
1355 1355 0.0517703
1380 1355 -0.0510204
1620 1355 -6.27529e-05
1356 1356 0.203436
1357 1356 -1.22491e-09
1620 1356 -7.03466e-05
1356 1357 -7.89512e-10
1357 1357 0.0765639
1358 1357 -0.0762195
1620 1357 -7.03454e-05
1357 1358 -0.0762195
1358 1358 0.198188
1359 1358 -0.121951
1620 1358 0
2352 1358 -1.20569e-05
1358 1359 -0.121951
1359 1359 0.122236
1360 1359 -6.4402e-10
1620 1359 0
2352 1359 -7.03462e-05
1359 1360 -2.62466e-12
1360 1360 0.203389
1380 1360 -0.203252
1620 1360 0
2352 1360 -7.03065e-05
1361 1361 0.0687512
1362 1361 -0.000611106
1379 1361 -6.27152e-05
1361 1362 -0.000609679
1362 1362 0.0517681
1379 1362 -6.27401e-05
1614 1362 -0.0510204
1363 1363 0.0687493
1364 1363 -0.000609193
2352 1363 -6.2715e-05
1363 1364 -0.00060778
1364 1364 0.0517662
1614 1364 -0.0510204
2352 1364 -6.274e-05
1365 1365 0.0685346
1373 1365 -0.000375117
1366 1366 0.0680914
1372 1366 -9.13533e-10
1367 1367 0.204473
1368 1367 -0.000862522
1367 1368 -0.000884898
1368 1368 0.0776454
1369 1368 -0.0762195
1368 1369 -0.0762195
1369 1369 0.198188
1370 1369 -0.121951
1369 1370 -0.121951
1370 1370 0.1227
1371 1370 -0.000264339
1370 1371 -0.000233338
1371 1371 0.20384
2352 1371 -0.203252
1366 1372 -8.07732e-12
1372 1372 0.0529549
2352 1372 -0.0529101
1365 1373 -2.24139e-05
1373 1373 0.0529768
2352 1373 -0.0529101
1374 1374 0.203436
1375 1374 -1.40873e-09
2352 1374 -7.03474e-05
1374 1375 -9.08153e-10
1375 1375 0.0765638
1376 1375 -0.0762195
2352 1375 -7.03462e-05
1375 1376 -0.0762195
1376 1376 0.198188
1377 1376 -0.121951
1379 1376 -1.20569e-05
2352 1376 0
1376 1377 -0.121951
1377 1377 0.122236
1378 1377 -5.69912e-10
1379 1377 -7.03455e-05
2352 1377 0
1377 1378 -2.32144e-12
1378 1378 0.203389
1379 1378 -7.03062e-05
1614 1378 -0.203252
2352 1378 0
1350 1379 -0.043554
1351 1379 -0.0529101
1361 1379 -6.13932e-05
1362 1379 -6.25442e-05
1376 1379 -1.20569e-05
1377 1379 -7.02888e-05
1378 1379 -7.02878e-05
1379 1379 0.0970769
1380 1379 -2.17225e-06
1614 1379 -5.56522e-06
1616 1379 -9.89094e-07
1620 1379 -1.97193e-06
2352 1379 -8.2821e-06
2390 1379 -2.17225e-06
2391 1379 -1.97193e-06
1316 1380 -1.86157e-05
1317 1380 -0.000125584
1318 1380 -0.000125272
1319 1380 -1.86143e-05
1338 1380 0
1353 1380 -0.0510204
1355 1380 -0.0510204
1360 1380 -0.203252
1379 1380 -2.17225e-06
1380 1380 0.305953
1614 1380 -9.89094e-07
1615 1380 0
1616 1380 -1.97193e-06
1620 1380 -9.89094e-07
2352 1380 -5.56522e-06
2353 1380 -1.97193e-06
2390 1380 -1.97193e-06
2391 1380 -1.97193e-06
1381 1381 0.285805
1382 1381 -1.543e-09
1615 1381 -3.71588e-05
1381 1382 -7.60145e-10
1382 1382 0.102205
1383 1382 -0.102041
1615 1382 -3.71179e-05
1382 1383 -0.102041
1383 1383 0.221097
1385 1383 -0.119048
1611 1383 -1.00161e-06
1615 1383 -3.00484e-06
1384 1384 0.285772
1385 1384 -8.53466e-12
1611 1384 -0.285714
1612 1384 -3.61396e-05
1383 1385 -0.119048
1384 1385 -9.49201e-10
1385 1385 0.1192
1611 1385 0
1612 1385 -3.72001e-05
1615 1385 0
1386 1386 0.102943
1387 1386 -0.000855965
1615 1386 -0.000226461
1386 1387 -0.000865063
1387 1387 0.0776075
1394 1387 -0.0762195
1615 1387 -0.000226439
1388 1388 0.102945
1389 1388 -0.000858012
1612 1388 -0.000226461
1388 1389 -0.000867125
1389 1389 0.0776095
1394 1389 -0.0762195
1612 1389 -0.000226439
1390 1390 0.119203
1391 1390 -1.95744e-09
1472 1390 -3.72621e-05
1390 1391 -1.74064e-11
1391 1391 0.102127
1472 1391 -3.61469e-05
1611 1391 -0.102041
1392 1392 0.102933
1393 1392 -0.000864794
1472 1392 -0.000226446
1611 1392 -0.101626
1392 1393 -0.000855609
1393 1393 0.153754
1394 1393 -0.152439
1472 1393 -0.000226454
1611 1393 0
1387 1394 -0.0762195
1389 1394 -0.0762195
1393 1394 -0.152439
1394 1394 0.304934
1472 1394 -1.96379e-05
1611 1394 0
1612 1394 -5.97213e-06
1615 1394 -3.98142e-06
1395 1395 0.102929
1396 1395 -0.000857961
1612 1395 -0.000226477
1395 1396 -0.000866856
1396 1396 0.0776091
1612 1396 -0.000226422
1613 1396 -0.0762195
1397 1397 0.142928
1398 1397 -1.08721e-11
1612 1397 -3.61393e-05
1613 1397 -0.142857
1397 1398 -1.21556e-09
1398 1398 0.130019
1408 1398 -0.12987
1612 1398 -3.72166e-05
1613 1398 0
1399 1399 0.142986
1400 1399 -1.70334e-09
1614 1399 -3.71533e-05
1399 1400 -1.17758e-09
1400 1400 0.102206
1408 1400 -0.102041
1614 1400 -3.7129e-05
1401 1401 0.142986
1402 1401 -1.77174e-09
1472 1401 -3.716e-05
1401 1402 -1.22492e-09
1402 1402 0.102206
1408 1402 -0.102041
1472 1402 -3.71356e-05
1403 1403 0.102927
1404 1403 -0.000855726
1472 1403 -0.000226465
1403 1404 -0.000864763
1404 1404 0.0776071
1405 1404 -0.0762195
1472 1404 -0.000226434
1404 1405 -0.0762195
1405 1405 0.177876
1406 1405 -0.101626
1472 1405 0
1614 1405 -2.06959e-05
1405 1406 -0.101626
1406 1406 0.102927
1407 1406 -0.000856262
1472 1406 0
1614 1406 -0.000226462
1406 1407 -0.000865343
1407 1407 0.102918
1472 1407 0
1613 1407 -0.101626
1614 1407 -0.000226438
1398 1408 -0.12987
1400 1408 -0.102041
1402 1408 -0.102041
1408 1408 0.333991
1472 1408 -4.14418e-06
1612 1408 -6.52301e-06
1613 1408 0
1614 1408 -3.98142e-06
1409 1409 0.0404392
1421 1409 -0.000595561
1426 1409 -6.57697e-05
1410 1410 0.0680914
1418 1410 -8.88008e-10
1411 1411 0.06853
1417 1411 -0.000370465
1412 1412 0.203865
1413 1412 -0.000239762
1412 1413 -0.000239516
1413 1413 0.0769914
1414 1413 -0.0762195
1413 1414 -0.0762195
1414 1414 0.198188
1415 1414 -0.121951
1414 1415 -0.121951
1415 1415 0.123274
1416 1415 -0.000838646
1415 1416 -0.000791889
1416 1416 0.20439
1426 1416 -0.203252
1411 1417 -2.27665e-05
1417 1417 0.051088
1426 1417 -0.0510204
1410 1418 -8.0494e-12
1418 1418 0.0510657
1426 1418 -0.0510204
1419 1419 0.0556031
1420 1419 -7.44675e-09
1426 1419 -3.92016e-05
1419 1420 -3.05311e-11
1420 1420 0.0436864
1426 1420 -3.91732e-05
1612 1420 -0.043554
1409 1421 -0.000596664
1421 1421 0.0536543
1426 1421 -6.58615e-05
1612 1421 -0.0529101
1422 1422 0.0404997
1425 1422 -0.000650774
1471 1422 -6.58317e-05
1423 1423 0.0556031
1424 1423 -2.26141e-10
1471 1423 -3.91911e-05
1423 1424 -9.15992e-13
1424 1424 0.0436865
1471 1424 -3.91699e-05
1472 1424 -0.043554
1422 1425 -0.000653448
1425 1425 0.0537054
1471 1425 -6.583e-05
1472 1425 -0.0529101
1409 1426 -6.31778e-05
1416 1426 -0.203252
1417 1426 -0.0510204
1418 1426 -0.0510204
1419 1426 -3.91667e-05
1420 1426 -3.91546e-05
1421 1426 -6.69597e-05
1426 1426 0.305876
1471 1426 -1.97193e-06
1472 1426 -9.89094e-07
1612 1426 -9.89094e-07
2390 1426 -1.97193e-06
1427 1427 0.286657
1428 1427 -0.000755288
1427 1428 -0.000776255
1428 1428 0.103098
1429 1428 -0.102041
1428 1429 -0.102041
1429 1429 0.260781
1430 1429 -0.15873
1429 1430 -0.15873
1430 1430 0.158869
1435 1430 -5.26482e-09
1431 1431 0.0514598
1434 1431 -0.000430903
1432 1432 0.0511481
1433 1432 -0.000119269
1432 1433 -0.000130943
1433 1433 0.0385157
1471 1433 -0.0381098
1431 1434 -0.000439562
1434 1434 0.0388246
1471 1434 -0.0381098
1430 1435 -3.12538e-11
1435 1435 0.285772
1471 1435 -0.285714
1436 1436 0.0509407
1437 1436 -3.11025e-10
1471 1436 -3.51712e-05
1436 1437 -3.12531e-10
1437 1437 0.0408239
1470 1437 -0.0406504
1471 1437 -3.51866e-05
1438 1438 0.0514624
1439 1438 -0.000433031
1612 1438 -0.000113885
1438 1439 -0.000428475
1439 1439 0.0413502
1470 1439 -0.0406504
1612 1439 -0.000113888
1440 1440 0.285805
1441 1440 -1.62245e-09
1612 1440 -3.72312e-05
1440 1441 -1.52751e-11
1441 1441 0.10213
1442 1441 -0.102041
1612 1441 -3.61854e-05
1441 1442 -0.102041
1442 1442 0.260781
1443 1442 -0.15873
1471 1442 -4.98303e-06
1612 1442 0
1442 1443 -0.15873
1443 1443 0.158813
1444 1443 -3.46737e-08
1471 1443 -3.8114e-05
1612 1443 0
1443 1444 -7.93854e-10
1444 1444 0.285772
1470 1444 -0.285714
1471 1444 -3.79299e-05
1612 1444 0
1445 1445 0.051466
1446 1445 -0.0004274
1615 1445 -0.000113889
1445 1446 -0.000431972
1446 1446 0.0413445
1469 1446 -0.0406504
1615 1446 -0.000113885
1447 1447 0.0509407
1448 1447 -6.10014e-10
1470 1447 -3.51732e-05
1447 1448 -6.08217e-10
1448 1448 0.0408239
1469 1448 -0.0406504
1470 1448 -3.51732e-05
1449 1449 0.287127
1450 1449 -0.00122605
1470 1449 -0.0001247
1449 1450 -0.00122094
1450 1450 0.103537
1451 1450 -0.102041
1470 1450 -0.000124701
1450 1451 -0.102041
1451 1451 0.260781
1452 1451 -0.15873
1470 1451 0
1615 1451 -4.98303e-06
1451 1452 -0.15873
1452 1452 0.158867
1453 1452 -1.93639e-09
1470 1452 0
1615 1452 -3.72627e-05
1452 1453 -1.72042e-11
1453 1453 0.285772
1469 1453 -0.285714
1470 1453 0
1615 1453 -3.6146e-05
1454 1454 0.101876
1455 1454 -8.39605e-10
1469 1454 -7.03466e-05
1454 1455 -3.41797e-12
1455 1455 0.0764535
1456 1455 -0.0762195
1469 1455 -7.03062e-05
1455 1456 -0.0762195
1456 1456 0.320838
1457 1456 -0.142857
1468 1456 -0.101626
1469 1456 -1.68396e-05
1456 1457 -0.142857
1457 1457 0.144314
1458 1457 -0.00122094
1468 1457 0
1469 1457 -0.000124701
1457 1458 -0.001226
1458 1458 0.131343
1467 1458 -0.12987
1468 1458 0
1469 1458 -0.000124699
1459 1459 0.142986
1460 1459 -1.79861e-09
1614 1459 -3.71521e-05
1459 1460 -1.80486e-09
1460 1460 0.102209
1467 1460 -0.102041
1614 1460 -3.71638e-05
1461 1461 0.144308
1462 1461 -0.00122605
1470 1461 -0.000124699
1461 1462 -0.00122102
1462 1462 0.103537
1467 1462 -0.102041
1470 1462 -0.000124702
1463 1463 0.101876
1464 1463 -8.01076e-10
1470 1463 -7.03465e-05
1463 1464 -3.21805e-12
1464 1464 0.0764622
1465 1464 -0.0762195
1470 1464 -7.03085e-05
1464 1465 -0.0762195
1465 1465 0.177876
1466 1465 -0.101626
1470 1465 0
1614 1465 -2.06959e-05
1465 1466 -0.101626
1466 1466 0.101808
1468 1466 -1.85388e-08
1470 1466 0
1614 1466 -7.03616e-05
1458 1467 -0.12987
1460 1467 -0.102041
1462 1467 -0.102041
1467 1467 0.333991
1468 1467 0
1469 1467 -6.52301e-06
1470 1467 -4.14418e-06
1614 1467 -3.98142e-06
1456 1468 -0.101626
1457 1468 0
1458 1468 0
1466 1468 -7.85076e-11
1467 1468 0
1468 1468 0.101802
1469 1468 0
1470 1468 0
1614 1468 -7.03533e-05
1446 1469 -0.0406504
1448 1469 -0.0406504
1453 1469 -0.285714
1454 1469 -7.0289e-05
1455 1469 -7.02876e-05
1456 1469 -1.68396e-05
1457 1469 -0.000123967
1458 1469 -0.000123905
1467 1469 -6.52301e-06
1468 1469 0
1469 1469 0.367752
1470 1469 -9.89094e-07
1614 1469 0
1615 1469 -7.08642e-06
2390 1469 -1.97193e-06
2391 1469 -1.97193e-06
1437 1470 -0.0406504
1439 1470 -0.0406504
1444 1470 -0.285714
1447 1470 -3.51441e-05
1448 1470 -3.51441e-05
1449 1470 -0.000123922
1450 1470 -0.00012395
1451 1470 0
1452 1470 0
1453 1470 0
1461 1470 -0.000123881
1462 1470 -0.000123991
1463 1470 -7.02889e-05
1464 1470 -7.02876e-05
1465 1470 0
1466 1470 0
1467 1470 -4.14418e-06
1468 1470 0
1469 1470 -9.89094e-07
1470 1470 0.368241
1471 1470 -6.09733e-06
1612 1470 0
1614 1470 -3.36793e-06
1615 1470 -5.76554e-06
2390 1470 -3.16135e-06
2391 1470 -2.96102e-06
1422 1471 -6.50954e-05
1423 1471 -3.91608e-05
1424 1471 -3.91604e-05
1425 1471 -6.50374e-05
1426 1471 -1.97193e-06
1433 1471 -0.0381098
1434 1471 -0.0381098
1435 1471 -0.285714
1436 1471 -3.51441e-05
1437 1471 -3.51441e-05
1442 1471 -4.98303e-06
1443 1471 -3.54895e-05
1444 1471 -3.54248e-05
1470 1471 -6.09733e-06
1471 1471 0.362854
1472 1471 -1.97193e-06
1612 1471 -4.77645e-06
1614 1471 -9.89094e-07
1615 1471 -9.89094e-07
2390 1471 -2.96102e-06
2391 1471 -9.89094e-07
1390 1472 -3.54588e-05
1391 1472 -3.54555e-05
1392 1472 -0.000225081
1393 1472 -0.000225172
1394 1472 -1.96379e-05
1401 1472 -3.54576e-05
1402 1472 -3.54567e-05
1403 1472 -0.000225309
1404 1472 -0.000224945
1405 1472 0
1406 1472 0
1407 1472 0
1408 1472 -4.14418e-06
1424 1472 -0.043554
1425 1472 -0.0529101
1426 1472 -9.89094e-07
1471 1472 -1.97193e-06
1472 1472 0.0980433
1611 1472 -3.19891e-06
1612 1472 -1.97193e-06
1613 1472 -1.97193e-06
1614 1472 -3.01736e-06
1615 1472 -1.97193e-06
2390 1472 -2.96102e-06
2391 1472 -1.97193e-06
1473 1473 0.101876
1474 1473 -8.42839e-10
1610 1473 -7.03466e-05
1473 1474 -3.43119e-12
1474 1474 0.0764573
1610 1474 -7.03062e-05
2393 1474 -0.0762195
1475 1475 0.144313
1476 1475 -0.00122089
1610 1475 -0.0001247
2393 1475 -0.142857
1475 1476 -0.00122596
1476 1476 0.131343
1486 1476 -0.12987
1610 1476 -0.000124699
2393 1476 0
1477 1477 0.144308
1478 1477 -0.00122567
1611 1477 -0.000124698
1477 1478 -0.00122073
1478 1478 0.103542
1486 1478 -0.102041
1611 1478 -0.000124702
1479 1479 0.142986
1480 1479 -1.77706e-09
1609 1479 -3.715e-05
1479 1480 -1.7876e-09
1480 1480 0.102214
1486 1480 -0.102041
1609 1480 -3.717e-05
1481 1481 0.102928
1482 1481 -0.000856698
1609 1481 -0.000226464
1481 1482 -0.000865759
1482 1482 0.0776145
1483 1482 -0.0762195
1609 1482 -0.000226436
1482 1483 -0.0762195
1483 1483 0.177876
1484 1483 -0.101626
1609 1483 0
1611 1483 -2.06959e-05
1483 1484 -0.101626
1484 1484 0.101876
1485 1484 -8.36185e-10
1609 1484 0
1611 1484 -7.03466e-05
1484 1485 -3.40418e-12
1485 1485 0.101802
1609 1485 0
1611 1485 -7.03062e-05
2393 1485 -0.101626
1476 1486 -0.12987
1478 1486 -0.102041
1480 1486 -0.102041
1486 1486 0.333991
1609 1486 -4.14418e-06
1610 1486 -6.52301e-06
1611 1486 -3.98142e-06
2393 1486 0
1487 1487 0.0509407
1488 1487 -6.22194e-10
1613 1487 -3.51732e-05
1487 1488 -6.17421e-10
1488 1488 0.0382864
1610 1488 -0.0381098
1613 1488 -3.51732e-05
1489 1489 0.0514664
1490 1489 -0.000427762
1609 1489 -0.000113892
1489 1490 -0.000432296
1490 1490 0.0388074
1609 1490 -0.000113882
1610 1490 -0.0381098
1491 1491 0.285805
1492 1491 -1.7369e-09
1609 1491 -3.7243e-05
1491 1492 -1.6396e-11
1492 1492 0.102133
1493 1492 -0.102041
1609 1492 -3.61916e-05
1492 1493 -0.102041
1493 1493 0.260781
1494 1493 -0.15873
1609 1493 0
1613 1493 -4.98303e-06
1493 1494 -0.15873
1494 1494 0.158813
1495 1494 -1.94924e-08
1609 1494 0
1613 1494 -3.80989e-05
1494 1495 -4.43324e-10
1495 1495 0.285772
1609 1495 0
1610 1495 -0.285714
1613 1495 -3.79117e-05
1496 1496 0.0680914
1497 1496 -8.41231e-10
1608 1496 -1.85739e-05
1496 1497 -9.25713e-10
1497 1497 0.0511071
1608 1497 -1.87333e-05
1609 1497 -0.0510204
1498 1498 0.0687477
1499 1498 -0.000607576
1607 1498 -6.27094e-05
1498 1499 -0.000606527
1499 1499 0.0517674
1607 1499 -6.27425e-05
1609 1499 -0.0510204
1500 1500 0.203436
1501 1500 -1.03609e-09
1607 1500 -7.0348e-05
1500 1501 -4.16609e-12
1501 1501 0.0764661
1502 1501 -0.0762195
1607 1501 -7.0309e-05
1501 1502 -0.0762195
1502 1502 0.198188
1503 1502 -0.121951
1607 1502 0
1608 1502 -1.20569e-05
1502 1503 -0.121951
1503 1503 0.122157
1504 1503 -1.78111e-08
1607 1503 0
1608 1503 -7.03615e-05
1503 1504 -7.54253e-11
1504 1504 0.203389
1607 1504 0
1608 1504 -7.03533e-05
1609 1504 -0.203252
1505 1505 0.0687515
1506 1505 -0.00061141
1611 1505 -6.27066e-05
1505 1506 -0.000610544
1506 1506 0.0517715
1606 1506 -0.0510204
1611 1506 -6.2744e-05
1507 1507 0.0687477
1508 1507 -0.000607573
1607 1507 -6.27062e-05
1507 1508 -0.000606727
1508 1508 0.0517676
1606 1508 -0.0510204
1607 1508 -6.27439e-05
1509 1509 0.0685344
1517 1509 -0.000374939
1510 1510 0.0680914
1516 1510 -9.12553e-10
1511 1511 0.204473
1512 1511 -0.000862578
1511 1512 -0.000884284
1512 1512 0.0885316
1513 1512 -0.087108
1512 1513 -0.087108
1513 1513 0.209076
1514 1513 -0.121951
1513 1514 -0.121951
1514 1514 0.122698
1515 1514 -0.000261827
1514 1515 -0.000229715
1515 1515 0.203835
1607 1515 -0.203252
1510 1516 -8.07613e-12
1516 1516 0.0529541
1607 1516 -0.0529101
1509 1517 -2.24263e-05
1517 1517 0.0529761
1607 1517 -0.0529101
1518 1518 0.203436
1519 1518 -1.55471e-09
1607 1518 -7.0348e-05
1518 1519 -9.89836e-10
1519 1519 0.0765701
1520 1519 -0.0762195
1607 1519 -7.03467e-05
1519 1520 -0.0762195
1520 1520 0.198188
1521 1520 -0.121951
1607 1520 0
1611 1520 -1.20569e-05
1520 1521 -0.121951
1521 1521 0.122236
1522 1521 -5.53136e-10
1607 1521 0
1611 1521 -7.03454e-05
1521 1522 -2.25306e-12
1522 1522 0.203389
1606 1522 -0.203252
1607 1522 0
1611 1522 -7.03062e-05
1523 1523 0.101876
1524 1523 -8.69689e-10
1575 1523 -7.03468e-05
1523 1524 -3.54097e-12
1524 1524 0.0873396
1575 1524 -7.03063e-05
2383 1524 -0.087108
1525 1525 0.144308
1526 1525 -0.00122594
1575 1525 -0.000124677
2383 1525 -0.142857
1525 1526 -0.00122237
1526 1526 0.13135
1536 1526 -0.12987
1575 1526 -0.000124712
2383 1526 0
1527 1527 0.142986
1528 1527 -1.62561e-09
1604 1527 -3.71346e-05
1527 1528 -1.7735e-09
1528 1528 0.102209
1536 1528 -0.102041
1604 1528 -3.74282e-05
1529 1529 0.144315
1530 1529 -0.00123272
1605 1529 -0.00012466
1529 1530 -0.00123028
1530 1530 0.103547
1536 1530 -0.102041
1605 1530 -0.000124729
1531 1531 0.101876
1532 1531 -6.47909e-10
1605 1531 -7.03453e-05
1531 1532 -2.60081e-12
1532 1532 0.0873482
1533 1532 -0.087108
1605 1532 -7.0308e-05
1532 1533 -0.087108
1533 1533 0.188765
1534 1533 -0.101626
1604 1533 -2.06959e-05
1605 1533 0
1533 1534 -0.101626
1534 1534 0.101808
1535 1534 -2.0914e-08
1604 1534 -7.03616e-05
1605 1534 0
1534 1535 -8.85728e-11
1535 1535 0.101802
1604 1535 -7.03534e-05
1605 1535 0
2383 1535 -0.101626
1526 1536 -0.12987
1528 1536 -0.102041
1530 1536 -0.102041
1536 1536 0.333991
1575 1536 -6.52301e-06
1604 1536 -3.98142e-06
1605 1536 -4.14418e-06
2383 1536 0
1537 1537 0.102283
1538 1537 -0.000236358
1537 1538 -0.00027672
1538 1538 0.0879283
1539 1538 -0.087108
1538 1539 -0.087108
1539 1539 0.188765
1540 1539 -0.101626
1539 1540 -0.101626
1540 1540 0.102968
1541 1540 -0.000897186
1540 1541 -0.000870683
1541 1541 0.102923
1605 1541 -0.101626
1542 1542 0.142986
1545 1542 -1.28256e-09
1543 1543 0.143819
1544 1543 -0.000706024
1543 1544 -0.000270067
1544 1544 0.102485
1555 1544 -0.102041
1542 1545 -1.85717e-11
1545 1545 0.102158
1555 1545 -0.102041
1546 1546 0.286657
1547 1546 -0.000755259
1546 1547 -0.000777316
1547 1547 0.103095
1548 1547 -0.102041
1547 1548 -0.102041
1548 1548 0.260781
1549 1548 -0.15873
1548 1549 -0.15873
1549 1549 0.158869
1554 1549 -5.37598e-09
1550 1550 0.0514632
1553 1550 -0.000423489
1551 1551 0.0511513
1552 1551 -0.000106319
1551 1552 -9.26928e-05
1552 1552 0.040989
1559 1552 -0.0406504
1550 1553 -0.000411879
1553 1553 0.0413154
1559 1553 -0.0406504
1549 1554 -3.21463e-11
1554 1554 0.285773
1559 1554 -0.285714
1544 1555 -0.102041
1545 1555 -0.102041
1555 1555 0.333991
1556 1555 -0.12987
1559 1555 -6.52301e-06
1555 1556 -0.12987
1556 1556 0.130788
1557 1556 -0.000680695
1559 1556 -0.000155789
1556 1557 -4.91933e-05
1557 1557 0.142976
1559 1557 -3.62513e-05
1605 1557 -0.142857
1558 1558 0.101876
1559 1558 -7.03552e-05
1560 1558 -5.90815e-09
1552 1559 -0.0406504
1553 1559 -0.0406504
1554 1559 -0.285714
1555 1559 -6.52301e-06
1556 1559 -0.000746664
1557 1559 0.000557778
1558 1559 -7.02866e-05
1559 1559 0.367696
1560 1559 -7.02899e-05
1605 1559 -1.78287e-05
1558 1560 -9.18242e-09
1559 1560 -7.26626e-05
1560 1560 0.0874527
1605 1560 -0.087108
1561 1561 0.101876
1562 1561 -1.05013e-09
1605 1561 -7.03452e-05
1561 1562 -1.00272e-09
1562 1562 0.0874506
1575 1562 -0.087108
1605 1562 -7.03451e-05
1563 1563 0.142928
1564 1563 -8.29293e-10
1575 1563 -0.142857
1605 1563 -3.79184e-05
1563 1564 -3.67864e-08
1564 1564 0.129956
1574 1564 -0.12987
1575 1564 0
1605 1564 -3.81164e-05
1565 1565 0.142986
1566 1565 -1.71848e-09
1606 1565 -3.72413e-05
1565 1566 -1.62786e-11
1566 1566 0.102132
1574 1566 -0.102041
1606 1566 -3.6194e-05
1567 1567 0.142986
1568 1567 -1.74546e-09
1608 1567 -3.7244e-05
1567 1568 -1.65386e-11
1568 1568 0.102132
1574 1568 -0.102041
1608 1568 -3.61951e-05
1569 1569 0.102927
1570 1569 -0.000856515
1608 1569 -0.00022647
1569 1570 -0.000865492
1570 1570 0.0884922
1571 1570 -0.087108
1608 1570 -0.000226429
1570 1571 -0.087108
1571 1571 0.188765
1572 1571 -0.101626
1606 1571 -2.06959e-05
1608 1571 0
1571 1572 -0.101626
1572 1572 0.102927
1573 1572 -0.000856464
1606 1572 -0.000226488
1608 1572 0
1572 1573 -0.00086519
1573 1573 0.102917
1575 1573 -0.101626
1606 1573 -0.000226411
1608 1573 0
1564 1574 -0.12987
1566 1574 -0.102041
1568 1574 -0.102041
1574 1574 0.333991
1575 1574 0
1605 1574 -6.52301e-06
1606 1574 -3.98142e-06
1608 1574 -4.14418e-06
1523 1575 -7.0289e-05
1524 1575 -7.02876e-05
1525 1575 -0.000123154
1526 1575 -0.000124719
1536 1575 -6.52301e-06
1562 1575 -0.087108
1563 1575 -0.142857
1564 1575 0
1573 1575 -0.101626
1574 1575 0
1575 1575 0.332343
1604 1575 0
1605 1575 -1.78287e-05
1606 1575 -1.26454e-06
1608 1575 -9.89094e-07
2383 1575 -1.78287e-05
1576 1576 0.0404881
1588 1576 -0.000644525
1603 1576 -6.58114e-05
1577 1577 0.285805
1578 1577 -1.33694e-09
1577 1578 -1.81615e-11
1578 1578 0.102154
1579 1578 -0.102041
1578 1579 -0.102041
1579 1579 0.260781
1580 1579 -0.15873
1579 1580 -0.15873
1580 1580 0.159159
1585 1580 -0.000202476
1581 1581 0.0511536
1584 1581 -0.000121647
1582 1582 0.051461
1583 1582 -0.000431702
1582 1583 -0.000429884
1583 1583 0.0413497
1603 1583 -0.0406504
1581 1584 -0.00012314
1584 1584 0.0410403
1603 1584 -0.0406504
1580 1585 -6.01868e-06
1585 1585 0.285777
1603 1585 -0.285714
1586 1586 0.0556031
1587 1586 -3.8823e-10
1603 1586 -3.91926e-05
1586 1587 -1.57563e-12
1587 1587 0.0436864
1603 1587 -3.91704e-05
1608 1587 -0.043554
1576 1588 -0.000643114
1588 1588 0.0537006
1603 1588 -6.58398e-05
1608 1588 -0.0529101
1589 1589 0.287127
1590 1589 -0.00122536
1613 1589 -0.000124632
1589 1590 -0.00122472
1590 1590 0.103541
1591 1590 -0.102041
1613 1590 -0.000124749
1590 1591 -0.102041
1591 1591 0.221097
1593 1591 -0.119048
1604 1591 -1.00161e-06
1613 1591 -3.00484e-06
1592 1592 0.287145
1593 1592 -0.0012334
1603 1592 -0.000124722
1604 1592 -0.285714
1591 1593 -0.119048
1592 1593 -0.00123463
1593 1593 0.120535
1603 1593 -0.000124643
1604 1593 0
1613 1593 0
1594 1594 0.101892
1595 1594 -1.29553e-09
1613 1594 -7.03466e-05
1594 1595 -1.01015e-09
1595 1595 0.0874493
1602 1595 -0.087108
1613 1595 -7.03459e-05
1596 1596 0.101892
1597 1596 -1.11234e-09
1603 1596 -7.03457e-05
1596 1597 -8.67213e-10
1597 1597 0.0874493
1602 1597 -0.087108
1603 1597 -7.0345e-05
1598 1598 0.120518
1599 1598 -0.00121793
1607 1598 -0.000124575
1598 1599 -0.00122101
1599 1599 0.103538
1604 1599 -0.102041
1607 1599 -0.000124791
1600 1600 0.101812
1601 1600 -3.44732e-12
1604 1600 -0.101626
1607 1600 -7.03066e-05
1600 1601 -8.45678e-10
1601 1601 0.152703
1602 1601 -0.152439
1604 1601 0
1607 1601 -7.03473e-05
1595 1602 -0.087108
1597 1602 -0.087108
1601 1602 -0.152439
1602 1602 0.326711
1603 1602 -5.97213e-06
1604 1602 0
1607 1602 -1.96379e-05
1613 1602 -3.98142e-06
1576 1603 -6.44138e-05
1583 1603 -0.0406504
1584 1603 -0.0406504
1585 1603 -0.285714
1586 1603 -3.91609e-05
1587 1603 -3.91603e-05
1588 1603 -6.57206e-05
1592 1603 -0.000125892
1593 1603 -0.000121985
1596 1603 -7.02885e-05
1597 1603 -7.02881e-05
1602 1603 -5.97213e-06
1603 1603 0.368142
1604 1603 -4.21304e-06
1607 1603 -9.89094e-07
1608 1603 0
1613 1603 0
2383 1603 -9.89094e-07
2384 1603 -9.89094e-07
1527 1604 -3.54571e-05
1528 1604 -3.54572e-05
1533 1604 -2.06959e-05
1534 1604 -7.03072e-05
1535 1604 -7.02694e-05
1536 1604 -3.98142e-06
1575 1604 0
1591 1604 -1.00161e-06
1592 1604 -0.285714
1593 1604 0
1599 1604 -0.102041
1600 1604 -0.101626
1601 1604 0
1602 1604 0
1603 1604 -4.21304e-06
1604 1604 0.489925
1605 1604 -1.62762e-06
1606 1604 0
1607 1604 -2.21607e-06
1608 1604 0
1613 1604 -2.21607e-06
2383 1604 0
2384 1604 0
1529 1605 -0.000122545
1530 1605 -0.00012533
1531 1605 -7.02888e-05
1532 1605 -7.02878e-05
1533 1605 0
1534 1605 0
1535 1605 0
1536 1605 -4.14418e-06
1541 1605 -0.101626
1557 1605 -0.142857
1559 1605 -1.78287e-05
1560 1605 -0.087108
1561 1605 -7.02883e-05
1562 1605 -7.02883e-05
1563 1605 -3.54228e-05
1564 1605 -3.54915e-05
1574 1605 -6.52301e-06
1575 1605 -1.78287e-05
1604 1605 -1.62762e-06
1605 1605 0.332891
1606 1605 -2.21607e-06
1607 1605 -3.94386e-06
1608 1605 -9.89094e-07
1611 1605 -2.96102e-06
1613 1605 0
2383 1605 -9.89094e-07
2384 1605 -2.96102e-06
1506 1606 -0.0510204
1508 1606 -0.0510204
1522 1606 -0.203252
1565 1606 -3.54586e-05
1566 1606 -3.54557e-05
1571 1606 -2.06959e-05
1572 1606 -0.00022558
1573 1606 -0.000224675
1574 1606 -3.98142e-06
1575 1606 -1.26454e-06
1604 1606 0
1605 1606 -2.21607e-06
1606 1606 0.306162
1607 1606 -1.97193e-06
1608 1606 -6.44789e-07
1611 1606 -4.58239e-06
1613 1606 0
2383 1606 0
2384 1606 -9.89094e-07
1498 1607 -6.12033e-05
1499 1607 -6.27345e-05
1500 1607 -7.02891e-05
1501 1607 -7.02875e-05
1502 1607 0
1503 1607 0
1504 1607 0
1507 1607 -6.10994e-05
1508 1607 -6.28387e-05
1515 1607 -0.203252
1516 1607 -0.0529101
1517 1607 -0.0529101
1518 1607 -7.02888e-05
1519 1607 -7.02878e-05
1520 1607 0
1521 1607 0
1522 1607 0
1598 1607 -0.000119689
1599 1607 -0.000128193
1600 1607 -7.02876e-05
1601 1607 -7.0289e-05
1602 1607 -1.96379e-05
1603 1607 -9.89094e-07
1604 1607 -2.21607e-06
1605 1607 -3.94386e-06
1606 1607 -1.97193e-06
1607 1607 0.310819
1608 1607 -8.96445e-06
1609 1607 0
1611 1607 -8.96445e-06
1613 1607 -9.89094e-07
2383 1607 -1.97193e-06
2384 1607 -1.97193e-06
1496 1608 -1.77285e-05
1497 1608 -1.77286e-05
1502 1608 -1.20569e-05
1503 1608 -7.03044e-05
1504 1608 -7.02722e-05
1567 1608 -3.54586e-05
1568 1608 -3.54557e-05
1569 1608 -0.000225368
1570 1608 -0.000224886
1571 1608 0
1572 1608 0
1573 1608 0
1574 1608 -4.14418e-06
1575 1608 -9.89094e-07
1587 1608 -0.043554
1588 1608 -0.0529101
1603 1608 0
1604 1608 0
1605 1608 -9.89094e-07
1606 1608 -6.44789e-07
1607 1608 -8.96445e-06
1608 1608 0.0976909
1609 1608 -5.56522e-06
1610 1608 -9.89094e-07
1611 1608 0
1613 1608 -9.89094e-07
2383 1608 -1.97193e-06
2384 1608 -9.89094e-07
2390 1608 -1.97193e-06
1479 1609 -3.54571e-05
1480 1609 -3.54572e-05
1481 1609 -0.000225295
1482 1609 -0.000224959
1483 1609 0
1484 1609 0
1485 1609 0
1486 1609 -4.14418e-06
1489 1609 -0.000112622
1490 1609 -0.000112505
1491 1609 -3.54586e-05
1492 1609 -3.54557e-05
1493 1609 0
1494 1609 0
1495 1609 0
1497 1609 -0.0510204
1499 1609 -0.0510204
1504 1609 -0.203252
1607 1609 0
1608 1609 -5.56522e-06
1609 1609 0.30658
1610 1609 -9.89094e-07
1611 1609 -6.44789e-07
1613 1609 -3.86248e-06
2383 1609 0
2384 1609 0
2390 1609 -2.96102e-06
2393 1609 0
1473 1610 -7.0289e-05
1474 1610 -7.02876e-05
1475 1610 -0.000123967
1476 1610 -0.000123905
1486 1610 -6.52301e-06
1488 1610 -0.0381098
1490 1610 -0.0381098
1495 1610 -0.285714
1608 1610 -9.89094e-07
1609 1610 -9.89094e-07
1610 1610 0.362729
1611 1610 -2.21607e-06
1612 1610 -1.97193e-06
1613 1610 -6.09733e-06
2383 1610 0
2384 1610 0
2390 1610 -1.97193e-06
2393 1610 -1.88116e-05
1383 1611 -1.00161e-06
1384 1611 -0.285714
1385 1611 0
1391 1611 -0.102041
1392 1611 -0.101626
1393 1611 0
1394 1611 0
1472 1611 -3.19891e-06
1477 1611 -0.000123842
1478 1611 -0.00012403
1483 1611 -2.06959e-05
1484 1611 -7.0289e-05
1485 1611 -7.02876e-05
1486 1611 -3.98142e-06
1505 1611 -6.11045e-05
1506 1611 -6.28335e-05
1520 1611 -1.20569e-05
1521 1611 -7.02887e-05
1522 1611 -7.02878e-05
1605 1611 -2.96102e-06
1606 1611 -4.58239e-06
1607 1611 -8.96445e-06
1608 1611 0
1609 1611 -6.44789e-07
1610 1611 -2.21607e-06
1611 1611 0.490677
1612 1611 -5.19588e-06
1613 1611 -9.89094e-07
1614 1611 -9.89094e-07
1615 1611 -3.19891e-06
2383 1611 0
2384 1611 -1.97193e-06
2390 1611 -1.97193e-06
2391 1611 -9.89094e-07
2393 1611 -2.25363e-06
1384 1612 -3.54563e-05
1385 1612 -3.5458e-05
1388 1612 -0.000225257
1389 1612 -0.000224997
1394 1612 -5.97213e-06
1395 1612 -0.00022545
1396 1612 -0.000224805
1397 1612 -3.54561e-05
1398 1612 -3.54582e-05
1408 1612 -6.52301e-06
1420 1612 -0.043554
1421 1612 -0.0529101
1426 1612 -9.89094e-07
1438 1612 -0.000112541
1439 1612 -0.000112586
1440 1612 -3.54585e-05
1441 1612 -3.54558e-05
1442 1612 0
1443 1612 0
1444 1612 0
1470 1612 0
1471 1612 -4.77645e-06
1472 1612 -1.97193e-06
1610 1612 -1.97193e-06
1611 1612 -5.19588e-06
1612 1612 0.0985223
1613 1612 -1.88116e-05
1614 1612 -3.19891e-06
1615 1612 -2.96102e-06
2383 1612 0
2384 1612 0
2390 1612 -3.94386e-06
2391 1612 -2.96102e-06
2393 1612 -1.97193e-06
1396 1613 -0.0762195
1397 1613 -0.142857
1398 1613 0
1407 1613 -0.101626
1408 1613 0
1472 1613 -1.97193e-06
1487 1613 -3.51442e-05
1488 1613 -3.51441e-05
1493 1613 -4.98303e-06
1494 1613 -3.54753e-05
1495 1613 -3.5439e-05
1589 1613 -0.000121618
1590 1613 -0.00012626
1591 1613 -3.00484e-06
1593 1613 0
1594 1613 -7.02885e-05
1595 1613 -7.02881e-05
1602 1613 -3.98142e-06
1603 1613 0
1604 1613 -2.21607e-06
1605 1613 0
1606 1613 0
1607 1613 -9.89094e-07
1608 1613 -9.89094e-07
1609 1613 -3.86248e-06
1610 1613 -6.09733e-06
1611 1613 -9.89094e-07
1612 1613 -1.88116e-05
1613 1613 0.321877
1614 1613 -1.26454e-06
1615 1613 -9.89094e-07
2383 1613 -9.89094e-07
2384 1613 -9.89094e-07
2390 1613 -1.97193e-06
2391 1613 -9.89094e-07
2393 1613 -9.89094e-07
1362 1614 -0.0510204
1364 1614 -0.0510204
1378 1614 -0.203252
1379 1614 -5.56522e-06
1380 1614 -9.89094e-07
1399 1614 -3.54576e-05
1400 1614 -3.54567e-05
1405 1614 -2.06959e-05
1406 1614 -0.000225267
1407 1614 -0.000224987
1408 1614 -3.98142e-06
1459 1614 -3.54571e-05
1460 1614 -3.54572e-05
1465 1614 -2.06959e-05
1466 1614 -7.0305e-05
1467 1614 -3.98142e-06
1468 1614 -7.02716e-05
1469 1614 0
1470 1614 -3.36793e-06
1471 1614 -9.89094e-07
1472 1614 -3.01736e-06
1611 1614 -9.89094e-07
1612 1614 -3.19891e-06
1613 1614 -1.26454e-06
1614 1614 0.306707
1615 1614 -1.97193e-06
1616 1614 -1.97193e-06
1620 1614 -9.89094e-07
2352 1614 0
2353 1614 -9.89094e-07
2383 1614 0
2384 1614 0
2390 1614 -2.96102e-06
2391 1614 -2.96102e-06
2393 1614 0
1321 1615 -0.0406504
1332 1615 -0.0406504
1337 1615 -0.285714
1338 1615 -6.09733e-06
1380 1615 0
1381 1615 -3.54578e-05
1382 1615 -3.54565e-05
1383 1615 -3.00484e-06
1385 1615 0
1386 1615 -0.000225256
1387 1615 -0.000224998
1394 1615 -3.98142e-06
1445 1615 -0.000112585
1446 1615 -0.000112541
1451 1615 -4.98303e-06
1452 1615 -3.54588e-05
1453 1615 -3.54555e-05
1469 1615 -7.08642e-06
1470 1615 -5.76554e-06
1471 1615 -9.89094e-07
1472 1615 -1.97193e-06
1611 1615 -3.19891e-06
1612 1615 -2.96102e-06
1613 1615 -9.89094e-07
1614 1615 -1.97193e-06
1615 1615 0.368405
1616 1615 0
1620 1615 0
2352 1615 0
2353 1615 0
2383 1615 0
2384 1615 0
2390 1615 0
2391 1615 -2.96102e-06
2393 1615 0
1340 1616 -0.0406504
1342 1616 -0.0406504
1347 1616 -0.285714
1348 1616 -1.86158e-05
1349 1616 -0.000125731
1350 1616 -0.000125127
1351 1616 -1.86142e-05
1379 1616 -9.89094e-07
1380 1616 -1.97193e-06
1614 1616 -1.97193e-06
1615 1616 0
1616 1616 0.367687
1618 1616 -1.97193e-06
1620 1616 -9.89094e-07
2352 1616 0
2353 1616 -8.06926e-06
2383 1616 0
2384 1616 0
2390 1616 -1.97193e-06
2391 1616 -1.97193e-06
2392 1616 -1.97193e-06
2393 1616 -1.97193e-06
1268 1617 -0.0529101
1270 1617 -0.0529101
1275 1617 -0.203252
1276 1617 -4.58239e-06
1296 1617 -3.54571e-05
1297 1617 -3.54572e-05
1300 1617 -0.00011263
1301 1617 -0.000112497
1306 1617 -4.98303e-06
1307 1617 -3.54587e-05
1308 1617 -3.54556e-05
1311 1617 -2.06959e-05
1312 1617 -7.03051e-05
1313 1617 -3.98142e-06
1314 1617 -7.02715e-05
1315 1617 -7.33057e-06
1617 1617 0.310223
1618 1617 -9.89094e-07
1619 1617 -9.89094e-07
1620 1617 -5.42124e-06
2352 1617 -9.89094e-07
2353 1617 -9.89094e-07
2361 1617 -9.89094e-07
2383 1617 -9.89094e-07
2384 1617 -9.89094e-07
2390 1617 -2.96102e-06
2391 1617 -1.97193e-06
2392 1617 -9.89094e-07
2393 1617 -4.48222e-06
1248 1618 -0.0762195
1249 1618 -0.142857
1250 1618 0
1259 1618 -0.101626
1260 1618 0
1261 1618 0
1262 1618 0
1277 1618 -7.0289e-05
1278 1618 -7.02876e-05
1279 1618 -0.00012403
1280 1618 -0.000123843
1290 1618 -6.52301e-06
1616 1618 -1.97193e-06
1617 1618 -9.89094e-07
1618 1618 0.321485
1619 1618 -1.78287e-05
1620 1618 0
2352 1618 -9.89094e-07
2353 1618 0
2355 1618 0
2357 1618 0
2359 1618 0
2361 1618 0
2383 1618 0
2384 1618 0
2390 1618 -1.97193e-06
2391 1618 0
2392 1618 -1.88116e-05
2393 1618 0
1225 1619 -0.0381098
1227 1619 -0.0381098
1232 1619 -0.285714
1233 1619 0
1247 1619 -7.02883e-05
1248 1619 -7.02883e-05
1249 1619 -3.54297e-05
1250 1619 -3.54846e-05
1260 1619 -6.52301e-06
1261 1619 0
1262 1619 0
1283 1619 -0.000123796
1284 1619 -0.000124077
1285 1619 -7.0289e-05
1286 1619 -7.02876e-05
1287 1619 0
1288 1619 0
1289 1619 0
1290 1619 -4.14418e-06
1617 1619 -9.89094e-07
1618 1619 -1.78287e-05
1619 1619 0.363115
1620 1619 0
2352 1619 -9.89094e-07
2353 1619 0
2354 1619 0
2355 1619 0
2356 1619 -6.09733e-06
2357 1619 -9.89094e-07
2359 1619 0
2360 1619 0
2361 1619 -6.44789e-07
2383 1619 0
2384 1619 0
2390 1619 -2.96102e-06
2391 1619 0
2392 1619 0
2393 1619 0
1137 1620 -0.043554
1138 1620 -0.0529101
1207 1620 0
1208 1620 0
1209 1620 0
1210 1620 0
1298 1620 -0.00012383
1299 1620 -0.000124042
1302 1620 -3.51442e-05
1303 1620 -3.51441e-05
1304 1620 -0.000123878
1305 1620 -0.000123994
1306 1620 0
1307 1620 0
1308 1620 0
1309 1620 -7.0289e-05
1310 1620 -7.02876e-05
1311 1620 0
1312 1620 0
1313 1620 -4.14418e-06
1314 1620 0
1315 1620 -1.97193e-06
1341 1620 -3.51445e-05
1342 1620 -3.51438e-05
1343 1620 -0.000123143
1344 1620 -0.000124731
1345 1620 0
1346 1620 0
1347 1620 0
1354 1620 -6.04454e-05
1355 1620 -6.34942e-05
1356 1620 -7.02886e-05
1357 1620 -7.02879e-05
1358 1620 0
1359 1620 0
1360 1620 0
1379 1620 -1.97193e-06
1380 1620 -9.89094e-07
1614 1620 -9.89094e-07
1615 1620 0
1616 1620 -9.89094e-07
1617 1620 -5.42124e-06
1618 1620 0
1619 1620 0
1620 1620 0.0986424
2351 1620 0
2352 1620 -9.95354e-06
2353 1620 -2.80452e-06
2354 1620 0
2355 1620 0
2356 1620 0
2357 1620 0
2358 1620 0
2359 1620 0
2360 1620 0
2361 1620 0
2379 1620 0
2380 1620 0
2383 1620 0
2384 1620 0
2390 1620 -1.74031e-06
2391 1620 -4.93295e-06
2392 1620 0
2393 1620 0
1621 1621 0.0404956
1624 1621 -0.000652113
1795 1621 -6.58264e-05
1622 1622 0.0556031
1623 1622 -2.45621e-10
1795 1622 -3.91913e-05
1622 1623 -9.95207e-13
1623 1623 0.0470333
1643 1623 -0.0469043
1795 1623 -3.917e-05
1621 1624 -0.000649699
1624 1624 0.0557395
1643 1624 -0.0549451
1795 1624 -6.58328e-05
1625 1625 0.0680914
1626 1625 -8.68378e-10
1643 1625 -1.85766e-05
1625 1626 -9.42933e-10
1626 1626 0.0529942
1643 1626 -1.87137e-05
2349 1626 -0.0529101
1627 1627 0.0687311
1628 1627 -0.000590953
1796 1627 -6.2712e-05
1627 1628 -0.000589738
1628 1628 0.0536377
1796 1628 -6.27417e-05
2349 1628 -0.0529101
1629 1629 0.0680914
1637 1629 -9.0248e-10
1630 1630 0.0685326
1636 1630 -0.000373109
1631 1631 0.203857
1632 1631 -0.000242543
1631 1632 -0.000254916
1632 1632 0.0770163
1633 1632 -0.0762195
1632 1633 -0.0762195
1633 1633 0.198188
1634 1633 -0.121951
1633 1634 -0.121951
1634 1634 0.123298
1635 1634 -0.000863125
1634 1635 -0.00082966
1635 1635 0.204434
1796 1635 -0.203252
1630 1636 -2.25591e-05
1636 1636 0.0510872
1796 1636 -0.0510204
1629 1637 -8.06446e-12
1637 1637 0.0510651
1796 1637 -0.0510204
1638 1638 0.203436
1639 1638 -2.97818e-09
1796 1638 -7.0354e-05
1638 1639 -1.20217e-11
1639 1639 0.0873479
1640 1639 -0.087108
1796 1639 -7.0311e-05
1639 1640 -0.087108
1640 1640 0.209076
1641 1640 -0.121951
1643 1640 -1.20569e-05
1796 1640 0
1640 1641 -0.121951
1641 1641 0.122157
1642 1641 -1.43877e-08
1643 1641 -7.03613e-05
1796 1641 0
1641 1642 -6.0921e-11
1642 1642 0.203389
1643 1642 -7.03533e-05
1796 1642 0
2349 1642 -0.203252
1623 1643 -0.0469043
1624 1643 -0.0549451
1625 1643 -1.77285e-05
1626 1643 -1.77286e-05
1640 1643 -1.20569e-05
1641 1643 -7.03013e-05
1642 1643 -7.02753e-05
1643 1643 0.102361
1795 1643 -9.89094e-07
1796 1643 -7.90649e-06
2347 1643 -1.97193e-06
2349 1643 -4.58239e-06
2355 1643 -1.97193e-06
2371 1643 -1.97193e-06
1644 1644 0.287127
1645 1644 -0.00122551
2348 1644 -0.000124667
1644 1645 -0.00122261
1645 1645 0.111388
1646 1645 -0.10989
2348 1645 -0.000124725
1645 1646 -0.10989
1646 1646 0.228947
1648 1646 -0.119048
2348 1646 -3.00484e-06
2361 1646 -1.00161e-06
1647 1647 0.287156
1648 1647 -0.00124465
1795 1647 -0.000124722
2361 1647 -0.285714
1646 1648 -0.119048
1647 1648 -0.00124685
1648 1648 0.120547
1795 1648 -0.000124657
2348 1648 0
2361 1648 0
1649 1649 0.101892
1650 1649 -1.26723e-09
2348 1649 -7.03466e-05
1649 1650 -9.12101e-10
1650 1650 0.0874488
1666 1650 -0.087108
2348 1650 -7.03456e-05
1651 1651 0.286657
1652 1651 -0.000755277
1651 1652 -0.000776643
1652 1652 0.103097
1653 1652 -0.102041
1652 1653 -0.102041
1653 1653 0.260781
1654 1653 -0.15873
1653 1654 -0.15873
1654 1654 0.158869
1659 1654 -5.34292e-09
1655 1655 0.05146
1658 1655 -0.000431024
1656 1656 0.051149
1657 1656 -0.000119628
1656 1657 -0.000129773
1657 1657 0.0410529
1795 1657 -0.0406504
1655 1658 -0.000438143
1658 1658 0.0413619
1795 1658 -0.0406504
1654 1659 -3.16026e-11
1659 1659 0.285772
1795 1659 -0.285714
1660 1660 0.101892
1661 1660 -6.89337e-10
1795 1660 -7.03434e-05
1660 1661 -4.95896e-10
1661 1661 0.0874488
1666 1661 -0.087108
1795 1661 -7.03421e-05
1662 1662 0.120485
1663 1662 -0.00118471
1796 1662 -0.00012462
1662 1663 -0.00118477
1663 1663 0.11135
1796 1663 -0.000124758
2361 1663 -0.10989
1664 1664 0.101812
1665 1664 -9.23581e-12
1796 1664 -7.03085e-05
2361 1664 -0.101626
1664 1665 -2.25782e-09
1665 1665 0.152703
1666 1665 -0.152439
1796 1665 -7.03529e-05
2361 1665 0
1650 1666 -0.087108
1661 1666 -0.087108
1665 1666 -0.152439
1666 1666 0.326711
1795 1666 -5.97213e-06
1796 1666 -1.96379e-05
2348 1666 -3.98142e-06
2361 1666 0
1667 1667 0.0404745
1670 1667 -0.000630937
1689 1667 -6.57966e-05
1668 1668 0.0556031
1669 1668 -8.83835e-10
1689 1668 -3.91952e-05
1668 1669 -3.59724e-12
1669 1669 0.0436852
1689 1669 -3.91713e-05
2345 1669 -0.043554
1667 1670 -0.000630478
1670 1670 0.0536871
1689 1670 -6.58465e-05
2345 1670 -0.0529101
1671 1671 0.0687311
1672 1671 -0.00059092
1796 1671 -6.26681e-05
1671 1672 -0.000592445
1672 1672 0.0536407
1794 1672 -0.0529101
1796 1672 -6.27625e-05
1673 1673 0.0687408
1674 1673 -0.000600683
1689 1673 -6.26692e-05
1673 1674 -0.000602187
1674 1674 0.0536504
1689 1674 -6.27612e-05
1794 1674 -0.0529101
1675 1675 0.0685337
1683 1675 -0.000374179
1676 1676 0.0680914
1682 1676 -9.08389e-10
1677 1677 0.204473
1678 1677 -0.000862819
1677 1678 -0.000881606
1678 1678 0.0776471
1679 1678 -0.0762195
1678 1679 -0.0762195
1679 1679 0.198188
1680 1679 -0.121951
1679 1680 -0.121951
1680 1680 0.122691
1681 1680 -0.000251024
1680 1681 -0.000214069
1681 1681 0.203813
1689 1681 -0.203252
1676 1682 -8.07119e-12
1682 1682 0.051065
1689 1682 -0.0510204
1675 1683 -2.248e-05
1683 1683 0.051087
1689 1683 -0.0510204
1684 1684 0.203436
1685 1684 -2.0569e-09
1689 1684 -7.03505e-05
1684 1685 -8.67943e-10
1685 1685 0.0874465
1686 1685 -0.087108
1689 1685 -7.03484e-05
1685 1686 -0.087108
1686 1686 0.209076
1687 1686 -0.121951
1689 1686 0
1796 1686 -1.20569e-05
1686 1687 -0.121951
1687 1687 0.122235
1688 1687 -1.56265e-09
1689 1687 0
1796 1687 -7.03518e-05
1687 1688 -6.39432e-12
1688 1688 0.203389
1689 1688 0
1794 1688 -0.203252
1796 1688 -7.03084e-05
1667 1689 -6.39415e-05
1668 1689 -3.91613e-05
1669 1689 -3.91599e-05
1670 1689 -6.6194e-05
1673 1689 -5.98931e-05
1674 1689 -6.40478e-05
1681 1689 -0.203252
1682 1689 -0.0510204
1683 1689 -0.0510204
1684 1689 -7.02893e-05
1685 1689 -7.02873e-05
1686 1689 0
1687 1689 0
1688 1689 0
1689 1689 0.306378
1794 1689 0
1795 1689 -9.89094e-07
1796 1689 -1.05545e-05
2344 1689 -1.97193e-06
2345 1689 0
2346 1689 -1.97193e-06
2364 1689 -9.89094e-07
2367 1689 -9.89094e-07
2370 1689 -1.97193e-06
1690 1690 0.0397924
1693 1690 -9.16256e-10
1713 1690 -1.95555e-05
1691 1691 0.0561888
1692 1691 -0.000476823
1713 1691 -0.000126757
1691 1692 -0.000481876
1692 1692 0.0476757
1703 1692 -0.0469043
1713 1692 -0.000126745
1690 1693 -8.08889e-12
1693 1693 0.0549913
1703 1693 -0.0549451
1713 1693 -1.89744e-05
1694 1694 0.0509407
1695 1694 -3.95993e-10
1703 1694 -3.51732e-05
1694 1695 -1.60666e-12
1695 1695 0.0407662
1703 1695 -3.51531e-05
1793 1695 -0.0406504
1696 1696 0.0509407
1697 1696 -2.17711e-10
1795 1696 -3.51717e-05
1696 1697 -8.81497e-13
1697 1697 0.0407662
1793 1697 -0.0406504
1795 1697 -3.51525e-05
1698 1698 0.287151
1699 1698 -0.00123949
1795 1698 -0.000124706
1698 1699 -0.00124444
1699 1699 0.111399
1700 1699 -0.10989
1795 1699 -0.000124695
1699 1700 -0.10989
1700 1700 0.26863
1701 1700 -0.15873
1703 1700 -4.98303e-06
1795 1700 0
1700 1701 -0.15873
1701 1701 0.160194
1702 1701 -0.00122041
1703 1701 -0.000124701
1795 1701 0
1701 1702 -0.0012255
1702 1702 0.287127
1703 1702 -0.000124699
1793 1702 -0.285714
1795 1702 0
1692 1703 -0.0469043
1693 1703 -0.0549451
1694 1703 -3.51445e-05
1695 1703 -3.51438e-05
1700 1703 -4.98303e-06
1701 1703 -0.000123972
1702 1703 -0.0001239
1703 1703 0.102452
1713 1703 -9.89094e-07
1793 1703 -7.08642e-06
1795 1703 -2.87964e-06
1704 1704 0.0687553
1705 1704 -0.000615151
2346 1704 -6.27081e-05
1704 1705 -0.000614187
1705 1705 0.0536623
1713 1705 -0.0529101
2346 1705 -6.27432e-05
1706 1706 0.0687311
1707 1706 -0.000590949
1796 1706 -6.27069e-05
1706 1707 -0.000590052
1707 1707 0.0536381
1713 1707 -0.0529101
1796 1707 -6.27441e-05
1708 1708 0.203436
1709 1708 -4.25167e-09
1796 1708 -7.03539e-05
1708 1709 -2.35618e-09
1709 1709 0.0874474
1710 1709 -0.087108
1796 1709 -7.03522e-05
1709 1710 -0.087108
1710 1710 0.209076
1711 1710 -0.121951
1796 1710 0
2346 1710 -1.20569e-05
1710 1711 -0.121951
1711 1711 0.122236
1712 1711 -3.92171e-10
1796 1711 0
2346 1711 -7.03437e-05
1711 1712 -1.59635e-12
1712 1712 0.203389
1713 1712 -0.203252
1796 1712 0
2346 1712 -7.03058e-05
1690 1713 -1.86158e-05
1691 1713 -0.000125497
1692 1713 -0.000125359
1693 1713 -1.86142e-05
1703 1713 -9.89094e-07
1705 1713 -0.0529101
1707 1713 -0.0529101
1712 1713 -0.203252
1713 1713 0.309735
1793 1713 0
1794 1713 -1.97193e-06
1795 1713 0
1796 1713 -9.89094e-07
2346 1713 -4.58239e-06
2347 1713 -1.97193e-06
2371 1713 -1.97193e-06
1714 1714 0.0404638
1717 1714 -0.000620175
2350 1714 -6.57723e-05
1715 1715 0.0556031
1716 1715 -1.68774e-09
2350 1715 -3.91972e-05
1715 1716 -6.88479e-12
1716 1716 0.0470333
1727 1716 -0.0469043
2350 1716 -3.91719e-05
1714 1717 -0.000621219
1717 1717 0.0557114
1727 1717 -0.0549451
2350 1717 -6.58592e-05
1718 1718 0.0514671
1719 1718 -0.000428509
1794 1718 -0.000113911
1718 1719 -0.000432802
1719 1719 0.0413432
1794 1719 -0.000113863
2359 1719 -0.0406504
1720 1720 0.051467
1721 1720 -0.000428355
1727 1720 -0.000113911
1720 1721 -0.000432646
1721 1721 0.041343
1727 1721 -0.000113863
2359 1721 -0.0406504
1722 1722 0.285805
1723 1722 -1.40379e-09
1727 1722 -3.714e-05
1722 1723 -7.15621e-10
1723 1723 0.102205
1724 1723 -0.102041
1727 1723 -3.71009e-05
1723 1724 -0.102041
1724 1724 0.260781
1725 1724 -0.15873
1727 1724 0
1794 1724 -4.98303e-06
1724 1725 -0.15873
1725 1725 0.158864
1726 1725 -9.53067e-10
1727 1725 0
1794 1725 -3.71986e-05
1725 1726 -8.56491e-12
1726 1726 0.285772
1727 1726 0
1794 1726 -3.61386e-05
2359 1726 -0.285714
1716 1727 -0.0469043
1717 1727 -0.0549451
1720 1727 -0.000112839
1721 1727 -0.000112289
1722 1727 -3.54577e-05
1723 1727 -3.54566e-05
1724 1727 0
1725 1727 0
1726 1727 0
1727 1727 0.102452
1794 1727 -3.79361e-06
2347 1727 -9.89094e-07
2350 1727 0
2359 1727 0
1728 1728 0.040496
1740 1728 -0.000652469
2347 1728 -6.58237e-05
1729 1729 0.286657
1730 1729 -0.000755277
1729 1730 -0.000776643
1730 1730 0.103097
1731 1730 -0.102041
1730 1731 -0.102041
1731 1731 0.260781
1732 1731 -0.15873
1731 1732 -0.15873
1732 1732 0.158869
1737 1732 -5.34403e-09
1733 1733 0.0514599
1736 1733 -0.000430992
1734 1734 0.0511487
1735 1734 -0.000119535
1734 1735 -0.000130077
1735 1735 0.0410533
2347 1735 -0.0406504
1733 1736 -0.000438517
1736 1736 0.0413623
2347 1736 -0.0406504
1732 1737 -3.16035e-11
1737 1737 0.285772
2347 1737 -0.285714
1738 1738 0.0556031
1739 1738 -2.40393e-10
2347 1738 -3.91912e-05
1738 1739 -9.73959e-13
1739 1739 0.0470334
1792 1739 -0.0469043
2347 1739 -3.917e-05
1728 1740 -0.00065024
1740 1740 0.0557402
1792 1740 -0.0549451
2347 1740 -6.58341e-05
1741 1741 0.0687512
1742 1741 -0.000611096
2359 1741 -6.271e-05
1741 1742 -0.000610008
1742 1742 0.0536582
2358 1742 -0.0529101
2359 1742 -6.27424e-05
1743 1743 0.0687474
1744 1743 -0.00060731
2354 1743 -6.27097e-05
1743 1744 -0.000606241
1744 1744 0.0536544
2354 1744 -6.27424e-05
2358 1744 -0.0529101
1745 1745 0.203436
1746 1745 -1.57736e-09
2354 1745 -7.03481e-05
1745 1746 -9.96879e-10
1746 1746 0.0874482
1747 1746 -0.087108
2354 1746 -7.03468e-05
1746 1747 -0.087108
1747 1747 0.209076
1748 1747 -0.121951
2354 1747 0
2359 1747 -1.20569e-05
1747 1748 -0.121951
1748 1748 0.122236
1749 1748 -5.60933e-10
2354 1748 0
2359 1748 -7.03455e-05
1748 1749 -2.28495e-12
1749 1749 0.203389
2354 1749 0
2358 1749 -0.203252
2359 1749 -7.03062e-05
1750 1750 0.0680914
1751 1750 -8.63221e-10
1792 1750 -1.85761e-05
1750 1751 -9.40691e-10
1751 1751 0.0529943
1792 1751 -1.87191e-05
2360 1751 -0.0529101
1752 1752 0.0687307
1753 1752 -0.000590488
2350 1752 -6.27111e-05
1752 1753 -0.00058933
1753 1753 0.0536374
2350 1753 -6.27421e-05
2360 1753 -0.0529101
1754 1754 0.0680914
1762 1754 -9.02199e-10
1755 1755 0.0685325
1761 1755 -0.000373058
1756 1756 0.203857
1757 1756 -0.000242614
1756 1757 -0.000254678
1757 1757 0.077016
1758 1757 -0.0762195
1757 1758 -0.0762195
1758 1758 0.198188
1759 1758 -0.121951
1758 1759 -0.121951
1759 1759 0.123298
1760 1759 -0.000862681
1759 1760 -0.000828917
1760 1760 0.204433
2350 1760 -0.203252
1755 1761 -2.25629e-05
1761 1761 0.0510872
2350 1761 -0.0510204
1754 1762 -8.06414e-12
1762 1762 0.0510651
2350 1762 -0.0510204
1763 1763 0.203436
1764 1763 -3.06749e-09
2350 1763 -7.03541e-05
1763 1764 -1.23836e-11
1764 1764 0.087348
1765 1764 -0.087108
2350 1764 -7.0311e-05
1764 1765 -0.087108
1765 1765 0.209076
1766 1765 -0.121951
1792 1765 -1.20569e-05
2350 1765 0
1765 1766 -0.121951
1766 1766 0.122157
1767 1766 -1.4385e-08
1792 1766 -7.03613e-05
2350 1766 0
1766 1767 -6.09097e-11
1767 1767 0.203389
1792 1767 -7.03533e-05
2350 1767 0
2360 1767 -0.203252
1768 1768 0.0404857
1771 1768 -0.000642107
1791 1768 -6.583e-05
1769 1769 0.0556031
1770 1769 -4.4911e-10
1791 1769 -3.91931e-05
1769 1770 -1.82348e-12
1770 1770 0.0470334
1781 1770 -0.0469043
1791 1770 -3.91706e-05
1768 1771 -0.000639481
1771 1771 0.0557294
1781 1771 -0.0549451
1791 1771 -6.58312e-05
1772 1772 0.0680914
1773 1772 -9.21664e-10
1793 1772 -1.86294e-05
1772 1773 -8.13975e-12
1773 1773 0.0529541
1793 1773 -1.80728e-05
2357 1773 -0.0529101
1774 1774 0.0680914
1775 1774 -9.13299e-10
1781 1774 -1.86286e-05
1774 1775 -8.06465e-12
1775 1775 0.0529541
1781 1775 -1.80725e-05
2357 1775 -0.0529101
1776 1776 0.204486
1777 1776 -0.00085583
1781 1776 -0.000226454
1776 1777 -0.000865025
1777 1777 0.0884919
1778 1777 -0.087108
1781 1777 -0.000226446
1777 1778 -0.087108
1778 1778 0.209076
1779 1778 -0.121951
1781 1778 0
1793 1778 -1.20569e-05
1778 1779 -0.121951
1779 1779 0.123288
1780 1779 -0.000855586
1781 1779 0
1793 1779 -0.00022646
1779 1780 -0.000864686
1780 1780 0.204476
1781 1780 0
1793 1780 -0.000226439
2357 1780 -0.203252
1770 1781 -0.0469043
1771 1781 -0.0549451
1774 1781 -1.77293e-05
1775 1781 -1.77278e-05
1776 1781 -0.000225169
1777 1781 -0.000225083
1778 1781 0
1779 1781 0
1780 1781 0
1781 1781 0.10256
1791 1781 -9.13973e-07
1793 1781 -7.98162e-06
2357 1781 0
1782 1782 0.0514672
1783 1782 -0.000428554
1794 1782 -0.000113896
1782 1783 -0.000433037
1783 1783 0.0413435
1791 1783 -0.0406504
1794 1783 -0.000113877
1784 1784 0.051466
1785 1784 -0.000427425
1792 1784 -0.000113896
1784 1785 -0.000431901
1785 1785 0.0413424
1791 1785 -0.0406504
1792 1785 -0.000113877
1786 1786 0.285805
1787 1786 -1.54186e-09
1792 1786 -3.71579e-05
1786 1787 -7.67803e-10
1787 1787 0.102205
1788 1787 -0.102041
1792 1787 -3.71174e-05
1787 1788 -0.102041
1788 1788 0.260781
1789 1788 -0.15873
1792 1788 0
1794 1788 -4.98303e-06
1788 1789 -0.15873
1789 1789 0.158864
1790 1789 -9.39747e-10
1792 1789 0
1794 1789 -3.71977e-05
1789 1790 -8.44642e-12
1790 1790 0.285772
1791 1790 -0.285714
1792 1790 0
1794 1790 -3.61385e-05
1768 1791 -6.50386e-05
1769 1791 -3.9161e-05
1770 1791 -3.91603e-05
1771 1791 -6.50943e-05
1781 1791 -9.13973e-07
1783 1791 -0.0406504
1785 1791 -0.0406504
1790 1791 -0.285714
1791 1791 0.367594
1792 1791 -9.89094e-07
1793 1791 0
1794 1791 -6.09733e-06
2356 1791 -9.89094e-07
2357 1791 -9.89094e-07
1739 1792 -0.0469043
1740 1792 -0.0549451
1750 1792 -1.77285e-05
1751 1792 -1.77286e-05
1765 1792 -1.20569e-05
1766 1792 -7.03013e-05
1767 1792 -7.02753e-05
1784 1792 -0.000112671
1785 1792 -0.000112456
1786 1792 -3.54578e-05
1787 1792 -3.54565e-05
1788 1792 0
1789 1792 0
1790 1792 0
1791 1792 -9.89094e-07
1792 1792 0.102858
1793 1792 0
1794 1792 -2.80452e-06
2347 1792 0
2350 1792 -7.90649e-06
2354 1792 -9.89094e-07
2356 1792 0
2357 1792 0
2358 1792 -9.89094e-07
2359 1792 -1.97193e-06
2360 1792 -4.58239e-06
1695 1793 -0.0406504
1697 1793 -0.0406504
1702 1793 -0.285714
1703 1793 -7.08642e-06
1713 1793 0
1772 1793 -1.77293e-05
1773 1793 -1.77278e-05
1778 1793 -1.20569e-05
1779 1793 -0.000225251
1780 1793 -0.000225002
1781 1793 -7.98162e-06
1791 1793 0
1792 1793 0
1793 1793 0.367843
1794 1793 -1.97193e-06
1795 1793 0
1796 1793 0
2346 1793 0
2347 1793 0
2350 1793 0
2351 1793 -1.97193e-06
2354 1793 -9.89094e-07
2356 1793 -9.89094e-07
2357 1793 -4.58239e-06
2358 1793 0
2359 1793 0
2360 1793 0
2371 1793 -9.89094e-07
1672 1794 -0.0529101
1674 1794 -0.0529101
1688 1794 -0.203252
1689 1794 0
1713 1794 -1.97193e-06
1718 1794 -0.000112839
1719 1794 -0.000112289
1724 1794 -4.98303e-06
1725 1794 -3.5458e-05
1726 1794 -3.54563e-05
1727 1794 -3.79361e-06
1782 1794 -0.000112671
1783 1794 -0.000112456
1788 1794 -4.98303e-06
1789 1794 -3.54579e-05
1790 1794 -3.54564e-05
1791 1794 -6.09733e-06
1792 1794 -2.80452e-06
1793 1794 -1.97193e-06
1794 1794 0.310177
1795 1794 0
1796 1794 -4.58239e-06
2344 1794 0
2345 1794 0
2346 1794 0
2347 1794 0
2350 1794 0
2351 1794 0
2354 1794 -9.89094e-07
2356 1794 0
2357 1794 0
2358 1794 0
2359 1794 -6.09733e-06
2360 1794 0
2364 1794 0
2367 1794 0
2370 1794 0
2371 1794 -9.89094e-07
1621 1795 -6.49176e-05
1622 1795 -3.91608e-05
1623 1795 -3.91604e-05
1624 1795 -6.52156e-05
1643 1795 -9.89094e-07
1647 1795 -0.000125435
1648 1795 -0.00012244
1657 1795 -0.0406504
1658 1795 -0.0406504
1659 1795 -0.285714
1660 1795 -7.02884e-05
1661 1795 -7.02881e-05
1666 1795 -5.97213e-06
1689 1795 -9.89094e-07
1696 1795 -3.51443e-05
1697 1795 -3.5144e-05
1698 1795 -0.000124128
1699 1795 -0.000123745
1700 1795 0
1701 1795 0
1702 1795 0
1703 1795 -2.87964e-06
1713 1795 0
1793 1795 0
1794 1795 0
1795 1795 0.368733
1796 1795 -3.94386e-06
2344 1795 -7.18032e-06
2345 1795 0
2346 1795 -1.28958e-06
2347 1795 0
2348 1795 0
2349 1795 -9.89094e-07
2350 1795 0
2351 1795 0
2354 1795 0
2355 1795 0
2356 1795 0
2357 1795 0
2358 1795 0
2359 1795 0
2360 1795 0
2361 1795 -4.21304e-06
2364 1795 -9.89094e-07
2367 1795 -9.89094e-07
2370 1795 -1.97193e-06
2371 1795 0
1627 1796 -6.13093e-05
1628 1796 -6.26283e-05
1635 1796 -0.203252
1636 1796 -0.0510204
1637 1796 -0.0510204
1638 1796 -7.02907e-05
1639 1796 -7.02859e-05
1640 1796 0
1641 1796 0
1642 1796 0
1643 1796 -7.90649e-06
1662 1796 -0.000121304
1663 1796 -0.000126574
1664 1796 -7.02865e-05
1665 1796 -7.02901e-05
1666 1796 -1.96379e-05
1671 1796 -5.98935e-05
1672 1796 -6.40474e-05
1686 1796 -1.20569e-05
1687 1796 -7.02896e-05
1688 1796 -7.0287e-05
1689 1796 -1.05545e-05
1706 1796 -6.11459e-05
1707 1796 -6.27921e-05
1708 1796 -7.02898e-05
1709 1796 -7.02867e-05
1710 1796 0
1711 1796 0
1712 1796 0
1713 1796 -9.89094e-07
1793 1796 0
1794 1796 -4.58239e-06
1795 1796 -3.94386e-06
1796 1796 0.307501
2344 1796 -1.97193e-06
2345 1796 0
2346 1796 -7.98162e-06
2347 1796 0
2348 1796 -9.89094e-07
2349 1796 -9.89094e-07
2350 1796 0
2351 1796 0
2354 1796 0
2355 1796 0
2356 1796 0
2357 1796 0
2358 1796 0
2359 1796 0
2360 1796 0
2361 1796 -2.21607e-06
2364 1796 -9.89094e-07
2367 1796 -9.89094e-07
2369 1796 -9.89094e-07
2370 1796 -1.97193e-06
2371 1796 0
1797 1797 0.0514612
1798 1797 -0.000431818
1994 1797 -0.000113886
1797 1798 -0.000427234
1798 1798 0.0413469
1820 1798 -0.0406504
1994 1798 -0.000113887
1799 1799 0.0509407
1800 1799 -6.17663e-10
1849 1799 -3.51732e-05
1799 1800 -6.18368e-10
1800 1800 0.0408218
1820 1800 -0.0406504
1849 1800 -3.51766e-05
1801 1801 0.287127
1802 1801 -0.00122565
1849 1801 -0.0001247
1801 1802 -0.00122057
1802 1802 0.111386
1803 1802 -0.10989
1849 1802 -0.000124701
1802 1803 -0.10989
1803 1803 0.26863
1804 1803 -0.15873
1849 1803 0
1994 1803 -4.98303e-06
1803 1804 -0.15873
1804 1804 0.158867
1805 1804 -1.97695e-09
1849 1804 0
1994 1804 -3.72686e-05
1804 1805 -1.75596e-11
1805 1805 0.285772
1820 1805 -0.285714
1849 1805 0
1994 1805 -3.61473e-05
1806 1806 0.101876
1807 1806 -8.36839e-10
1820 1806 -7.03466e-05
1806 1807 -3.40628e-12
1807 1807 0.0873396
1820 1807 -7.03062e-05
2371 1807 -0.087108
1808 1808 0.144305
1809 1808 -0.00122357
1820 1808 -0.00012467
2371 1808 -0.142857
1808 1809 -0.00121963
1809 1809 0.131347
1819 1809 -0.12987
1820 1809 -0.000124731
2371 1809 0
1810 1810 0.142986
1811 1810 -1.79783e-09
1995 1810 -3.71522e-05
1810 1811 -1.72966e-09
1811 1811 0.110058
1819 1811 -0.10989
1995 1811 -3.71494e-05
1812 1812 0.144313
1813 1812 -0.00122045
1849 1812 -0.00012473
1812 1813 -0.00122445
1813 1813 0.111379
1819 1813 -0.10989
1849 1813 -0.000124671
1814 1814 0.101876
1815 1814 -8.11189e-10
1849 1814 -7.03466e-05
1814 1815 -3.25883e-12
1815 1815 0.0873481
1816 1815 -0.087108
1849 1815 -7.03085e-05
1815 1816 -0.087108
1816 1816 0.188765
1817 1816 -0.101626
1849 1816 0
1995 1816 -2.06959e-05
1816 1817 -0.101626
1817 1817 0.101808
1818 1817 -1.85011e-08
1849 1817 0
1995 1817 -7.03616e-05
1817 1818 -7.83464e-11
1818 1818 0.101802
1849 1818 0
1995 1818 -7.03534e-05
2371 1818 -0.101626
1809 1819 -0.12987
1811 1819 -0.10989
1813 1819 -0.10989
1819 1819 0.349689
1820 1819 -6.52301e-06
1849 1819 -4.14418e-06
1995 1819 -3.98142e-06
2371 1819 0
1798 1820 -0.0406504
1800 1820 -0.0406504
1805 1820 -0.285714
1806 1820 -7.0289e-05
1807 1820 -7.02876e-05
1808 1820 -0.000122904
1809 1820 -0.00012497
1819 1820 -6.52301e-06
1820 1820 0.36775
1849 1820 -9.89094e-07
1994 1820 -7.08642e-06
1995 1820 0
2371 1820 -1.78287e-05
1821 1821 0.0509407
1822 1821 -4.87024e-10
2346 1821 -3.51725e-05
1821 1822 -4.80946e-10
1822 1822 0.0408252
1849 1822 -0.0406504
2346 1822 -3.51725e-05
1823 1823 0.0514666
1824 1823 -0.000427957
2345 1823 -0.000113895
1823 1824 -0.00043245
1824 1824 0.0413463
1849 1824 -0.0406504
2345 1824 -0.000113879
1825 1825 0.285805
1826 1825 -1.70033e-09
2345 1825 -3.72393e-05
1825 1826 -1.60365e-11
1826 1826 0.102133
1827 1826 -0.102041
2345 1826 -3.61896e-05
1826 1827 -0.102041
1827 1827 0.260781
1828 1827 -0.15873
2345 1827 0
2346 1827 -4.98303e-06
1827 1828 -0.15873
1828 1828 0.158813
1829 1828 -2.38882e-08
2345 1828 0
2346 1828 -3.81042e-05
1828 1829 -5.44705e-10
1829 1829 0.285772
1849 1829 -0.285714
2345 1829 0
2346 1829 -3.79184e-05
1830 1830 0.0404896
1833 1830 -0.000646068
2346 1830 -6.5823e-05
1831 1831 0.0556031
1832 1831 -3.53744e-10
2346 1831 -3.91923e-05
1831 1832 -1.43516e-12
1832 1832 0.0470334
1848 1832 -0.0469043
2346 1832 -3.91704e-05
1830 1833 -0.000643892
1833 1833 0.0557339
1848 1833 -0.0549451
2346 1833 -6.58344e-05
1834 1834 0.102928
1835 1834 -0.000857082
2345 1834 -0.000226472
1834 1835 -0.000866045
1835 1835 0.0776111
2345 1835 -0.000226428
2348 1835 -0.0762195
1836 1836 0.142928
1837 1836 -1.13821e-11
2345 1836 -3.61425e-05
2348 1836 -0.142857
1836 1837 -1.27154e-09
1837 1837 0.130019
1847 1837 -0.12987
2345 1837 -3.72246e-05
2348 1837 0
1838 1838 0.142986
1839 1838 -1.70028e-09
1995 1838 -3.71532e-05
1838 1839 -1.17139e-09
1839 1839 0.10221
1847 1839 -0.102041
1995 1839 -3.71286e-05
1840 1840 0.142986
1841 1840 -1.73777e-09
1848 1840 -3.71569e-05
1840 1841 -1.19725e-09
1841 1841 0.10221
1847 1841 -0.102041
1848 1841 -3.71323e-05
1842 1842 0.102927
1843 1842 -0.000856077
1848 1842 -0.000226463
1842 1843 -0.000865143
1843 1843 0.0776103
1844 1843 -0.0762195
1848 1843 -0.000226436
1843 1844 -0.0762195
1844 1844 0.177876
1845 1844 -0.101626
1848 1844 0
1995 1844 -2.06959e-05
1844 1845 -0.101626
1845 1845 0.102927
1846 1845 -0.000856315
1848 1845 0
1995 1845 -0.000226458
1845 1846 -0.000865446
1846 1846 0.102918
1848 1846 0
1995 1846 -0.000226442
2348 1846 -0.101626
1837 1847 -0.12987
1839 1847 -0.102041
1841 1847 -0.102041
1847 1847 0.333991
1848 1847 -4.14418e-06
1995 1847 -3.98142e-06
2345 1847 -6.52301e-06
2348 1847 0
1832 1848 -0.0469043
1833 1848 -0.0549451
1840 1848 -3.54576e-05
1841 1848 -3.54567e-05
1842 1848 -0.000225286
1843 1848 -0.000224968
1844 1848 0
1845 1848 0
1846 1848 0
1847 1848 -4.14418e-06
1848 1848 0.102781
1995 1848 -1.62762e-06
2342 1848 -1.97193e-06
2345 1848 0
2346 1848 0
2348 1848 -9.89094e-07
1799 1849 -3.51441e-05
1800 1849 -3.51441e-05
1801 1849 -0.000123908
1802 1849 -0.000123964
1803 1849 0
1804 1849 0
1805 1849 0
1812 1849 -0.000124931
1813 1849 -0.000122943
1814 1849 -7.0289e-05
1815 1849 -7.02876e-05
1816 1849 0
1817 1849 0
1818 1849 0
1819 1849 -4.14418e-06
1820 1849 -9.89094e-07
1822 1849 -0.0406504
1824 1849 -0.0406504
1829 1849 -0.285714
1849 1849 0.368341
1994 1849 -4.85157e-06
1995 1849 -1.62762e-06
2342 1849 -9.89094e-07
2345 1849 0
2346 1849 -8.06926e-06
2348 1849 -9.89094e-07
2349 1849 -9.89094e-07
2371 1849 -9.89094e-07
1850 1850 0.0397924
1853 1850 -9.84798e-10
1896 1850 -1.95621e-05
1851 1851 0.056188
1852 1851 -0.000476014
1896 1851 -0.000126774
1851 1852 -0.000480834
1852 1852 0.0476746
1863 1852 -0.0469043
1896 1852 -0.000126728
1850 1853 -8.70605e-12
1853 1853 0.0549914
1863 1853 -0.0549451
1896 1853 -1.8977e-05
1854 1854 0.0687513
1855 1854 -0.000611157
1863 1854 -6.27148e-05
1854 1855 -0.000609752
1855 1855 0.0536578
1863 1855 -6.27402e-05
1995 1855 -0.0529101
1856 1856 0.0687307
1857 1856 -0.00059049
2350 1856 -6.2714e-05
1856 1857 -0.000589145
1857 1857 0.0536371
1995 1857 -0.0529101
2350 1857 -6.27407e-05
1858 1858 0.203436
1859 1858 -4.26697e-09
2350 1858 -7.03541e-05
1858 1859 -2.21229e-09
1859 1859 0.0874472
1860 1859 -0.087108
2350 1859 -7.03522e-05
1859 1860 -0.087108
1860 1860 0.209076
1861 1860 -0.121951
1863 1860 -1.20569e-05
2350 1860 0
1860 1861 -0.121951
1861 1861 0.122236
1862 1861 -4.83662e-10
1863 1861 -7.03451e-05
2350 1861 0
1861 1862 -1.97043e-12
1862 1862 0.203389
1863 1862 -7.03062e-05
1995 1862 -0.203252
2350 1862 0
1852 1863 -0.0469043
1853 1863 -0.0549451
1854 1863 -6.13814e-05
1855 1863 -6.2556e-05
1860 1863 -1.20569e-05
1861 1863 -7.02887e-05
1862 1863 -7.02879e-05
1863 1863 0.1024
1896 1863 0
1995 1863 -4.58239e-06
2350 1863 -7.90649e-06
1864 1864 0.0509407
1865 1864 -2.13062e-10
2347 1864 -3.51716e-05
1864 1865 -8.62591e-13
1865 1865 0.0407662
1896 1865 -0.0406504
2347 1865 -3.51525e-05
1866 1866 0.0509407
1867 1866 -3.93183e-10
2355 1866 -3.51732e-05
1866 1867 -1.59519e-12
1867 1867 0.0407662
1896 1867 -0.0406504
2355 1867 -3.51531e-05
1868 1868 0.287133
1869 1868 -0.00122083
2355 1868 -0.000124711
1868 1869 -0.00122554
1869 1869 0.11138
1870 1869 -0.10989
2355 1869 -0.00012469
1869 1870 -0.10989
1870 1870 0.26863
1871 1870 -0.15873
2347 1870 -4.98303e-06
2355 1870 0
1870 1871 -0.15873
1871 1871 0.160213
1872 1871 -0.00123973
2347 1871 -0.000124706
2355 1871 0
1871 1872 -0.00124467
1872 1872 0.287146
1896 1872 -0.285714
2347 1872 -0.000124694
2355 1872 0
1873 1873 0.0509407
1874 1873 -4.00131e-10
1897 1873 -3.51733e-05
1873 1874 -1.62351e-12
1874 1874 0.0407662
1897 1874 -3.51531e-05
1994 1874 -0.0406504
1875 1875 0.0509407
1876 1875 -2.13072e-10
2347 1875 -3.51716e-05
1875 1876 -8.62645e-13
1876 1876 0.0407662
1994 1876 -0.0406504
2347 1876 -3.51525e-05
1877 1877 0.287152
1878 1877 -0.00124016
2347 1877 -0.000124707
1877 1878 -0.00124509
1878 1878 0.1114
1879 1878 -0.10989
2347 1878 -0.000124694
1878 1879 -0.10989
1879 1879 0.26863
1880 1879 -0.15873
1897 1879 -4.98303e-06
2347 1879 0
1879 1880 -0.15873
1880 1880 0.160194
1881 1880 -0.00122004
1897 1880 -0.000124702
2347 1880 0
1880 1881 -0.00122509
1881 1881 0.287126
1897 1881 -0.000124698
1994 1881 -0.285714
2347 1881 0
1882 1882 0.0397924
1885 1882 -8.74127e-10
1895 1882 -1.95513e-05
1883 1883 0.0561893
1884 1883 -0.000477285
1895 1883 -0.000126766
1883 1884 -0.000482218
1884 1884 0.047676
1895 1884 -0.000126736
1897 1884 -0.0469043
1882 1885 -7.71151e-12
1885 1885 0.0549913
1895 1885 -1.89728e-05
1897 1885 -0.0549451
1886 1886 0.0687306
1887 1886 -0.000590468
2350 1886 -6.26846e-05
1886 1887 -0.000590962
1887 1887 0.0536391
1895 1887 -0.0529101
2350 1887 -6.27546e-05
1888 1888 0.0687516
1889 1888 -0.00061155
2355 1888 -6.26866e-05
1888 1889 -0.000611984
1889 1889 0.0536602
1895 1889 -0.0529101
2355 1889 -6.2753e-05
1890 1890 0.203436
1891 1890 -1.09696e-09
2355 1890 -7.03465e-05
1890 1891 -5.43869e-10
1891 1891 0.087447
1892 1891 -0.087108
2355 1891 -7.03448e-05
1891 1892 -0.087108
1892 1892 0.209076
1893 1892 -0.121951
2350 1892 -1.20569e-05
2355 1892 0
1892 1893 -0.121951
1893 1893 0.122235
1894 1893 -1.7548e-09
2350 1893 -7.03522e-05
2355 1893 0
1893 1894 -7.18044e-12
1894 1894 0.203389
1895 1894 -0.203252
2350 1894 -7.03085e-05
2355 1894 0
1882 1895 -1.86157e-05
1883 1895 -0.000125606
1884 1895 -0.000125251
1885 1895 -1.86143e-05
1887 1895 -0.0529101
1889 1895 -0.0529101
1894 1895 -0.203252
1895 1895 0.309632
1896 1895 -9.13973e-07
1897 1895 0
2350 1895 -4.58239e-06
2355 1895 0
1850 1896 -1.86158e-05
1851 1896 -0.000125697
1852 1896 -0.00012516
1853 1896 -1.86142e-05
1863 1896 0
1865 1896 -0.0406504
1867 1896 -0.0406504
1872 1896 -0.285714
1895 1896 -9.13973e-07
1896 1896 0.367684
1897 1896 -1.97193e-06
1994 1896 -9.89094e-07
1995 1896 0
2347 1896 -7.08642e-06
2350 1896 -9.89094e-07
2352 1896 -9.89094e-07
2355 1896 0
1873 1897 -3.51445e-05
1874 1897 -3.51438e-05
1879 1897 -4.98303e-06
1880 1897 -0.000124005
1881 1897 -0.000123867
1884 1897 -0.0469043
1885 1897 -0.0549451
1895 1897 0
1896 1897 -1.97193e-06
1897 1897 0.102471
1994 1897 -6.09733e-06
1995 1897 0
2347 1897 -3.86248e-06
2350 1897 0
2352 1897 -7.0426e-06
2355 1897 0
2371 1897 -1.97193e-06
1898 1898 0.051466
1899 1898 -0.000427381
2342 1898 -0.000113889
1898 1899 -0.000431949
1899 1899 0.0413445
1921 1899 -0.0406504
2342 1899 -0.000113884
1900 1900 0.0509407
1901 1900 -6.00286e-10
1993 1900 -3.51731e-05
1900 1901 -5.98225e-10
1901 1901 0.0408239
1921 1901 -0.0406504
1993 1901 -3.51731e-05
1902 1902 0.287128
1903 1902 -0.00122656
1993 1902 -0.0001247
1902 1903 -0.00122144
1903 1903 0.103537
1904 1903 -0.102041
1993 1903 -0.000124701
1903 1904 -0.102041
1904 1904 0.260781
1905 1904 -0.15873
1993 1904 0
2342 1904 -4.98303e-06
1904 1905 -0.15873
1905 1905 0.158867
1906 1905 -1.93958e-09
1993 1905 0
2342 1905 -3.72624e-05
1905 1906 -1.72357e-11
1906 1906 0.285772
1921 1906 -0.285714
1993 1906 0
2342 1906 -3.61462e-05
1907 1907 0.101876
1908 1907 -8.39929e-10
1921 1907 -7.03466e-05
1907 1908 -3.41928e-12
1908 1908 0.0873396
1921 1908 -7.03062e-05
2384 1908 -0.087108
1909 1909 0.144313
1910 1909 -0.0012208
1921 1909 -0.000124701
2384 1909 -0.142857
1909 1910 -0.00122589
1910 1910 0.131343
1920 1910 -0.12987
1921 1910 -0.0001247
2384 1910 0
1911 1911 0.142986
1912 1911 -1.81361e-09
2343 1911 -3.71536e-05
1911 1912 -1.8141e-09
1912 1912 0.102209
1920 1912 -0.102041
2343 1912 -3.71545e-05
1913 1913 0.144309
1914 1913 -0.00122656
1993 1913 -0.0001247
1913 1914 -0.00122143
1914 1914 0.103538
1920 1914 -0.102041
1993 1914 -0.0001247
1915 1915 0.101876
1916 1915 -7.8826e-10
1993 1915 -7.03464e-05
1915 1916 -3.16638e-12
1916 1916 0.0873482
1917 1916 -0.087108
1993 1916 -7.03084e-05
1916 1917 -0.087108
1917 1917 0.188765
1918 1917 -0.101626
1993 1917 0
2343 1917 -2.06959e-05
1917 1918 -0.101626
1918 1918 0.101808
1919 1918 -1.84662e-08
1993 1918 0
2343 1918 -7.03616e-05
1918 1919 -7.81995e-11
1919 1919 0.101802
1993 1919 0
2343 1919 -7.03533e-05
2384 1919 -0.101626
1910 1920 -0.12987
1912 1920 -0.102041
1914 1920 -0.102041
1920 1920 0.333991
1921 1920 -6.52301e-06
1993 1920 -4.14418e-06
2343 1920 -3.98142e-06
2384 1920 0
1899 1921 -0.0406504
1901 1921 -0.0406504
1906 1921 -0.285714
1907 1921 -7.0289e-05
1908 1921 -7.02876e-05
1909 1921 -0.000123954
1910 1921 -0.000123918
1920 1921 -6.52301e-06
1921 1921 0.367891
1993 1921 -1.97193e-06
2342 1921 -7.08642e-06
2343 1921 0
2346 1921 -1.97193e-06
2384 1921 -1.78287e-05
2390 1921 -1.97193e-06
2391 1921 -9.89094e-07
1922 1922 0.286657
1923 1922 -0.000755268
1922 1923 -0.00077698
1923 1923 0.110945
1924 1923 -0.10989
1923 1924 -0.10989
1924 1924 0.26863
1925 1924 -0.15873
1924 1925 -0.15873
1925 1925 0.158869
1930 1925 -5.41567e-09
1926 1926 0.05146
1929 1926 -0.000431037
1927 1927 0.0511491
1928 1927 -0.000119667
1927 1928 -0.000129646
1928 1928 0.0410501
2340 1928 -0.0406504
1926 1929 -0.000437987
1929 1929 0.041359
2340 1929 -0.0406504
1925 1930 -3.19158e-11
1930 1930 0.285772
2340 1930 -0.285714
1931 1931 0.0509407
1932 1931 -3.4103e-10
2340 1931 -3.51715e-05
1931 1932 -3.53861e-10
1932 1932 0.0408227
1993 1932 -0.0406504
2340 1932 -3.52865e-05
1933 1933 0.0514618
1934 1933 -0.000432402
2341 1933 -0.000113872
1933 1934 -0.000428184
1934 1934 0.0413487
1993 1934 -0.0406504
2341 1934 -0.000113894
1935 1935 0.285805
1936 1935 -1.7297e-09
2341 1935 -3.72423e-05
1935 1936 -1.63043e-11
1936 1936 0.109983
1937 1936 -0.10989
2341 1936 -3.61901e-05
1936 1937 -0.10989
1937 1937 0.26863
1938 1937 -0.15873
2340 1937 -4.98303e-06
2341 1937 0
1937 1938 -0.15873
1938 1938 0.158813
1939 1938 -3.18416e-08
2340 1938 -3.81118e-05
2341 1938 0
1938 1939 -7.28115e-10
1939 1939 0.285772
1993 1939 -0.285714
2340 1939 -3.79271e-05
2341 1939 0
1940 1940 0.0514658
1941 1940 -0.000427202
1994 1940 -0.000113894
1940 1941 -0.000431708
1941 1941 0.0413456
1992 1941 -0.0406504
1994 1941 -0.00011388
1942 1942 0.0514666
1943 1942 -0.000427961
2345 1942 -0.000113894
1942 1943 -0.000432472
1943 1943 0.0413464
1992 1943 -0.0406504
2345 1943 -0.00011388
1944 1944 0.285805
1945 1944 -1.44257e-09
2345 1944 -3.71483e-05
1944 1945 -6.99969e-10
1945 1945 0.102208
1946 1945 -0.102041
2345 1945 -3.71071e-05
1945 1946 -0.102041
1946 1946 0.260781
1947 1946 -0.15873
1994 1946 -4.98303e-06
2345 1946 0
1946 1947 -0.15873
1947 1947 0.158864
1948 1947 -1.07106e-09
1994 1947 -3.72214e-05
2345 1947 0
1947 1948 -9.65226e-12
1948 1948 0.285772
1992 1948 -0.285714
1994 1948 -3.61481e-05
2345 1948 0
1949 1949 0.0404857
1952 1949 -0.000642116
1991 1949 -6.58292e-05
1950 1950 0.0556031
1951 1950 -4.48878e-10
1991 1950 -3.91931e-05
1950 1951 -1.82254e-12
1951 1951 0.0436865
1991 1951 -3.91706e-05
2391 1951 -0.043554
1949 1952 -0.000639542
1952 1952 0.0536969
1991 1952 -6.58316e-05
2391 1952 -0.0529101
1953 1953 0.287127
1954 1953 -0.00122554
2348 1953 -0.000124699
1953 1954 -0.00122049
1954 1954 0.111386
1955 1954 -0.10989
2348 1954 -0.000124701
1954 1955 -0.10989
1955 1955 0.228947
1957 1955 -0.119048
1991 1955 -1.00161e-06
2348 1955 -3.00484e-06
1956 1956 0.285772
1957 1956 -1.66562e-11
1991 1956 -0.285714
2349 1956 -3.61439e-05
1955 1957 -0.119048
1956 1957 -1.87791e-09
1957 1957 0.119203
1991 1957 0
2348 1957 0
2349 1957 -3.72622e-05
1958 1958 0.101892
1959 1958 -1.3202e-09
2348 1958 -7.03466e-05
1958 1959 -1.30442e-09
1959 1959 0.0874507
1966 1959 -0.087108
2348 1959 -7.03465e-05
1960 1960 0.102943
1961 1960 -0.000856565
2349 1960 -0.000226465
1960 1961 -0.000865608
1961 1961 0.0884922
1966 1961 -0.087108
2349 1961 -0.000226434
1962 1962 0.119203
1963 1962 -1.904e-09
1990 1962 -3.72573e-05
1962 1963 -1.69236e-11
1963 1963 0.109978
1990 1963 -3.6145e-05
1991 1963 -0.10989
1964 1964 0.102934
1965 1964 -0.000865283
1990 1964 -0.000226448
1991 1964 -0.101626
1964 1965 -0.00085607
1965 1965 0.153754
1966 1965 -0.152439
1990 1965 -0.000226452
1991 1965 0
1959 1966 -0.087108
1961 1966 -0.087108
1965 1966 -0.152439
1966 1966 0.326711
1990 1966 -1.96379e-05
1991 1966 0
2348 1966 -3.98142e-06
2349 1966 -5.97213e-06
1967 1967 0.287127
1968 1967 -0.00122569
1992 1967 -0.000124683
1967 1968 -0.00122169
1968 1968 0.103538
1969 1968 -0.102041
1992 1968 -0.000124713
1968 1969 -0.102041
1969 1969 0.221097
1971 1969 -0.119048
1990 1969 -1.00161e-06
1992 1969 -3.00484e-06
1970 1970 0.287141
1971 1970 -0.00122957
1990 1970 -0.285714
2346 1970 -0.0001247
1969 1971 -0.119048
1970 1971 -0.00123428
1971 1971 0.120534
1990 1971 0
1992 1971 0
2346 1971 -0.000124694
1972 1972 0.101892
1973 1972 -8.08265e-10
1992 1972 -7.03466e-05
1972 1973 -3.24533e-12
1973 1973 0.0873487
1989 1973 -0.087108
1992 1973 -7.03086e-05
1974 1974 0.285805
1975 1974 -1.33645e-09
1974 1975 -1.81647e-11
1975 1975 0.102155
1976 1975 -0.102041
1975 1976 -0.102041
1976 1976 0.260781
1977 1976 -0.15873
1976 1977 -0.15873
1977 1977 0.159161
1982 1977 -0.000203563
1978 1978 0.0511526
1981 1978 -0.000121229
1979 1979 0.0514608
1980 1979 -0.000431563
1979 1980 -0.000431614
1980 1980 0.0413549
2346 1980 -0.0406504
1978 1981 -0.000124516
1981 1981 0.0410456
2346 1981 -0.0406504
1977 1982 -6.0484e-06
1982 1982 0.285777
2346 1982 -0.285714
1983 1983 0.101892
1984 1983 -6.38067e-10
2346 1983 -7.03452e-05
1983 1984 -2.55986e-12
1984 1984 0.0873487
1989 1984 -0.087108
2346 1984 -7.03081e-05
1985 1985 0.119203
1986 1985 -1.78996e-09
2349 1985 -3.71512e-05
1985 1986 -1.88049e-09
1986 1986 0.102209
1990 1986 -0.102041
2349 1986 -3.7317e-05
1987 1987 0.101812
1988 1987 -1.22486e-10
1990 1987 -0.101626
2349 1987 -7.03533e-05
1987 1988 -2.8917e-08
1988 1988 0.152631
1989 1988 -0.152439
1990 1988 0
2349 1988 -7.0362e-05
1973 1989 -0.087108
1984 1989 -0.087108
1988 1989 -0.152439
1989 1989 0.326711
1990 1989 0
1992 1989 -3.98142e-06
2346 1989 -5.97213e-06
2349 1989 -1.96379e-05
1962 1990 -3.54588e-05
1963 1990 -3.54555e-05
1964 1990 -0.000225104
1965 1990 -0.000225149
1966 1990 -1.96379e-05
1969 1990 -1.00161e-06
1970 1990 -0.285714
1971 1990 0
1986 1990 -0.102041
1987 1990 -0.101626
1988 1990 0
1989 1990 0
1990 1990 0.490229
1991 1990 -2.21607e-06
1992 1990 -3.19891e-06
1993 1990 -9.89094e-07
2346 1990 -4.21304e-06
2348 1990 0
2349 1990 -2.21607e-06
1949 1991 -6.50115e-05
1950 1991 -3.9161e-05
1951 1991 -3.91603e-05
1952 1991 -6.51214e-05
1955 1991 -1.00161e-06
1956 1991 -0.285714
1957 1991 0
1963 1991 -0.10989
1964 1991 -0.101626
1965 1991 0
1966 1991 0
1990 1991 -2.21607e-06
1991 1991 0.497897
1992 1991 -9.89094e-07
1993 1991 -9.89094e-07
2342 1991 -9.89094e-07
2346 1991 -9.89094e-07
2348 1991 -2.21607e-06
2349 1991 -4.21304e-06
2391 1991 0
1941 1992 -0.0406504
1943 1992 -0.0406504
1948 1992 -0.285714
1967 1992 -0.000123353
1968 1992 -0.00012452
1969 1992 -3.00484e-06
1971 1992 0
1972 1992 -7.0289e-05
1973 1992 -7.02876e-05
1989 1992 -3.98142e-06
1990 1992 -3.19891e-06
1991 1992 -9.89094e-07
1992 1992 0.367892
1993 1992 -2.96102e-06
1994 1992 -6.09733e-06
1995 1992 -9.89094e-07
2342 1992 -9.89094e-07
2345 1992 0
2346 1992 -9.89094e-07
2348 1992 -9.89094e-07
2349 1992 -9.89094e-07
2391 1992 0
1900 1993 -3.51441e-05
1901 1993 -3.51441e-05
1902 1993 -0.000123925
1903 1993 -0.000123947
1904 1993 0
1905 1993 0
1906 1993 0
1913 1993 -0.000123932
1914 1993 -0.00012394
1915 1993 -7.02889e-05
1916 1993 -7.02877e-05
1917 1993 0
1918 1993 0
1919 1993 0
1920 1993 -4.14418e-06
1921 1993 -1.97193e-06
1932 1993 -0.0406504
1934 1993 -0.0406504
1939 1993 -0.285714
1990 1993 -9.89094e-07
1991 1993 -9.89094e-07
1992 1993 -2.96102e-06
1993 1993 0.368721
1994 1993 0
1995 1993 -2.94224e-06
2340 1993 -6.09733e-06
2341 1993 0
2342 1993 -5.76554e-06
2343 1993 -1.62762e-06
2345 1993 -9.89094e-07
2346 1993 -9.89094e-07
2348 1993 -9.89094e-07
2349 1993 -9.89094e-07
2384 1993 -9.89094e-07
2390 1993 -1.97193e-06
2391 1993 -9.89094e-07
1797 1994 -0.000112558
1798 1994 -0.000112569
1803 1994 -4.98303e-06
1804 1994 -3.54588e-05
1805 1994 -3.54555e-05
1820 1994 -7.08642e-06
1849 1994 -4.85157e-06
1874 1994 -0.0406504
1876 1994 -0.0406504
1881 1994 -0.285714
1896 1994 -9.89094e-07
1897 1994 -6.09733e-06
1940 1994 -0.000112642
1941 1994 -0.000112485
1946 1994 -4.98303e-06
1947 1994 -3.54581e-05
1948 1994 -3.54562e-05
1992 1994 -6.09733e-06
1993 1994 0
1994 1994 0.368218
1995 1994 -9.89094e-07
2340 1994 0
2341 1994 0
2342 1994 -9.89094e-07
2343 1994 -9.89094e-07
2345 1994 -2.87964e-06
2346 1994 -9.89094e-07
2347 1994 0
2348 1994 -9.89094e-07
2349 1994 -9.89094e-07
2350 1994 0
2352 1994 -9.89094e-07
2355 1994 0
2371 1994 -9.89094e-07
2384 1994 0
2390 1994 0
2391 1994 0
1810 1995 -3.54572e-05
1811 1995 -3.54571e-05
1816 1995 -2.06959e-05
1817 1995 -7.0305e-05
1818 1995 -7.02716e-05
1819 1995 -3.98142e-06
1820 1995 0
1838 1995 -3.54576e-05
1839 1995 -3.54567e-05
1844 1995 -2.06959e-05
1845 1995 -0.000225224
1846 1995 -0.000225029
1847 1995 -3.98142e-06
1848 1995 -1.62762e-06
1849 1995 -1.62762e-06
1855 1995 -0.0529101
1857 1995 -0.0529101
1862 1995 -0.203252
1863 1995 -4.58239e-06
1896 1995 0
1897 1995 0
1992 1995 -9.89094e-07
1993 1995 -2.94224e-06
1994 1995 -9.89094e-07
1995 1995 0.310435
2340 1995 0
2341 1995 0
2342 1995 -9.89094e-07
2343 1995 -9.89094e-07
2345 1995 0
2346 1995 -1.97193e-06
2347 1995 0
2348 1995 -1.26454e-06
2349 1995 -9.89094e-07
2350 1995 0
2352 1995 0
2355 1995 0
2371 1995 0
2384 1995 0
2390 1995 0
2391 1995 0
1996 1996 0.0509407
1997 1996 -2.97776e-10
2365 1996 -3.51724e-05
1996 1997 -1.20709e-12
1997 1997 0.0407682
2052 1997 -0.0406504
2365 1997 -3.51528e-05
1998 1998 0.0509407
1999 1998 -3.78808e-10
2367 1998 -3.51731e-05
1998 1999 -1.53682e-12
1999 1999 0.0407682
2052 1999 -0.0406504
2367 1999 -3.5153e-05
2000 2000 0.287129
2001 2000 -0.00122715
2367 2000 -0.000124679
2000 2001 -0.00122342
2001 2001 0.103543
2002 2001 -0.102041
2367 2001 -0.000124716
2001 2002 -0.102041
2002 2002 0.260781
2003 2002 -0.15873
2365 2002 -4.98303e-06
2367 2002 0
2002 2003 -0.15873
2003 2003 0.1602
2004 2003 -0.00123617
2365 2003 -0.000124691
2367 2003 0
2003 2004 -0.00123172
2004 2004 0.287143
2052 2004 -0.285714
2365 2004 -0.000124701
2367 2004 0
2005 2005 0.0687528
2006 2005 -0.000612647
2364 2005 -6.26973e-05
2005 2006 -0.000612386
2006 2006 0.0517725
2037 2006 -0.0510204
2364 2006 -6.27479e-05
2007 2007 0.0687523
2008 2007 -0.000612151
2367 2007 -6.26974e-05
2007 2008 -0.000611885
2008 2008 0.051772
2037 2008 -0.0510204
2367 2008 -6.27481e-05
2009 2009 0.203436
2010 2009 -1.18244e-09
2367 2009 -7.03463e-05
2009 2010 -8.00359e-10
2010 2010 0.0765668
2011 2010 -0.0762195
2367 2010 -7.03452e-05
2010 2011 -0.0762195
2011 2011 0.198188
2012 2011 -0.121951
2364 2011 -1.20569e-05
2367 2011 0
2011 2012 -0.121951
2012 2012 0.122237
2013 2012 -5.38195e-10
2364 2012 -7.03451e-05
2367 2012 0
2012 2013 -2.19161e-12
2013 2013 0.203389
2037 2013 -0.203252
2364 2013 -7.03061e-05
2367 2013 0
2014 2014 0.0397924
2017 2014 -8.95048e-10
2037 2014 -1.95534e-05
2015 2015 0.056189
2016 2015 -0.00047705
2037 2015 -0.000126763
2015 2016 -0.000482033
2016 2016 0.0443295
2036 2016 -0.043554
2037 2016 -0.00012674
2014 2017 -7.89889e-12
2017 2017 0.0529567
2036 2017 -0.0529101
2037 2017 -1.89736e-05
2018 2018 0.0509407
2019 2018 -3.98431e-10
2036 2018 -3.51733e-05
2018 2019 -1.61663e-12
2019 2019 0.0407682
2036 2019 -3.51531e-05
2342 2019 -0.0406504
2020 2020 0.285805
2021 2020 -1.33648e-09
2020 2021 -1.81645e-11
2021 2021 0.102155
2022 2021 -0.102041
2021 2022 -0.102041
2022 2022 0.260781
2023 2022 -0.15873
2022 2023 -0.15873
2023 2023 0.159161
2028 2023 -0.000203581
2024 2024 0.0511521
2027 2024 -0.000120994
2025 2025 0.0514607
2026 2025 -0.000431486
2025 2026 -0.000432563
2026 2026 0.0413559
2365 2026 -0.0406504
2024 2027 -0.000125275
2027 2027 0.0410467
2365 2027 -0.0406504
2023 2028 -6.04475e-06
2028 2028 0.285777
2365 2028 -0.285714
2029 2029 0.0509407
2030 2029 -2.97737e-10
2365 2029 -3.51724e-05
2029 2030 -1.20688e-12
2030 2030 0.0407682
2342 2030 -0.0406504
2365 2030 -3.51528e-05
2031 2031 0.287136
2032 2031 -0.00123477
2365 2031 -0.000124691
2031 2032 -0.00123025
2032 2032 0.103549
2033 2032 -0.102041
2365 2032 -0.000124707
2032 2033 -0.102041
2033 2033 0.260781
2034 2033 -0.15873
2036 2033 -4.98303e-06
2365 2033 0
2033 2034 -0.15873
2034 2034 0.160195
2035 2034 -0.00122108
2036 2034 -0.0001247
2365 2034 0
2034 2035 -0.00122606
2035 2035 0.287128
2036 2035 -0.000124698
2342 2035 -0.285714
2365 2035 0
2016 2036 -0.043554
2017 2036 -0.0529101
2018 2036 -3.51445e-05
2019 2036 -3.51438e-05
2033 2036 -4.98303e-06
2034 2036 -0.000124009
2035 2036 -0.000123863
2036 2036 0.0970365
2037 2036 0
2342 2036 -6.09733e-06
2345 2036 -4.05028e-06
2365 2036 -2.80452e-06
2006 2037 -0.0510204
2008 2037 -0.0510204
2013 2037 -0.203252
2014 2037 -1.86158e-05
2015 2037 -0.00012556
2016 2037 -0.000125295
2017 2037 -1.86143e-05
2036 2037 0
2037 2037 0.305899
2052 2037 -9.89094e-07
2342 2037 0
2343 2037 -9.89094e-07
2345 2037 -1.97193e-06
2364 2037 -4.58239e-06
2365 2037 0
2367 2037 0
2038 2038 0.0397924
2041 2038 -9.33662e-10
2052 2038 -1.95572e-05
2039 2039 0.0561886
2040 2039 -0.000476577
2052 2039 -0.000126773
2039 2040 -0.000481425
2040 2040 0.0443288
2051 2040 -0.043554
2052 2040 -0.00012673
2038 2041 -8.24648e-12
2041 2041 0.0529567
2051 2041 -0.0529101
2052 2041 -1.89751e-05
2042 2042 0.0687513
2043 2042 -0.000611191
2051 2042 -6.2719e-05
2042 2043 -0.000609514
2043 2043 0.0536575
2051 2043 -6.27384e-05
2343 2043 -0.0529101
2044 2044 0.0687528
2045 2044 -0.000612663
2364 2044 -6.2719e-05
2044 2045 -0.000610989
2045 2045 0.053659
2343 2045 -0.0529101
2364 2045 -6.27382e-05
2046 2046 0.203436
2047 2046 -1.14267e-09
2364 2046 -7.03461e-05
2046 2047 -7.63747e-10
2047 2047 0.0874484
2048 2047 -0.087108
2364 2047 -7.0345e-05
2047 2048 -0.087108
2048 2048 0.209076
2049 2048 -0.121951
2051 2048 -1.20569e-05
2364 2048 0
2048 2049 -0.121951
2049 2049 0.122236
2050 2049 -5.84357e-10
2051 2049 -7.03456e-05
2364 2049 0
2049 2050 -2.38013e-12
2050 2050 0.203389
2051 2050 -7.03062e-05
2343 2050 -0.203252
2364 2050 0
2040 2051 -0.043554
2041 2051 -0.0529101
2042 2051 -6.15209e-05
2043 2051 -6.24161e-05
2048 2051 -1.20569e-05
2049 2051 -7.02888e-05
2050 2051 -7.02878e-05
2051 2051 0.0970363
2052 2051 0
2343 2051 -5.56522e-06
2346 2051 -9.89094e-07
2348 2051 -9.89094e-07
2349 2051 -9.89094e-07
2364 2051 -7.98162e-06
2365 2051 -9.89094e-07
1997 2052 -0.0406504
1999 2052 -0.0406504
2004 2052 -0.285714
2037 2052 -9.89094e-07
2038 2052 -1.86158e-05
2039 2052 -0.000125676
2040 2052 -0.00012518
2041 2052 -1.86142e-05
2051 2052 0
2052 2052 0.36767
2339 2052 -1.97193e-06
2341 2052 -1.97193e-06
2342 2052 0
2343 2052 -9.89094e-07
2345 2052 -1.97193e-06
2346 2052 0
2348 2052 0
2349 2052 0
2364 2052 0
2365 2052 -6.09733e-06
2367 2052 -9.89094e-07
2053 2053 0.040487
2056 2053 -0.000643456
2364 2053 -6.57913e-05
2054 2054 0.0556031
2055 2054 -4.14736e-10
2364 2054 -3.91928e-05
2054 2055 -1.68371e-12
2055 2055 0.0436852
2066 2055 -0.043554
2364 2055 -3.91705e-05
2053 2056 -0.000643359
2056 2056 0.0537001
2066 2056 -0.0529101
2364 2056 -6.5849e-05
2057 2057 0.0514625
2058 2057 -0.000433094
2108 2057 -0.000113885
2057 2058 -0.00042853
2058 2058 0.0413482
2108 2058 -0.000113888
2368 2058 -0.0406504
2059 2059 0.0514621
2060 2059 -0.000432697
2066 2059 -0.000113885
2059 2060 -0.000428135
2060 2060 0.0413478
2066 2060 -0.000113888
2368 2060 -0.0406504
2061 2061 0.285805
2062 2061 -1.44783e-09
2066 2061 -3.71461e-05
2061 2062 -7.30499e-10
2062 2062 0.110054
2063 2062 -0.10989
2066 2062 -3.71064e-05
2062 2063 -0.10989
2063 2063 0.26863
2064 2063 -0.15873
2066 2063 0
2108 2063 -4.98303e-06
2063 2064 -0.15873
2064 2064 0.158864
2065 2064 -9.56599e-10
2066 2064 0
2108 2064 -3.71999e-05
2064 2065 -8.59672e-12
2065 2065 0.285772
2066 2065 0
2108 2065 -3.6139e-05
2368 2065 -0.285714
2055 2066 -0.043554
2056 2066 -0.0529101
2059 2066 -0.000112544
2060 2066 -0.000112582
2061 2066 -3.54578e-05
2062 2066 -3.54565e-05
2063 2066 0
2064 2066 0
2065 2066 0
2066 2066 0.0970701
2108 2066 -3.79361e-06
2364 2066 -9.89094e-07
2368 2066 0
2369 2066 -9.89094e-07
2370 2066 -9.89094e-07
2067 2067 0.0404515
2079 2067 -0.000607897
2107 2067 -6.58032e-05
2068 2068 0.0680914
2076 2068 -8.95107e-10
2069 2069 0.0685313
2075 2069 -0.000371769
2070 2070 0.203862
2071 2070 -0.000244882
2070 2071 -0.000247104
2071 2071 0.0770003
2072 2071 -0.0762195
2071 2072 -0.0762195
2072 2072 0.198188
2073 2072 -0.121951
2072 2073 -0.121951
2073 2073 0.123286
2074 2073 -0.000849452
2073 2074 -0.000810352
2074 2074 0.204412
2107 2074 -0.203252
2069 2075 -2.26616e-05
2075 2075 0.0529775
2107 2075 -0.0529101
2068 2076 -8.05653e-12
2076 2076 0.0529553
2107 2076 -0.0529101
2077 2077 0.0556031
2078 2077 -3.54128e-09
2107 2077 -3.91995e-05
2077 2078 -1.44807e-11
2078 2078 0.0436852
2107 2078 -3.91726e-05
2341 2078 -0.043554
2067 2079 -0.000607001
2079 2079 0.0536636
2107 2079 -6.5844e-05
2341 2079 -0.0529101
2080 2080 0.0404932
2083 2080 -0.000644224
2365 2080 -6.58334e-05
2081 2081 0.0556031
2082 2081 -3.35937e-10
2365 2081 -3.91921e-05
2081 2082 -1.36262e-12
2082 2082 0.0436853
2365 2082 -3.91703e-05
2366 2082 -0.043554
2080 2083 -0.000646814
2083 2083 0.0536979
2365 2083 -6.58282e-05
2366 2083 -0.0529101
2084 2084 0.0404884
2087 2084 -0.000639495
2106 2084 -6.58395e-05
2085 2085 0.0556031
2086 2085 -4.46576e-10
2106 2085 -3.9193e-05
2085 2086 -1.8131e-12
2086 2086 0.0436853
2106 2086 -3.91706e-05
2338 2086 -0.043554
2084 2087 -0.000641844
2087 2087 0.0536929
2106 2087 -6.58221e-05
2338 2087 -0.0529101
2088 2088 0.0514671
2089 2088 -0.000428478
2108 2088 -0.000113892
2088 2089 -0.00043302
2089 2089 0.0413469
2106 2089 -0.0406504
2108 2089 -0.000113882
2090 2090 0.0514658
2091 2090 -0.000427244
2366 2090 -0.000113892
2090 2091 -0.000431777
2091 2091 0.0413457
2106 2091 -0.0406504
2366 2091 -0.000113882
2092 2092 0.285805
2093 2092 -1.56926e-09
2366 2092 -3.71615e-05
2092 2093 -7.75494e-10
2093 2093 0.102208
2094 2093 -0.102041
2366 2093 -3.71206e-05
2093 2094 -0.102041
2094 2094 0.260781
2095 2094 -0.15873
2108 2094 -4.98303e-06
2366 2094 0
2094 2095 -0.15873
2095 2095 0.158864
2096 2095 -9.44652e-10
2108 2095 -3.71991e-05
2366 2095 0
2095 2096 -8.49224e-12
2096 2096 0.285772
2106 2096 -0.285714
2108 2096 -3.61391e-05
2366 2096 0
2097 2097 0.0687505
2098 2097 -0.000610423
2337 2097 -6.26748e-05
2097 2098 -0.000611615
2098 2098 0.0517718
2108 2098 -0.0510204
2337 2098 -6.27582e-05
2099 2099 0.0687189
2100 2099 -0.000578745
2107 2099 -6.26712e-05
2099 2100 -0.000580021
2100 2100 0.0517402
2107 2100 -6.27616e-05
2108 2100 -0.0510204
2101 2101 0.203436
2102 2101 -8.36054e-09
2107 2101 -7.03581e-05
2101 2102 -3.61526e-09
2102 2102 0.0765649
2103 2102 -0.0762195
2107 2102 -7.03558e-05
2102 2103 -0.0762195
2103 2103 0.198188
2104 2103 -0.121951
2107 2103 0
2337 2103 -1.20569e-05
2103 2104 -0.121951
2104 2104 0.122235
2105 2104 -4.56794e-10
2107 2104 0
2337 2104 -7.0345e-05
2104 2105 -1.86172e-12
2105 2105 0.203389
2107 2105 0
2108 2105 -0.203252
2337 2105 -7.03063e-05
2084 2106 -6.53576e-05
2085 2106 -3.9161e-05
2086 2106 -3.91603e-05
2087 2106 -6.47759e-05
2089 2106 -0.0406504
2091 2106 -0.0406504
2096 2106 -0.285714
2106 2106 0.367598
2107 2106 -9.89094e-07
2108 2106 -6.09733e-06
2337 2106 -9.89094e-07
2338 2106 0
2340 2106 -1.97193e-06
2364 2106 -9.89094e-07
2365 2106 -1.97193e-06
2366 2106 0
2067 2107 -6.41957e-05
2074 2107 -0.203252
2075 2107 -0.0529101
2076 2107 -0.0529101
2077 2107 -3.91635e-05
2078 2107 -3.91577e-05
2079 2107 -6.59392e-05
2099 2107 -6.00381e-05
2100 2107 -6.39026e-05
2101 2107 -7.02922e-05
2102 2107 -7.02844e-05
2103 2107 0
2104 2107 0
2105 2107 0
2106 2107 -9.89094e-07
2107 2107 0.31013
2108 2107 0
2337 2107 -9.95354e-06
2338 2107 -9.89094e-07
2340 2107 -1.97193e-06
2341 2107 0
2362 2107 -1.97193e-06
2363 2107 -1.97193e-06
2364 2107 0
2365 2107 -1.97193e-06
2366 2107 0
2057 2108 -0.000112544
2058 2108 -0.000112582
2063 2108 -4.98303e-06
2064 2108 -3.5458e-05
2065 2108 -3.54563e-05
2066 2108 -3.79361e-06
2088 2108 -0.000112619
2089 2108 -0.000112508
2094 2108 -4.98303e-06
2095 2108 -3.54579e-05
2096 2108 -3.54564e-05
2098 2108 -0.0510204
2100 2108 -0.0510204
2105 2108 -0.203252
2106 2108 -6.09733e-06
2107 2108 0
2108 2108 0.306412
2337 2108 -4.58239e-06
2338 2108 0
2340 2108 0
2341 2108 0
2362 2108 0
2363 2108 0
2364 2108 -9.89094e-07
2365 2108 0
2366 2108 -2.87964e-06
2367 2108 -1.97193e-06
2368 2108 -6.09733e-06
2369 2108 -1.97193e-06
2370 2108 -9.89094e-07
2109 2109 0.0687543
2110 2109 -0.000609052
2368 2109 -6.2734e-05
2109 2110 -0.000611542
2110 2110 0.0536544
2344 2110 -0.0529101
2368 2110 -6.27308e-05
2111 2111 0.0687549
2112 2111 -0.000609619
2367 2111 -6.2734e-05
2111 2112 -0.000612111
2112 2112 0.0536549
2344 2112 -0.0529101
2367 2112 -6.27308e-05
2113 2113 0.203436
2114 2113 -1.17783e-09
2367 2113 -7.03463e-05
2113 2114 -7.871e-10
2114 2114 0.0874484
2115 2114 -0.087108
2367 2114 -7.03452e-05
2114 2115 -0.087108
2115 2115 0.209076
2116 2115 -0.121951
2367 2115 0
2368 2115 -1.20569e-05
2115 2116 -0.121951
2116 2116 0.122236
2117 2116 -5.69027e-10
2367 2116 0
2368 2116 -7.03454e-05
2116 2117 -2.31737e-12
2117 2117 0.203389
2344 2117 -0.203252
2367 2117 0
2368 2117 -7.03062e-05
2118 2118 0.0404897
2121 2118 -0.000646139
2336 2118 -6.58061e-05
2119 2119 0.0556031
2120 2119 -3.52179e-10
2336 2119 -3.91923e-05
2119 2120 -1.42887e-12
2120 2120 0.0470338
2140 2120 -0.0469043
2336 2120 -3.91703e-05
2118 2121 -0.000645075
2121 2121 0.0579336
2140 2121 -0.0571429
2336 2121 -6.58423e-05
2122 2122 0.0680914
2123 2122 -8.32276e-10
2140 2122 -1.8573e-05
2122 2123 -8.86249e-10
2123 2123 0.0529949
2140 2123 -1.8678e-05
2204 2123 -0.0529101
2124 2124 0.0687506
2125 2124 -0.000610455
2337 2124 -6.27173e-05
2124 2125 -0.00060889
2125 2125 0.0536577
2204 2125 -0.0529101
2337 2125 -6.27389e-05
2126 2126 0.0685347
2134 2126 -0.000375255
2127 2127 0.0680914
2133 2127 -9.14298e-10
2128 2128 0.204473
2129 2128 -0.000862486
2128 2129 -0.000885296
2129 2129 0.0776458
2130 2129 -0.0762195
2129 2130 -0.0762195
2130 2130 0.198188
2131 2130 -0.121951
2130 2131 -0.121951
2131 2131 0.122701
2132 2131 -0.000266207
2131 2132 -0.000236178
2132 2132 0.203844
2337 2132 -0.203252
2127 2133 -8.07825e-12
2133 2133 0.0529548
2337 2133 -0.0529101
2126 2134 -2.24044e-05
2134 2134 0.0529768
2337 2134 -0.0529101
2135 2135 0.203436
2136 2135 -8.62898e-10
2337 2135 -7.0347e-05
2135 2136 -3.46737e-12
2136 2136 0.0764607
2137 2136 -0.0762195
2337 2136 -7.03086e-05
2136 2137 -0.0762195
2137 2137 0.198188
2138 2137 -0.121951
2140 2137 -1.20569e-05
2337 2137 0
2137 2138 -0.121951
2138 2138 0.122157
2139 2138 -1.85509e-08
2140 2138 -7.03616e-05
2337 2138 0
2138 2139 -7.85594e-11
2139 2139 0.203389
2140 2139 -7.03533e-05
2204 2139 -0.203252
2337 2139 0
2120 2140 -0.0469043
2121 2140 -0.0571429
2122 2140 -1.77285e-05
2123 2140 -1.77286e-05
2137 2140 -1.20569e-05
2138 2140 -7.0305e-05
2139 2140 -7.02715e-05
2140 2140 0.104501
2204 2140 -4.58239e-06
2336 2140 0
2337 2140 -8.96445e-06
2340 2140 -1.97193e-06
2141 2141 0.051466
2142 2141 -0.000427374
2342 2141 -0.000113891
2141 2142 -0.000431913
2142 2142 0.0413432
2203 2142 -0.0406504
2342 2142 -0.000113882
2143 2143 0.0514664
2144 2143 -0.000427816
2341 2143 -0.000113891
2143 2144 -0.000432358
2144 2144 0.0413437
2203 2144 -0.0406504
2341 2144 -0.000113882
2145 2145 0.285805
2146 2145 -1.46659e-09
2341 2145 -3.71511e-05
2145 2146 -7.1236e-10
2146 2146 0.110056
2147 2146 -0.10989
2341 2146 -3.71098e-05
2146 2147 -0.10989
2147 2147 0.26863
2148 2147 -0.15873
2341 2147 0
2342 2147 -4.98303e-06
2147 2148 -0.15873
2148 2148 0.158864
2149 2148 -1.05291e-09
2341 2148 0
2342 2148 -3.72185e-05
2148 2149 -9.48557e-12
2149 2149 0.285772
2203 2149 -0.285714
2341 2149 0
2342 2149 -3.6147e-05
2150 2150 0.0404884
2153 2150 -0.000639492
2202 2150 -6.58504e-05
2151 2151 0.0556031
2152 2151 -4.45821e-10
2202 2151 -3.9193e-05
2151 2152 -1.80995e-12
2152 2152 0.0470339
2202 2152 -3.91706e-05
2369 2152 -0.0469043
2150 2153 -0.000641424
2153 2153 0.0579242
2202 2153 -6.58112e-05
2369 2153 -0.0571429
2154 2154 0.102928
2155 2154 -0.000856775
2341 2154 -0.000226473
2154 2155 -0.000865719
2155 2155 0.0776055
2339 2155 -0.0762195
2341 2155 -0.000226427
2156 2156 0.142928
2157 2156 -1.15227e-11
2339 2156 -0.142857
2341 2156 -3.61436e-05
2156 2157 -1.28678e-09
2157 2157 0.130019
2167 2157 -0.12987
2339 2157 0
2341 2157 -3.72271e-05
2158 2158 0.142986
2159 2158 -1.71319e-09
2343 2158 -3.71548e-05
2158 2159 -1.17439e-09
2159 2159 0.110057
2167 2159 -0.10989
2343 2159 -3.71299e-05
2160 2160 0.142986
2161 2160 -1.77438e-09
2201 2160 -3.71608e-05
2160 2161 -1.21638e-09
2161 2161 0.110057
2167 2161 -0.10989
2201 2161 -3.71358e-05
2162 2162 0.102927
2163 2162 -0.000855658
2201 2162 -0.000226462
2162 2163 -0.000864734
2163 2163 0.0776046
2164 2163 -0.0762195
2201 2163 -0.000226437
2163 2164 -0.0762195
2164 2164 0.177876
2165 2164 -0.101626
2201 2164 0
2343 2164 -2.06959e-05
2164 2165 -0.101626
2165 2165 0.102927
2166 2165 -0.00085615
2201 2165 0
2343 2165 -0.00022646
2165 2166 -0.000865251
2166 2166 0.102918
2201 2166 0
2339 2166 -0.101626
2343 2166 -0.000226439
2157 2167 -0.12987
2159 2167 -0.10989
2161 2167 -0.10989
2167 2167 0.349689
2201 2167 -4.14418e-06
2339 2167 0
2341 2167 -6.52301e-06
2343 2167 -3.98142e-06
2168 2168 0.287127
2169 2168 -0.00122551
2339 2168 -0.000124699
2168 2169 -0.00122046
2169 2169 0.111387
2170 2169 -0.10989
2339 2169 -0.000124701
2169 2170 -0.10989
2170 2170 0.228947
2172 2170 -0.119048
2202 2170 -1.00161e-06
2339 2170 -3.00484e-06
2171 2171 0.285772
2172 2171 -1.68286e-11
2202 2171 -0.285714
2204 2171 -3.61445e-05
2170 2172 -0.119048
2171 2172 -1.89696e-09
2172 2172 0.119203
2202 2172 0
2204 2172 -3.72636e-05
2339 2172 0
2173 2173 0.101892
2174 2173 -1.32109e-09
2339 2173 -7.03466e-05
2173 2174 -1.31284e-09
2174 2174 0.076564
2181 2174 -0.0762195
2339 2174 -7.03466e-05
2175 2175 0.102943
2176 2175 -0.000856397
2204 2175 -0.000226458
2175 2176 -0.000865538
2176 2176 0.0776054
2181 2176 -0.0762195
2204 2176 -0.000226442
2177 2177 0.119203
2178 2177 -1.97406e-09
2200 2177 -3.72636e-05
2177 2178 -1.75559e-11
2178 2178 0.10998
2200 2178 -3.61474e-05
2202 2178 -0.10989
2179 2179 0.102942
2180 2179 -0.000855518
2200 2179 -0.000226451
2202 2179 -0.101626
2179 2180 -0.00086474
2180 2180 0.153745
2181 2180 -0.152439
2200 2180 -0.000226449
2202 2180 0
2174 2181 -0.0762195
2176 2181 -0.0762195
2180 2181 -0.152439
2181 2181 0.304934
2200 2181 -1.96379e-05
2202 2181 0
2204 2181 -5.97213e-06
2339 2181 -3.98142e-06
2182 2182 0.0404982
2185 2182 -0.000649254
2340 2182 -6.58336e-05
2183 2183 0.0556031
2184 2183 -2.47816e-10
2340 2183 -3.91913e-05
2183 2184 -1.0041e-12
2184 2184 0.0470339
2201 2184 -0.0469043
2340 2184 -3.917e-05
2182 2185 -0.000651851
2185 2185 0.0579348
2201 2185 -0.0571429
2340 2185 -6.5828e-05
2186 2186 0.287132
2187 2186 -0.00122065
2203 2186 -0.000124707
2186 2187 -0.00122552
2187 2187 0.111382
2188 2187 -0.10989
2203 2187 -0.000124694
2187 2188 -0.10989
2188 2188 0.228947
2190 2188 -0.119048
2200 2188 -1.00161e-06
2203 2188 -3.00484e-06
2189 2189 0.287145
2190 2189 -0.00124402
2200 2189 -0.285714
2340 2189 -0.000124698
2188 2190 -0.119048
2189 2190 -0.00123894
2190 2190 0.120549
2200 2190 0
2203 2190 0
2340 2190 -0.000124703
2191 2191 0.101892
2192 2191 -8.05759e-10
2203 2191 -7.03466e-05
2191 2192 -3.23506e-12
2192 2192 0.0764611
2199 2192 -0.0762195
2203 2192 -7.03086e-05
2193 2193 0.101892
2194 2193 -4.46475e-10
2340 2193 -7.03435e-05
2193 2194 -1.78881e-12
2194 2194 0.0764611
2199 2194 -0.0762195
2340 2194 -7.03074e-05
2195 2195 0.119203
2196 2195 -1.80791e-09
2204 2195 -3.71531e-05
2195 2196 -1.78606e-09
2196 2196 0.110059
2200 2196 -0.10989
2204 2196 -3.71522e-05
2197 2197 0.101812
2198 2197 -1.26749e-10
2200 2197 -0.101626
2204 2197 -7.03533e-05
2197 2198 -2.99232e-08
2198 2198 0.152631
2199 2198 -0.152439
2200 2198 0
2204 2198 -7.0362e-05
2192 2199 -0.0762195
2194 2199 -0.0762195
2198 2199 -0.152439
2199 2199 0.304934
2200 2199 0
2203 2199 -3.98142e-06
2204 2199 -1.96379e-05
2340 2199 -5.97213e-06
2177 2200 -3.54588e-05
2178 2200 -3.54555e-05
2179 2200 -0.000225141
2180 2200 -0.000225112
2181 2200 -1.96379e-05
2188 2200 -1.00161e-06
2189 2200 -0.285714
2190 2200 0
2196 2200 -0.10989
2197 2200 -0.101626
2198 2200 0
2199 2200 0
2200 2200 0.498101
2201 2200 -1.97193e-06
2202 2200 -3.19891e-06
2203 2200 -3.19891e-06
2204 2200 -7.98162e-06
2339 2200 0
2340 2200 -6.18497e-06
2160 2201 -3.54576e-05
2161 2201 -3.54567e-05
2162 2201 -0.000225274
2163 2201 -0.000224979
2164 2201 0
2165 2201 0
2166 2201 0
2167 2201 -4.14418e-06
2184 2201 -0.0469043
2185 2201 -0.0571429
2200 2201 -1.97193e-06
2201 2201 0.104978
2202 2201 -2.27241e-06
2203 2201 -1.97193e-06
2204 2201 -1.97193e-06
2339 2201 -1.97193e-06
2340 2201 -1.97193e-06
2341 2201 -1.97193e-06
2343 2201 -6.44789e-07
2150 2202 -6.57224e-05
2151 2202 -3.9161e-05
2152 2202 -3.91603e-05
2153 2202 -6.4412e-05
2170 2202 -1.00161e-06
2171 2202 -0.285714
2172 2202 0
2178 2202 -0.10989
2179 2202 -0.101626
2180 2202 0
2181 2202 0
2200 2202 -3.19891e-06
2201 2202 -2.27241e-06
2202 2202 0.497827
2203 2202 -2.5729e-06
2204 2202 -5.19588e-06
2339 2202 -2.21607e-06
2340 2202 -1.97193e-06
2341 2202 -9.89094e-07
2343 2202 0
2369 2202 0
2142 2203 -0.0406504
2144 2203 -0.0406504
2149 2203 -0.285714
2186 2203 -0.000124169
2187 2203 -0.000123704
2188 2203 -3.00484e-06
2190 2203 0
2191 2203 -7.02889e-05
2192 2203 -7.02876e-05
2199 2203 -3.98142e-06
2200 2203 -3.19891e-06
2201 2203 -1.97193e-06
2202 2203 -2.5729e-06
2203 2203 0.36778
2204 2203 -9.89094e-07
2339 2203 0
2340 2203 -1.97193e-06
2341 2203 -9.89094e-07
2342 2203 -6.09733e-06
2343 2203 0
2369 2203 0
2123 2204 -0.0529101
2125 2204 -0.0529101
2139 2204 -0.203252
2140 2204 -4.58239e-06
2171 2204 -3.54556e-05
2172 2204 -3.54588e-05
2175 2204 -0.000225222
2176 2204 -0.000225032
2181 2204 -5.97213e-06
2195 2204 -3.54572e-05
2196 2204 -3.54571e-05
2197 2204 -7.02613e-05
2198 2204 -7.03153e-05
2199 2204 -1.96379e-05
2200 2204 -7.98162e-06
2201 2204 -1.97193e-06
2202 2204 -5.19588e-06
2203 2204 -9.89094e-07
2204 2204 0.3104
2336 2204 0
2337 2204 0
2339 2204 -9.89094e-07
2340 2204 -2.96102e-06
2341 2204 -1.97193e-06
2342 2204 0
2343 2204 0
2369 2204 0
2205 2205 0.101876
2206 2205 -4.25868e-10
2363 2205 -7.0343e-05
2205 2206 -1.72953e-12
2206 2206 0.0764521
2351 2206 -0.0762195
2363 2206 -7.0305e-05
2207 2207 0.144329
2208 2207 -0.00124661
2351 2207 -0.142857
2363 2207 -0.000124661
2207 2208 -0.00124364
2208 2208 0.131371
2218 2208 -0.12987
2351 2208 0
2363 2208 -0.000124733
2209 2209 0.144308
2210 2209 -0.00122573
2335 2209 -0.000124676
2209 2210 -0.00122222
2210 2210 0.111389
2218 2210 -0.10989
2335 2210 -0.000124718
2211 2211 0.14427
2212 2211 -0.0011872
2362 2211 -0.000124675
2211 2212 -0.0011838
2212 2212 0.11135
2218 2212 -0.10989
2362 2212 -0.000124719
2213 2213 0.101876
2214 2213 -3.85679e-09
2362 2213 -7.03535e-05
2213 2214 -2.03717e-09
2214 2214 0.0765605
2215 2214 -0.0762195
2362 2214 -7.03517e-05
2214 2215 -0.0762195
2215 2215 0.177876
2216 2215 -0.101626
2335 2215 -2.06959e-05
2362 2215 0
2215 2216 -0.101626
2216 2216 0.101874
2217 2216 -4.80136e-10
2335 2216 -7.0345e-05
2362 2216 0
2216 2217 -1.95574e-12
2217 2217 0.101802
2335 2217 -7.03062e-05
2351 2217 -0.101626
2362 2217 0
2208 2218 -0.12987
2210 2218 -0.10989
2212 2218 -0.10989
2218 2218 0.349689
2335 2218 -3.98142e-06
2351 2218 0
2362 2218 -4.14418e-06
2363 2218 -6.52301e-06
2219 2219 0.0509407
2220 2219 -3.94339e-10
2261 2219 -3.51732e-05
2219 2220 -1.6e-12
2220 2220 0.0407667
2246 2220 -0.0406504
2261 2220 -3.51531e-05
2221 2221 0.285805
2222 2221 -1.33651e-09
2221 2222 -1.81643e-11
2222 2222 0.110005
2223 2222 -0.10989
2222 2223 -0.10989
2223 2223 0.26863
2224 2223 -0.15873
2223 2224 -0.15873
2224 2224 0.159161
2229 2224 -0.000203465
2225 2225 0.0511526
2228 2225 -0.000121205
2226 2226 0.0514608
2227 2226 -0.000431556
2226 2227 -0.0004317
2227 2227 0.0413524
2336 2227 -0.0406504
2225 2228 -0.000124586
2228 2228 0.0410431
2336 2228 -0.0406504
2224 2229 -6.04466e-06
2229 2229 0.285777
2336 2229 -0.285714
2230 2230 0.0509407
2231 2230 -3.12045e-10
2336 2230 -3.51725e-05
2230 2231 -1.2651e-12
2231 2231 0.0407667
2246 2231 -0.0406504
2336 2231 -3.51529e-05
2232 2232 0.287135
2233 2232 -0.00123328
2336 2232 -0.000124686
2232 2233 -0.00122911
2233 2233 0.111396
2234 2233 -0.10989
2336 2233 -0.000124711
2233 2234 -0.10989
2234 2234 0.26863
2235 2234 -0.15873
2261 2234 -4.98303e-06
2336 2234 0
2234 2235 -0.15873
2235 2235 0.16019
2236 2235 -0.00122686
2261 2235 -0.000124699
2336 2235 0
2235 2236 -0.00122187
2236 2236 0.287134
2246 2236 -0.285714
2261 2236 -0.000124697
2336 2236 0
2237 2237 0.0680914
2238 2237 -8.98582e-10
2246 2237 -1.86272e-05
2237 2238 -7.9324e-12
2238 2238 0.0529548
2246 2238 -1.80719e-05
2335 2238 -0.0529101
2239 2239 0.0680914
2240 2239 -9.31758e-10
2338 2239 -1.86303e-05
2239 2240 -8.23026e-12
2240 2240 0.0529548
2335 2240 -0.0529101
2338 2240 -1.80731e-05
2241 2241 0.204486
2242 2241 -0.000855451
2338 2241 -0.000226455
2241 2242 -0.000864626
2242 2242 0.0776046
2243 2242 -0.0762195
2338 2242 -0.000226445
2242 2243 -0.0762195
2243 2243 0.198188
2244 2243 -0.121951
2246 2243 -1.20569e-05
2338 2243 0
2243 2244 -0.121951
2244 2244 0.123289
2245 2244 -0.000856058
2246 2244 -0.000226456
2338 2244 0
2244 2245 -0.000865218
2245 2245 0.204477
2246 2245 -0.000226444
2335 2245 -0.203252
2338 2245 0
2220 2246 -0.0406504
2231 2246 -0.0406504
2236 2246 -0.285714
2237 2246 -1.77293e-05
2238 2246 -1.77278e-05
2243 2246 -1.20569e-05
2244 2246 -0.0002252
2245 2246 -0.000225053
2246 2246 0.367881
2261 2246 -6.09733e-06
2335 2246 -4.58239e-06
2336 2246 -1.97193e-06
2337 2246 -9.89094e-07
2338 2246 -7.98162e-06
2340 2246 -9.89094e-07
2247 2247 0.0397924
2250 2247 -9.43581e-10
2260 2247 -1.95582e-05
2248 2248 0.0561885
2249 2248 -0.000476529
2260 2248 -0.000126753
2248 2249 -0.000481631
2249 2249 0.0443291
2260 2249 -0.000126749
2261 2249 -0.043554
2247 2250 -8.33385e-12
2250 2250 0.0529567
2260 2250 -1.89754e-05
2261 2250 -0.0529101
2251 2251 0.0687609
2252 2251 -0.000620778
2340 2251 -6.27215e-05
2251 2252 -0.000618926
2252 2252 0.0536677
2260 2252 -0.0529101
2340 2252 -6.27372e-05
2253 2253 0.0687506
2254 2253 -0.000610458
2337 2253 -6.27212e-05
2253 2254 -0.000608639
2254 2254 0.0536574
2260 2254 -0.0529101
2337 2254 -6.27372e-05
2255 2255 0.203436
2256 2255 -1.34799e-09
2337 2255 -7.03469e-05
2255 2256 -9.83711e-10
2256 2256 0.076562
2257 2256 -0.0762195
2337 2256 -7.0346e-05
2256 2257 -0.0762195
2257 2257 0.198188
2258 2257 -0.121951
2337 2257 0
2340 2257 -1.20569e-05
2257 2258 -0.121951
2258 2258 0.122237
2259 2258 -3.43264e-10
2337 2258 0
2340 2258 -7.03422e-05
2258 2259 -1.3952e-12
2259 2259 0.203389
2260 2259 -0.203252
2337 2259 0
2340 2259 -7.03051e-05
2247 2260 -1.86158e-05
2248 2260 -0.000125452
2249 2260 -0.000125403
2250 2260 -1.86142e-05
2252 2260 -0.0529101
2254 2260 -0.0529101
2259 2260 -0.203252
2260 2260 0.309731
2261 2260 0
2336 2260 -9.89094e-07
2337 2260 0
2339 2260 -9.89094e-07
2340 2260 -4.58239e-06
2341 2260 -9.89094e-07
2345 2260 -9.89094e-07
2353 2260 -9.89094e-07
2365 2260 -9.89094e-07
2369 2260 -9.89094e-07
2219 2261 -3.51445e-05
2220 2261 -3.51438e-05
2234 2261 -4.98303e-06
2235 2261 -0.000123882
2236 2261 -0.00012399
2246 2261 -6.09733e-06
2249 2261 -0.043554
2250 2261 -0.0529101
2260 2261 0
2261 2261 0.0971125
2335 2261 0
2336 2261 -2.87964e-06
2337 2261 0
2338 2261 0
2339 2261 -9.89094e-07
2340 2261 0
2341 2261 -9.89094e-07
2345 2261 -9.89094e-07
2353 2261 -9.89094e-07
2365 2261 -9.89094e-07
2369 2261 -9.89094e-07
2262 2262 0.0404655
2265 2262 -0.000621958
2362 2262 -6.57744e-05
2263 2263 0.0556031
2264 2263 -1.51567e-09
2362 2263 -3.91969e-05
2263 2264 -6.18056e-12
2264 2264 0.0470338
2284 2264 -0.0469043
2362 2264 -3.91718e-05
2262 2265 -0.000622877
2265 2265 0.0579115
2284 2265 -0.0571429
2362 2265 -6.5858e-05
2266 2266 0.286657
2267 2266 -0.000755268
2266 2267 -0.00077698
2267 2267 0.110945
2268 2267 -0.10989
2267 2268 -0.10989
2268 2268 0.26863
2269 2268 -0.15873
2268 2269 -0.15873
2269 2269 0.158869
2274 2269 -5.42043e-09
2270 2270 0.0514598
2273 2270 -0.000430903
2271 2271 0.0511482
2272 2271 -0.000119273
2271 2272 -0.000130929
2272 2272 0.0410518
2363 2272 -0.0406504
2270 2273 -0.000439563
2273 2273 0.0413607
2363 2273 -0.0406504
2269 2274 -3.19195e-11
2274 2274 0.285772
2363 2274 -0.285714
2275 2275 0.0509407
2276 2275 -3.11286e-10
2363 2275 -3.51712e-05
2275 2276 -3.27221e-10
2276 2276 0.0408228
2334 2276 -0.0406504
2363 2276 -3.53274e-05
2277 2277 0.0514623
2278 2277 -0.000432957
2284 2277 -0.000113867
2277 2278 -0.000428869
2278 2278 0.0413494
2284 2278 -0.000113896
2334 2278 -0.0406504
2279 2279 0.285805
2280 2279 -1.62922e-09
2284 2279 -3.72319e-05
2279 2280 -1.53403e-11
2280 2280 0.109983
2281 2280 -0.10989
2284 2280 -3.61857e-05
2280 2281 -0.10989
2281 2281 0.26863
2282 2281 -0.15873
2284 2281 0
2363 2281 -4.98303e-06
2281 2282 -0.15873
2282 2282 0.158813
2283 2282 -3.47438e-08
2284 2282 0
2363 2282 -3.81141e-05
2282 2283 -7.94765e-10
2283 2283 0.285772
2284 2283 0
2334 2283 -0.285714
2363 2283 -3.79293e-05
2264 2284 -0.0469043
2265 2284 -0.0571429
2277 2284 -0.00011233
2278 2284 -0.000112797
2279 2284 -3.54585e-05
2280 2284 -3.54558e-05
2281 2284 0
2282 2284 0
2283 2284 0
2284 2284 0.104592
2334 2284 0
2362 2284 0
2363 2284 -2.87964e-06
2369 2284 -3.43053e-06
2285 2285 0.287127
2286 2285 -0.00122546
2339 2285 -0.00012465
2285 2286 -0.00122369
2286 2286 0.111391
2287 2286 -0.10989
2339 2286 -0.000124737
2286 2287 -0.10989
2287 2287 0.228947
2289 2287 -0.119048
2333 2287 -1.00161e-06
2339 2287 -3.00484e-06
2288 2288 0.287146
2289 2288 -0.00123432
2333 2288 -0.285714
2336 2288 -0.000124716
2287 2289 -0.119048
2288 2289 -0.0012366
2289 2289 0.120537
2333 2289 0
2336 2289 -0.000124659
2339 2289 0
2290 2290 0.101892
2291 2290 -1.29952e-09
2339 2290 -7.03466e-05
2290 2291 -1.04515e-09
2291 2291 0.0765626
2298 2291 -0.0762195
2339 2291 -7.0346e-05
2292 2292 0.101892
2293 2292 -1.01435e-09
2336 2292 -7.03451e-05
2292 2293 -8.15655e-10
2293 2293 0.0765626
2298 2293 -0.0762195
2336 2293 -7.03445e-05
2294 2294 0.120524
2295 2294 -0.0012237
2337 2294 -0.000124608
2294 2295 -0.00122464
2295 2295 0.111392
2333 2295 -0.10989
2337 2295 -0.000124766
2296 2296 0.101812
2297 2296 -2.95462e-12
2333 2296 -0.101626
2337 2296 -7.03063e-05
2296 2297 -7.25321e-10
2297 2297 0.152703
2298 2297 -0.152439
2333 2297 0
2337 2297 -7.03463e-05
2291 2298 -0.0762195
2293 2298 -0.0762195
2297 2298 -0.152439
2298 2298 0.304934
2333 2298 0
2336 2298 -5.97213e-06
2337 2298 -1.96379e-05
2339 2298 -3.98142e-06
2299 2299 0.0404884
2302 2299 -0.000639486
2335 2299 -6.58355e-05
2300 2300 0.0556031
2301 2300 -4.4712e-10
2335 2300 -3.91931e-05
2300 2301 -1.81534e-12
2301 2301 0.0470339
2332 2301 -0.0469043
2335 2301 -3.91706e-05
2299 2302 -0.000641988
2302 2302 0.057925
2332 2302 -0.0571429
2335 2302 -6.58261e-05
2303 2303 0.101876
2304 2303 -8.37619e-10
2331 2303 -7.03466e-05
2303 2304 -3.40966e-12
2304 2304 0.0764551
2331 2304 -7.03062e-05
2370 2304 -0.0762195
2305 2305 0.144307
2306 2305 -0.00122479
2331 2305 -0.000124686
2370 2305 -0.142857
2305 2306 -0.00122023
2306 2306 0.131348
2316 2306 -0.12987
2331 2306 -0.000124715
2370 2306 0
2307 2307 0.142986
2308 2307 -1.68608e-09
2333 2307 -3.71411e-05
2307 2308 -1.65451e-09
2308 2308 0.102212
2316 2308 -0.102041
2333 2308 -3.71397e-05
2309 2309 0.144314
2310 2309 -0.00122159
2334 2309 -0.000124715
2309 2310 -0.00122617
2310 2310 0.103535
2316 2310 -0.102041
2334 2310 -0.000124686
2311 2311 0.101876
2312 2311 -7.83199e-10
2334 2311 -7.03464e-05
2311 2312 -3.14604e-12
2312 2312 0.0764639
2313 2312 -0.0762195
2334 2312 -7.03084e-05
2312 2313 -0.0762195
2313 2313 0.177876
2314 2313 -0.101626
2333 2313 -2.06959e-05
2334 2313 0
2313 2314 -0.101626
2314 2314 0.101808
2315 2314 -1.96195e-08
2333 2314 -7.03616e-05
2334 2314 0
2314 2315 -8.30862e-11
2315 2315 0.101802
2333 2315 -7.03534e-05
2334 2315 0
2370 2315 -0.101626
2306 2316 -0.12987
2308 2316 -0.102041
2310 2316 -0.102041
2316 2316 0.333991
2331 2316 -6.52301e-06
2333 2316 -3.98142e-06
2334 2316 -4.14418e-06
2370 2316 0
2317 2317 0.101876
2318 2317 -1.26951e-09
2334 2317 -7.03464e-05
2317 2318 -1.26922e-09
2318 2318 0.0765693
2331 2318 -0.0762195
2334 2318 -7.03464e-05
2319 2319 0.142928
2320 2319 -6.8717e-10
2331 2319 -0.142857
2334 2319 -3.79124e-05
2319 2320 -3.05509e-08
2320 2320 0.129956
2330 2320 -0.12987
2331 2320 0
2334 2320 -3.81115e-05
2321 2321 0.142986
2322 2321 -1.82523e-09
2344 2321 -3.72517e-05
2321 2322 -1.73098e-11
2322 2322 0.102133
2330 2322 -0.102041
2344 2322 -3.61984e-05
2323 2323 0.142986
2324 2323 -1.83666e-09
2332 2323 -3.72528e-05
2323 2324 -1.74201e-11
2324 2324 0.102133
2330 2324 -0.102041
2332 2324 -3.61989e-05
2325 2325 0.102927
2326 2325 -0.000855624
2332 2325 -0.00022645
2325 2326 -0.000864866
2326 2326 0.0776101
2327 2326 -0.0762195
2332 2326 -0.00022645
2326 2327 -0.0762195
2327 2327 0.177876
2328 2327 -0.101626
2332 2327 0
2344 2327 -2.06959e-05
2327 2328 -0.101626
2328 2328 0.102927
2329 2328 -0.00085574
2332 2328 0
2344 2328 -0.00022645
2328 2329 -0.000864979
2329 2329 0.102917
2331 2329 -0.101626
2332 2329 0
2344 2329 -0.00022645
2320 2330 -0.12987
2322 2330 -0.102041
2324 2330 -0.102041
2330 2330 0.333991
2331 2330 0
2332 2330 -4.14418e-06
2334 2330 -6.52301e-06
2344 2330 -3.98142e-06
2303 2331 -7.0289e-05
2304 2331 -7.02876e-05
2305 2331 -0.000123437
2306 2331 -0.000124436
2316 2331 -6.52301e-06
2318 2331 -0.0762195
2319 2331 -0.142857
2320 2331 0
2329 2331 -0.101626
2330 2331 0
2331 2331 0.321451
2332 2331 -9.89094e-07
2333 2331 0
2334 2331 -1.78287e-05
2344 2331 0
2370 2331 -1.68396e-05
2301 2332 -0.0469043
2302 2332 -0.0571429
2323 2332 -3.54587e-05
2324 2332 -3.54556e-05
2325 2332 -0.000225126
2326 2332 -0.000225126
2327 2332 0
2328 2332 0
2329 2332 0
2330 2332 -4.14418e-06
2331 2332 -9.89094e-07
2332 2332 0.104848
2333 2332 -9.89094e-07
2334 2332 -9.89094e-07
2335 2332 0
2337 2332 -9.89094e-07
2340 2332 -9.89094e-07
2341 2332 -9.89094e-07
2344 2332 -6.44789e-07
2365 2332 -9.89094e-07
2369 2332 -9.89094e-07
2370 2332 0
2287 2333 -1.00161e-06
2288 2333 -0.285714
2289 2333 0
2295 2333 -0.10989
2296 2333 -0.101626
2297 2333 0
2298 2333 0
2307 2333 -3.54572e-05
2308 2333 -3.54571e-05
2313 2333 -2.06959e-05
2314 2333 -7.0306e-05
2315 2333 -7.02706e-05
2316 2333 -3.98142e-06
2331 2333 0
2332 2333 -9.89094e-07
2333 2333 0.497854
2334 2333 -1.62762e-06
2335 2333 -2.96102e-06
2336 2333 -5.19588e-06
2337 2333 -4.188e-06
2339 2333 -3.19891e-06
2340 2333 -9.89094e-07
2341 2333 -9.89094e-07
2344 2333 0
2365 2333 -9.89094e-07
2369 2333 -9.89094e-07
2370 2333 0
2276 2334 -0.0406504
2278 2334 -0.0406504
2283 2334 -0.285714
2284 2334 0
2309 2334 -0.000124422
2310 2334 -0.000123451
2311 2334 -7.02889e-05
2312 2334 -7.02877e-05
2313 2334 0
2314 2334 0
2315 2334 0
2316 2334 -4.14418e-06
2317 2334 -7.02883e-05
2318 2334 -7.02883e-05
2319 2334 -3.54286e-05
2320 2334 -3.54857e-05
2330 2334 -6.52301e-06
2331 2334 -1.78287e-05
2332 2334 -9.89094e-07
2333 2334 -1.62762e-06
2334 2334 0.368236
2335 2334 -9.89094e-07
2336 2334 0
2337 2334 -1.08926e-06
2338 2334 -9.89094e-07
2339 2334 0
2340 2334 -1.97193e-06
2341 2334 -1.97193e-06
2344 2334 0
2362 2334 0
2363 2334 -6.09733e-06
2365 2334 -1.97193e-06
2369 2334 -9.89094e-07
2370 2334 0
2209 2335 -0.000123105
2210 2335 -0.000124769
2215 2335 -2.06959e-05
2216 2335 -7.02887e-05
2217 2335 -7.02879e-05
2218 2335 -3.98142e-06
2238 2335 -0.0529101
2240 2335 -0.0529101
2245 2335 -0.203252
2246 2335 -4.58239e-06
2261 2335 0
2299 2335 -6.52233e-05
2300 2335 -3.9161e-05
2301 2335 -3.91603e-05
2302 2335 -6.49099e-05
2332 2335 0
2333 2335 -2.96102e-06
2334 2335 -9.89094e-07
2335 2335 0.310268
2336 2335 0
2337 2335 0
2338 2335 -9.89094e-07
2339 2335 0
2340 2335 0
2341 2335 0
2344 2335 0
2345 2335 0
2351 2335 -1.26454e-06
2353 2335 0
2362 2335 -6.44789e-07
2363 2335 -1.22698e-06
2365 2335 0
2369 2335 -2.96102e-06
2370 2335 0
2118 2336 -6.42338e-05
2119 2336 -3.91609e-05
2120 2336 -3.91603e-05
2121 2336 -6.5901e-05
2140 2336 0
2204 2336 0
2227 2336 -0.0406504
2228 2336 -0.0406504
2229 2336 -0.285714
2230 2336 -3.51444e-05
2231 2336 -3.51439e-05
2232 2336 -0.000123435
2233 2336 -0.000124438
2234 2336 0
2235 2336 0
2236 2336 0
2246 2336 -1.97193e-06
2260 2336 -9.89094e-07
2261 2336 -2.87964e-06
2288 2336 -0.000125363
2289 2336 -0.000122512
2292 2336 -7.02885e-05
2293 2336 -7.02881e-05
2298 2336 -5.97213e-06
2333 2336 -5.19588e-06
2334 2336 0
2335 2336 0
2336 2336 0.368874
2337 2336 -2.96102e-06
2338 2336 0
2339 2336 -9.89094e-07
2340 2336 -2.96102e-06
2341 2336 0
2342 2336 0
2343 2336 0
2344 2336 0
2345 2336 0
2351 2336 0
2353 2336 0
2362 2336 -1.97193e-06
2363 2336 0
2365 2336 0
2369 2336 -1.97193e-06
2370 2336 0
2097 2337 -6.00433e-05
2098 2337 -6.38972e-05
2103 2337 -1.20569e-05
2104 2337 -7.02887e-05
2105 2337 -7.02879e-05
2106 2337 -9.89094e-07
2107 2337 -9.95354e-06
2108 2337 -4.58239e-06
2124 2337 -6.14653e-05
2125 2337 -6.24719e-05
2132 2337 -0.203252
2133 2337 -0.0529101
2134 2337 -0.0529101
2135 2337 -7.0289e-05
2136 2337 -7.02876e-05
2137 2337 0
2138 2337 0
2139 2337 0
2140 2337 -8.96445e-06
2204 2337 0
2246 2337 -9.89094e-07
2253 2337 -6.1595e-05
2254 2337 -6.23418e-05
2255 2337 -7.02886e-05
2256 2337 -7.0288e-05
2257 2337 0
2258 2337 0
2259 2337 0
2260 2337 0
2261 2337 0
2294 2337 -0.000120799
2295 2337 -0.000127081
2296 2337 -7.02877e-05
2297 2337 -7.02889e-05
2298 2337 -1.96379e-05
2332 2337 -9.89094e-07
2333 2337 -4.188e-06
2334 2337 -1.08926e-06
2335 2337 0
2336 2337 -2.96102e-06
2337 2337 0.311433
2338 2337 -9.89094e-07
2339 2337 -1.97193e-06
2340 2337 -9.95354e-06
2341 2337 0
2342 2337 0
2343 2337 0
2344 2337 0
2345 2337 0
2351 2337 -3.59329e-06
2353 2337 0
2362 2337 -1.97193e-06
2363 2337 -9.89094e-07
2364 2337 0
2365 2337 -9.89094e-07
2366 2337 0
2367 2337 0
2368 2337 0
2369 2337 -2.96102e-06
2370 2337 0
2086 2338 -0.043554
2087 2338 -0.0529101
2106 2338 0
2107 2338 -9.89094e-07
2108 2338 0
2239 2338 -1.77294e-05
2240 2338 -1.77278e-05
2241 2338 -0.000225185
2242 2338 -0.000225068
2243 2338 0
2244 2338 0
2245 2338 0
2246 2338 -7.98162e-06
2261 2338 0
2334 2338 -9.89094e-07
2335 2338 -9.89094e-07
2336 2338 0
2337 2338 -9.89094e-07
2338 2338 0.097323
2339 2338 0
2340 2338 -9.89094e-07
2341 2338 0
2342 2338 0
2343 2338 0
2344 2338 0
2345 2338 0
2351 2338 -9.89094e-07
2353 2338 0
2362 2338 0
2363 2338 0
2364 2338 0
2365 2338 -9.89094e-07
2366 2338 0
2367 2338 0
2368 2338 0
2369 2338 -1.97193e-06
2370 2338 0
2052 2339 -1.97193e-06
2155 2339 -0.0762195
2156 2339 -0.142857
2157 2339 0
2166 2339 -0.101626
2167 2339 0
2168 2339 -0.000123896
2169 2339 -0.000123977
2170 2339 -3.00484e-06
2172 2339 0
2173 2339 -7.02883e-05
2174 2339 -7.02883e-05
2181 2339 -3.98142e-06
2200 2339 0
2201 2339 -1.97193e-06
2202 2339 -2.21607e-06
2203 2339 0
2204 2339 -9.89094e-07
2260 2339 -9.89094e-07
2261 2339 -9.89094e-07
2285 2339 -0.000122205
2286 2339 -0.000125671
2287 2339 -3.00484e-06
2289 2339 0
2290 2339 -7.02885e-05
2291 2339 -7.02881e-05
2298 2339 -3.98142e-06
2333 2339 -3.19891e-06
2334 2339 0
2335 2339 0
2336 2339 -9.89094e-07
2337 2339 -1.97193e-06
2338 2339 0
2339 2339 0.322263
2340 2339 -2.96102e-06
2341 2339 -1.78287e-05
2342 2339 0
2343 2339 -1.26454e-06
2344 2339 0
2345 2339 0
2346 2339 0
2348 2339 0
2349 2339 0
2351 2339 0
2352 2339 -9.89094e-07
2353 2339 -9.89094e-07
2362 2339 0
2363 2339 0
2364 2339 0
2365 2339 0
2366 2339 0
2367 2339 0
2368 2339 0
2369 2339 -1.97193e-06
2370 2339 0
1928 2340 -0.0406504
1929 2340 -0.0406504
1930 2340 -0.285714
1931 2340 -3.51441e-05
1932 2340 -3.51442e-05
1937 2340 -4.98303e-06
1938 2340 -3.54869e-05
1939 2340 -3.54274e-05
1993 2340 -6.09733e-06
1994 2340 0
1995 2340 0
2106 2340 -1.97193e-06
2107 2340 -1.97193e-06
2108 2340 0
2140 2340 -1.97193e-06
2182 2340 -6.51607e-05
2183 2340 -3.91608e-05
2184 2340 -3.91604e-05
2185 2340 -6.49724e-05
2189 2340 -0.000123856
2190 2340 -0.000124017
2193 2340 -7.02887e-05
2194 2340 -7.02879e-05
2199 2340 -5.97213e-06
2200 2340 -6.18497e-06
2201 2340 -1.97193e-06
2202 2340 -1.97193e-06
2203 2340 -1.97193e-06
2204 2340 -2.96102e-06
2246 2340 -9.89094e-07
2251 2340 -6.1599e-05
2252 2340 -6.23379e-05
2257 2340 -1.20569e-05
2258 2340 -7.02886e-05
2259 2340 -7.0288e-05
2260 2340 -4.58239e-06
2261 2340 0
2332 2340 -9.89094e-07
2333 2340 -9.89094e-07
2334 2340 -1.97193e-06
2335 2340 0
2336 2340 -2.96102e-06
2337 2340 -9.95354e-06
2338 2340 -9.89094e-07
2339 2340 -2.96102e-06
2340 2340 0.36947
2341 2340 -7.73747e-06
2342 2340 0
2343 2340 0
2344 2340 0
2345 2340 0
2346 2340 0
2347 2340 0
2348 2340 0
2349 2340 0
2350 2340 0
2351 2340 -1.18942e-06
2352 2340 0
2353 2340 0
2355 2340 0
2362 2340 -9.89094e-07
2363 2340 -9.89094e-07
2364 2340 -1.97193e-06
2365 2340 -1.97193e-06
2366 2340 0
2367 2340 0
2368 2340 0
2369 2340 -1.97193e-06
2370 2340 0
2371 2340 0
2384 2340 0
2390 2340 0
2391 2340 0
1933 2341 -0.000112391
1934 2341 -0.000112737
1935 2341 -3.54586e-05
1936 2341 -3.54557e-05
1937 2341 0
1938 2341 0
1939 2341 0
1993 2341 0
1994 2341 0
1995 2341 0
2052 2341 -1.97193e-06
2078 2341 -0.043554
2079 2341 -0.0529101
2107 2341 0
2108 2341 0
2143 2341 -0.000112615
2144 2341 -0.000112512
2145 2341 -3.54578e-05
2146 2341 -3.54565e-05
2147 2341 0
2148 2341 0
2149 2341 0
2154 2341 -0.000225399
2155 2341 -0.000224856
2156 2341 -3.54561e-05
2157 2341 -3.54582e-05
2167 2341 -6.52301e-06
2201 2341 -1.97193e-06
2202 2341 -9.89094e-07
2203 2341 -9.89094e-07
2204 2341 -1.97193e-06
2260 2341 -9.89094e-07
2261 2341 -9.89094e-07
2332 2341 -9.89094e-07
2333 2341 -9.89094e-07
2334 2341 -1.97193e-06
2335 2341 0
2336 2341 0
2337 2341 0
2338 2341 0
2339 2341 -1.78287e-05
2340 2341 -7.73747e-06
2341 2341 0.0986472
2342 2341 -2.87964e-06
2343 2341 -1.22698e-06
2344 2341 0
2345 2341 0
2346 2341 0
2347 2341 0
2348 2341 0
2349 2341 0
2350 2341 0
2351 2341 -9.89094e-07
2352 2341 -9.89094e-07
2353 2341 -9.89094e-07
2355 2341 0
2362 2341 0
2363 2341 0
2364 2341 0
2365 2341 -9.89094e-07
2366 2341 0
2367 2341 0
2368 2341 0
2369 2341 -1.97193e-06
2370 2341 0
2371 2341 0
2384 2341 0
2390 2341 0
2391 2341 0
1848 2342 -1.97193e-06
1849 2342 -9.89094e-07
1898 2342 -0.000112589
1899 2342 -0.000112537
1904 2342 -4.98303e-06
1905 2342 -3.54588e-05
1906 2342 -3.54555e-05
1921 2342 -7.08642e-06
1991 2342 -9.89094e-07
1992 2342 -9.89094e-07
1993 2342 -5.76554e-06
1994 2342 -9.89094e-07
1995 2342 -9.89094e-07
2019 2342 -0.0406504
2030 2342 -0.0406504
2035 2342 -0.285714
2036 2342 -6.09733e-06
2037 2342 0
2052 2342 0
2141 2342 -0.000112615
2142 2342 -0.000112512
2147 2342 -4.98303e-06
2148 2342 -3.5458e-05
2149 2342 -3.54563e-05
2203 2342 -6.09733e-06
2204 2342 0
2336 2342 0
2337 2342 0
2338 2342 0
2339 2342 0
2340 2342 0
2341 2342 -2.87964e-06
2342 2342 0.368514
2343 2342 0
2344 2342 0
2345 2342 -9.89094e-07
2346 2342 -2.96102e-06
2347 2342 0
2348 2342 -9.89094e-07
2349 2342 0
2350 2342 0
2351 2342 0
2352 2342 0
2353 2342 0
2355 2342 0
2362 2342 0
2363 2342 0
2364 2342 0
2365 2342 0
2366 2342 0
2367 2342 0
2368 2342 0
2369 2342 -5.87196e-06
2370 2342 0
2371 2342 0
2384 2342 0
2390 2342 -1.97193e-06
2391 2342 -9.89094e-07
1911 2343 -3.54571e-05
1912 2343 -3.54572e-05
1917 2343 -2.06959e-05
1918 2343 -7.0305e-05
1919 2343 -7.02716e-05
1920 2343 -3.98142e-06
1921 2343 0
1993 2343 -1.62762e-06
1994 2343 -9.89094e-07
1995 2343 -9.89094e-07
2037 2343 -9.89094e-07
2043 2343 -0.0529101
2045 2343 -0.0529101
2050 2343 -0.203252
2051 2343 -5.56522e-06
2052 2343 -9.89094e-07
2158 2343 -3.54576e-05
2159 2343 -3.54567e-05
2164 2343 -2.06959e-05
2165 2343 -0.00022525
2166 2343 -0.000225003
2167 2343 -3.98142e-06
2201 2343 -6.44789e-07
2202 2343 0
2203 2343 0
2204 2343 0
2336 2343 0
2337 2343 0
2338 2343 0
2339 2343 -1.26454e-06
2340 2343 0
2341 2343 -1.22698e-06
2342 2343 0
2343 2343 0.310533
2344 2343 0
2345 2343 -9.89094e-07
2346 2343 -9.89094e-07
2347 2343 0
2348 2343 -9.89094e-07
2349 2343 -9.89094e-07
2350 2343 0
2351 2343 0
2352 2343 0
2353 2343 0
2355 2343 0
2362 2343 0
2363 2343 0
2364 2343 -1.97193e-06
2365 2343 -9.89094e-07
2366 2343 0
2367 2343 0
2368 2343 0
2369 2343 -9.89094e-07
2370 2343 0
2371 2343 -9.89094e-07
2384 2343 0
2390 2343 0
2391 2343 0
1689 2344 -1.97193e-06
1794 2344 0
1795 2344 -7.18032e-06
1796 2344 -1.97193e-06
2110 2344 -0.0529101
2112 2344 -0.0529101
2117 2344 -0.203252
2321 2344 -3.54587e-05
2322 2344 -3.54556e-05
2327 2344 -2.06959e-05
2328 2344 -0.00022513
2329 2344 -0.000225123
2330 2344 -3.98142e-06
2331 2344 0
2332 2344 -6.44789e-07
2333 2344 0
2334 2344 0
2335 2344 0
2336 2344 0
2337 2344 0
2338 2344 0
2339 2344 0
2340 2344 0
2341 2344 0
2342 2344 0
2343 2344 0
2344 2344 0.31006
2345 2344 0
2346 2344 -2.27241e-06
2347 2344 0
2348 2344 0
2349 2344 0
2350 2344 0
2351 2344 -9.89094e-07
2352 2344 0
2353 2344 0
2354 2344 0
2355 2344 0
2356 2344 0
2357 2344 0
2358 2344 0
2359 2344 0
2360 2344 0
2361 2344 0
2362 2344 0
2363 2344 0
2364 2344 -9.89094e-07
2365 2344 0
2366 2344 0
2367 2344 -9.89094e-07
2368 2344 -4.58239e-06
2369 2344 0
2370 2344 -1.97193e-06
2371 2344 0
2384 2344 0
2390 2344 0
2391 2344 0
1669 2345 -0.043554
1670 2345 -0.0529101
1689 2345 0
1794 2345 0
1795 2345 0
1796 2345 0
1823 2345 -0.000112658
1824 2345 -0.000112469
1825 2345 -3.54586e-05
1826 2345 -3.54557e-05
1827 2345 0
1828 2345 0
1829 2345 0
1834 2345 -0.000225384
1835 2345 -0.000224871
1836 2345 -3.54561e-05
1837 2345 -3.54582e-05
1847 2345 -6.52301e-06
1848 2345 0
1849 2345 0
1942 2345 -0.000112642
1943 2345 -0.000112485
1944 2345 -3.54578e-05
1945 2345 -3.54565e-05
1946 2345 0
1947 2345 0
1948 2345 0
1992 2345 0
1993 2345 -9.89094e-07
1994 2345 -2.87964e-06
1995 2345 0
2036 2345 -4.05028e-06
2037 2345 -1.97193e-06
2052 2345 -1.97193e-06
2260 2345 -9.89094e-07
2261 2345 -9.89094e-07
2335 2345 0
2336 2345 0
2337 2345 0
2338 2345 0
2339 2345 0
2340 2345 0
2341 2345 0
2342 2345 -9.89094e-07
2343 2345 -9.89094e-07
2344 2345 0
2345 2345 0.0984166
2346 2345 -2.87964e-06
2347 2345 0
2348 2345 -1.68396e-05
2349 2345 0
2350 2345 0
2351 2345 0
2352 2345 -9.89094e-07
2353 2345 -9.89094e-07
2354 2345 0
2355 2345 0
2356 2345 0
2357 2345 0
2358 2345 0
2359 2345 0
2360 2345 0
2361 2345 0
2362 2345 0
2363 2345 0
2364 2345 0
2365 2345 -9.89094e-07
2366 2345 0
2367 2345 -1.97193e-06
2368 2345 0
2369 2345 0
2370 2345 0
2371 2345 0
2384 2345 0
2390 2345 0
2391 2345 0
1689 2346 -1.97193e-06
1704 2346 -6.11504e-05
1705 2346 -6.27876e-05
1710 2346 -1.20569e-05
1711 2346 -7.02886e-05
1712 2346 -7.0288e-05
1713 2346 -4.58239e-06
1793 2346 0
1794 2346 0
1795 2346 -1.28958e-06
1796 2346 -7.98162e-06
1821 2346 -3.51442e-05
1822 2346 -3.51441e-05
1827 2346 -4.98303e-06
1828 2346 -3.54795e-05
1829 2346 -3.54348e-05
1830 2346 -6.48037e-05
1831 2346 -3.91609e-05
1832 2346 -3.91603e-05
1833 2346 -6.53297e-05
1848 2346 0
1849 2346 -8.06926e-06
1921 2346 -1.97193e-06
1970 2346 -0.000124141
1971 2346 -0.000123732
1980 2346 -0.0406504
1981 2346 -0.0406504
1982 2346 -0.285714
1983 2346 -7.02888e-05
1984 2346 -7.02878e-05
1989 2346 -5.97213e-06
1990 2346 -4.21304e-06
1991 2346 -9.89094e-07
1992 2346 -9.89094e-07
1993 2346 -9.89094e-07
1994 2346 -9.89094e-07
1995 2346 -1.97193e-06
2051 2346 -9.89094e-07
2052 2346 0
2339 2346 0
2340 2346 0
2341 2346 0
2342 2346 -2.96102e-06
2343 2346 -9.89094e-07
2344 2346 -2.27241e-06
2345 2346 -2.87964e-06
2346 2346 0.369438
2347 2346 -9.89094e-07
2348 2346 -1.97193e-06
2349 2346 -1.97193e-06
2350 2346 -9.89094e-07
2351 2346 0
2352 2346 -9.89094e-07
2353 2346 -9.89094e-07
2354 2346 0
2355 2346 0
2356 2346 0
2357 2346 0
2358 2346 0
2359 2346 0
2360 2346 0
2361 2346 0
2362 2346 0
2363 2346 0
2364 2346 -1.97193e-06
2365 2346 0
2366 2346 0
2367 2346 -9.89094e-07
2368 2346 0
2369 2346 0
2370 2346 -1.97193e-06
2371 2346 0
2384 2346 0
2390 2346 0
2391 2346 0
1643 2347 -1.97193e-06
1713 2347 -1.97193e-06
1727 2347 -9.89094e-07
1728 2347 -6.4823e-05
1735 2347 -0.0406504
1736 2347 -0.0406504
1737 2347 -0.285714
1738 2347 -3.91608e-05
1739 2347 -3.91604e-05
1740 2347 -6.53103e-05
1792 2347 0
1793 2347 0
1794 2347 0
1795 2347 0
1796 2347 0
1864 2347 -3.51443e-05
1865 2347 -3.5144e-05
1870 2347 -4.98303e-06
1871 2347 -0.000124143
1872 2347 -0.000123729
1875 2347 -3.51443e-05
1876 2347 -3.5144e-05
1877 2347 -0.000124157
1878 2347 -0.000123716
1879 2347 0
1880 2347 0
1881 2347 0
1896 2347 -7.08642e-06
1897 2347 -3.86248e-06
1994 2347 0
1995 2347 0
2340 2347 0
2341 2347 0
2342 2347 0
2343 2347 0
2344 2347 0
2345 2347 0
2346 2347 -9.89094e-07
2347 2347 0.368724
2348 2347 -9.89094e-07
2349 2347 -9.89094e-07
2350 2347 -1.97193e-06
2351 2347 0
2352 2347 0
2353 2347 -9.89094e-07
2354 2347 0
2355 2347 -3.86248e-06
2356 2347 0
2357 2347 0
2358 2347 0
2359 2347 0
2360 2347 0
2361 2347 -9.89094e-07
2362 2347 0
2363 2347 0
2364 2347 -9.89094e-07
2365 2347 0
2366 2347 0
2367 2347 -1.64014e-06
2368 2347 0
2369 2347 0
2370 2347 0
2371 2347 -1.97193e-06
2384 2347 0
2390 2347 0
2391 2347 0
1644 2348 -0.000122786
1645 2348 -0.000125089
1646 2348 -3.00484e-06
1648 2348 0
1649 2348 -7.02886e-05
1650 2348 -7.0288e-05
1666 2348 -3.98142e-06
1795 2348 0
1796 2348 -9.89094e-07
1835 2348 -0.0762195
1836 2348 -0.142857
1837 2348 0
1846 2348 -0.101626
1847 2348 0
1848 2348 -9.89094e-07
1849 2348 -9.89094e-07
1953 2348 -0.000123893
1954 2348 -0.000123979
1955 2348 -3.00484e-06
1957 2348 0
1958 2348 -7.02883e-05
1959 2348 -7.02883e-05
1966 2348 -3.98142e-06
1990 2348 0
1991 2348 -2.21607e-06
1992 2348 -9.89094e-07
1993 2348 -9.89094e-07
1994 2348 -9.89094e-07
1995 2348 -1.26454e-06
2051 2348 -9.89094e-07
2052 2348 0
2339 2348 0
2340 2348 0
2341 2348 0
2342 2348 -9.89094e-07
2343 2348 -9.89094e-07
2344 2348 0
2345 2348 -1.68396e-05
2346 2348 -1.97193e-06
2347 2348 -9.89094e-07
2348 2348 0.322316
2349 2348 -1.18942e-06
2350 2348 -9.89094e-07
2351 2348 0
2352 2348 -9.89094e-07
2353 2348 -9.89094e-07
2354 2348 0
2355 2348 0
2356 2348 0
2357 2348 0
2358 2348 0
2359 2348 0
2360 2348 0
2361 2348 -2.21607e-06
2362 2348 0
2363 2348 0
2364 2348 -9.89094e-07
2365 2348 0
2366 2348 0
2367 2348 0
2368 2348 0
2369 2348 0
2370 2348 0
2371 2348 0
2384 2348 0
2390 2348 0
2391 2348 0
1626 2349 -0.0529101
1628 2349 -0.0529101
1642 2349 -0.203252
1643 2349 -4.58239e-06
1795 2349 -9.89094e-07
1796 2349 -9.89094e-07
1849 2349 -9.89094e-07
1956 2349 -3.54556e-05
1957 2349 -3.54587e-05
1960 2349 -0.000225309
1961 2349 -0.000224945
1966 2349 -5.97213e-06
1985 2349 -3.54571e-05
1986 2349 -3.54572e-05
1987 2349 -7.02622e-05
1988 2349 -7.03144e-05
1989 2349 -1.96379e-05
1990 2349 -2.21607e-06
1991 2349 -4.21304e-06
1992 2349 -9.89094e-07
1993 2349 -9.89094e-07
1994 2349 -9.89094e-07
1995 2349 -9.89094e-07
2051 2349 -9.89094e-07
2052 2349 0
2339 2349 0
2340 2349 0
2341 2349 0
2342 2349 0
2343 2349 -9.89094e-07
2344 2349 0
2345 2349 0
2346 2349 -1.97193e-06
2347 2349 -9.89094e-07
2348 2349 -1.18942e-06
2349 2349 0.310593
2350 2349 -9.89094e-07
2351 2349 0
2352 2349 -9.89094e-07
2353 2349 -9.89094e-07
2354 2349 0
2355 2349 0
2356 2349 0
2357 2349 0
2358 2349 0
2359 2349 0
2360 2349 0
2361 2349 0
2362 2349 0
2363 2349 0
2364 2349 -9.89094e-07
2365 2349 0
2366 2349 0
2367 2349 0
2368 2349 0
2369 2349 0
2370 2349 0
2371 2349 0
2384 2349 0
2390 2349 0
2391 2349 0
1714 2350 -6.31768e-05
1715 2350 -3.9162e-05
1716 2350 -3.91593e-05
1717 2350 -6.69605e-05
1727 2350 0
1752 2350 -6.12808e-05
1753 2350 -6.26569e-05
1760 2350 -0.203252
1761 2350 -0.0510204
1762 2350 -0.0510204
1763 2350 -7.02908e-05
1764 2350 -7.02858e-05
1765 2350 0
1766 2350 0
1767 2350 0
1792 2350 -7.90649e-06
1793 2350 0
1794 2350 0
1795 2350 0
1796 2350 0
1856 2350 -6.13768e-05
1857 2350 -6.25606e-05
1858 2350 -7.029e-05
1859 2350 -7.02866e-05
1860 2350 0
1861 2350 0
1862 2350 0
1863 2350 -7.90649e-06
1886 2350 -6.04288e-05
1887 2350 -6.35109e-05
1892 2350 -1.20569e-05
1893 2350 -7.02897e-05
1894 2350 -7.02869e-05
1895 2350 -4.58239e-06
1896 2350 -9.89094e-07
1897 2350 0
1994 2350 0
1995 2350 0
2340 2350 0
2341 2350 0
2342 2350 0
2343 2350 0
2344 2350 0
2345 2350 0
2346 2350 -9.89094e-07
2347 2350 -1.97193e-06
2348 2350 -9.89094e-07
2349 2350 -9.89094e-07
2350 2350 0.307381
2351 2350 0
2352 2350 -2.96102e-06
2353 2350 -9.89094e-07
2354 2350 0
2355 2350 -8.96445e-06
2356 2350 0
2357 2350 0
2358 2350 0
2359 2350 -1.56502e-06
2360 2350 0
2361 2350 -9.89094e-07
2362 2350 0
2363 2350 0
2364 2350 -9.89094e-07
2365 2350 0
2366 2350 0
2367 2350 -9.89094e-07
2368 2350 0
2369 2350 0
2370 2350 0
2371 2350 -9.89094e-07
2384 2350 0
2390 2350 0
2391 2350 0
1096 2351 -1.86158e-05
1097 2351 -0.000125453
1098 2351 -0.000125402
1099 2351 -1.86142e-05
1133 2351 0
1134 2351 0
1208 2351 0
1209 2351 0
1210 2351 0
1620 2351 0
1793 2351 -1.97193e-06
1794 2351 0
1795 2351 0
1796 2351 0
2206 2351 -0.0762195
2207 2351 -0.142857
2208 2351 0
2217 2351 -0.101626
2218 2351 0
2335 2351 -1.26454e-06
2336 2351 0
2337 2351 -3.59329e-06
2338 2351 -9.89094e-07
2339 2351 0
2340 2351 -1.18942e-06
2341 2351 -9.89094e-07
2342 2351 0
2343 2351 0
2344 2351 -9.89094e-07
2345 2351 0
2346 2351 0
2347 2351 0
2348 2351 0
2349 2351 0
2350 2351 0
2351 2351 0.321672
2352 2351 0
2353 2351 0
2354 2351 0
2355 2351 0
2356 2351 -9.89094e-07
2357 2351 0
2358 2351 0
2359 2351 0
2360 2351 0
2361 2351 0
2362 2351 0
2363 2351 -1.78287e-05
2364 2351 -9.89094e-07
2365 2351 -1.18942e-06
2366 2351 0
2367 2351 -1.64014e-06
2368 2351 0
2369 2351 -9.89094e-07
2370 2351 -9.89094e-07
2371 2351 -9.89094e-07
2379 2351 -9.89094e-07
2380 2351 -2.29119e-06
2383 2351 -1.18942e-06
2384 2351 -9.89094e-07
2390 2351 0
2391 2351 0
2392 2351 0
2393 2351 0
1269 2352 -6.12909e-05
1270 2352 -6.26467e-05
1271 2352 -7.02891e-05
1272 2352 -7.02875e-05
1273 2352 0
1274 2352 0
1275 2352 0
1276 2352 -8.89559e-06
1352 2352 -6.04411e-05
1353 2352 -6.34985e-05
1358 2352 -1.20569e-05
1359 2352 -7.02888e-05
1360 2352 -7.02878e-05
1363 2352 -6.13884e-05
1364 2352 -6.2549e-05
1371 2352 -0.203252
1372 2352 -0.0529101
1373 2352 -0.0529101
1374 2352 -7.02887e-05
1375 2352 -7.02879e-05
1376 2352 0
1377 2352 0
1378 2352 0
1379 2352 -8.2821e-06
1380 2352 -5.56522e-06
1614 2352 0
1615 2352 0
1616 2352 0
1617 2352 -9.89094e-07
1618 2352 -9.89094e-07
1619 2352 -9.89094e-07
1620 2352 -9.95354e-06
1896 2352 -9.89094e-07
1897 2352 -7.0426e-06
1994 2352 -9.89094e-07
1995 2352 0
2339 2352 -9.89094e-07
2340 2352 0
2341 2352 -9.89094e-07
2342 2352 0
2343 2352 0
2344 2352 0
2345 2352 -9.89094e-07
2346 2352 -9.89094e-07
2347 2352 0
2348 2352 -9.89094e-07
2349 2352 -9.89094e-07
2350 2352 -2.96102e-06
2351 2352 0
2352 2352 0.311072
2353 2352 -1.97193e-06
2354 2352 0
2355 2352 0
2356 2352 0
2357 2352 0
2358 2352 0
2359 2352 0
2360 2352 0
2361 2352 -9.89094e-07
2362 2352 0
2363 2352 0
2364 2352 -2.94224e-06
2365 2352 -9.89094e-07
2366 2352 0
2367 2352 -9.89094e-07
2368 2352 0
2369 2352 -3.43053e-06
2370 2352 0
2371 2352 -9.89094e-07
2379 2352 0
2380 2352 0
2383 2352 -9.89094e-07
2384 2352 -9.89094e-07
2390 2352 -2.96102e-06
2391 2352 -1.97193e-06
2392 2352 -9.89094e-07
2393 2352 -9.89094e-07
1262 2353 -1.97193e-06
1263 2353 -6.42247e-05
1264 2353 -3.91609e-05
1265 2353 -3.91603e-05
1266 2353 -6.591e-05
1276 2353 0
1328 2353 -0.0406504
1329 2353 -0.0406504
1330 2353 -0.285714
1331 2353 -3.51444e-05
1332 2353 -3.51439e-05
1333 2353 -0.000123571
1334 2353 -0.000124302
1335 2353 0
1336 2353 0
1337 2353 0
1338 2353 -3.79361e-06
1339 2353 -3.51444e-05
1340 2353 -3.51439e-05
1345 2353 -4.98303e-06
1346 2353 -0.000123567
1347 2353 -0.000124306
1380 2353 -1.97193e-06
1614 2353 -9.89094e-07
1615 2353 0
1616 2353 -8.06926e-06
1617 2353 -9.89094e-07
1618 2353 0
1619 2353 0
1620 2353 -2.80452e-06
2260 2353 -9.89094e-07
2261 2353 -9.89094e-07
2335 2353 0
2336 2353 0
2337 2353 0
2338 2353 0
2339 2353 -9.89094e-07
2340 2353 0
2341 2353 -9.89094e-07
2342 2353 0
2343 2353 0
2344 2353 0
2345 2353 -9.89094e-07
2346 2353 -9.89094e-07
2347 2353 -9.89094e-07
2348 2353 -9.89094e-07
2349 2353 -9.89094e-07
2350 2353 -9.89094e-07
2351 2353 0
2352 2353 -1.97193e-06
2353 2353 0.369115
2354 2353 0
2355 2353 -9.89094e-07
2356 2353 0
2357 2353 0
2358 2353 0
2359 2353 0
2360 2353 0
2361 2353 -1.97193e-06
2362 2353 0
2363 2353 0
2364 2353 -9.89094e-07
2365 2353 -1.18942e-06
2366 2353 0
2367 2353 -9.89094e-07
2368 2353 0
2369 2353 -9.89094e-07
2370 2353 0
2371 2353 -9.89094e-07
2379 2353 0
2380 2353 0
2383 2353 -9.89094e-07
2384 2353 -9.89094e-07
2390 2353 -1.97193e-06
2391 2353 -1.97193e-06
2392 2353 0
2393 2353 -9.89094e-07
1075 2354 -0.00012163
1076 2354 -0.000126247
1083 2354 -0.203252
1084 2354 -0.0529101
1085 2354 -0.0529101
1086 2354 -7.02888e-05
1087 2354 -7.02878e-05
1088 2354 0
1089 2354 0
1090 2354 0
1091 2354 -4.14418e-06
1210 2354 0
1211 2354 -6.29295e-05
1212 2354 -3.91611e-05
1213 2354 -3.91601e-05
1214 2354 -6.72083e-05
1233 2354 0
1619 2354 0
1620 2354 0
1743 2354 -6.12145e-05
1744 2354 -6.27233e-05
1745 2354 -7.02888e-05
1746 2354 -7.02878e-05
1747 2354 0
1748 2354 0
1749 2354 0
1792 2354 -9.89094e-07
1793 2354 -9.89094e-07
1794 2354 -9.89094e-07
1795 2354 0
1796 2354 0
2344 2354 0
2345 2354 0
2346 2354 0
2347 2354 0
2348 2354 0
2349 2354 0
2350 2354 0
2351 2354 0
2352 2354 0
2353 2354 0
2354 2354 0.310745
2355 2354 -1.97193e-06
2356 2354 -1.97193e-06
2357 2354 -2.61672e-06
2358 2354 -9.89094e-07
2359 2354 -7.90649e-06
2360 2354 0
2361 2354 0
2362 2354 0
2363 2354 0
2364 2354 0
2365 2354 0
2366 2354 0
2367 2354 0
2368 2354 0
2369 2354 0
2370 2354 0
2371 2354 -3.59329e-06
2379 2354 0
2380 2354 0
2383 2354 -1.97193e-06
2384 2354 -1.97193e-06
2390 2354 0
2391 2354 0
2392 2354 0
2393 2354 0
1094 2355 -0.043554
1095 2355 -0.0529101
1134 2355 0
1188 2355 -0.000123856
1189 2355 -0.000124017
1192 2355 -3.51441e-05
1193 2355 -3.51441e-05
1194 2355 -0.000123891
1195 2355 -0.000123981
1196 2355 0
1197 2355 0
1198 2355 0
1199 2355 -7.02889e-05
1200 2355 -7.02876e-05
1201 2355 0
1202 2355 0
1203 2355 -4.14418e-06
1204 2355 0
1205 2355 -9.89094e-07
1206 2355 -9.89094e-07
1207 2355 -1.97193e-06
1208 2355 -1.97193e-06
1209 2355 0
1210 2355 -9.89094e-07
1236 2355 -6.19783e-05
1237 2355 -6.19577e-05
1238 2355 -7.02886e-05
1239 2355 -7.0288e-05
1240 2355 0
1241 2355 0
1242 2355 0
1262 2355 0
1618 2355 0
1619 2355 0
1620 2355 0
1643 2355 -1.97193e-06
1795 2355 0
1796 2355 0
1866 2355 -3.51445e-05
1867 2355 -3.51438e-05
1868 2355 -0.000124307
1869 2355 -0.000123566
1870 2355 0
1871 2355 0
1872 2355 0
1888 2355 -6.0434e-05
1889 2355 -6.35056e-05
1890 2355 -7.02887e-05
1891 2355 -7.02878e-05
1892 2355 0
1893 2355 0
1894 2355 0
1895 2355 0
1896 2355 0
1897 2355 0
1994 2355 0
1995 2355 0
2340 2355 0
2341 2355 0
2342 2355 0
2343 2355 0
2344 2355 0
2345 2355 0
2346 2355 0
2347 2355 -3.86248e-06
2348 2355 0
2349 2355 0
2350 2355 -8.96445e-06
2351 2355 0
2352 2355 0
2353 2355 -9.89094e-07
2354 2355 -1.97193e-06
2355 2355 0.0993088
2356 2355 -9.89094e-07
2357 2355 -9.89094e-07
2358 2355 -9.89094e-07
2359 2355 -8.89559e-06
2360 2355 -5.42124e-06
2361 2355 -9.89094e-07
2362 2355 0
2363 2355 0
2364 2355 0
2365 2355 0
2366 2355 0
2367 2355 0
2368 2355 0
2369 2355 0
2370 2355 0
2371 2355 -9.89094e-07
2379 2355 0
2380 2355 0
2383 2355 -9.89094e-07
2384 2355 -9.89094e-07
2390 2355 -2.96102e-06
2391 2355 -1.97193e-06
2392 2355 -9.89094e-07
2393 2355 -9.89094e-07
1069 2356 -7.02889e-05
1070 2356 -7.02877e-05
1071 2356 -0.0001241
1072 2356 -0.000123773
1091 2356 -6.52301e-06
1210 2356 -1.78287e-05
1221 2356 -0.0406504
1222 2356 -0.0406504
1223 2356 -0.285714
1224 2356 -3.51442e-05
1225 2356 -3.51441e-05
1230 2356 -4.98303e-06
1231 2356 -3.54787e-05
1232 2356 -3.54356e-05
1233 2356 -4.85157e-06
1619 2356 -6.09733e-06
1620 2356 0
1791 2356 -9.89094e-07
1792 2356 0
1793 2356 -9.89094e-07
1794 2356 0
1795 2356 0
1796 2356 0
2344 2356 0
2345 2356 0
2346 2356 0
2347 2356 0
2348 2356 0
2349 2356 0
2350 2356 0
2351 2356 -9.89094e-07
2352 2356 0
2353 2356 0
2354 2356 -1.97193e-06
2355 2356 -9.89094e-07
2356 2356 0.36832
2357 2356 0
2358 2356 -9.89094e-07
2359 2356 0
2360 2356 -9.89094e-07
2361 2356 0
2362 2356 0
2363 2356 0
2364 2356 0
2365 2356 0
2366 2356 0
2367 2356 0
2368 2356 0
2369 2356 0
2370 2356 0
2371 2356 -9.89094e-07
2379 2356 0
2380 2356 0
2383 2356 -9.89094e-07
2384 2356 -9.89094e-07
2390 2356 -1.97193e-06
2391 2356 0
2392 2356 0
2393 2356 0
1073 2357 -0.000121642
1074 2357 -0.000126235
1088 2357 -2.06959e-05
1089 2357 -7.02887e-05
1090 2357 -7.02878e-05
1091 2357 -3.98142e-06
1210 2357 -1.26454e-06
1233 2357 -1.97193e-06
1243 2357 -6.50438e-05
1244 2357 -3.9161e-05
1245 2357 -3.91603e-05
1246 2357 -6.50891e-05
1261 2357 0
1262 2357 0
1618 2357 0
1619 2357 -9.89094e-07
1620 2357 0
1773 2357 -0.0529101
1775 2357 -0.0529101
1780 2357 -0.203252
1781 2357 0
1791 2357 -9.89094e-07
1792 2357 0
1793 2357 -4.58239e-06
1794 2357 0
1795 2357 0
1796 2357 0
2344 2357 0
2345 2357 0
2346 2357 0
2347 2357 0
2348 2357 0
2349 2357 0
2350 2357 0
2351 2357 0
2352 2357 0
2353 2357 0
2354 2357 -2.61672e-06
2355 2357 -9.89094e-07
2356 2357 0
2357 2357 0.310378
2358 2357 -9.89094e-07
2359 2357 0
2360 2357 -9.89094e-07
2361 2357 0
2362 2357 0
2363 2357 0
2364 2357 0
2365 2357 0
2366 2357 0
2367 2357 0
2368 2357 0
2369 2357 0
2370 2357 0
2371 2357 0
2379 2357 0
2380 2357 0
2383 2357 -9.89094e-07
2384 2357 -9.89094e-07
2390 2357 -1.97193e-06
2391 2357 0
2392 2357 -1.97193e-06
2393 2357 0
1134 2358 -2.29119e-06
1173 2358 -1.86158e-05
1174 2358 -0.000125481
1175 2358 -0.000125374
1176 2358 -1.86142e-05
1205 2358 -9.89094e-07
1206 2358 -9.89094e-07
1207 2358 -1.18942e-06
1208 2358 -1.08926e-06
1209 2358 0
1210 2358 0
1620 2358 0
1742 2358 -0.0529101
1744 2358 -0.0529101
1749 2358 -0.203252
1792 2358 -9.89094e-07
1793 2358 0
1794 2358 0
1795 2358 0
1796 2358 0
2344 2358 0
2345 2358 0
2346 2358 0
2347 2358 0
2348 2358 0
2349 2358 0
2350 2358 0
2351 2358 0
2352 2358 0
2353 2358 0
2354 2358 -9.89094e-07
2355 2358 -9.89094e-07
2356 2358 -9.89094e-07
2357 2358 -9.89094e-07
2358 2358 0.309771
2359 2358 -5.56522e-06
2360 2358 -9.89094e-07
2361 2358 0
2362 2358 0
2363 2358 0
2364 2358 0
2365 2358 0
2366 2358 0
2367 2358 0
2368 2358 0
2369 2358 0
2370 2358 0
2371 2358 0
2379 2358 0
2380 2358 0
2383 2358 -2.29119e-06
2384 2358 -9.89094e-07
2390 2358 -2.17225e-06
2391 2358 -9.89094e-07
2392 2358 -1.08926e-06
2393 2358 -9.89094e-07
1234 2359 -6.19783e-05
1235 2359 -6.19577e-05
1240 2359 -1.20569e-05
1241 2359 -7.02888e-05
1242 2359 -7.02878e-05
1262 2359 -4.58239e-06
1618 2359 0
1619 2359 0
1620 2359 0
1719 2359 -0.0406504
1721 2359 -0.0406504
1726 2359 -0.285714
1727 2359 0
1741 2359 -6.1219e-05
1742 2359 -6.27188e-05
1747 2359 -1.20569e-05
1748 2359 -7.02887e-05
1749 2359 -7.02878e-05
1792 2359 -1.97193e-06
1793 2359 0
1794 2359 -6.09733e-06
1795 2359 0
1796 2359 0
2344 2359 0
2345 2359 0
2346 2359 0
2347 2359 0
2348 2359 0
2349 2359 0
2350 2359 -1.56502e-06
2351 2359 0
2352 2359 0
2353 2359 0
2354 2359 -7.90649e-06
2355 2359 -8.89559e-06
2356 2359 0
2357 2359 0
2358 2359 -5.56522e-06
2359 2359 0.368141
2360 2359 -9.89094e-07
2361 2359 0
2362 2359 0
2363 2359 0
2364 2359 0
2365 2359 0
2366 2359 0
2367 2359 0
2368 2359 0
2369 2359 0
2370 2359 0
2371 2359 0
2379 2359 0
2380 2359 0
2383 2359 0
2384 2359 0
2390 2359 0
2391 2359 0
2392 2359 0
2393 2359 0
1186 2360 -3.54571e-05
1187 2360 -3.54572e-05
1190 2360 -0.000112616
1191 2360 -0.000112511
1196 2360 -4.98303e-06
1197 2360 -3.54587e-05
1198 2360 -3.54556e-05
1201 2360 -2.06959e-05
1202 2360 -7.03051e-05
1203 2360 -3.98142e-06
1204 2360 -7.02715e-05
1205 2360 -8.3134e-06
1206 2360 -9.89094e-07
1207 2360 -1.97193e-06
1208 2360 -1.28958e-06
1209 2360 0
1210 2360 -9.89094e-07
1233 2360 -9.89094e-07
1619 2360 0
1620 2360 0
1751 2360 -0.0529101
1753 2360 -0.0529101
1767 2360 -0.203252
1792 2360 -4.58239e-06
1793 2360 0
1794 2360 0
1795 2360 0
1796 2360 0
2344 2360 0
2345 2360 0
2346 2360 0
2347 2360 0
2348 2360 0
2349 2360 0
2350 2360 0
2351 2360 0
2352 2360 0
2353 2360 0
2354 2360 0
2355 2360 -5.42124e-06
2356 2360 -9.89094e-07
2357 2360 -9.89094e-07
2358 2360 -9.89094e-07
2359 2360 -9.89094e-07
2360 2360 0.310293
2361 2360 0
2362 2360 0
2363 2360 0
2364 2360 0
2365 2360 0
2366 2360 0
2367 2360 0
2368 2360 0
2369 2360 0
2370 2360 0
2371 2360 0
2379 2360 0
2380 2360 0
2383 2360 -9.89094e-07
2384 2360 -9.89094e-07
2390 2360 -2.96102e-06
2391 2360 -1.97193e-06
2392 2360 -9.89094e-07
2393 2360 -9.89094e-07
1276 2361 -9.89094e-07
1281 2361 -3.54571e-05
1282 2361 -3.54572e-05
1287 2361 -2.06959e-05
1288 2361 -7.03056e-05
1289 2361 -7.0271e-05
1290 2361 -3.98142e-06
1617 2361 -9.89094e-07
1618 2361 0
1619 2361 -6.44789e-07
1620 2361 0
1646 2361 -1.00161e-06
1647 2361 -0.285714
1648 2361 0
1663 2361 -0.10989
1664 2361 -0.101626
1665 2361 0
1666 2361 0
1795 2361 -4.21304e-06
1796 2361 -2.21607e-06
2344 2361 0
2345 2361 0
2346 2361 0
2347 2361 -9.89094e-07
2348 2361 -2.21607e-06
2349 2361 0
2350 2361 -9.89094e-07
2351 2361 0
2352 2361 -9.89094e-07
2353 2361 -1.97193e-06
2354 2361 0
2355 2361 -9.89094e-07
2356 2361 0
2357 2361 0
2358 2361 0
2359 2361 0
2360 2361 0
2361 2361 0.497923
2362 2361 0
2363 2361 0
2364 2361 0
2365 2361 0
2366 2361 0
2367 2361 0
2368 2361 0
2369 2361 0
2370 2361 0
2371 2361 -9.89094e-07
2379 2361 0
2380 2361 0
2383 2361 -9.89094e-07
2384 2361 -9.89094e-07
2390 2361 0
2391 2361 0
2392 2361 0
2393 2361 0
523 2362 -6.13807e-05
524 2362 -6.25567e-05
531 2362 -0.203252
532 2362 -0.0529101
533 2362 -0.0529101
534 2362 -7.02898e-05
535 2362 -7.02868e-05
536 2362 0
537 2362 0
538 2362 0
539 2362 0
855 2362 -9.89094e-07
856 2362 -9.89094e-07
1051 2362 0
1052 2362 -9.89094e-07
1053 2362 -1.38974e-06
1054 2362 -2.96102e-06
1055 2362 -9.89094e-07
1056 2362 -2.37257e-06
1057 2362 -9.89094e-07
1058 2362 -1.97193e-06
1059 2362 -9.89094e-07
1060 2362 -9.89094e-07
1061 2362 -9.89094e-07
1062 2362 -9.89094e-07
1063 2362 -9.89094e-07
1064 2362 0
1065 2362 0
1066 2362 0
1067 2362 0
1068 2362 0
2107 2362 -1.97193e-06
2108 2362 0
2211 2362 -0.000123097
2212 2362 -0.000124777
2213 2362 -7.02898e-05
2214 2362 -7.02868e-05
2215 2362 0
2216 2362 0
2217 2362 0
2218 2362 -4.14418e-06
2262 2362 -6.32399e-05
2263 2362 -3.91618e-05
2264 2362 -3.91594e-05
2265 2362 -6.68973e-05
2284 2362 0
2334 2362 0
2335 2362 -6.44789e-07
2336 2362 -1.97193e-06
2337 2362 -1.97193e-06
2338 2362 0
2339 2362 0
2340 2362 -9.89094e-07
2341 2362 0
2342 2362 0
2343 2362 0
2344 2362 0
2345 2362 0
2346 2362 0
2347 2362 0
2348 2362 0
2349 2362 0
2350 2362 0
2351 2362 0
2352 2362 0
2353 2362 0
2354 2362 0
2355 2362 0
2356 2362 0
2357 2362 0
2358 2362 0
2359 2362 0
2360 2362 0
2361 2362 0
2362 2362 0.311271
2363 2362 -2.52282e-06
2364 2362 -9.89094e-07
2365 2362 -9.89094e-07
2366 2362 -9.89094e-07
2367 2362 -9.89094e-07
2368 2362 -7.98162e-06
2369 2362 0
2370 2362 0
2371 2362 0
2372 2362 0
2373 2362 0
2374 2362 0
2375 2362 0
2377 2362 0
2378 2362 0
2379 2362 0
2380 2362 0
2381 2362 0
2383 2362 0
2384 2362 0
2385 2362 0
2386 2362 0
2387 2362 0
2388 2362 0
2389 2362 0
2390 2362 0
2391 2362 0
2392 2362 0
2393 2362 0
2395 2362 0
803 2363 -2.07209e-06
804 2363 0
1052 2363 -1.97193e-06
1053 2363 -9.89094e-07
1054 2363 -1.97193e-06
1055 2363 -1.97193e-06
1056 2363 -1.97193e-06
1057 2363 -9.89094e-07
1058 2363 -9.89094e-07
1059 2363 0
1060 2363 0
1061 2363 0
1062 2363 0
1063 2363 -9.89094e-07
1064 2363 0
1065 2363 0
1066 2363 0
1067 2363 0
1068 2363 0
2107 2363 -1.97193e-06
2108 2363 0
2205 2363 -7.02886e-05
2206 2363 -7.02879e-05
2207 2363 -0.000122577
2208 2363 -0.000125298
2218 2363 -6.52301e-06
2272 2363 -0.0406504
2273 2363 -0.0406504
2274 2363 -0.285714
2275 2363 -3.51441e-05
2276 2363 -3.51442e-05
2281 2363 -4.98303e-06
2282 2363 -3.54896e-05
2283 2363 -3.54247e-05
2284 2363 -2.87964e-06
2334 2363 -6.09733e-06
2335 2363 -1.22698e-06
2336 2363 0
2337 2363 -9.89094e-07
2338 2363 0
2339 2363 0
2340 2363 -9.89094e-07
2341 2363 0
2342 2363 0
2343 2363 0
2344 2363 0
2345 2363 0
2346 2363 0
2347 2363 0
2348 2363 0
2349 2363 0
2350 2363 0
2351 2363 -1.78287e-05
2352 2363 0
2353 2363 0
2354 2363 0
2355 2363 0
2356 2363 0
2357 2363 0
2358 2363 0
2359 2363 0
2360 2363 0
2361 2363 0
2362 2363 -2.52282e-06
2363 2363 0.368517
2364 2363 0
2365 2363 0
2366 2363 0
2367 2363 0
2368 2363 0
2369 2363 -1.97193e-06
2370 2363 0
2371 2363 0
2372 2363 0
2373 2363 0
2374 2363 0
2375 2363 0
2377 2363 0
2378 2363 0
2379 2363 0
2380 2363 0
2381 2363 0
2383 2363 0
2384 2363 0
2385 2363 0
2386 2363 0
2387 2363 0
2388 2363 0
2389 2363 0
2390 2363 0
2391 2363 0
2392 2363 0
2393 2363 0
2395 2363 0
462 2364 -6.13979e-05
463 2364 -6.25394e-05
470 2364 -0.203252
471 2364 -0.0510204
472 2364 -0.0510204
473 2364 -7.02889e-05
474 2364 -7.02877e-05
475 2364 0
476 2364 0
477 2364 0
502 2364 0
697 2364 -4.69507e-06
764 2364 0
765 2364 0
766 2364 0
767 2364 0
1051 2364 -9.89094e-07
1052 2364 0
1053 2364 0
1054 2364 -2.96102e-06
1055 2364 -9.89094e-07
1056 2364 -3.29907e-06
1057 2364 -9.89094e-07
1058 2364 -1.97193e-06
1059 2364 -1.64014e-06
1060 2364 -9.89094e-07
1061 2364 -9.89094e-07
1062 2364 -9.89094e-07
1063 2364 -9.89094e-07
1064 2364 0
1065 2364 0
1066 2364 0
1067 2364 0
1068 2364 0
1689 2364 -9.89094e-07
1794 2364 0
1795 2364 -9.89094e-07
1796 2364 -9.89094e-07
2005 2364 -6.07917e-05
2006 2364 -6.31471e-05
2011 2364 -1.20569e-05
2012 2364 -7.02887e-05
2013 2364 -7.02879e-05
2037 2364 -4.58239e-06
2044 2364 -6.15178e-05
2045 2364 -6.24193e-05
2046 2364 -7.02886e-05
2047 2364 -7.0288e-05
2048 2364 0
2049 2364 0
2050 2364 0
2051 2364 -7.98162e-06
2052 2364 0
2053 2364 -6.37395e-05
2054 2364 -3.9161e-05
2055 2364 -3.91603e-05
2056 2364 -6.63964e-05
2066 2364 -9.89094e-07
2106 2364 -9.89094e-07
2107 2364 0
2108 2364 -9.89094e-07
2337 2364 0
2338 2364 0
2339 2364 0
2340 2364 -1.97193e-06
2341 2364 0
2342 2364 0
2343 2364 -1.97193e-06
2344 2364 -9.89094e-07
2345 2364 0
2346 2364 -1.97193e-06
2347 2364 -9.89094e-07
2348 2364 -9.89094e-07
2349 2364 -9.89094e-07
2350 2364 -9.89094e-07
2351 2364 -9.89094e-07
2352 2364 -2.94224e-06
2353 2364 -9.89094e-07
2354 2364 0
2355 2364 0
2356 2364 0
2357 2364 0
2358 2364 0
2359 2364 0
2360 2364 0
2361 2364 0
2362 2364 -9.89094e-07
2363 2364 0
2364 2364 0.308092
2365 2364 -1.97193e-06
2366 2364 -9.95354e-06
2367 2364 -9.87842e-06
2368 2364 0
2369 2364 -9.89094e-07
2370 2364 -9.89094e-07
2371 2364 0
2372 2364 0
2373 2364 0
2374 2364 0
2375 2364 0
2377 2364 0
2378 2364 0
2379 2364 0
2380 2364 0
2381 2364 0
2383 2364 0
2384 2364 0
2385 2364 0
2386 2364 0
2387 2364 0
2388 2364 0
2389 2364 0
2390 2364 0
2391 2364 0
2392 2364 0
2393 2364 0
2395 2364 0
632 2365 -1.97193e-06
697 2365 -1.97193e-06
764 2365 0
765 2365 0
766 2365 0
767 2365 0
1055 2365 -9.89094e-07
1056 2365 -2.96102e-06
1057 2365 -9.89094e-07
1058 2365 -9.89094e-07
1059 2365 0
1060 2365 -1.97193e-06
1061 2365 0
1062 2365 0
1063 2365 -9.89094e-07
1064 2365 0
1065 2365 0
1066 2365 0
1067 2365 0
1068 2365 0
1996 2365 -3.51444e-05
1997 2365 -3.51439e-05
2002 2365 -4.98303e-06
2003 2365 -0.0001236
2004 2365 -0.000124273
2026 2365 -0.0406504
2027 2365 -0.0406504
2028 2365 -0.285714
2029 2365 -3.51444e-05
2030 2365 -3.51439e-05
2031 2365 -0.000123609
2032 2365 -0.000124263
2033 2365 0
2034 2365 0
2035 2365 0
2036 2365 -2.80452e-06
2037 2365 0
2051 2365 -9.89094e-07
2052 2365 -6.09733e-06
2080 2365 -6.51561e-05
2081 2365 -3.91609e-05
2082 2365 -3.91603e-05
2083 2365 -6.49769e-05
2106 2365 -1.97193e-06
2107 2365 -1.97193e-06
2108 2365 0
2260 2365 -9.89094e-07
2261 2365 -9.89094e-07
2332 2365 -9.89094e-07
2333 2365 -9.89094e-07
2334 2365 -1.97193e-06
2335 2365 0
2336 2365 0
2337 2365 -9.89094e-07
2338 2365 -9.89094e-07
2339 2365 0
2340 2365 -1.97193e-06
2341 2365 -9.89094e-07
2342 2365 0
2343 2365 -9.89094e-07
2344 2365 0
2345 2365 -9.89094e-07
2346 2365 0
2347 2365 0
2348 2365 0
2349 2365 0
2350 2365 0
2351 2365 -1.18942e-06
2352 2365 -9.89094e-07
2353 2365 -1.18942e-06
2354 2365 0
2355 2365 0
2356 2365 0
2357 2365 0
2358 2365 0
2359 2365 0
2360 2365 0
2361 2365 0
2362 2365 -9.89094e-07
2363 2365 0
2364 2365 -1.97193e-06
2365 2365 0.369245
2366 2365 0
2367 2365 -3.86248e-06
2368 2365 0
2369 2365 -9.89094e-07
2370 2365 0
2371 2365 0
2372 2365 0
2373 2365 0
2374 2365 0
2375 2365 0
2377 2365 0
2378 2365 0
2379 2365 0
2380 2365 0
2381 2365 0
2383 2365 0
2384 2365 0
2385 2365 0
2386 2365 0
2387 2365 0
2388 2365 0
2389 2365 0
2390 2365 0
2391 2365 0
2392 2365 0
2393 2365 0
2395 2365 0
460 2366 -1.77285e-05
461 2366 -1.77286e-05
475 2366 -1.20569e-05
476 2366 -7.03047e-05
477 2366 -7.02719e-05
502 2366 -4.58239e-06
762 2366 -1.97193e-06
763 2366 -1.1769e-06
764 2366 -9.89094e-07
765 2366 0
766 2366 -9.89094e-07
767 2366 -9.89094e-07
855 2366 -9.89094e-07
856 2366 -1.97193e-06
1051 2366 -1.97193e-06
1052 2366 0
1053 2366 0
1054 2366 0
1055 2366 -9.89094e-07
1056 2366 0
1057 2366 0
1058 2366 -1.97193e-06
1059 2366 -9.89094e-07
1060 2366 0
1061 2366 -2.96102e-06
1062 2366 -9.89094e-07
1063 2366 -9.89094e-07
1064 2366 0
1065 2366 0
1066 2366 0
1067 2366 0
1068 2366 0
2082 2366 -0.043554
2083 2366 -0.0529101
2090 2366 -0.000112618
2091 2366 -0.000112508
2092 2366 -3.54578e-05
2093 2366 -3.54565e-05
2094 2366 0
2095 2366 0
2096 2366 0
2106 2366 0
2107 2366 0
2108 2366 -2.87964e-06
2337 2366 0
2338 2366 0
2339 2366 0
2340 2366 0
2341 2366 0
2342 2366 0
2343 2366 0
2344 2366 0
2345 2366 0
2346 2366 0
2347 2366 0
2348 2366 0
2349 2366 0
2350 2366 0
2351 2366 0
2352 2366 0
2353 2366 0
2354 2366 0
2355 2366 0
2356 2366 0
2357 2366 0
2358 2366 0
2359 2366 0
2360 2366 0
2361 2366 0
2362 2366 -9.89094e-07
2363 2366 0
2364 2366 -9.95354e-06
2365 2366 0
2366 2366 0.0978131
2367 2366 -9.89094e-07
2368 2366 0
2369 2366 0
2370 2366 0
2371 2366 0
2372 2366 0
2373 2366 0
2374 2366 0
2375 2366 0
2377 2366 0
2378 2366 0
2379 2366 0
2380 2366 0
2381 2366 0
2383 2366 0
2384 2366 0
2385 2366 0
2386 2366 0
2387 2366 0
2388 2366 0
2389 2366 0
2390 2366 0
2391 2366 0
2392 2366 0
2393 2366 0
2395 2366 0
447 2367 -0.0469043
448 2367 -0.0549451
449 2367 0
459 2367 0
484 2367 -0.000124109
485 2367 -0.000123763
488 2367 -3.51441e-05
489 2367 -3.51441e-05
490 2367 -0.000123901
491 2367 -0.000123971
492 2367 0
493 2367 0
494 2367 0
495 2367 -7.02889e-05
496 2367 -7.02877e-05
497 2367 0
498 2367 0
499 2367 0
500 2367 0
501 2367 -4.14418e-06
502 2367 -5.49636e-06
589 2367 -1.97193e-06
767 2367 -9.89094e-07
1055 2367 0
1056 2367 0
1057 2367 0
1058 2367 0
1059 2367 0
1060 2367 0
1061 2367 0
1062 2367 0
1063 2367 0
1064 2367 0
1065 2367 0
1066 2367 -1.97193e-06
1067 2367 -3.94386e-06
1068 2367 0
1689 2367 -9.89094e-07
1794 2367 0
1795 2367 -9.89094e-07
1796 2367 -9.89094e-07
1998 2367 -3.51445e-05
1999 2367 -3.51438e-05
2000 2367 -0.000123212
2001 2367 -0.000124662
2002 2367 0
2003 2367 0
2004 2367 0
2007 2367 -6.0795e-05
2008 2367 -6.31437e-05
2009 2367 -7.02886e-05
2010 2367 -7.0288e-05
2011 2367 0
2012 2367 0
2013 2367 0
2037 2367 0
2052 2367 -9.89094e-07
2108 2367 -1.97193e-06
2111 2367 -6.2023e-05
2112 2367 -6.19131e-05
2113 2367 -7.02886e-05
2114 2367 -7.0288e-05
2115 2367 0
2116 2367 0
2117 2367 0
2337 2367 0
2338 2367 0
2339 2367 0
2340 2367 0
2341 2367 0
2342 2367 0
2343 2367 0
2344 2367 -9.89094e-07
2345 2367 -1.97193e-06
2346 2367 -9.89094e-07
2347 2367 -1.64014e-06
2348 2367 0
2349 2367 0
2350 2367 -9.89094e-07
2351 2367 -1.64014e-06
2352 2367 -9.89094e-07
2353 2367 -9.89094e-07
2354 2367 0
2355 2367 0
2356 2367 0
2357 2367 0
2358 2367 0
2359 2367 0
2360 2367 0
2361 2367 0
2362 2367 -9.89094e-07
2363 2367 0
2364 2367 -9.87842e-06
2365 2367 -3.86248e-06
2366 2367 -9.89094e-07
2367 2367 0.105328
2368 2367 -9.87842e-06
2369 2367 -2.96102e-06
2370 2367 -5.91579e-06
2371 2367 -1.97193e-06
2372 2367 -9.89094e-07
2373 2367 -9.89094e-07
2374 2367 0
2375 2367 0
2377 2367 0
2378 2367 0
2379 2367 0
2380 2367 0
2381 2367 0
2383 2367 0
2384 2367 0
2385 2367 0
2386 2367 0
2387 2367 0
2388 2367 0
2389 2367 0
2390 2367 0
2391 2367 0
2392 2367 0
2393 2367 0
2395 2367 0
521 2368 -6.13851e-05
522 2368 -6.25523e-05
536 2368 -1.20569e-05
537 2368 -7.02887e-05
538 2368 -7.02879e-05
539 2368 -4.58239e-06
767 2368 -9.89094e-07
1055 2368 0
1056 2368 0
1057 2368 0
1058 2368 0
1059 2368 0
1060 2368 0
1061 2368 0
1062 2368 0
1063 2368 0
1064 2368 0
1065 2368 0
1066 2368 0
1067 2368 -9.89094e-07
1068 2368 0
2058 2368 -0.0406504
2060 2368 -0.0406504
2065 2368 -0.285714
2066 2368 0
2108 2368 -6.09733e-06
2109 2368 -6.2023e-05
2110 2368 -6.19131e-05
2115 2368 -1.20569e-05
2116 2368 -7.02888e-05
2117 2368 -7.02878e-05
2337 2368 0
2338 2368 0
2339 2368 0
2340 2368 0
2341 2368 0
2342 2368 0
2343 2368 0
2344 2368 -4.58239e-06
2345 2368 0
2346 2368 0
2347 2368 0
2348 2368 0
2349 2368 0
2350 2368 0
2351 2368 0
2352 2368 0
2353 2368 0
2354 2368 0
2355 2368 0
2356 2368 0
2357 2368 0
2358 2368 0
2359 2368 0
2360 2368 0
2361 2368 0
2362 2368 -7.98162e-06
2363 2368 0
2364 2368 0
2365 2368 0
2366 2368 0
2367 2368 -9.87842e-06
2368 2368 0.368404
2369 2368 -9.89094e-07
2370 2368 -9.89094e-07
2371 2368 -2.96102e-06
2372 2368 0
2373 2368 0
2374 2368 0
2375 2368 0
2377 2368 0
2378 2368 0
2379 2368 0
2380 2368 0
2381 2368 0
2383 2368 0
2384 2368 0
2385 2368 0
2386 2368 0
2387 2368 0
2388 2368 0
2389 2368 0
2390 2368 0
2391 2368 0
2392 2368 0
2393 2368 0
2395 2368 0
47 2369 -1.97193e-06
90 2369 -9.89094e-07
243 2369 0
378 2369 -9.89094e-07
720 2369 -9.89094e-07
764 2369 0
765 2369 -9.89094e-07
766 2369 0
767 2369 0
1055 2369 0
1056 2369 0
1057 2369 0
1058 2369 0
1059 2369 0
1060 2369 0
1061 2369 0
1062 2369 0
1063 2369 0
1064 2369 0
1065 2369 0
1066 2369 0
1067 2369 0
1068 2369 0
1796 2369 -9.89094e-07
2066 2369 -9.89094e-07
2108 2369 -1.97193e-06
2152 2369 -0.0469043
2153 2369 -0.0571429
2202 2369 0
2203 2369 0
2204 2369 0
2260 2369 -9.89094e-07
2261 2369 -9.89094e-07
2284 2369 -3.43053e-06
2332 2369 -9.89094e-07
2333 2369 -9.89094e-07
2334 2369 -9.89094e-07
2335 2369 -2.96102e-06
2336 2369 -1.97193e-06
2337 2369 -2.96102e-06
2338 2369 -1.97193e-06
2339 2369 -1.97193e-06
2340 2369 -1.97193e-06
2341 2369 -1.97193e-06
2342 2369 -5.87196e-06
2343 2369 -9.89094e-07
2344 2369 0
2345 2369 0
2346 2369 0
2347 2369 0
2348 2369 0
2349 2369 0
2350 2369 0
2351 2369 -9.89094e-07
2352 2369 -3.43053e-06
2353 2369 -9.89094e-07
2354 2369 0
2355 2369 0
2356 2369 0
2357 2369 0
2358 2369 0
2359 2369 0
2360 2369 0
2361 2369 0
2362 2369 0
2363 2369 -1.97193e-06
2364 2369 -9.89094e-07
2365 2369 -9.89094e-07
2366 2369 0
2367 2369 -2.96102e-06
2368 2369 -9.89094e-07
2369 2369 0.105365
2370 2369 -9.89094e-07
2371 2369 -4.14418e-06
2372 2369 0
2373 2369 0
2374 2369 0
2375 2369 0
2376 2369 -2.5729e-06
2377 2369 0
2378 2369 -1.97193e-06
2379 2369 -9.89094e-07
2380 2369 -9.89094e-07
2381 2369 0
2382 2369 0
2383 2369 -9.89094e-07
2384 2369 0
2385 2369 0
2386 2369 0
2387 2369 -9.89094e-07
2388 2369 -9.89094e-07
2389 2369 -1.97193e-06
2390 2369 -9.89094e-07
2391 2369 0
2392 2369 -9.89094e-07
2393 2369 -9.89094e-07
2394 2369 -9.89094e-07
2395 2369 0
46 2370 -9.89094e-07
47 2370 -9.89094e-07
440 2370 -9.89094e-07
588 2370 -9.89094e-07
589 2370 -9.89094e-07
678 2370 -9.89094e-07
720 2370 -1.97193e-06
762 2370 -1.97193e-06
763 2370 -1.97193e-06
764 2370 -1.97193e-06
765 2370 -9.89094e-07
766 2370 -1.97193e-06
767 2370 0
1055 2370 -9.89094e-07
1056 2370 0
1057 2370 0
1058 2370 0
1059 2370 0
1060 2370 0
1061 2370 0
1062 2370 0
1063 2370 -9.89094e-07
1064 2370 0
1065 2370 -9.89094e-07
1066 2370 -1.97193e-06
1067 2370 -3.94386e-06
1068 2370 -1.97193e-06
1689 2370 -1.97193e-06
1794 2370 0
1795 2370 -1.97193e-06
1796 2370 -1.97193e-06
2066 2370 -9.89094e-07
2108 2370 -9.89094e-07
2304 2370 -0.0762195
2305 2370 -0.142857
2306 2370 0
2315 2370 -0.101626
2316 2370 0
2331 2370 -1.68396e-05
2332 2370 0
2333 2370 0
2334 2370 0
2335 2370 0
2336 2370 0
2337 2370 0
2338 2370 0
2339 2370 0
2340 2370 0
2341 2370 0
2342 2370 0
2343 2370 0
2344 2370 -1.97193e-06
2345 2370 0
2346 2370 -1.97193e-06
2347 2370 0
2348 2370 0
2349 2370 0
2350 2370 0
2351 2370 -9.89094e-07
2352 2370 0
2353 2370 0
2354 2370 0
2355 2370 0
2356 2370 0
2357 2370 0
2358 2370 0
2359 2370 0
2360 2370 0
2361 2370 0
2362 2370 0
2363 2370 0
2364 2370 -9.89094e-07
2365 2370 0
2366 2370 0
2367 2370 -5.91579e-06
2368 2370 -9.89094e-07
2369 2370 -9.89094e-07
2370 2370 0.321953
2371 2370 0
2372 2370 -1.97193e-06
2373 2370 -1.97193e-06
2374 2370 -1.97193e-06
2375 2370 -1.97193e-06
2376 2370 -9.89094e-07
2377 2370 -1.97193e-06
2378 2370 0
2379 2370 -9.89094e-07
2380 2370 -1.28958e-06
2381 2370 -1.97193e-06
2382 2370 0
2383 2370 0
2384 2370 0
2385 2370 -9.89094e-07
2386 2370 -9.89094e-07
2387 2370 0
2388 2370 0
2389 2370 0
2390 2370 0
2391 2370 0
2392 2370 0
2393 2370 0
2394 2370 0
2395 2370 0
90 2371 -1.97193e-06
243 2371 0
322 2371 -1.97193e-06
323 2371 -9.89094e-07
324 2371 0
377 2371 -9.89094e-07
378 2371 0
1643 2371 -1.97193e-06
1713 2371 -1.97193e-06
1793 2371 -9.89094e-07
1794 2371 -9.89094e-07
1795 2371 0
1796 2371 0
1807 2371 -0.087108
1808 2371 -0.142857
1809 2371 0
1818 2371 -0.101626
1819 2371 0
1820 2371 -1.78287e-05
1849 2371 -9.89094e-07
1897 2371 -1.97193e-06
1994 2371 -9.89094e-07
1995 2371 0
2340 2371 0
2341 2371 0
2342 2371 0
2343 2371 -9.89094e-07
2344 2371 0
2345 2371 0
2346 2371 0
2347 2371 -1.97193e-06
2348 2371 0
2349 2371 0
2350 2371 -9.89094e-07
2351 2371 -9.89094e-07
2352 2371 -9.89094e-07
2353 2371 -9.89094e-07
2354 2371 -3.59329e-06
2355 2371 -9.89094e-07
2356 2371 -9.89094e-07
2357 2371 0
2358 2371 0
2359 2371 0
2360 2371 0
2361 2371 -9.89094e-07
2362 2371 0
2363 2371 0
2364 2371 0
2365 2371 0
2366 2371 0
2367 2371 -1.97193e-06
2368 2371 -2.96102e-06
2369 2371 -4.14418e-06
2370 2371 0
2371 2371 0.332607
2372 2371 0
2373 2371 0
2374 2371 0
2375 2371 0
2376 2371 0
2377 2371 0
2378 2371 -1.28958e-06
2379 2371 -9.89094e-07
2380 2371 -9.89094e-07
2381 2371 0
2382 2371 -1.97193e-06
2383 2371 -9.89094e-07
2384 2371 -9.89094e-07
2385 2371 0
2386 2371 0
2387 2371 -3.86248e-06
2388 2371 -9.89094e-07
2389 2371 0
2390 2371 -1.97193e-06
2391 2371 -9.89094e-07
2392 2371 -9.89094e-07
2393 2371 -9.89094e-07
2394 2371 -9.89094e-07
2395 2371 0
238 2372 -2.96102e-06
239 2372 -1.97193e-06
240 2372 0
241 2372 -1.97193e-06
242 2372 -1.97193e-06
243 2372 -1.97193e-06
414 2372 -9.13973e-07
415 2372 -1.97193e-06
439 2372 0
440 2372 0
479 2372 -0.087108
480 2372 -0.142857
481 2372 0
499 2372 -0.101626
500 2372 -1.68396e-05
501 2372 0
502 2372 -1.26454e-06
555 2372 -9.13973e-07
587 2372 -1.97193e-06
588 2372 -1.97193e-06
589 2372 -2.96102e-06
1046 2372 -2.96102e-06
1047 2372 0
1048 2372 0
1049 2372 0
1050 2372 0
1051 2372 -2.96102e-06
1052 2372 0
1053 2372 0
1054 2372 0
1055 2372 0
1056 2372 0
1057 2372 0
1058 2372 0
1059 2372 0
1060 2372 0
1061 2372 0
1062 2372 0
1063 2372 0
1064 2372 -1.97193e-06
1065 2372 -2.96102e-06
1066 2372 0
1067 2372 -1.97193e-06
1068 2372 -9.89094e-07
2362 2372 0
2363 2372 0
2364 2372 0
2365 2372 0
2366 2372 0
2367 2372 -9.89094e-07
2368 2372 0
2369 2372 0
2370 2372 -1.97193e-06
2371 2372 0
2372 2372 0.332504
2373 2372 -1.97193e-06
2374 2372 0
2375 2372 0
2376 2372 0
2377 2372 0
2378 2372 0
2379 2372 0
2380 2372 0
2381 2372 0
2382 2372 0
2383 2372 0
2384 2372 0
2385 2372 -1.97193e-06
2386 2372 -3.94386e-06
2387 2372 -1.97193e-06
2388 2372 0
2389 2372 0
2390 2372 0
2391 2372 0
2392 2372 0
2393 2372 0
2394 2372 0
2395 2372 -3.16135e-06
156 2373 -0.0762195
157 2373 -0.142857
158 2373 0
176 2373 -0.101626
177 2373 0
193 2373 -1.68396e-05
238 2373 -9.89094e-07
239 2373 -9.89094e-07
240 2373 0
241 2373 0
242 2373 -9.89094e-07
243 2373 0
452 2373 -1.77293e-05
453 2373 -1.77279e-05
454 2373 -0.000225259
455 2373 -0.000224994
456 2373 0
457 2373 0
458 2373 0
459 2373 0
502 2373 -9.89094e-07
503 2373 -0.000112472
504 2373 -0.000112655
509 2373 -4.98303e-06
510 2373 -3.5458e-05
511 2373 -3.54563e-05
539 2373 -3.86248e-06
1066 2373 -9.87842e-06
1067 2373 -1.97193e-06
1068 2373 -1.97193e-06
2362 2373 0
2363 2373 0
2364 2373 0
2365 2373 0
2366 2373 0
2367 2373 -9.89094e-07
2368 2373 0
2369 2373 0
2370 2373 -1.97193e-06
2371 2373 0
2372 2373 -1.97193e-06
2373 2373 0.322152
2374 2373 0
2375 2373 0
2376 2373 0
2377 2373 0
2378 2373 0
2379 2373 -6.09733e-06
2380 2373 0
2381 2373 -1.97193e-06
2382 2373 0
2383 2373 0
2384 2373 0
2385 2373 -4.89539e-06
2386 2373 0
2387 2373 -9.89094e-07
2388 2373 -1.97193e-06
2389 2373 0
2390 2373 0
2391 2373 0
2392 2373 0
2393 2373 0
2394 2373 0
2395 2373 -1.26454e-06
15 2374 -6.10443e-05
16 2374 -6.28939e-05
21 2374 -1.20569e-05
22 2374 -7.02886e-05
23 2374 -7.0288e-05
47 2374 -4.58239e-06
48 2374 -6.47304e-05
49 2374 -3.91609e-05
50 2374 -3.91603e-05
51 2374 -6.54032e-05
66 2374 0
114 2374 -3.51442e-05
115 2374 -3.51441e-05
120 2374 -4.98303e-06
121 2374 -3.54793e-05
122 2374 -3.5435e-05
241 2374 -7.78755e-06
242 2374 -9.89094e-07
243 2374 -1.97193e-06
337 2374 -0.000124175
338 2374 -0.000123698
347 2374 -0.0406504
348 2374 -0.0406504
349 2374 -0.285714
350 2374 -7.02888e-05
351 2374 -7.02878e-05
356 2374 -5.97213e-06
357 2374 -9.89094e-07
378 2374 -4.21304e-06
1067 2374 -1.97193e-06
1068 2374 -1.97193e-06
2362 2374 0
2363 2374 0
2364 2374 0
2365 2374 0
2366 2374 0
2367 2374 0
2368 2374 0
2369 2374 0
2370 2374 -1.97193e-06
2371 2374 0
2372 2374 0
2373 2374 0
2374 2374 0.369022
2375 2374 -1.03792e-05
2376 2374 0
2377 2374 -1.97193e-06
2378 2374 -9.89094e-07
2379 2374 -9.89094e-07
2380 2374 -9.89094e-07
2381 2374 -1.97193e-06
2382 2374 0
2383 2374 -1.97193e-06
2384 2374 0
2385 2374 0
2386 2374 0
2387 2374 -2.62298e-06
2388 2374 -9.89094e-07
2389 2374 -3.86248e-06
2390 2374 -9.89094e-07
2391 2374 0
2392 2374 -1.97193e-06
2393 2374 0
2394 2374 -9.89094e-07
2395 2374 0
17 2375 -6.10398e-05
18 2375 -6.28985e-05
19 2375 -7.02898e-05
20 2375 -7.02868e-05
21 2375 0
22 2375 0
23 2375 0
30 2375 -6.11888e-05
31 2375 -6.27491e-05
38 2375 -0.203252
39 2375 -0.0529101
40 2375 -0.0529101
41 2375 -7.02906e-05
42 2375 -7.0286e-05
43 2375 0
44 2375 0
45 2375 0
46 2375 -7.90649e-06
47 2375 -9.89094e-07
109 2375 -0.000121311
110 2375 -0.000126567
111 2375 -7.02865e-05
112 2375 -7.02901e-05
113 2375 -1.96379e-05
241 2375 -9.89094e-07
242 2375 -4.188e-06
243 2375 -1.97193e-06
429 2375 -5.98038e-05
430 2375 -6.41374e-05
435 2375 -1.20569e-05
436 2375 -7.02895e-05
437 2375 -7.02871e-05
438 2375 -9.89094e-07
439 2375 -4.58239e-06
440 2375 -8.89559e-06
1067 2375 0
1068 2375 0
2362 2375 0
2363 2375 0
2364 2375 0
2365 2375 0
2366 2375 0
2367 2375 0
2368 2375 0
2369 2375 0
2370 2375 -1.97193e-06
2371 2375 0
2372 2375 0
2373 2375 0
2374 2375 -1.03792e-05
2375 2375 0.311384
2376 2375 -9.89094e-07
2377 2375 -2.96102e-06
2378 2375 -3.94386e-06
2379 2375 -9.89094e-07
2380 2375 -2.96102e-06
2381 2375 -2.96102e-06
2382 2375 0
2383 2375 -1.97193e-06
2384 2375 0
2385 2375 -1.97193e-06
2386 2375 0
2387 2375 0
2388 2375 -9.89094e-07
2389 2375 -9.89094e-07
2390 2375 -9.89094e-07
2391 2375 0
2392 2375 -1.97193e-06
2393 2375 0
2394 2375 0
2395 2375 0
29 2376 -0.0529101
31 2376 -0.0529101
45 2376 -0.203252
46 2376 -5.56522e-06
47 2376 -9.89094e-07
243 2376 -9.89094e-07
352 2376 -3.54571e-05
353 2376 -3.54572e-05
354 2376 -7.02621e-05
355 2376 -7.03145e-05
356 2376 -1.96379e-05
357 2376 0
361 2376 -3.54556e-05
362 2376 -3.54587e-05
365 2376 -0.000225325
366 2376 -0.000224929
376 2376 -5.97213e-06
377 2376 -4.21304e-06
378 2376 -4.188e-06
2369 2376 -2.5729e-06
2370 2376 -9.89094e-07
2371 2376 0
2372 2376 0
2373 2376 0
2374 2376 0
2375 2376 -9.89094e-07
2376 2376 0.310456
2377 2376 -9.89094e-07
2378 2376 -2.94224e-06
2379 2376 -9.89094e-07
2380 2376 -9.89094e-07
2381 2376 -9.89094e-07
2382 2376 0
2383 2376 -9.89094e-07
2384 2376 0
2385 2376 0
2386 2376 0
2387 2376 -9.89094e-07
2388 2376 -9.89094e-07
2389 2376 -1.97193e-06
2390 2376 -9.89094e-07
2391 2376 -9.89094e-07
2392 2376 -9.89094e-07
2393 2376 -1.97193e-06
2394 2376 -1.97193e-06
2395 2376 0
7 2377 -3.51443e-05
8 2377 -3.5144e-05
9 2377 -0.000124362
10 2377 -0.000123511
11 2377 0
12 2377 0
13 2377 0
14 2377 -2.87964e-06
24 2377 -6.47508e-05
25 2377 -3.91608e-05
26 2377 -3.91604e-05
27 2377 -6.53827e-05
46 2377 -1.97193e-06
47 2377 -9.89094e-07
94 2377 -0.000125433
95 2377 -0.000122443
104 2377 -0.0406504
105 2377 -0.0406504
106 2377 -0.285714
107 2377 -7.02884e-05
108 2377 -7.02881e-05
113 2377 -5.97213e-06
242 2377 -4.21304e-06
243 2377 0
1068 2377 -1.97193e-06
2362 2377 0
2363 2377 0
2364 2377 0
2365 2377 0
2366 2377 0
2367 2377 0
2368 2377 0
2369 2377 0
2370 2377 -1.97193e-06
2371 2377 0
2372 2377 0
2373 2377 0
2374 2377 -1.97193e-06
2375 2377 -2.96102e-06
2376 2377 -9.89094e-07
2377 2377 0.368751
2378 2377 -9.89094e-07
2379 2377 -9.89094e-07
2380 2377 -9.89094e-07
2381 2377 -2.96102e-06
2382 2377 0
2383 2377 0
2384 2377 0
2385 2377 0
2386 2377 0
2387 2377 0
2388 2377 -1.13934e-06
2389 2377 0
2390 2377 0
2391 2377 0
2392 2377 0
2393 2377 0
2394 2377 0
2395 2377 0
47 2378 -2.96102e-06
69 2378 -6.13979e-05
70 2378 -6.25395e-05
71 2378 -7.02899e-05
72 2378 -7.02867e-05
73 2378 0
74 2378 0
75 2378 0
90 2378 -7.90649e-06
243 2378 0
250 2378 -6.11818e-05
251 2378 -6.27561e-05
258 2378 -0.203252
259 2378 -0.0529101
260 2378 -0.0529101
261 2378 -7.02907e-05
262 2378 -7.02859e-05
263 2378 0
264 2378 0
265 2378 0
266 2378 -6.05063e-05
267 2378 -6.34332e-05
272 2378 -1.20569e-05
273 2378 -7.02897e-05
274 2378 -7.02869e-05
323 2378 -4.58239e-06
324 2378 0
416 2378 -6.32172e-05
417 2378 -3.91619e-05
418 2378 -3.91593e-05
419 2378 -6.69201e-05
438 2378 0
439 2378 0
440 2378 -9.89094e-07
1067 2378 -1.97193e-06
1068 2378 -1.97193e-06
2362 2378 0
2363 2378 0
2364 2378 0
2365 2378 0
2366 2378 0
2367 2378 0
2368 2378 0
2369 2378 -1.97193e-06
2370 2378 0
2371 2378 -1.28958e-06
2372 2378 0
2373 2378 0
2374 2378 -9.89094e-07
2375 2378 -3.94386e-06
2376 2378 -2.94224e-06
2377 2378 -9.89094e-07
2378 2378 0.311261
2379 2378 -3.94386e-06
2380 2378 -3.94386e-06
2381 2378 0
2382 2378 -1.97193e-06
2383 2378 -1.97193e-06
2384 2378 0
2385 2378 0
2386 2378 0
2387 2378 -7.98162e-06
2388 2378 -1.19255e-05
2389 2378 0
2390 2378 0
2391 2378 0
2392 2378 0
2393 2378 0
2394 2378 0
2395 2378 0
66 2379 -2.74818e-06
243 2379 0
439 2379 -6.65448e-06
440 2379 -9.89094e-07
504 2379 -0.0406504
506 2379 -0.0406504
511 2379 -0.285714
539 2379 -9.89094e-07
1066 2379 -9.89094e-07
1067 2379 -9.89094e-07
1068 2379 -9.89094e-07
1100 2379 -3.51445e-05
1101 2379 -3.51438e-05
1106 2379 -4.98303e-06
1107 2379 -0.000123922
1108 2379 -0.00012395
1113 2379 -3.51445e-05
1114 2379 -3.51438e-05
1119 2379 -4.98303e-06
1120 2379 -0.000124172
1121 2379 -0.0001237
1122 2379 -6.09733e-06
1132 2379 0
1133 2379 -5.6153e-06
1134 2379 0
1208 2379 0
1209 2379 -6.09733e-06
1210 2379 0
1620 2379 0
2351 2379 -9.89094e-07
2352 2379 0
2353 2379 0
2354 2379 0
2355 2379 0
2356 2379 0
2357 2379 0
2358 2379 0
2359 2379 0
2360 2379 0
2361 2379 0
2362 2379 0
2363 2379 0
2364 2379 0
2365 2379 0
2366 2379 0
2367 2379 0
2368 2379 0
2369 2379 -9.89094e-07
2370 2379 -9.89094e-07
2371 2379 -9.89094e-07
2372 2379 0
2373 2379 -6.09733e-06
2374 2379 -9.89094e-07
2375 2379 -9.89094e-07
2376 2379 -9.89094e-07
2377 2379 -9.89094e-07
2378 2379 -3.94386e-06
2379 2379 0.368486
2380 2379 0
2381 2379 -9.89094e-07
2382 2379 -1.97193e-06
2383 2379 -9.89094e-07
2384 2379 -9.89094e-07
2385 2379 0
2386 2379 0
2387 2379 0
2388 2379 -2.96102e-06
2389 2379 0
2390 2379 0
2391 2379 0
2392 2379 0
2393 2379 0
2394 2379 0
2395 2379 0
47 2380 -1.97193e-06
440 2380 -9.89094e-07
513 2380 -0.0406504
515 2380 -0.0406504
520 2380 -0.285714
539 2380 0
1066 2380 -6.09733e-06
1067 2380 -9.89094e-07
1068 2380 -1.13934e-06
1123 2380 -3.51445e-05
1124 2380 -3.51438e-05
1129 2380 -4.98303e-06
1130 2380 -0.000123914
1131 2380 -0.000123958
1132 2380 -2.87964e-06
1133 2380 0
1134 2380 -6.09733e-06
1163 2380 -3.51445e-05
1164 2380 -3.51438e-05
1165 2380 -0.000123928
1166 2380 -0.000123944
1167 2380 0
1168 2380 0
1169 2380 0
1170 2380 -9.89094e-07
1171 2380 -2.80452e-06
1172 2380 -9.89094e-07
1206 2380 0
1207 2380 0
1208 2380 -1.97193e-06
1209 2380 -9.89094e-07
1210 2380 0
1620 2380 0
2351 2380 -2.29119e-06
2352 2380 0
2353 2380 0
2354 2380 0
2355 2380 0
2356 2380 0
2357 2380 0
2358 2380 0
2359 2380 0
2360 2380 0
2361 2380 0
2362 2380 0
2363 2380 0
2364 2380 0
2365 2380 0
2366 2380 0
2367 2380 0
2368 2380 0
2369 2380 -9.89094e-07
2370 2380 -1.28958e-06
2371 2380 -9.89094e-07
2372 2380 0
2373 2380 0
2374 2380 -9.89094e-07
2375 2380 -2.96102e-06
2376 2380 -9.89094e-07
2377 2380 -9.89094e-07
2378 2380 -3.94386e-06
2379 2380 0
2380 2380 0.368622
2381 2380 -9.89094e-07
2382 2380 -1.97193e-06
2383 2380 -9.89094e-07
2384 2380 -9.89094e-07
2385 2380 0
2386 2380 0
2387 2380 0
2388 2380 0
2389 2380 0
2390 2380 -1.97193e-06
2391 2380 -9.89094e-07
2392 2380 -9.89094e-07
2393 2380 -9.89094e-07
2394 2380 0
2395 2380 0
6 2381 -0.0406504
8 2381 -0.0406504
13 2381 -0.285714
14 2381 -7.08642e-06
46 2381 -1.97193e-06
47 2381 -9.89094e-07
405 2381 -1.77294e-05
406 2381 -1.77278e-05
411 2381 -1.20569e-05
412 2381 -0.000225296
413 2381 -0.000224958
414 2381 -7.98162e-06
415 2381 0
439 2381 0
440 2381 -9.89094e-07
502 2381 -1.97193e-06
539 2381 -2.96102e-06
1066 2381 -1.97193e-06
1067 2381 -1.97193e-06
1068 2381 -1.97193e-06
2362 2381 0
2363 2381 0
2364 2381 0
2365 2381 0
2366 2381 0
2367 2381 0
2368 2381 0
2369 2381 0
2370 2381 -1.97193e-06
2371 2381 0
2372 2381 0
2373 2381 -1.97193e-06
2374 2381 -1.97193e-06
2375 2381 -2.96102e-06
2376 2381 -9.89094e-07
2377 2381 -2.96102e-06
2378 2381 0
2379 2381 -9.89094e-07
2380 2381 -9.89094e-07
2381 2381 0.368091
2382 2381 0
2383 2381 0
2384 2381 0
2385 2381 0
2386 2381 0
2387 2381 0
2388 2381 0
2389 2381 0
2390 2381 0
2391 2381 0
2392 2381 0
2393 2381 0
2394 2381 0
2395 2381 -4.58239e-06
47 2382 -1.97193e-06
80 2382 -3.51443e-05
81 2382 -3.5144e-05
86 2382 -4.98303e-06
87 2382 -0.000124086
88 2382 -0.000123786
89 2382 -7.08642e-06
90 2382 0
243 2382 0
244 2382 -6.50701e-05
245 2382 -3.91608e-05
246 2382 -3.91604e-05
247 2382 -6.50627e-05
287 2382 -0.0406504
288 2382 -0.0406504
289 2382 -0.285714
290 2382 -3.51443e-05
291 2382 -3.5144e-05
292 2382 -0.000124108
293 2382 -0.000123765
294 2382 0
295 2382 0
296 2382 0
321 2382 -9.89094e-07
322 2382 -2.80452e-06
323 2382 0
324 2382 -9.89094e-07
2369 2382 0
2370 2382 0
2371 2382 -1.97193e-06
2372 2382 0
2373 2382 0
2374 2382 0
2375 2382 0
2376 2382 0
2377 2382 0
2378 2382 -1.97193e-06
2379 2382 -1.97193e-06
2380 2382 -1.97193e-06
2381 2382 0
2382 2382 0.368667
2383 2382 -1.97193e-06
2384 2382 -9.89094e-07
2385 2382 0
2386 2382 0
2387 2382 -5.3649e-06
2388 2382 -1.97193e-06
2389 2382 0
2390 2382 -1.97193e-06
2391 2382 -2.49152e-06
2392 2382 -1.53998e-06
2393 2382 -9.89094e-07
2394 2382 -9.89094e-07
2395 2382 0
47 2383 -1.97193e-06
90 2383 -9.89094e-07
240 2383 -9.89094e-07
241 2383 -1.97193e-06
242 2383 -1.97193e-06
243 2383 -2.96102e-06
1262 2383 -9.89094e-07
1524 2383 -0.087108
1525 2383 -0.142857
1526 2383 0
1535 2383 -0.101626
1536 2383 0
1575 2383 -1.78287e-05
1603 2383 -9.89094e-07
1604 2383 0
1605 2383 -9.89094e-07
1606 2383 0
1607 2383 -1.97193e-06
1608 2383 -1.97193e-06
1609 2383 0
1610 2383 0
1611 2383 0
1612 2383 0
1613 2383 -9.89094e-07
1614 2383 0
1615 2383 0
1616 2383 0
1617 2383 -9.89094e-07
1618 2383 0
1619 2383 0
1620 2383 0
2351 2383 -1.18942e-06
2352 2383 -9.89094e-07
2353 2383 -9.89094e-07
2354 2383 -1.97193e-06
2355 2383 -9.89094e-07
2356 2383 -9.89094e-07
2357 2383 -9.89094e-07
2358 2383 -2.29119e-06
2359 2383 0
2360 2383 -9.89094e-07
2361 2383 -9.89094e-07
2362 2383 0
2363 2383 0
2364 2383 0
2365 2383 0
2366 2383 0
2367 2383 0
2368 2383 0
2369 2383 -9.89094e-07
2370 2383 0
2371 2383 -9.89094e-07
2372 2383 0
2373 2383 0
2374 2383 -1.97193e-06
2375 2383 -1.97193e-06
2376 2383 -9.89094e-07
2377 2383 0
2378 2383 -1.97193e-06
2379 2383 -9.89094e-07
2380 2383 -9.89094e-07
2381 2383 0
2382 2383 -1.97193e-06
2383 2383 0.332571
2384 2383 0
2385 2383 0
2386 2383 0
2387 2383 -9.89094e-07
2388 2383 -9.89094e-07
2389 2383 -1.97193e-06
2390 2383 -9.89094e-07
2391 2383 0
2392 2383 -9.89094e-07
2393 2383 0
2394 2383 0
2395 2383 0
321 2384 -1.97193e-06
322 2384 -2.17225e-06
323 2384 -9.89094e-07
324 2384 -9.89094e-07
377 2384 -9.89094e-07
378 2384 0
1262 2384 -9.89094e-07
1603 2384 -9.89094e-07
1604 2384 0
1605 2384 -2.96102e-06
1606 2384 -9.89094e-07
1607 2384 -1.97193e-06
1608 2384 -9.89094e-07
1609 2384 0
1610 2384 0
1611 2384 -1.97193e-06
1612 2384 0
1613 2384 -9.89094e-07
1614 2384 0
1615 2384 0
1616 2384 0
1617 2384 -9.89094e-07
1618 2384 0
1619 2384 0
1620 2384 0
1908 2384 -0.087108
1909 2384 -0.142857
1910 2384 0
1919 2384 -0.101626
1920 2384 0
1921 2384 -1.78287e-05
1993 2384 -9.89094e-07
1994 2384 0
1995 2384 0
2340 2384 0
2341 2384 0
2342 2384 0
2343 2384 0
2344 2384 0
2345 2384 0
2346 2384 0
2347 2384 0
2348 2384 0
2349 2384 0
2350 2384 0
2351 2384 -9.89094e-07
2352 2384 -9.89094e-07
2353 2384 -9.89094e-07
2354 2384 -1.97193e-06
2355 2384 -9.89094e-07
2356 2384 -9.89094e-07
2357 2384 -9.89094e-07
2358 2384 -9.89094e-07
2359 2384 0
2360 2384 -9.89094e-07
2361 2384 -9.89094e-07
2362 2384 0
2363 2384 0
2364 2384 0
2365 2384 0
2366 2384 0
2367 2384 0
2368 2384 0
2369 2384 0
2370 2384 0
2371 2384 -9.89094e-07
2372 2384 0
2373 2384 0
2374 2384 0
2375 2384 0
2376 2384 0
2377 2384 0
2378 2384 0
2379 2384 -9.89094e-07
2380 2384 -9.89094e-07
2381 2384 0
2382 2384 -9.89094e-07
2383 2384 0
2384 2384 0.332551
2385 2384 0
2386 2384 0
2387 2384 -1.97193e-06
2388 2384 0
2389 2384 0
2390 2384 -1.97193e-06
2391 2384 -9.89094e-07
2392 2384 -9.89094e-07
2393 2384 -9.89094e-07
2394 2384 -9.89094e-07
2395 2384 0
209 2385 -6.19389e-05
210 2385 -6.19972e-05
215 2385 -1.20569e-05
216 2385 -7.02888e-05
217 2385 -7.02878e-05
237 2385 -5.56522e-06
238 2385 0
239 2385 0
240 2385 -9.89094e-07
241 2385 -9.89094e-07
242 2385 -1.03918e-06
243 2385 -9.89094e-07
421 2385 -0.0381098
423 2385 -0.0381098
428 2385 -0.285714
438 2385 -9.89094e-07
439 2385 -6.09733e-06
440 2385 0
560 2385 -6.12345e-05
561 2385 -6.27032e-05
566 2385 -1.20569e-05
567 2385 -7.02887e-05
568 2385 -7.02878e-05
587 2385 -1.97193e-06
588 2385 -4.58239e-06
589 2385 0
1064 2385 0
1065 2385 -1.97193e-06
1066 2385 0
1067 2385 -9.89094e-07
1068 2385 0
2362 2385 0
2363 2385 0
2364 2385 0
2365 2385 0
2366 2385 0
2367 2385 0
2368 2385 0
2369 2385 0
2370 2385 -9.89094e-07
2371 2385 0
2372 2385 -1.97193e-06
2373 2385 -4.89539e-06
2374 2385 0
2375 2385 -1.97193e-06
2376 2385 0
2377 2385 0
2378 2385 0
2379 2385 0
2380 2385 0
2381 2385 0
2382 2385 0
2383 2385 0
2384 2385 0
2385 2385 0.363242
2386 2385 -7.90649e-06
2387 2385 -9.95354e-06
2388 2385 0
2389 2385 0
2390 2385 0
2391 2385 0
2392 2385 0
2393 2385 0
2394 2385 0
2395 2385 -9.89094e-07
132 2386 -6.28618e-05
133 2386 -3.91611e-05
134 2386 -3.91602e-05
135 2386 -6.72762e-05
145 2386 0
161 2386 -0.000121872
162 2386 -0.000126005
169 2386 -0.203252
170 2386 -0.0510204
171 2386 -0.0510204
172 2386 -7.02887e-05
173 2386 -7.02878e-05
174 2386 0
175 2386 0
176 2386 0
177 2386 -4.14418e-06
193 2386 -1.97193e-06
238 2386 -9.89094e-07
239 2386 -9.89094e-07
240 2386 0
241 2386 0
242 2386 -9.89094e-07
243 2386 0
562 2386 -6.12293e-05
563 2386 -6.27085e-05
564 2386 -7.02887e-05
565 2386 -7.02878e-05
566 2386 0
567 2386 0
568 2386 0
588 2386 0
589 2386 0
1064 2386 0
1065 2386 0
1066 2386 0
1067 2386 -9.89094e-07
1068 2386 0
2362 2386 0
2363 2386 0
2364 2386 0
2365 2386 0
2366 2386 0
2367 2386 0
2368 2386 0
2369 2386 0
2370 2386 -9.89094e-07
2371 2386 0
2372 2386 -3.94386e-06
2373 2386 0
2374 2386 0
2375 2386 0
2376 2386 0
2377 2386 0
2378 2386 0
2379 2386 0
2380 2386 0
2381 2386 0
2382 2386 0
2383 2386 0
2384 2386 0
2385 2386 -7.90649e-06
2386 2386 0.307022
2387 2386 0
2388 2386 0
2389 2386 0
2390 2386 0
2391 2386 0
2392 2386 0
2393 2386 0
2394 2386 0
2395 2386 -6.44789e-07
82 2387 -3.51445e-05
83 2387 -3.51438e-05
84 2387 -0.000124246
85 2387 -0.000123627
86 2387 0
87 2387 0
88 2387 0
89 2387 -9.89094e-07
90 2387 0
211 2387 -6.19389e-05
212 2387 -6.19972e-05
213 2387 -7.02886e-05
214 2387 -7.0288e-05
215 2387 0
216 2387 0
217 2387 0
237 2387 -9.89094e-07
238 2387 0
239 2387 0
240 2387 -9.89094e-07
241 2387 -1.97193e-06
242 2387 -9.89094e-07
243 2387 -9.89094e-07
268 2387 -6.0512e-05
269 2387 -6.34274e-05
270 2387 -7.02887e-05
271 2387 -7.02878e-05
272 2387 0
273 2387 0
274 2387 0
304 2387 -0.000123856
305 2387 -0.000124017
308 2387 -3.51441e-05
309 2387 -3.51441e-05
310 2387 -0.000123892
311 2387 -0.00012398
312 2387 0
313 2387 0
314 2387 0
315 2387 -7.0289e-05
316 2387 -7.02876e-05
317 2387 0
318 2387 0
319 2387 -4.14418e-06
320 2387 0
321 2387 -9.89094e-07
322 2387 -1.97193e-06
323 2387 -9.89094e-07
324 2387 -4.4384e-06
542 2387 -0.043554
543 2387 -0.0529101
555 2387 0
589 2387 0
1064 2387 0
1065 2387 0
1066 2387 0
1067 2387 0
1068 2387 0
2362 2387 0
2363 2387 0
2364 2387 0
2365 2387 0
2366 2387 0
2367 2387 0
2368 2387 0
2369 2387 -9.89094e-07
2370 2387 0
2371 2387 -3.86248e-06
2372 2387 -1.97193e-06
2373 2387 -9.89094e-07
2374 2387 -2.62298e-06
2375 2387 0
2376 2387 -9.89094e-07
2377 2387 0
2378 2387 -7.98162e-06
2379 2387 0
2380 2387 0
2381 2387 0
2382 2387 -5.3649e-06
2383 2387 -9.89094e-07
2384 2387 -1.97193e-06
2385 2387 -9.95354e-06
2386 2387 0
2387 2387 0.0994733
2388 2387 0
2389 2387 -1.97193e-06
2390 2387 -3.94386e-06
2391 2387 -1.97193e-06
2392 2387 -2.96102e-06
2393 2387 -3.26151e-06
2394 2387 -9.89094e-07
2395 2387 -9.89094e-07
47 2388 -1.97193e-06
246 2388 -0.043554
247 2388 -0.0529101
248 2388 -1.77285e-05
249 2388 -1.77286e-05
263 2388 -1.20569e-05
264 2388 -7.03013e-05
265 2388 -7.02753e-05
324 2388 -4.58239e-06
394 2388 -0.000112669
395 2388 -0.000112458
396 2388 -3.54578e-05
397 2388 -3.54565e-05
398 2388 0
399 2388 0
400 2388 0
415 2388 0
439 2388 -2.87964e-06
440 2388 -9.89094e-07
1067 2388 0
1068 2388 -1.97193e-06
2362 2388 0
2363 2388 0
2364 2388 0
2365 2388 0
2366 2388 0
2367 2388 0
2368 2388 0
2369 2388 -9.89094e-07
2370 2388 0
2371 2388 -9.89094e-07
2372 2388 0
2373 2388 -1.97193e-06
2374 2388 -9.89094e-07
2375 2388 -9.89094e-07
2376 2388 -9.89094e-07
2377 2388 -1.13934e-06
2378 2388 -1.19255e-05
2379 2388 -2.96102e-06
2380 2388 0
2381 2388 0
2382 2388 -1.97193e-06
2383 2388 -9.89094e-07
2384 2388 0
2385 2388 0
2386 2388 0
2387 2388 0
2388 2388 0.0977056
2389 2388 0
2390 2388 0
2391 2388 0
2392 2388 0
2393 2388 0
2394 2388 0
2395 2388 0
52 2389 -0.00022531
53 2389 -0.000224943
54 2389 -3.54561e-05
55 2389 -3.54582e-05
65 2389 -6.52301e-06
66 2389 0
116 2389 -0.000112687
117 2389 -0.00011244
118 2389 -3.54585e-05
119 2389 -3.54558e-05
120 2389 0
121 2389 0
122 2389 0
241 2389 -9.89094e-07
242 2389 -1.99071e-06
243 2389 -2.21607e-06
327 2389 -0.000112653
328 2389 -0.000112474
329 2389 -3.54578e-05
330 2389 -3.54565e-05
331 2389 0
332 2389 0
333 2389 0
357 2389 0
378 2389 -1.97193e-06
390 2389 -0.043554
391 2389 -0.0529101
440 2389 0
1067 2389 0
1068 2389 0
2362 2389 0
2363 2389 0
2364 2389 0
2365 2389 0
2366 2389 0
2367 2389 0
2368 2389 0
2369 2389 -1.97193e-06
2370 2389 0
2371 2389 0
2372 2389 0
2373 2389 0
2374 2389 -3.86248e-06
2375 2389 -9.89094e-07
2376 2389 -1.97193e-06
2377 2389 0
2378 2389 0
2379 2389 0
2380 2389 0
2381 2389 0
2382 2389 0
2383 2389 -1.97193e-06
2384 2389 0
2385 2389 0
2386 2389 0
2387 2389 -1.97193e-06
2388 2389 0
2389 2389 0.098281
2390 2389 -1.78287e-05
2391 2389 0
2392 2389 -1.97193e-06
2393 2389 -1.97193e-06
2394 2389 -3.79361e-06
2395 2389 0
53 2390 -0.0762195
54 2390 -0.142857
55 2390 0
64 2390 -0.101626
65 2390 0
66 2390 0
89 2390 -1.97193e-06
90 2390 -1.97193e-06
91 2390 -0.000122792
92 2390 -0.000125082
93 2390 -3.00484e-06
95 2390 0
96 2390 -7.02886e-05
97 2390 -7.0288e-05
113 2390 -3.98142e-06
242 2390 -3.19891e-06
243 2390 -2.25363e-06
321 2390 -2.37257e-06
322 2390 -2.17225e-06
323 2390 -1.97193e-06
324 2390 -2.96102e-06
358 2390 -0.000123893
359 2390 -0.000123979
360 2390 -3.00484e-06
362 2390 0
363 2390 -7.02883e-05
364 2390 -7.02883e-05
376 2390 -3.98142e-06
377 2390 -4.188e-06
378 2390 -9.89094e-07
1132 2390 -3.43053e-06
1133 2390 -2.96102e-06
1134 2390 -2.17225e-06
1171 2390 -1.97193e-06
1172 2390 -1.97193e-06
1205 2390 -1.97193e-06
1206 2390 0
1207 2390 -1.97193e-06
1208 2390 -1.97193e-06
1209 2390 -4.41336e-06
1210 2390 -1.97193e-06
1233 2390 -1.97193e-06
1261 2390 -2.74818e-06
1262 2390 0
1315 2390 -1.97193e-06
1338 2390 -4.2506e-06
1379 2390 -2.17225e-06
1380 2390 -1.97193e-06
1426 2390 -1.97193e-06
1469 2390 -1.97193e-06
1470 2390 -3.16135e-06
1471 2390 -2.96102e-06
1472 2390 -2.96102e-06
1608 2390 -1.97193e-06
1609 2390 -2.96102e-06
1610 2390 -1.97193e-06
1611 2390 -1.97193e-06
1612 2390 -3.94386e-06
1613 2390 -1.97193e-06
1614 2390 -2.96102e-06
1615 2390 0
1616 2390 -1.97193e-06
1617 2390 -2.96102e-06
1618 2390 -1.97193e-06
1619 2390 -2.96102e-06
1620 2390 -1.74031e-06
1921 2390 -1.97193e-06
1993 2390 -1.97193e-06
1994 2390 0
1995 2390 0
2340 2390 0
2341 2390 0
2342 2390 -1.97193e-06
2343 2390 0
2344 2390 0
2345 2390 0
2346 2390 0
2347 2390 0
2348 2390 0
2349 2390 0
2350 2390 0
2351 2390 0
2352 2390 -2.96102e-06
2353 2390 -1.97193e-06
2354 2390 0
2355 2390 -2.96102e-06
2356 2390 -1.97193e-06
2357 2390 -1.97193e-06
2358 2390 -2.17225e-06
2359 2390 0
2360 2390 -2.96102e-06
2361 2390 0
2362 2390 0
2363 2390 0
2364 2390 0
2365 2390 0
2366 2390 0
2367 2390 0
2368 2390 0
2369 2390 -9.89094e-07
2370 2390 0
2371 2390 -1.97193e-06
2372 2390 0
2373 2390 0
2374 2390 -9.89094e-07
2375 2390 -9.89094e-07
2376 2390 -9.89094e-07
2377 2390 0
2378 2390 0
2379 2390 0
2380 2390 -1.97193e-06
2381 2390 0
2382 2390 -1.97193e-06
2383 2390 -9.89094e-07
2384 2390 -1.97193e-06
2385 2390 0
2386 2390 0
2387 2390 -3.94386e-06
2388 2390 0
2389 2390 -1.78287e-05
2390 2390 0.323494
2391 2390 -9.89094e-07
2392 2390 -9.89094e-07
2393 2390 -9.89094e-07
2394 2390 -9.89094e-07
2395 2390 0
321 2391 -1.97193e-06
322 2391 -1.97193e-06
323 2391 -9.89094e-07
324 2391 -1.97193e-06
377 2391 -1.97193e-06
378 2391 -9.89094e-07
1170 2391 -1.97193e-06
1171 2391 -1.97193e-06
1172 2391 -1.97193e-06
1205 2391 -1.97193e-06
1206 2391 -1.97193e-06
1207 2391 -1.97193e-06
1208 2391 -1.97193e-06
1209 2391 -9.89094e-07
1210 2391 -9.89094e-07
1315 2391 -1.97193e-06
1338 2391 -1.97193e-06
1379 2391 -1.97193e-06
1380 2391 -1.97193e-06
1469 2391 -1.97193e-06
1470 2391 -2.96102e-06
1471 2391 -9.89094e-07
1472 2391 -1.97193e-06
1611 2391 -9.89094e-07
1612 2391 -2.96102e-06
1613 2391 -9.89094e-07
1614 2391 -2.96102e-06
1615 2391 -2.96102e-06
1616 2391 -1.97193e-06
1617 2391 -1.97193e-06
1618 2391 0
1619 2391 0
1620 2391 -4.93295e-06
1921 2391 -9.89094e-07
1951 2391 -0.043554
1952 2391 -0.0529101
1991 2391 0
1992 2391 0
1993 2391 -9.89094e-07
1994 2391 0
1995 2391 0
2340 2391 0
2341 2391 0
2342 2391 -9.89094e-07
2343 2391 0
2344 2391 0
2345 2391 0
2346 2391 0
2347 2391 0
2348 2391 0
2349 2391 0
2350 2391 0
2351 2391 0
2352 2391 -1.97193e-06
2353 2391 -1.97193e-06
2354 2391 0
2355 2391 -1.97193e-06
2356 2391 0
2357 2391 0
2358 2391 -9.89094e-07
2359 2391 0
2360 2391 -1.97193e-06
2361 2391 0
2362 2391 0
2363 2391 0
2364 2391 0
2365 2391 0
2366 2391 0
2367 2391 0
2368 2391 0
2369 2391 0
2370 2391 0
2371 2391 -9.89094e-07
2372 2391 0
2373 2391 0
2374 2391 0
2375 2391 0
2376 2391 -9.89094e-07
2377 2391 0
2378 2391 0
2379 2391 0
2380 2391 -9.89094e-07
2381 2391 0
2382 2391 -2.49152e-06
2383 2391 0
2384 2391 -9.89094e-07
2385 2391 0
2386 2391 0
2387 2391 -1.97193e-06
2388 2391 0
2389 2391 0
2390 2391 -9.89094e-07
2391 2391 0.0973899
2392 2391 0
2393 2391 0
2394 2391 -9.89094e-07
2395 2391 0
90 2392 -1.97193e-06
240 2392 -9.89094e-07
241 2392 -1.97193e-06
242 2392 -1.97193e-06
243 2392 -2.96102e-06
322 2392 -1.97193e-06
323 2392 -9.89094e-07
324 2392 -9.89094e-07
1134 2392 -1.97193e-06
1208 2392 -1.97193e-06
1209 2392 -9.89094e-07
1210 2392 -9.89094e-07
1233 2392 -1.97193e-06
1278 2392 -0.0762195
1279 2392 -0.142857
1280 2392 0
1289 2392 -0.101626
1290 2392 0
1616 2392 -1.97193e-06
1617 2392 -9.89094e-07
1618 2392 -1.88116e-05
1619 2392 0
1620 2392 0
2351 2392 0
2352 2392 -9.89094e-07
2353 2392 0
2354 2392 0
2355 2392 -9.89094e-07
2356 2392 0
2357 2392 -1.97193e-06
2358 2392 -1.08926e-06
2359 2392 0
2360 2392 -9.89094e-07
2361 2392 0
2362 2392 0
2363 2392 0
2364 2392 0
2365 2392 0
2366 2392 0
2367 2392 0
2368 2392 0
2369 2392 -9.89094e-07
2370 2392 0
2371 2392 -9.89094e-07
2372 2392 0
2373 2392 0
2374 2392 -1.97193e-06
2375 2392 -1.97193e-06
2376 2392 -9.89094e-07
2377 2392 0
2378 2392 0
2379 2392 0
2380 2392 -9.89094e-07
2381 2392 0
2382 2392 -1.53998e-06
2383 2392 -9.89094e-07
2384 2392 -9.89094e-07
2385 2392 0
2386 2392 0
2387 2392 -2.96102e-06
2388 2392 0
2389 2392 -1.97193e-06
2390 2392 -9.89094e-07
2391 2392 0
2392 2392 0.321537
2393 2392 0
2394 2392 0
2395 2392 0
90 2393 -1.97193e-06
243 2393 0
322 2393 -1.97193e-06
323 2393 -2.29119e-06
324 2393 -1.03918e-06
378 2393 -9.89094e-07
1208 2393 -1.97193e-06
1209 2393 -9.89094e-07
1210 2393 -9.89094e-07
1233 2393 -1.97193e-06
1474 2393 -0.0762195
1475 2393 -0.142857
1476 2393 0
1485 2393 -0.101626
1486 2393 0
1609 2393 0
1610 2393 -1.88116e-05
1611 2393 -2.25363e-06
1612 2393 -1.97193e-06
1613 2393 -9.89094e-07
1614 2393 0
1615 2393 0
1616 2393 -1.97193e-06
1617 2393 -4.48222e-06
1618 2393 0
1619 2393 0
1620 2393 0
2351 2393 0
2352 2393 -9.89094e-07
2353 2393 -9.89094e-07
2354 2393 0
2355 2393 -9.89094e-07
2356 2393 0
2357 2393 0
2358 2393 -9.89094e-07
2359 2393 0
2360 2393 -9.89094e-07
2361 2393 0
2362 2393 0
2363 2393 0
2364 2393 0
2365 2393 0
2366 2393 0
2367 2393 0
2368 2393 0
2369 2393 -9.89094e-07
2370 2393 0
2371 2393 -9.89094e-07
2372 2393 0
2373 2393 0
2374 2393 0
2375 2393 0
2376 2393 -1.97193e-06
2377 2393 0
2378 2393 0
2379 2393 0
2380 2393 -9.89094e-07
2381 2393 0
2382 2393 -9.89094e-07
2383 2393 0
2384 2393 -9.89094e-07
2385 2393 0
2386 2393 0
2387 2393 -3.26151e-06
2388 2393 0
2389 2393 -1.97193e-06
2390 2393 -9.89094e-07
2391 2393 0
2392 2393 0
2393 2393 0.321544
2394 2393 -9.89094e-07
2395 2393 0
123 2394 -0.000112575
124 2394 -0.000112551
129 2394 -4.98303e-06
130 2394 -3.54588e-05
131 2394 -3.54555e-05
240 2394 -7.08642e-06
241 2394 -2.80452e-06
242 2394 0
243 2394 0
280 2394 -0.0406504
291 2394 -0.0406504
296 2394 -0.285714
321 2394 -9.89094e-07
322 2394 -7.08642e-06
323 2394 0
324 2394 -9.89094e-07
325 2394 -0.000112653
326 2394 -0.000112474
331 2394 -4.98303e-06
332 2394 -3.54581e-05
333 2394 -3.54562e-05
357 2394 -6.09733e-06
377 2394 -1.97193e-06
378 2394 -1.97193e-06
2369 2394 -9.89094e-07
2370 2394 0
2371 2394 -9.89094e-07
2372 2394 0
2373 2394 0
2374 2394 -9.89094e-07
2375 2394 0
2376 2394 -1.97193e-06
2377 2394 0
2378 2394 0
2379 2394 0
2380 2394 0
2381 2394 0
2382 2394 -9.89094e-07
2383 2394 0
2384 2394 -9.89094e-07
2385 2394 0
2386 2394 0
2387 2394 -9.89094e-07
2388 2394 0
2389 2394 -3.79361e-06
2390 2394 -9.89094e-07
2391 2394 -9.89094e-07
2392 2394 0
2393 2394 -9.89094e-07
2394 2394 0.368247
2395 2394 0
159 2395 -0.000121884
160 2395 -0.000125993
174 2395 -2.06959e-05
175 2395 -7.02887e-05
176 2395 -7.02878e-05
177 2395 -3.98142e-06
193 2395 -1.22698e-06
218 2395 -6.50438e-05
219 2395 -3.9161e-05
220 2395 -3.91603e-05
221 2395 -6.50891e-05
236 2395 0
237 2395 0
238 2395 -1.97193e-06
239 2395 -1.97193e-06
240 2395 -9.89094e-07
241 2395 -1.97193e-06
242 2395 -9.89094e-07
243 2395 -1.97193e-06
406 2395 -0.0510204
408 2395 -0.0510204
413 2395 -0.203252
414 2395 0
415 2395 -9.89094e-07
439 2395 0
440 2395 0
1067 2395 0
1068 2395 0
2362 2395 0
2363 2395 0
2364 2395 0
2365 2395 0
2366 2395 0
2367 2395 0
2368 2395 0
2369 2395 0
2370 2395 0
2371 2395 0
2372 2395 -3.16135e-06
2373 2395 -1.26454e-06
2374 2395 0
2375 2395 0
2376 2395 0
2377 2395 0
2378 2395 0
2379 2395 0
2380 2395 0
2381 2395 -4.58239e-06
2382 2395 0
2383 2395 0
2384 2395 0
2385 2395 -9.89094e-07
2386 2395 -6.44789e-07
2387 2395 -9.89094e-07
2388 2395 0
2389 2395 0
2390 2395 0
2391 2395 0
2392 2395 0
2393 2395 0
2394 2395 0
2395 2395 0.306491
