%MatrixMarket matrix coordinate real general
4960 4960 19848
1 1 8.2271771300037998e-03
4 1 -6.2213299382135997e-10
29 1 -1.6461558108345000e-04
2 2 1.9388442261567999e-02
3 2 -1.2561372645911999e-03
29 2 -4.3506915449498002e-04
2 3 -1.1812279642492000e-03
3 3 1.9463369866961001e-02
29 3 -4.3506962963057999e-04
4956 3 -1.6666666666667000e-02
1 4 -4.2158340125660998e-12
4 4 7.5572172476477996e-03
29 4 -1.6206460597873999e-04
4956 4 -6.6666666666667001e-03
5 5 1.7814705943620002e-02
6 5 -1.2130535938793000e-06
44 5 -1.4164148680070001e-04
5 6 -2.3973297889082999e-08
6 6 1.7296474464066999e-02
29 6 -1.6666666666667000e-02
44 6 -1.3967108548695000e-04
7 7 1.7814705981658002e-02
8 7 -1.2130837439785000e-06
28 7 -1.4164181477007001e-04
7 8 -2.3973910704098001e-08
8 8 1.7296474465172001e-02
28 8 -1.3967114230513999e-04
29 8 -1.6666666666667000e-02
9 9 9.2658242581899006e-03
10 9 -6.2285628116586997e-04
44 9 -4.3506659834139001e-04
9 10 -6.7147236267532998e-04
10 10 9.2165822185902007e-03
11 10 -6.6666666666667001e-03
44 10 -4.3503178753577000e-04
10 11 -6.6666666666667001e-03
11 11 1.3333333333332999e-02
26 11 -6.6666666666667001e-03
12 12 8.2271780058310005e-03
24 12 -1.6475053400663001e-04
25 12 -7.9536600264608004e-10
13 13 9.2645202995666007e-03
21 13 -6.2228104570682995e-04
14 14 9.2627319090865003e-03
20 14 -6.2214008476907997e-04
15 15 1.7813593026863001e-02
16 15 -2.3362810265582000e-07
15 16 -3.8766754897836003e-06
16 16 1.7897699974892000e-02
17 16 -1.6666666666667000e-02
16 17 -1.6666666666667000e-02
17 17 3.3333333333333000e-02
18 17 -1.6666666666667000e-02
17 18 -1.6666666666667000e-02
18 18 1.7900499694174999e-02
19 18 -7.5532493517355998e-06
18 19 -7.7911531205856001e-08
19 19 1.7296994494395000e-02
24 19 -1.6666666666667000e-02
14 20 -6.6839979879776998e-04
20 20 9.2029193071309998e-03
24 20 -6.6666666666667001e-03
13 21 -6.6872120831597997e-04
21 21 9.2044840402563007e-03
24 21 -6.6666666666667001e-03
22 22 1.9459741016468000e-02
23 22 -1.1776777481694999e-03
24 22 -4.3507011305571000e-04
22 23 -1.2525085925735001e-03
23 23 1.9384878014039000e-02
24 23 -4.3506867106838000e-04
28 23 -1.6666666666667000e-02
12 24 -1.6142431077912001e-04
19 24 -1.6666666666667000e-02
20 24 -6.6666666666667001e-03
21 24 -6.6666666666667001e-03
22 24 -4.3507549391443002e-04
23 24 -4.3506342528949000e-04
24 24 3.1979558900393001e-02
25 24 -1.6142318159678999e-04
12 25 -5.4093512811727999e-12
24 25 -1.6209152338794001e-04
25 25 7.5572189664726000e-03
28 25 -6.6666666666667001e-03
11 26 -6.6666666666667001e-03
26 26 9.2651548758171005e-03
27 26 -6.2280387130917000e-04
28 26 -4.3506668704699998e-04
26 27 -6.7135018524226004e-04
27 27 9.2159801596809008e-03
28 27 -4.3503169881449998e-04
29 27 -6.6666666666667001e-03
7 28 -1.4022949940147001e-04
8 28 -1.3828669551386999e-04
23 28 -1.6666666666667000e-02
25 28 -6.6666666666667001e-03
26 28 -4.3512092789199999e-04
27 28 -4.3498040177735001e-04
28 28 2.5369028318998999e-02
1 29 -1.6142418715866001e-04
2 29 -4.3506741846886999e-04
3 29 -4.3507141014402999e-04
4 29 -1.6142330521726000e-04
6 29 -1.6666666666667000e-02
8 29 -1.6666666666667000e-02
27 29 -6.6666666666667001e-03
29 29 4.1983406789281003e-02
30 30 8.2271779054142007e-03
33 30 -6.0557181469338000e-10
43 30 -1.6460175779421001e-04
31 31 1.9463757260498999e-02
32 31 -1.1816050592778999e-03
43 31 -4.3506999825433001e-04
31 32 -1.2565261930168000e-03
32 32 1.9388808980705000e-02
43 32 -4.3506878587024002e-04
44 32 -1.6666666666667000e-02
30 33 -4.1017192957206001e-12
33 33 7.5572187731978999e-03
43 33 -1.6206162328982000e-04
44 33 -6.6666666666667001e-03
34 34 8.2272271599900006e-03
42 34 -2.5154677427004002e-10
104 34 -1.6410311803432000e-04
35 35 9.2171727833076002e-03
36 35 -6.7160635112100005e-04
35 36 -6.2295818827365996e-04
36 36 9.2659668129038992e-03
43 36 -6.6666666666667001e-03
37 37 1.7813947040430000e-02
38 37 -1.1998666800237000e-06
39 37 -1.6666666666667000e-02
37 38 -2.3743915434118001e-08
38 38 1.7296423161196998e-02
43 38 -1.6666666666667000e-02
37 39 -1.6666666666667000e-02
39 39 3.3333333333333000e-02
41 39 -1.6666666666667000e-02
40 40 1.9470456778415999e-02
41 40 -1.1883852474432000e-03
104 40 -4.3510504320375001e-04
39 41 -1.6666666666667000e-02
40 41 -1.2629201642592000e-03
41 41 1.9394316087251000e-02
104 41 -4.3503373689081002e-04
34 42 -2.5311315184311003e-10
42 42 8.2273072992538002e-03
43 42 -6.6666666666667001e-03
104 42 -1.6430006797446000e-04
30 43 -1.6142417532404000e-04
31 43 -4.3507454361700002e-04
32 43 -4.3506435401466001e-04
33 43 -1.6142331705188001e-04
36 43 -6.6666666666667001e-03
38 43 -1.6666666666667000e-02
42 43 -6.6666666666667001e-03
43 43 3.2099792066624000e-02
5 44 -1.4022947497780000e-04
6 44 -1.3828671993754000e-04
9 44 -4.3512057627373001e-04
10 44 -4.3498074046488002e-04
32 44 -1.6666666666667000e-02
33 44 -6.6666666666667001e-03
44 44 2.5599430413545999e-02
45 45 9.1569867747220996e-03
48 45 -6.0450101623568003e-04
154 45 -4.3428129340823002e-04
46 46 1.8333343887319001e-02
47 46 -3.4618631297759998e-05
154 46 -5.4465836279133999e-04
46 47 -4.7344691457973997e-06
47 47 1.7296255648917000e-02
104 47 -1.6666666666667000e-02
154 47 -1.4116550576247000e-04
45 48 -5.7530746753612998e-04
48 48 9.2188738706184999e-03
104 48 -6.6666666666667001e-03
154 48 -4.3581416353757001e-04
49 49 8.2271771745012993e-03
52 49 -6.0717711385301000e-10
62 49 -1.6460226643762001e-04
50 50 1.9463721130359001e-02
51 50 -1.1815662405016999e-03
62 50 -4.3506944275390998e-04
50 51 -1.2564949562771000e-03
51 51 1.9388790144623001e-02
62 51 -4.3506934137181998e-04
83 51 -1.6666666666667000e-02
49 52 -4.1129742098685002e-12
52 52 7.5572177433611996e-03
62 52 -1.6206192209573000e-04
83 52 -6.6666666666667001e-03
53 53 9.2657344634761007e-03
61 53 -6.2273747087481001e-04
67 53 -4.3504978350780000e-04
54 54 9.2658872839021002e-03
55 54 -6.2288539414128005e-04
54 55 -6.7160242389005000e-04
55 55 9.2171490394704000e-03
62 55 -6.6666666666667001e-03
56 56 1.7814017671101998e-02
57 56 -5.2209018983426004e-07
67 56 -1.4047999447931001e-04
56 57 -5.0065764712481999e-08
57 57 1.7749187536527000e-02
58 57 -1.6666666666667000e-02
67 57 -1.4022967653145999e-04
57 58 -1.6666666666667000e-02
58 58 3.3333333333333000e-02
59 58 -1.6666666666667000e-02
58 59 -1.6666666666667000e-02
59 59 1.7749561793008000e-02
60 59 -4.2682429064890999e-07
59 60 -9.4728187737897996e-09
60 60 1.7296413787001998e-02
62 60 -1.6666666666667000e-02
53 61 -6.7144477808891003e-04
61 61 9.2170033856429998e-03
62 61 -6.6666666666667001e-03
67 61 -4.3504860388598999e-04
49 62 -1.6142417649156999e-04
50 62 -4.3506982282957000e-04
51 62 -4.3506897078808999e-04
52 62 -1.6142331588434001e-04
55 62 -6.6666666666667001e-03
60 62 -1.6666666666667000e-02
61 62 -6.6666666666667001e-03
62 62 3.2099747888067999e-02
63 63 8.2272272863895008e-03
66 63 -3.7946614643281002e-10
104 63 -1.6440847735236001e-04
64 64 1.9470454597009999e-02
65 64 -1.1883850164422999e-03
104 64 -4.3510548916850001e-04
64 65 -1.2629133160496000e-03
65 65 1.9394300456639001e-02
67 65 -1.6666666666667000e-02
104 65 -4.3503329082451999e-04
63 66 -2.5431450562448001e-12
66 66 7.5572852660824004e-03
67 66 -6.6666666666667001e-03
104 66 -1.6200894628320999e-04
53 67 -4.3505161195795999e-04
56 67 -1.3960878598261999e-04
57 67 -1.3890740893272001e-04
61 67 -4.3504687478138001e-04
65 67 -1.6666666666667000e-02
66 67 -6.6666666666667001e-03
67 67 2.5851518858768002e-02
68 68 1.7814705996480999e-02
69 68 -1.2131002586144000e-06
81 68 -1.4164026230183000e-04
68 69 -2.3972637226778999e-08
69 69 1.7296439374909999e-02
70 69 -1.6666666666667000e-02
81 69 -1.3967081078098000e-04
69 70 -1.6666666666667000e-02
70 70 2.3854346543977001e-02
72 70 -6.6666666666667001e-03
71 71 9.2658575506953996e-03
72 71 -6.2287203753287005e-04
81 71 -4.3505789924622000e-04
70 72 -6.6666666666667001e-03
71 72 -6.7154036306145003e-04
72 72 9.2168760456408996e-03
81 72 -4.3504048776946000e-04
73 73 1.9463676244715001e-02
74 73 -1.1815229379672999e-03
90 73 -4.3506951817182002e-04
73 74 -1.2564495018600999e-03
74 74 1.9388744033886001e-02
81 74 -1.6666666666667000e-02
90 74 -4.3506926595386999e-04
75 75 1.7814431872489999e-02
76 75 -9.3381395535282995e-07
83 75 -1.4034817347750999e-04
75 76 -9.3377548881179996e-07
76 76 1.7814429215394001e-02
81 76 -1.6666666666667000e-02
83 76 -1.4034816257528000e-04
77 77 8.2271772807497000e-03
78 77 -5.4537729479304001e-10
90 77 -1.6458249397460000e-04
77 78 -3.8135236709772003e-12
78 78 7.5912133066619002e-03
79 78 -6.6666666666667001e-03
90 78 -1.6212720968743999e-04
78 79 -6.6666666666667001e-03
79 79 1.3333333333332999e-02
80 79 -6.6666666666667001e-03
79 80 -6.6666666666667001e-03
80 80 7.5912139793204002e-03
82 80 -6.9525111236932004e-10
83 80 -1.6685428842217999e-04
68 81 -1.4022952796920000e-04
69 81 -1.3828666694614000e-04
71 81 -4.3508489892204999e-04
72 81 -4.3501495423953001e-04
74 81 -1.6666666666667000e-02
76 81 -1.6666666666667000e-02
81 81 4.2092966467289002e-02
82 81 -6.6666666666667001e-03
80 82 -1.2554367215016001e-11
81 82 -6.6666666666667001e-03
82 82 7.5572178813488001e-03
83 82 -1.6631928724575000e-04
51 83 -1.6666666666667000e-02
52 83 -6.6666666666667001e-03
75 83 -1.3925812448568000e-04
76 83 -1.3925807042966000e-04
80 83 -1.6142437369009999e-04
82 83 -1.6142311868580999e-04
83 83 2.5282353193923999e-02
84 84 9.2656188558475003e-03
87 84 -6.2262514291571997e-04
103 84 -4.3505409487140998e-04
85 85 1.7814722220341001e-02
86 85 -1.2304828017775001e-06
103 85 -1.4182918357339000e-04
85 86 -2.4326055326876999e-08
86 86 1.7296434458128999e-02
90 86 -1.6666666666667000e-02
103 86 -1.3970353348705000e-04
84 87 -6.7130557826097998e-04
87 87 9.2167613655811005e-03
90 87 -6.6666666666667001e-03
103 87 -4.3504429240373002e-04
88 88 8.2272272863324995e-03
89 88 -3.7940896629365002e-10
104 88 -1.6440845041860999e-04
88 89 -2.5428469764452001e-12
89 89 7.5573284681390001e-03
103 89 -6.6666666666667001e-03
104 89 -1.6200901953045000e-04
73 90 -4.3507046367348000e-04
74 90 -4.3506834406626998e-04
77 90 -1.6142413176231001e-04
78 90 -1.6142336061359999e-04
86 90 -1.6666666666667000e-02
87 90 -6.6666666666667001e-03
90 90 2.5550307754401001e-02
91 91 9.2658694994054002e-03
94 91 -6.2287756960353001e-04
92 92 1.7814705984629000e-02
93 92 -1.2130871933068001e-06
92 93 -2.3972172944611000e-08
93 93 1.7296435046335001e-02
100 93 -1.6666666666667000e-02
91 94 -6.7156490520926999e-04
94 94 9.2169828406315005e-03
100 94 -6.6666666666667001e-03
95 95 1.9463474233026998e-02
96 95 -1.1814951765929001e-03
100 95 -4.3511283139318003e-04
95 96 -1.2557862209183999e-03
96 96 1.9387240384246000e-02
97 96 -1.6666666666667000e-02
100 96 -4.3502594673349999e-04
96 97 -1.6666666666667000e-02
97 97 3.3333333333333000e-02
102 97 -1.6666666666667000e-02
98 98 8.2271773020396993e-03
99 98 -6.0906736979255997e-10
100 98 -1.6460427236560999e-04
98 99 -4.1263029538943998e-12
99 99 7.5573248387139002e-03
100 99 -1.6206250389073001e-04
103 99 -6.6666666666667001e-03
93 100 -1.6666666666667000e-02
94 100 -6.6666666666667001e-03
95 100 -4.3543849581526001e-04
96 100 -4.3470840667866000e-04
98 100 -1.6142417783319001e-04
99 100 -1.6142331454272000e-04
100 100 2.5548977425812001e-02
101 101 1.9393372472430000e-02
102 101 -1.2625883403112000e-03
103 101 -1.6666666666667000e-02
104 101 -4.3505198239920999e-04
97 102 -1.6666666666667000e-02
101 102 -1.1881942287638001e-03
102 102 1.9468549010854999e-02
104 102 -4.3508680076390001e-04
84 103 -4.3506928394613001e-04
85 103 -1.4024361838448001e-04
86 103 -1.3827257653085999e-04
87 103 -4.3502992882866998e-04
89 103 -6.6666666666667001e-03
99 103 -6.6666666666667001e-03
101 103 -1.6666666666667000e-02
103 103 3.2202275230644999e-02
34 104 -1.6142374565584000e-04
40 104 -4.3537451617840003e-04
41 104 -4.3477092553001001e-04
42 104 -1.6142374672007000e-04
47 104 -1.6666666666667000e-02
48 104 -6.6666666666667001e-03
63 104 -1.6142401335901999e-04
64 104 -4.3537833284308002e-04
65 104 -4.3476719201014001e-04
66 104 -1.6142347901689999e-04
88 104 -1.6142401331790000e-04
89 104 -1.6142347905801001e-04
101 104 -4.3492367863128998e-04
102 104 -4.3521835096184999e-04
104 104 2.9267596755563001e-02
105 105 8.2268529795088002e-03
117 105 -1.6724053453402000e-04
118 105 -2.2501421201495999e-08
106 106 9.2186585827232995e-03
107 106 -6.7145424205730002e-04
106 107 -6.4621245586975000e-04
107 107 9.2946634222865997e-03
123 107 -6.6666666666667001e-03
108 108 9.2342712675978003e-03
111 108 -6.0775734547657996e-04
109 109 1.7814961333477999e-02
110 109 -1.1692117539777999e-06
109 110 -2.3405554633148001e-08
110 110 1.7308628105063999e-02
117 110 -1.6666666666667000e-02
108 111 -6.0681477628597995e-04
111 111 8.9711944236557997e-03
117 111 -6.6666666666667001e-03
112 112 1.9370279163177000e-02
113 112 -1.0930248819108999e-03
117 112 -4.3564759909735002e-04
112 113 -1.1581040921826999e-03
113 113 1.9281987099642000e-02
114 113 -1.6666666666667000e-02
117 113 -4.3449007753883001e-04
113 114 -1.6666666666667000e-02
114 114 3.3333333333333000e-02
115 114 -1.6666666666667000e-02
114 115 -1.6666666666667000e-02
115 115 1.7804039839098999e-02
116 115 -1.0430947653165000e-06
115 116 -2.0969522291912999e-08
116 116 1.7295045505752001e-02
123 116 -1.6666666666667000e-02
105 117 -1.6106898018871001e-04
110 117 -1.6666666666667000e-02
111 117 -6.6666666666667001e-03
112 117 -4.3952401906975001e-04
113 117 -4.3072154473890000e-04
117 117 2.5501362665952002e-02
118 117 -1.6177851218720000e-04
105 118 -9.3262895274355005e-07
117 118 -1.9279849176054000e-04
118 118 8.2574508685265002e-03
123 118 -6.6666666666667001e-03
119 119 8.2271322725266001e-03
122 119 -2.9169948857709998e-10
123 119 -1.6419196960566000e-04
120 120 1.9400095217381001e-02
121 120 -1.2672809634756001e-03
123 120 -4.3487040862541000e-04
120 121 -1.2022169682334000e-03
121 121 1.9480329403168999e-02
123 121 -4.3526824989713998e-04
129 121 -1.6666666666667000e-02
119 122 -1.9538646092278998e-12
122 122 7.5568573217346001e-03
123 122 -1.6197898219329001e-04
129 122 -6.6666666666667001e-03
107 123 -6.6666666666667001e-03
116 123 -1.6666666666667000e-02
118 123 -6.6666666666667001e-03
119 123 -1.6142395198929000e-04
120 123 -4.3339652545166998e-04
121 123 -4.3677953661591998e-04
122 123 -1.6142354038662000e-04
123 123 3.1996745090240003e-02
124 124 9.2077688175710003e-03
125 124 -5.9099055517338004e-04
129 124 -4.5468360234095998e-04
124 125 -5.4175421124417003e-04
125 125 8.7772336170639995e-03
126 125 -6.6666666666667001e-03
129 125 -4.1321356606656998e-04
125 126 -6.6666666666667001e-03
126 126 1.3333333333332999e-02
153 126 -6.6666666666667001e-03
127 127 1.7814058818693999e-02
128 127 -5.6775781508522005e-07
129 127 -1.4020641557407001e-04
127 128 -2.4616296604972999e-08
128 128 1.7617042465043999e-02
129 128 -1.3975471261116999e-04
154 128 -1.6666666666667000e-02
121 129 -1.6666666666667000e-02
122 129 -6.6666666666667001e-03
124 129 -5.1333516582711004e-04
125 129 -3.5712304319045001e-04
127 129 -1.3966695576561001e-04
128 129 -1.3884923914972999e-04
129 129 2.5746406251623999e-02
130 130 8.2271682617003992e-03
142 130 -1.6427086847049999e-04
143 130 -2.1341792911708001e-10
131 131 9.2197976434812007e-03
132 131 -6.0214322116829003e-04
131 132 -5.5533671099104005e-04
132 132 8.8158522038843008e-03
147 132 -6.6666666666667001e-03
133 133 9.2177605417564003e-03
136 133 -6.7154558186183005e-04
134 134 1.7814708854903001e-02
135 134 -1.2159709598823001e-06
134 135 -2.4005438911391999e-08
135 135 1.7295881858383998e-02
142 135 -1.6666666666667000e-02
133 136 -6.3260455329287001e-04
136 136 9.2769330536974001e-03
142 136 -6.6666666666667001e-03
137 137 1.9393311163451998e-02
138 137 -1.2607416912183999e-03
142 137 -4.3496732258999001e-04
137 138 -1.1909278578402999e-03
138 138 1.9470938971832000e-02
139 138 -1.6666666666667000e-02
142 138 -4.3517142845880997e-04
138 139 -1.6666666666667000e-02
139 139 3.3333333333333000e-02
140 139 -1.6666666666667000e-02
139 140 -1.6666666666667000e-02
140 140 1.7817274017212999e-02
141 140 -1.2367617259473000e-06
140 141 -2.3598447174159001e-08
141 141 1.7319911981937001e-02
147 141 -1.6666666666667000e-02
130 142 -1.6142389376498000e-04
135 142 -1.6666666666667000e-02
136 142 -6.6666666666667001e-03
137 142 -4.3421722111899999e-04
138 142 -4.3594068359985002e-04
142 142 2.5217087699030000e-02
143 142 -1.6142359861094001e-04
130 143 -2.7314060233070001e-12
142 143 -1.6301086862850999e-04
143 143 7.9540285523381007e-03
147 143 -6.6666666666667001e-03
144 144 8.7539188804048006e-03
147 144 -5.2943896583295996e-04
148 144 -4.0526740587019002e-05
145 145 1.9253724072590000e-02
146 145 -1.0054843656825999e-03
147 145 -4.4829109682764000e-04
145 146 -9.4543787621022995e-04
146 146 1.8919394036881001e-02
147 146 -4.2116964408943000e-04
151 146 -1.6666666666667000e-02
132 147 -6.6666666666667001e-03
141 147 -1.6666666666667000e-02
143 147 -6.6666666666667001e-03
144 147 -5.5628817148088998e-04
145 147 -5.2636472014511995e-04
146 147 -3.4495421137324000e-04
147 147 3.2178402994604997e-02
148 147 -1.3139325090810001e-04
144 148 -1.7694892379815000e-06
147 148 -1.6200421177043001e-04
148 148 7.5773069904384004e-03
151 148 -6.6666666666667001e-03
149 149 1.7822332245984999e-02
150 149 -6.8114690471024003e-06
151 149 -1.6509524501643000e-04
149 150 -2.9477422370372001e-07
150 150 1.7616701898679001e-02
151 150 -1.5045168679530001e-04
154 150 -1.6666666666667000e-02
146 151 -1.6666666666667000e-02
148 151 -6.6666666666667001e-03
149 151 -1.4394796244844999e-04
150 151 -1.3456823246689001e-04
151 151 2.5024772551441001e-02
152 151 3.1252187630267997e-05
153 151 -7.1893361001925998e-04
151 152 -1.6309840189745000e-04
152 152 7.6319210529332002e-03
153 152 -4.7191265358430002e-05
154 152 -6.6666666666667001e-03
126 153 -6.6666666666667001e-03
151 153 -5.3016575952724999e-04
152 153 -2.6600533211362001e-04
153 153 8.6180240172334006e-03
45 154 -4.3221743081342003e-04
46 154 -5.6258896954080998e-04
47 154 -1.1034228484813000e-04
48 154 -4.3800974060429003e-04
128 154 -1.6666666666667000e-02
150 154 -1.6666666666667000e-02
152 154 -6.6666666666667001e-03
154 154 4.2160078831607002e-02
155 155 1.9463529737706001e-02
156 155 -1.1814694741201000e-03
164 155 -4.3509332486822000e-04
155 156 -1.2560465290784000e-03
156 156 1.9387881757161000e-02
157 156 -1.6666666666667000e-02
164 156 -4.3504545743743998e-04
156 157 -1.6666666666667000e-02
157 157 3.3333333333333000e-02
4960 157 -1.6666666666667000e-02
158 158 9.2658586311416997e-03
161 158 -6.2287365860671997e-04
4956 158 -4.3505786512812000e-04
159 159 1.7814705934915999e-02
160 159 -1.2129899234443000e-06
4956 159 -1.4163906133042001e-04
159 160 -2.3970403394636999e-08
160 160 1.7296439653336000e-02
164 160 -1.6666666666667000e-02
4956 160 -1.3967060313399001e-04
158 161 -6.7154218183810004e-04
161 161 9.2168781546717003e-03
164 161 -6.6666666666667001e-03
4956 161 -4.3504052189053001e-04
162 162 8.2271765015404005e-03
163 162 -6.1060470185614996e-10
164 162 -1.6460541709799000e-04
162 163 -4.1368382280284998e-12
163 163 7.5572986767422998e-03
164 163 -1.6206272818366000e-04
4958 163 -6.6666666666667001e-03
155 164 -4.3527274625868002e-04
156 164 -4.3487051460333999e-04
160 164 -1.6666666666667000e-02
161 164 -6.6666666666667001e-03
162 164 -1.6142417893551001e-04
163 164 -1.6142331344039999e-04
164 164 2.5548936370327999e-02
165 165 8.2271768502380008e-03
168 165 -6.0793629197995997e-10
4955 165 -1.6460290212537001e-04
166 166 1.9388774996750999e-02
167 166 -1.2564774313778000e-03
4955 166 -4.3506923496170000e-04
166 167 -1.1815567866157999e-03
167 167 1.9463707750656999e-02
184 167 -1.6666666666667000e-02
4955 167 -4.3506954916396003e-04
165 168 -4.1182069746750004e-12
168 168 7.5572173559126004e-03
184 168 -6.6666666666667001e-03
4955 168 -1.6206206086040001e-04
169 169 1.7814705927217001e-02
170 169 -1.2130180742177999e-06
182 169 -1.4163936443235001e-04
169 170 -2.3970967450178999e-08
170 170 1.7296439425611002e-02
171 170 -1.6666666666667000e-02
182 170 -1.3967065529678000e-04
170 171 -1.6666666666667000e-02
171 171 2.3854346543977001e-02
173 171 -6.6666666666667001e-03
172 172 9.2658585199012992e-03
173 172 -6.2287318211788005e-04
182 172 -4.3505793598566000e-04
171 173 -6.6666666666667001e-03
172 173 -6.7154132196633001e-04
173 173 9.2168758783883996e-03
182 173 -4.3504045102681001e-04
174 174 1.9388716338265000e-02
175 174 -1.2564168284202001e-03
189 174 -4.3506923264652998e-04
174 175 -1.1814981480646001e-03
175 175 1.9463647305410000e-02
182 175 -1.6666666666667000e-02
189 175 -4.3506955147913000e-04
176 176 1.7814431835151998e-02
177 176 -9.3376942797995996e-07
184 176 -1.4034781345603000e-04
176 177 -9.3388035340691003e-07
177 177 1.7814435291443002e-02
182 177 -1.6666666666667000e-02
184 177 -1.4036797552314999e-04
178 178 8.2271763794859992e-03
179 178 -5.4666690934863003e-10
189 178 -1.6458352487315001e-04
178 179 -3.8227425963938999e-12
179 179 7.5912125428911001e-03
180 179 -6.6666666666667001e-03
189 179 -1.6212750244774999e-04
179 180 -6.6666666666667001e-03
180 180 1.3333333333332999e-02
181 180 -6.6666666666667001e-03
180 181 -6.6666666666667001e-03
181 181 7.5912132923447000e-03
183 181 -6.9517991173362000e-10
184 181 -1.6685428313626999e-04
169 182 -1.4022946133690001e-04
170 182 -1.3828673357843999e-04
172 182 -4.3508504970276001e-04
173 182 -4.3501480964199001e-04
175 182 -1.6666666666667000e-02
177 182 -1.6666666666667000e-02
182 182 4.2092998977135997e-02
183 182 -6.6666666666667001e-03
181 183 -1.2553086252626000e-11
182 183 -6.6666666666667001e-03
183 183 7.5572173806132004e-03
184 183 -1.6631928488978001e-04
167 184 -1.6666666666667000e-02
168 184 -6.6666666666667001e-03
176 184 -1.3925806292801999e-04
177 184 -1.3925813198732001e-04
181 184 -1.6142437362591999e-04
183 184 -1.6142311874998999e-04
184 184 2.5282373050902002e-02
185 185 9.2656468851050992e-03
188 185 -6.2268644859317000e-04
4958 185 -4.3505709816167999e-04
186 186 1.7814720176487001e-02
187 186 -1.2257181283796000e-06
4958 186 -1.4177730069170000e-04
186 187 -2.4229180142623999e-08
187 187 1.7296439004661001e-02
189 187 -1.6666666666667000e-02
4958 187 -1.3969454908484001e-04
185 188 -6.7134955674810000e-04
188 188 9.2166995425335997e-03
189 188 -6.6666666666667001e-03
4958 188 -4.3504128892069000e-04
174 189 -4.3506806732277001e-04
175 189 -4.3507074665425000e-04
178 189 -1.6142413268586999e-04
179 189 -1.6142335969003999e-04
187 189 -1.6666666666667000e-02
188 189 -6.6666666666667001e-03
189 189 2.5550268541731001e-02
190 190 8.2271489008444998e-03
191 190 -3.6906871323853001e-10
4957 190 -1.6432565202939000e-04
190 191 -2.4816940382292001e-12
191 191 7.5572966059646004e-03
4957 191 -1.6200657244932001e-04
4958 191 -6.6666666666667001e-03
192 192 8.2271768929414006e-03
195 192 -6.2232680990076998e-10
220 192 -1.6461575522975000e-04
193 193 1.9388438525876999e-02
194 193 -1.2561327791875000e-03
220 193 -4.3506905374529002e-04
193 194 -1.1812290199673000e-03
194 194 1.9463368352639999e-02
220 194 -4.3506973038009002e-04
4940 194 -1.6666666666667000e-02
192 195 -4.2171674821565001e-12
195 195 7.5572170360254003e-03
220 195 -1.6206464084428000e-04
4940 195 -6.6666666666667001e-03
196 196 1.7814705689030000e-02
197 196 -1.2127561649476000e-06
225 196 -1.4163825758679001e-04
196 197 -2.3967272987090000e-08
197 197 1.7296475045907998e-02
220 197 -1.6666666666667000e-02
225 197 -1.3967052691555001e-04
198 198 1.7814722931695001e-02
199 198 -1.2295165434451000e-06
219 198 -1.4182043294514999e-04
198 199 -2.4308207876743999e-08
199 199 1.7296475424246002e-02
219 199 -1.3970209315658001e-04
220 199 -1.6666666666667000e-02
200 200 9.2658252076752001e-03
201 200 -6.2285926822952000e-04
225 200 -4.3506744410567999e-04
200 201 -6.7147040595912999e-04
201 201 9.2165577048128004e-03
202 201 -6.6666666666667001e-03
225 201 -4.3503094162032001e-04
201 202 -6.6666666666667001e-03
202 202 1.3333333333332999e-02
217 202 -6.6666666666667001e-03
203 203 8.2272190223977998e-03
215 203 -1.6523334606830000e-04
216 203 -1.8015609542053999e-09
204 204 9.2585929531784992e-03
212 204 -6.2026159837732999e-04
205 205 8.2269805492236007e-03
211 205 -2.2152174471813001e-10
206 206 1.9461626485614999e-02
207 206 -1.1813465211889999e-03
206 207 -1.2522441847591999e-03
207 207 1.9379013969223001e-02
208 207 -1.6666666666667000e-02
207 208 -1.6666666666667000e-02
208 208 3.3333333333333000e-02
209 208 -1.6666666666667000e-02
208 209 -1.6666666666667000e-02
209 209 1.7809567295398999e-02
210 209 -1.1156451392494001e-06
209 210 -2.2341098635940001e-08
210 210 1.7298502868980999e-02
215 210 -1.6666666666667000e-02
205 211 -7.3671079966651993e-12
211 211 8.1885606076708001e-03
215 211 -6.6666666666667001e-03
204 212 -6.5967571456508004e-04
212 212 9.1658137546630995e-03
215 212 -6.6666666666667001e-03
213 213 1.9447414149707000e-02
214 213 -1.1659199054604001e-03
215 213 -4.3512970757388000e-04
213 214 -1.2396090453455999e-03
214 214 1.9371071523202998e-02
215 214 -4.3500906492077002e-04
219 214 -1.6666666666667000e-02
203 215 -1.6142502780477000e-04
210 215 -1.6666666666667000e-02
211 215 -6.6666666666667001e-03
212 215 -6.6666666666667001e-03
213 215 -4.3557348994934002e-04
214 215 -4.3457658252796997e-04
215 215 3.1968167786939998e-02
216 215 -1.6142246457114001e-04
203 216 -1.2367888466264000e-11
215 216 -1.6217869997515999e-04
216 216 7.5573251458461001e-03
219 216 -6.6666666666667001e-03
202 217 -6.6666666666667001e-03
217 217 9.2648648176186007e-03
218 217 -6.2256007951748003e-04
219 217 -4.3506619783083999e-04
217 218 -6.7109490593615000e-04
218 218 9.2157195413599992e-03
219 218 -4.3503218811521998e-04
220 218 -6.6666666666667001e-03
198 219 -1.4024281565518001e-04
199 219 -1.3827337926015999e-04
214 219 -1.6666666666667000e-02
216 219 -6.6666666666667001e-03
217 219 -4.3511888244551002e-04
218 219 -4.3498236492978002e-04
219 219 2.5362745984858000e-02
192 220 -1.6142418729696000e-04
193 220 -4.3506658150492002e-04
194 220 -4.3507226597459001e-04
195 220 -1.6142330507895001e-04
197 220 -1.6666666666667000e-02
199 220 -1.6666666666667000e-02
218 220 -6.6666666666667001e-03
220 220 4.1983401628271001e-02
221 221 8.2271759938905998e-03
224 221 -6.0696538460290000e-10
289 221 -1.6460203497399001e-04
222 222 1.9388800730993000e-02
223 222 -1.2565015129296999e-03
289 222 -4.3506897023466999e-04
222 223 -1.1815950440773001e-03
223 223 1.9463739713330999e-02
225 223 -1.6666666666667000e-02
289 223 -4.3506981389049998e-04
221 224 -4.1115339825147002e-12
224 224 7.5572168350623997e-03
225 224 -6.6666666666667001e-03
289 224 -1.6206188687615999e-04
196 225 -1.4022923366809999e-04
197 225 -1.3828696124724001e-04
200 225 -4.3512404568194998e-04
201 225 -4.3497741329058998e-04
223 225 -1.6666666666667000e-02
224 225 -6.6666666666667001e-03
225 225 2.5599547396440998e-02
226 226 9.2171702400935009e-03
227 226 -6.7160791378868996e-04
4956 226 -4.3504883580573999e-04
226 227 -6.2289610194284995e-04
227 227 9.2658998892304004e-03
289 227 -6.6666666666667001e-03
4956 227 -4.3504955158913999e-04
228 228 8.2271487782745994e-03
229 228 -2.4503676760979001e-10
4957 228 -1.6409216047859001e-04
228 229 -2.4510400532826003e-10
229 229 8.2271559994526993e-03
289 229 -6.6666666666667001e-03
4957 229 -1.6409220139614999e-04
230 230 9.1147437337143998e-03
233 230 -5.6072753917450996e-04
283 230 -4.3408927981729002e-04
231 231 1.8509158580287999e-02
232 231 -2.1153554370646001e-04
283 231 -5.4875625821419998e-04
231 232 -1.0414930211929999e-05
232 232 1.7301956560280000e-02
283 232 -1.4188504645497001e-04
4957 232 -1.6666666666667000e-02
230 233 -5.3497213864991998e-04
233 233 9.1769886991005002e-03
283 233 -4.3600452008859999e-04
4957 233 -6.6666666666667001e-03
234 234 9.2593989136109008e-03
246 234 -4.3613982293847999e-04
247 234 -6.1864137689824001e-04
235 235 9.2602455387354992e-03
236 235 -6.2102221389174995e-04
235 236 -6.6317609984184998e-04
236 236 9.1804966530491007e-03
252 236 -6.6666666666667001e-03
237 237 8.2272582173817995e-03
240 237 -6.0995713526448995e-10
238 238 1.9460087452064002e-02
239 238 -1.1811573479493999e-03
238 239 -1.2471317171989999e-03
239 239 1.9367405074344000e-02
246 239 -1.6666666666667000e-02
237 240 -4.1113872294171004e-12
240 240 7.5583239744881001e-03
246 240 -6.6666666666667001e-03
241 241 1.7814092466724000e-02
242 241 -5.9363138436274000e-07
246 241 -1.4156806784057001e-04
241 242 -5.5874833433929002e-08
242 242 1.7748097376698999e-02
243 242 -1.6666666666667000e-02
246 242 -1.4108482873073999e-04
242 243 -1.6666666666667000e-02
243 243 3.3333333333333000e-02
244 243 -1.6666666666667000e-02
243 244 -1.6666666666667000e-02
244 244 1.7748470364416999e-02
245 244 -4.1580022786293999e-07
244 245 -9.2729984153739003e-09
245 245 1.7297849679876000e-02
252 245 -1.6666666666667000e-02
234 246 -4.3948820370082002e-04
239 246 -1.6666666666667000e-02
240 246 -6.6666666666667001e-03
241 246 -1.3965854577741000e-04
242 246 -1.3885764913793000e-04
246 246 2.5692565363459999e-02
247 246 -4.3078523719307002e-04
234 247 -6.6085044722176997e-04
246 247 -4.3395255270449001e-04
247 247 9.1794052236519996e-03
252 247 -6.6666666666667001e-03
248 248 8.2272106346055005e-03
251 248 -1.2827810403702000e-09
252 248 -1.6504802854337000e-04
249 249 1.9448406086546001e-02
250 249 -1.1702237041693001e-03
252 249 -4.3603446149027998e-04
249 250 -1.2312342726314999e-03
250 250 1.9345729795440001e-02
252 250 -4.3410128747573999e-04
258 250 -1.6666666666667000e-02
248 251 -8.7786821468027994e-12
251 251 7.5588839521283004e-03
252 251 -1.6214675487856000e-04
258 251 -6.6666666666667001e-03
236 252 -6.6666666666667001e-03
245 252 -1.6666666666667000e-02
247 252 -6.6666666666667001e-03
248 252 -1.6142465727140000e-04
249 252 -4.4316729943383001e-04
250 252 -4.2714477855127999e-04
251 252 -1.6142283510452000e-04
252 252 3.1972662395734999e-02
253 253 9.2001115872201999e-03
254 253 -5.8650266103722998e-04
258 253 -4.6080906094584002e-04
253 254 -5.0167884632092998e-04
254 254 8.6822438219000004e-03
255 254 -6.6666666666667001e-03
258 254 -4.0534238404211001e-04
254 255 -6.6666666666667001e-03
255 255 1.3333333333332999e-02
282 255 -6.6666666666667001e-03
256 256 1.7813391691284999e-02
257 256 -7.9548817660745003e-07
258 256 -1.4275973973758001e-04
256 257 -2.8433123833591001e-08
257 257 1.7546717131223001e-02
258 257 -1.4073991652586000e-04
283 257 -1.6666666666667000e-02
250 258 -1.6666666666667000e-02
251 258 -6.6666666666667001e-03
253 258 -5.4431132656267004e-04
254 258 -3.2493657341827999e-04
256 258 -1.3984433984576001e-04
257 258 -1.3867185506957999e-04
258 258 2.5644863761659000e-02
259 259 8.2272487188301009e-03
271 259 -1.6718109419277001e-04
272 259 -1.0221789965256001e-07
260 260 8.2270837840809005e-03
261 260 -4.5301598948194999e-10
260 261 -3.4481816613640000e-12
261 261 7.6588564753582002e-03
276 261 -6.6666666666667001e-03
262 262 9.2372925074526002e-03
265 262 -6.0955312387161000e-04
263 263 1.7814978113305999e-02
264 263 -1.1763845746065999e-06
263 264 -2.3478715301912999e-08
264 264 1.7307196899747000e-02
271 264 -1.6666666666667000e-02
262 265 -6.1403621056593002e-04
265 265 8.9952448615519993e-03
271 265 -6.6666666666667001e-03
266 266 1.9297082797291001e-02
267 266 -1.0689642590909999e-03
271 266 -4.6128290863262002e-04
266 267 -8.8955032938570005e-04
267 267 1.8745405919900999e-02
268 267 -1.6666666666667000e-02
271 267 -4.0599588660136001e-04
267 268 -1.6666666666667000e-02
268 268 3.3333333333333000e-02
269 268 -1.6666666666667000e-02
268 269 -1.6666666666667000e-02
269 269 1.8819752348880000e-02
270 269 -9.1800155114869005e-04
269 270 -7.3825326519543996e-04
270 270 1.8452795420922999e-02
276 270 -1.6666666666667000e-02
259 271 -1.6149822709728999e-04
264 271 -1.6666666666667000e-02
265 271 -6.6666666666667001e-03
266 271 -6.3065299528445001e-04
267 271 -2.3913571540931999e-04
271 271 2.5145340320170000e-02
272 271 -1.6134926527863001e-04
259 272 -8.5097824726437997e-10
271 272 -1.6298103227951999e-04
272 272 7.6587643559186003e-03
276 272 -6.6666666666667001e-03
273 273 8.9626845999275003e-03
276 273 -5.3193129061764001e-04
277 273 -2.8932775621275000e-04
274 274 1.8722710652768999e-02
275 274 -4.5537627761466998e-04
276 274 -4.7274868489852000e-04
274 275 -3.8982788887523999e-04
275 275 1.8359781046874999e-02
276 275 -3.9024890250090002e-04
280 275 -1.6666666666667000e-02
261 276 -6.6666666666667001e-03
270 276 -1.6666666666667000e-02
272 276 -6.6666666666667001e-03
273 276 -7.3463755135652002e-04
274 276 -5.2955455547179996e-04
275 276 -3.3709796005597001e-04
276 276 3.2153630056355999e-02
277 276 4.6956128967532003e-05
273 277 -3.8550723931550999e-05
276 277 -1.6271577041637001e-04
277 277 7.6128234502916003e-03
280 277 -6.6666666666667001e-03
278 278 1.7818354641556001e-02
279 278 -5.0677244999306002e-06
280 278 -1.5921407562272000e-04
278 279 -1.9301167496232000e-07
279 279 1.7547163513406999e-02
280 279 -1.4768820470004000e-04
283 279 -1.6666666666667000e-02
275 280 -1.6666666666667000e-02
277 280 -6.6666666666667001e-03
278 280 -1.4308825847757001e-04
279 280 -1.3542793643777000e-04
280 280 2.5027163227551000e-02
281 280 1.5769423004891000e-05
282 280 -7.0345084539388000e-04
280 281 -1.6321168487137000e-04
281 281 7.6475357090879997e-03
282 281 -4.3346371366078000e-05
283 281 -6.6666666666667001e-03
255 282 -6.6666666666667001e-03
280 282 -5.2984987072085001e-04
281 282 -2.4269646481967999e-04
282 282 8.5501311316715997e-03
230 283 -4.3191547844159000e-04
231 283 -7.1326290958246999e-04
232 283 4.0331655193530002e-05
233 283 -4.3834269627022999e-04
257 283 -1.6666666666667000e-02
279 283 -1.6666666666667000e-02
281 283 -6.6666666666667001e-03
283 283 4.2152278943945999e-02
284 284 1.9471055919093001e-02
285 284 -1.1887726852987000e-03
4957 284 -4.3507512494958002e-04
284 285 -1.2637392302971000e-03
285 285 1.9395793253824001e-02
286 285 -1.6666666666667000e-02
4957 285 -4.3506365907202999e-04
285 286 -1.6666666666667000e-02
286 286 3.3333333333333000e-02
287 286 -1.6666666666667000e-02
286 287 -1.6666666666667000e-02
287 287 1.7814589366182999e-02
288 287 -1.2110032073871000e-06
4956 287 -1.4163839662658000e-04
287 288 -2.3935830252340001e-08
288 288 1.7296427775067999e-02
289 288 -1.6666666666667000e-02
4956 288 -1.3967064736256001e-04
221 289 -1.6142417634226999e-04
222 289 -4.3506588638357997e-04
223 289 -4.3507297673036000e-04
224 289 -1.6142331603364999e-04
227 289 -6.6666666666667001e-03
229 289 -6.6666666666667001e-03
288 289 -1.6666666666667000e-02
289 289 3.2099752762452000e-02
290 290 1.9463616559085000e-02
291 290 -1.1814808742470000e-03
299 290 -4.3507379006105999e-04
290 291 -1.2563439156176000e-03
291 291 1.9388556614222001e-02
292 291 -1.6666666666667000e-02
299 291 -4.3506499400325002e-04
291 292 -1.6666666666667000e-02
292 292 3.3333333333333000e-02
4939 292 -1.6666666666667000e-02
293 293 9.2658594864920996e-03
296 293 -6.2287393329805995e-04
4940 293 -4.3505791993187003e-04
294 294 1.7814705866682001e-02
295 294 -1.2129698043241000e-06
4940 294 -1.4163883804271999e-04
294 295 -2.3969985266725001e-08
295 295 1.7296439399338000e-02
299 295 -1.6666666666667000e-02
4940 295 -1.3967056407333001e-04
293 296 -6.7154221700902004e-04
296 296 9.2168772778798008e-03
299 296 -6.6666666666667001e-03
4940 296 -4.3504046708200001e-04
297 297 8.2271769305598003e-03
298 297 -4.0440230624433002e-10
299 297 -1.6436041960209000e-04
297 298 -4.0085105769259998e-10
298 298 8.2269439908533998e-03
299 298 -1.6435896552613000e-04
4938 298 -6.6666666666667001e-03
290 299 -4.3510676228152999e-04
291 299 -4.3503284522174000e-04
295 299 -1.6666666666667000e-02
296 299 -6.6666666666667001e-03
297 299 -1.6142374865712000e-04
298 299 -1.6142374371879001e-04
299 299 2.5564231871843000e-02
300 300 8.2271771341892001e-03
303 300 -6.1069122455709003e-10
4935 300 -1.6460538379231999e-04
301 301 1.9463636373877002e-02
302 301 -1.1814830829597000e-03
4935 301 -4.3506939371634003e-04
301 302 -1.2564106624309999e-03
302 302 1.9388708720369002e-02
319 302 -1.6666666666667000e-02
4935 302 -4.3506939040940002e-04
300 303 -4.1371492132774996e-12
303 303 7.5572176538555996e-03
319 303 -6.6666666666667001e-03
4935 303 -1.6206255934400000e-04
304 304 1.9463363475604002e-02
305 304 -1.1812161946721000e-03
317 304 -4.3506939295488999e-04
304 305 -1.2561377707824000e-03
305 305 1.9388441859563000e-02
306 305 -1.6666666666667000e-02
317 305 -4.3506939117085000e-04
305 306 -1.6666666666667000e-02
306 306 2.3854346543977001e-02
308 306 -6.6666666666667001e-03
307 307 8.2271771444904999e-03
308 307 -6.2211173277390002e-10
317 307 -1.6461556262081000e-04
306 308 -6.6666666666667001e-03
307 308 -4.2156890248833001e-12
308 308 7.5572176525231004e-03
317 308 -1.6206460306055000e-04
309 309 1.7814705781343001e-02
310 309 -1.2128829537422001e-06
324 309 -1.4163961758532001e-04
309 310 -2.3969823914371000e-08
310 310 1.7296474399224000e-02
317 310 -1.6666666666667000e-02
324 310 -1.3967076147126999e-04
311 311 1.7814705781540999e-02
312 311 -1.2128831653555000e-06
319 311 -1.4163961990024999e-04
311 312 -2.3969828219190002e-08
312 312 1.7296474399228001e-02
317 312 -1.6666666666667000e-02
319 312 -1.3967076187240999e-04
313 313 9.2658267236635002e-03
314 313 -6.2285877350241002e-04
324 313 -4.3506661854104999e-04
313 314 -6.7147483106955999e-04
314 314 9.2165839783193999e-03
315 314 -6.6666666666667001e-03
324 314 -4.3503176733258002e-04
314 315 -6.6666666666667001e-03
315 315 1.3333333333332999e-02
316 315 -6.6666666666667001e-03
315 316 -6.6666666666667001e-03
316 316 9.2651574122812001e-03
318 316 -6.2280688041901997e-04
319 316 -4.3506662599974001e-04
304 317 -4.3506939964033998e-04
305 317 -4.3506938465242998e-04
307 317 -1.6142418714348001e-04
308 317 -1.6142330523242999e-04
310 317 -1.6666666666667000e-02
312 317 -1.6666666666667000e-02
317 317 4.1983407342337999e-02
318 317 -6.6666666666667001e-03
316 318 -6.7135360554990001e-04
317 318 -6.6666666666667001e-03
318 318 9.2159844732653002e-03
319 318 -4.3503175987245001e-04
302 319 -1.6666666666667000e-02
303 319 -6.6666666666667001e-03
311 319 -1.4022933689362000e-04
312 319 -1.3828685802172000e-04
316 319 -4.3512067804011998e-04
318 319 -4.3498064136631998e-04
319 319 2.5686835432143000e-02
320 320 8.2271771331339002e-03
323 320 -6.1068495595727002e-10
4938 320 -1.6460537816380001e-04
321 321 1.9463636530033999e-02
322 321 -1.1814832308872001e-03
4938 321 -4.3506939296862000e-04
321 322 -1.2564108250963000e-03
322 322 1.9388708895268000e-02
324 322 -1.6666666666667000e-02
4938 322 -4.3506939115711999e-04
320 323 -4.1371061100868000e-12
323 323 7.5572176524675997e-03
324 323 -6.6666666666667001e-03
4938 323 -1.6206255821256001e-04
309 324 -1.4022933672213001e-04
310 324 -1.3828685819320999e-04
313 324 -4.3512065953115001e-04
314 324 -4.3498066060387999e-04
322 324 -1.6666666666667000e-02
323 324 -6.6666666666667001e-03
324 324 2.5658224963907999e-02
325 325 9.2658580925848999e-03
326 325 -6.2287256395651995e-04
4937 325 -4.3505789539664000e-04
325 326 -6.7154093320004001e-04
326 326 9.2168766818940002e-03
4937 326 -4.3504049161938001e-04
4938 326 -6.6666666666667001e-03
327 327 9.2658653896690001e-03
330 327 -6.2287554910214998e-04
355 327 -4.3505576393714998e-04
328 328 1.7814706002785001e-02
329 328 -1.2131063857515000e-06
355 328 -1.4164018476672000e-04
328 329 -2.3972627735646999e-08
329 329 1.7296436451057998e-02
355 329 -1.3967079213854001e-04
4920 329 -1.6666666666667000e-02
327 330 -6.7155668955735004e-04
330 330 9.2169478713305993e-03
355 330 -4.3504262324202002e-04
4920 330 -6.6666666666667001e-03
331 331 1.7814431861842998e-02
332 331 -9.3380307657328005e-07
360 331 -1.4034809172834000e-04
331 332 -9.3377442916552999e-07
332 332 1.7814429882995000e-02
355 332 -1.6666666666667000e-02
360 332 -1.4034808360960000e-04
333 333 1.9463636049484999e-02
334 333 -1.1814831254462000e-03
354 333 -4.3506948597058003e-04
333 334 -1.2564093526160999e-03
334 334 1.9388705617459000e-02
354 334 -4.3506929815512998e-04
355 334 -1.6666666666667000e-02
335 335 9.2658893821221007e-03
336 335 -6.2288631395548998e-04
360 335 -4.3504919493089002e-04
335 336 -6.7160687192074995e-04
336 336 9.2171687797837007e-03
337 336 -6.6666666666667001e-03
360 336 -4.3504919246464000e-04
336 337 -6.6666666666667001e-03
337 337 1.3333333333332999e-02
352 337 -6.6666666666667001e-03
338 338 9.2658580599397997e-03
350 338 -4.3505790137203000e-04
351 338 -6.2287254390922995e-04
339 339 8.2271771293656003e-03
347 339 -6.0692931976899003e-10
340 340 8.2271771293656003e-03
346 340 -6.0692931976899003e-10
341 341 1.9463727386375002e-02
342 341 -1.1815720888419001e-03
341 342 -1.2565016710937001e-03
342 342 1.9388797720339000e-02
343 342 -1.6666666666667000e-02
342 343 -1.6666666666667000e-02
343 343 3.3333333333333000e-02
344 343 -1.6666666666667000e-02
343 344 -1.6666666666667000e-02
344 344 1.9463727300436998e-02
345 344 -1.1815720802970000e-03
344 345 -1.2565016447216000e-03
345 345 1.9388797652088001e-02
350 345 -1.6666666666667000e-02
340 346 -4.1112831707881999e-12
346 346 7.5572176574464000e-03
350 346 -6.6666666666667001e-03
339 347 -4.1112831436831997e-12
347 347 7.5572176574464000e-03
350 347 -6.6666666666667001e-03
348 348 1.7814705963273000e-02
349 348 -1.2130657357108000e-06
350 348 -1.4163988497521999e-04
348 349 -2.3971935162395000e-08
349 349 1.7296439377104001e-02
350 349 -1.3967074541172000e-04
354 349 -1.6666666666667000e-02
338 350 -4.3508490768257003e-04
345 350 -1.6666666666667000e-02
346 350 -6.6666666666667001e-03
347 350 -6.6666666666667001e-03
348 350 -1.4022949999141000e-04
349 350 -1.3828669492393000e-04
350 350 3.2092980123564999e-02
351 350 -4.3501494583673002e-04
338 351 -6.7154087685088995e-04
350 351 -4.3504048564346000e-04
351 351 9.2168764706522001e-03
354 351 -6.6666666666667001e-03
337 352 -6.6666666666667001e-03
352 352 8.2271771001804998e-03
353 352 -6.1068641705320005e-10
354 352 -1.6460538015493001e-04
352 353 -4.1371169714750000e-12
353 353 7.5572178161176003e-03
354 353 -1.6206255898280000e-04
355 353 -6.6666666666667001e-03
333 354 -4.3507019001008001e-04
334 354 -4.3506861170010001e-04
349 354 -1.6666666666667000e-02
351 354 -6.6666666666667001e-03
352 354 -1.6142417899541001e-04
353 354 -1.6142331338049999e-04
354 354 2.5259818718525999e-02
327 355 -4.3507614120303999e-04
328 355 -1.4022953419942001e-04
329 355 -1.3828666071591999e-04
330 355 -4.3502335253561998e-04
332 355 -1.6666666666667000e-02
334 355 -1.6666666666667000e-02
353 355 -6.6666666666667001e-03
355 355 4.2092968791010002e-02
356 356 8.2271771308216994e-03
359 356 -6.0761595287163005e-10
424 356 -1.6460260874239001e-04
357 357 1.9463710729670000e-02
358 357 -1.1815558022292001e-03
424 357 -4.3506939437679999e-04
357 358 -1.2564850107102999e-03
358 358 1.9388781417570999e-02
360 358 -1.6666666666667000e-02
424 358 -4.3506938974894000e-04
356 359 -4.1160042198296000e-12
359 359 7.5572176549785000e-03
360 359 -6.6666666666667001e-03
424 359 -1.6206200216869999e-04
331 360 -1.3925811758637999e-04
332 360 -1.3925807732896001e-04
335 360 -4.3504919875542001e-04
336 360 -4.3504918884781002e-04
358 360 -1.6666666666667000e-02
359 360 -6.6666666666667001e-03
360 360 2.5687101573684000e-02
361 361 9.2658851355713993e-03
362 361 -6.2288520696681001e-04
4940 361 -4.3505078886429000e-04
361 362 -6.7159626485826997e-04
362 362 9.2171166793367006e-03
424 362 -6.6666666666667001e-03
4940 362 -4.3504759851849002e-04
363 363 9.2658836535101999e-03
364 363 -6.2288379883893995e-04
4937 363 -4.3505078887043000e-04
363 364 -6.7159479493631000e-04
364 364 9.2171152590385004e-03
424 364 -6.6666666666667001e-03
4937 364 -4.3504759851233999e-04
365 365 8.2271771444889005e-03
368 365 -6.2211176415075004e-10
418 365 -1.6461556264919000e-04
366 366 1.9463363473487000e-02
367 366 -1.1812161937741999e-03
418 366 -4.3506939325317000e-04
366 367 -1.2561377654878999e-03
367 367 1.9388441848490000e-02
418 367 -4.3506939087256999e-04
4937 367 -1.6666666666667000e-02
365 368 -4.2156893509681000e-12
368 368 7.5572176530456997e-03
418 368 -1.6206460306729999e-04
4937 368 -6.6666666666667001e-03
369 369 9.2658591388065006e-03
381 369 -4.3505760485694999e-04
382 369 -6.2287302463192998e-04
370 370 8.2271769267610994e-03
371 370 -4.0191622488680000e-10
370 371 -3.9850399361149998e-10
371 371 8.2269517617976993e-03
387 371 -6.6666666666667001e-03
372 372 8.2271771293656992e-03
375 372 -6.0692933055871998e-10
373 373 1.9463727390866999e-02
374 373 -1.1815720893224000e-03
373 374 -1.2565016862774001e-03
374 374 1.9388797754971002e-02
381 374 -1.6666666666667000e-02
372 375 -4.1112832275205002e-12
375 375 7.5572176523751996e-03
381 375 -6.6666666666667001e-03
376 376 1.7814667720701002e-02
377 376 -1.1746439225338000e-06
381 376 -1.4158464057422999e-04
376 377 -2.3541051373661000e-08
377 377 1.7304137624984998e-02
378 377 -1.6666666666667000e-02
381 377 -1.3967468070910001e-04
377 378 -1.6666666666667000e-02
378 378 3.3333333333333000e-02
379 378 -1.6666666666667000e-02
378 379 -1.6666666666667000e-02
379 379 1.7305133916006001e-02
380 379 -1.0204620097376001e-06
379 380 -9.2756824737627999e-08
380 380 1.7296507754292000e-02
387 380 -1.6666666666667000e-02
369 381 -4.3508369156307000e-04
374 381 -1.6666666666667000e-02
375 381 -6.6666666666667001e-03
376 381 -1.4019519619305000e-04
377 381 -1.3832099872229000e-04
381 381 2.5661459029230001e-02
382 381 -4.3501611204972002e-04
369 382 -6.7154313648226996e-04
381 382 -4.3504078218398998e-04
382 382 9.2168864349207996e-03
387 382 -6.6666666666667001e-03
383 383 8.2271771329808993e-03
386 383 -6.1055919490528000e-10
387 383 -1.6460526496674000e-04
384 384 1.9463639563727000e-02
385 384 -1.1814861975601000e-03
387 384 -4.3506939293813001e-04
384 385 -1.2564138590775000e-03
385 385 1.9388711863018000e-02
387 385 -4.3506939118760000e-04
393 385 -1.6666666666667000e-02
383 386 -4.1362414980328997e-12
386 386 7.5572176524110000e-03
387 386 -1.6206253548464001e-04
393 386 -6.6666666666667001e-03
371 387 -6.6666666666667001e-03
380 387 -1.6666666666667000e-02
382 387 -6.6666666666667001e-03
383 387 -1.6142417890467999e-04
384 387 -4.3506939950014001e-04
385 387 -4.3506938478948999e-04
386 387 -1.6142331347122999e-04
387 387 3.1983709882380001e-02
388 388 9.2658267235514007e-03
389 388 -6.2285877352197998e-04
393 388 -4.3506661860867000e-04
388 389 -6.7147483068897001e-04
389 389 9.2165839761767007e-03
390 389 -6.6666666666667001e-03
393 389 -4.3503176726494998e-04
389 390 -6.6666666666667001e-03
390 390 1.3333333333332999e-02
417 390 -6.6666666666667001e-03
391 391 1.7814705781334001e-02
392 391 -1.2128829446788999e-06
393 391 -1.4163961749116000e-04
391 392 -2.3969823734560000e-08
392 392 1.7296474399323001e-02
393 392 -1.3967076145513001e-04
418 392 -1.6666666666667000e-02
385 393 -1.6666666666667000e-02
386 393 -6.6666666666667001e-03
388 393 -4.3512065980847998e-04
389 393 -4.3498066033791999e-04
391 393 -1.4022933671475001e-04
392 393 -1.3828685820058999e-04
393 393 2.5658224967332000e-02
394 394 9.2658591388065994e-03
406 394 -4.3505760485692998e-04
407 394 -6.2287302463196002e-04
395 395 8.2271769267610994e-03
396 395 -4.0191622477807001e-10
395 396 -3.9850399361707001e-10
396 396 8.2269517617981000e-03
411 396 -6.6666666666667001e-03
397 397 8.2271771293656992e-03
400 397 -6.0692933055873001e-10
398 398 1.9463727390866999e-02
399 398 -1.1815720893224000e-03
398 399 -1.2565016862775000e-03
399 399 1.9388797754971002e-02
406 399 -1.6666666666667000e-02
397 400 -4.1112832275206003e-12
400 400 7.5572176523751996e-03
406 400 -6.6666666666667001e-03
401 401 1.7814667720701002e-02
402 401 -1.1746439225334000e-06
406 401 -1.4158464057422999e-04
401 402 -2.3541051373625001e-08
402 402 1.7304137624984998e-02
403 402 -1.6666666666667000e-02
406 402 -1.3967468070910001e-04
402 403 -1.6666666666667000e-02
403 403 3.3333333333333000e-02
404 403 -1.6666666666667000e-02
403 404 -1.6666666666667000e-02
404 404 1.7305133916006001e-02
405 404 -1.0204620097378000e-06
404 405 -9.2756824737543998e-08
405 405 1.7296507754292000e-02
411 405 -1.6666666666667000e-02
394 406 -4.3508369156300999e-04
399 406 -1.6666666666667000e-02
400 406 -6.6666666666667001e-03
401 406 -1.4019519619304000e-04
402 406 -1.3832099872229000e-04
406 406 2.5313614949292001e-02
407 406 -4.3501611204977997e-04
394 407 -6.7154313648238998e-04
406 407 -4.3504078218400001e-04
407 407 9.2168864349212992e-03
411 407 -6.6666666666667001e-03
408 408 8.2271771329808993e-03
411 408 -1.6460526496672999e-04
412 408 -6.1055919489312004e-10
409 409 1.9463639563719999e-02
410 409 -1.1814861975595000e-03
411 409 -4.3506939293969999e-04
409 410 -1.2564138590537999e-03
410 410 1.9388711862963998e-02
411 410 -4.3506939118603003e-04
415 410 -1.6666666666667000e-02
396 411 -6.6666666666667001e-03
405 411 -1.6666666666667000e-02
407 411 -6.6666666666667001e-03
408 411 -1.6142417890467999e-04
409 411 -4.3506939951349000e-04
410 411 -4.3506938477643999e-04
411 411 3.1983709882380001e-02
412 411 -1.6142331347122999e-04
408 412 -4.1362414979589001e-12
411 412 -1.6206253548464001e-04
412 412 7.5572176524137998e-03
415 412 -6.6666666666667001e-03
413 413 1.7814705781334001e-02
414 413 -1.2128829451191999e-06
415 413 -1.4163961749597001e-04
413 414 -2.3969823743569000e-08
414 414 1.7296474399323001e-02
415 414 -1.3967076145595999e-04
418 414 -1.6666666666667000e-02
410 415 -1.6666666666667000e-02
412 415 -6.6666666666667001e-03
413 415 -1.4022933671509999e-04
414 415 -1.3828685820023001e-04
415 415 2.5369107809804999e-02
416 415 -4.3498064134491003e-04
417 415 -4.3512067806242001e-04
415 416 -4.3503175986713000e-04
416 416 9.2159844738483009e-03
417 416 -6.7135360839990995e-04
418 416 -6.6666666666667001e-03
390 417 -6.6666666666667001e-03
415 417 -4.3506662600505998e-04
416 417 -6.2280688345012995e-04
417 417 9.2651574128757002e-03
365 418 -1.6142418714349999e-04
366 418 -4.3506940217419998e-04
367 418 -4.3506938217443999e-04
368 418 -1.6142330523240999e-04
392 418 -1.6666666666667000e-02
414 418 -1.6666666666667000e-02
416 418 -6.6666666666667001e-03
418 418 4.1983407341517003e-02
419 419 1.7814013954200000e-02
420 419 -5.1777958356778005e-07
4937 419 -1.4041504349510001e-04
419 420 -4.9680070855724003e-08
420 420 1.7749225154795000e-02
421 420 -1.6666666666667000e-02
4937 420 -1.4017814676242001e-04
420 421 -1.6666666666667000e-02
421 421 3.3333333333333000e-02
422 421 -1.6666666666667000e-02
421 422 -1.6666666666667000e-02
422 422 1.7749599607151001e-02
423 422 -4.2707507777784001e-07
4940 422 -1.4128660286022001e-04
422 423 -9.4777774962682003e-09
423 423 1.7296415161822998e-02
424 423 -1.6666666666667000e-02
4940 423 -1.3970000914015999e-04
356 424 -1.6142417680583000e-04
357 424 -4.3506941172618998e-04
358 424 -4.3506937283282999e-04
359 424 -1.6142331557008000e-04
362 424 -6.6666666666667001e-03
364 424 -6.6666666666667001e-03
423 424 -1.6666666666667000e-02
424 424 3.2099736112714002e-02
425 425 1.7814668726241999e-02
426 425 -1.1756825890289000e-06
434 425 -1.4159138293095999e-04
425 426 -2.3557650158992001e-08
426 426 1.7304034009852001e-02
427 426 -1.6666666666667000e-02
434 426 -1.3967570420695999e-04
426 427 -1.6666666666667000e-02
427 427 3.3333333333333000e-02
4919 427 -1.6666666666667000e-02
428 428 8.2271772554692001e-03
431 428 -6.0973983737899997e-10
4920 428 -1.6460468717479000e-04
429 429 1.9463650195127000e-02
430 429 -1.1815045776157999e-03
4920 429 -4.3507137217070998e-04
429 430 -1.2564035592682000e-03
430 430 1.9388662553839999e-02
434 430 -1.6666666666667000e-02
4920 430 -4.3506741194258001e-04
428 431 -4.1305827343242997e-12
431 431 7.5572211412383000e-03
434 431 -6.6666666666667001e-03
4920 431 -1.6206239364114001e-04
432 432 9.2171808766640002e-03
433 432 -6.7159611531044001e-04
434 432 -4.3503516824586002e-04
432 433 -6.2322289820573005e-04
433 433 9.2662527953552998e-03
434 433 -4.3506321816407000e-04
4918 433 -6.6666666666667001e-03
425 434 -1.4019607690147001e-04
426 434 -1.3832011801386999e-04
430 434 -1.6666666666667000e-02
431 434 -6.6666666666667001e-03
432 434 -4.3499402973216000e-04
433 434 -4.3510671972567998e-04
434 434 2.5661195530847000e-02
435 435 8.2271772112317999e-03
438 435 -6.0986106151191997e-10
4915 435 -1.6460473498054000e-04
436 436 1.9463656043488001e-02
437 436 -1.1815027411933999e-03
4915 436 -4.3506946645513998e-04
436 437 -1.2564296643627999e-03
437 437 1.9388725789226999e-02
454 437 -1.6666666666667000e-02
4915 437 -4.3506931767058000e-04
435 438 -4.1314181459667997e-12
438 438 7.5572177875263997e-03
454 438 -6.6666666666667001e-03
4915 438 -1.6206240859352000e-04
439 439 1.9463363933778000e-02
440 439 -1.1812166533771999e-03
452 439 -4.3506939486997998e-04
439 440 -1.2561382110052000e-03
440 440 1.9388442250489999e-02
441 440 -1.6666666666667000e-02
452 440 -4.3506938925574998e-04
440 441 -1.6666666666667000e-02
441 441 2.3854346543977001e-02
443 441 -6.6666666666667001e-03
442 442 8.2271771462738997e-03
443 442 -6.2209190172410998e-10
452 442 -1.6461554509507000e-04
441 443 -6.6666666666667001e-03
442 443 -4.2155527107042996e-12
443 443 7.5572176560269998e-03
452 443 -1.6206459954626001e-04
444 444 1.7814706092240999e-02
445 444 -1.2132097507152000e-06
459 444 -1.4164318836799999e-04
444 445 -2.3976468822086999e-08
445 445 1.7296474344879000e-02
452 445 -1.6666666666667000e-02
459 445 -1.3967138012409001e-04
446 446 1.7814705801798999e-02
447 446 -1.2129039520025000e-06
454 446 -1.4163984417289000e-04
446 447 -2.3970248270081000e-08
447 447 1.7296474339413000e-02
452 447 -1.6666666666667000e-02
454 447 -1.3967080062735000e-04
448 448 9.2658220615559998e-03
449 448 -6.2285403450752005e-04
459 448 -4.3506656711957001e-04
448 449 -6.7147021480173995e-04
449 449 9.2165810487275998e-03
450 449 -6.6666666666667001e-03
459 449 -4.3503181876302998e-04
449 450 -6.6666666666667001e-03
450 450 1.3333333333332999e-02
451 450 -6.6666666666667001e-03
450 451 -6.6666666666667001e-03
451 451 9.2651590583447008e-03
453 451 -6.2280671999217000e-04
454 451 -4.3506663340960001e-04
439 452 -4.3506941590864000e-04
440 452 -4.3506936874276002e-04
442 452 -1.6142418712933001e-04
443 452 -1.6142330524658000e-04
445 452 -1.6666666666667000e-02
447 452 -1.6666666666667000e-02
452 452 4.1983407856821003e-02
453 452 -6.6666666666667001e-03
451 453 -6.7135359359814998e-04
452 453 -6.6666666666667001e-03
453 453 9.2159857030521992e-03
454 453 -4.3503175246129000e-04
437 454 -1.6666666666667000e-02
438 454 -6.6666666666667001e-03
446 454 -1.4022935376414999e-04
447 454 -1.3828684115119001e-04
451 454 -4.3512070841080001e-04
453 454 -4.3498061224694998e-04
454 454 2.5686827304913000e-02
455 455 8.2271785985046000e-03
458 455 -6.0073695819094001e-10
4918 455 -1.6459825283356001e-04
456 456 1.9463872503314002e-02
457 456 -1.1817211653276001e-03
4918 456 -4.3507054868986001e-04
456 457 -1.2566365453578999e-03
457 457 1.9388905322748000e-02
459 457 -1.6666666666667000e-02
4918 457 -4.3506823543163002e-04
455 458 -4.0682764919678999e-12
458 458 7.5572197920345998e-03
459 458 -6.6666666666667001e-03
4918 458 -1.6206073198595999e-04
444 459 -1.4022960157617000e-04
445 459 -1.3828659333916000e-04
448 459 -4.3512044785046000e-04
449 459 -4.3498086363793001e-04
457 459 -1.6666666666667000e-02
458 459 -6.6666666666667001e-03
459 459 2.5658095779650000e-02
460 460 8.2272295059142991e-03
461 460 -2.4572398277870001e-10
4917 460 -1.6408987734361000e-04
460 461 -2.5303224161439000e-10
461 461 8.2276086748406998e-03
4917 461 -1.6474036081659001e-04
4918 461 -6.6666666666667001e-03
462 462 9.2658594646246994e-03
465 462 -6.2287293776944002e-04
490 462 -4.3505740818039002e-04
463 463 1.7814705991301000e-02
464 463 -1.2130955976688999e-06
490 463 -1.4164017711863999e-04
463 464 -2.3972510571482001e-08
464 464 1.7296438679436001e-02
490 464 -1.3967079478486999e-04
4900 464 -1.6666666666667000e-02
462 465 -6.7154421587595995e-04
465 465 9.2168926684216002e-03
490 465 -4.3504097887693999e-04
4900 465 -6.6666666666667001e-03
466 466 1.9463655048425999e-02
467 466 -1.1815018971547001e-03
495 466 -4.3506948841556998e-04
466 467 -1.2564284690403001e-03
467 467 1.9388724162124001e-02
490 467 -1.6666666666667000e-02
495 467 -4.3506929571013997e-04
468 468 1.7814432017431998e-02
469 468 -9.3395871083911003e-07
489 468 -1.4034930752210000e-04
468 469 -9.3392927308827000e-07
469 469 1.7814429984317998e-02
489 469 -1.4034929917143999e-04
490 469 -1.6666666666667000e-02
470 470 8.2271771709163007e-03
471 470 -5.4616892992263998e-10
495 470 -1.6458314543139999e-04
470 471 -3.8191758920134003e-12
471 471 7.5912130109348002e-03
472 471 -6.6666666666667001e-03
495 471 -1.6212738765228999e-04
471 472 -6.6666666666667001e-03
472 472 1.3333333333332999e-02
487 472 -6.6666666666667001e-03
473 473 8.2271780058830006e-03
485 473 -1.6475053361368001e-04
486 473 -7.9536529265432996e-10
474 474 9.2645203036675998e-03
482 474 -6.2228104752461003e-04
475 475 9.2627319131728999e-03
481 475 -6.2214008659299002e-04
476 476 1.7813593026863001e-02
477 476 -2.3362810265601000e-07
476 477 -3.8766754898113000e-06
477 477 1.7897699974892999e-02
478 477 -1.6666666666667000e-02
477 478 -1.6666666666667000e-02
478 478 3.3333333333333000e-02
479 478 -1.6666666666667000e-02
478 479 -1.6666666666667000e-02
479 479 1.7900499694213999e-02
480 479 -7.5532493901616001e-06
479 480 -7.7911531444177999e-08
480 480 1.7296994492827001e-02
485 480 -1.6666666666667000e-02
475 481 -6.6839980740869000e-04
481 481 9.2029193446097994e-03
485 481 -6.6666666666667001e-03
474 482 -6.6872121693022004e-04
482 482 9.2044840778287007e-03
485 482 -6.6666666666667001e-03
483 483 1.9459740976262001e-02
484 483 -1.1776777544294000e-03
485 483 -4.3507012464494001e-04
483 484 -1.2525084295330999e-03
484 484 1.9384877626235999e-02
485 484 -4.3506865947908998e-04
489 484 -1.6666666666667000e-02
473 485 -1.6142431077861000e-04
480 485 -1.6666666666667000e-02
481 485 -6.6666666666667001e-03
482 485 -6.6666666666667001e-03
483 485 -4.3507559199553998e-04
484 485 -4.3506332937955002e-04
485 485 3.1979558913819997e-02
486 485 -1.6142318159730000e-04
473 486 -5.4093465322869004e-12
485 486 -1.6209152333699999e-04
486 486 7.5572189866403997e-03
489 486 -6.6666666666667001e-03
472 487 -6.6666666666667001e-03
487 487 7.5912136927735003e-03
488 487 -6.9483532700420001e-10
489 487 -1.6685426611337000e-04
487 488 -1.2546864542356000e-11
488 488 7.5572178286974004e-03
489 488 -1.6631927051705001e-04
490 488 -6.6666666666667001e-03
468 489 -1.3925811814176001e-04
469 489 -1.3925807677357999e-04
484 489 -1.6666666666667000e-02
486 489 -6.6666666666667001e-03
487 489 -1.6142437331475001e-04
488 489 -1.6142311906116000e-04
489 489 2.4964563404484000e-02
462 490 -4.3508288488671999e-04
463 490 -1.4022952449366000e-04
464 490 -1.3828667042168000e-04
465 490 -4.3501688562278001e-04
467 490 -1.6666666666667000e-02
469 490 -1.6666666666667000e-02
488 490 -6.6666666666667001e-03
490 490 4.2092969435020999e-02
491 491 9.2657469598086996e-03
494 491 -6.2275669699561002e-04
559 491 -4.3505610852180002e-04
492 492 1.7814713501583999e-02
493 492 -1.2211513553419001e-06
559 492 -1.4172801034742001e-04
492 493 -2.4136311516319000e-08
493 493 1.7296437055967999e-02
495 493 -1.6666666666667000e-02
559 493 -1.3968600955635999e-04
491 494 -6.7143139031587999e-04
494 494 9.2168235601543993e-03
495 494 -6.6666666666667001e-03
559 494 -4.3504227863408001e-04
466 495 -4.3507021080172001e-04
467 495 -4.3506859136623001e-04
470 495 -1.6142413232860000e-04
471 495 -1.6142336004731000e-04
493 495 -1.6666666666667000e-02
494 495 -6.6666666666667001e-03
495 495 2.5491557046712000e-02
496 496 8.2271772553704006e-03
497 496 -6.0964056955864003e-10
4920 496 -1.6460465626766001e-04
496 497 -4.1300608227580998e-12
497 497 7.5572675908529997e-03
559 497 -6.6666666666667001e-03
4920 497 -1.6206247987425999e-04
498 498 8.2272296291255997e-03
499 498 -3.7042992544982998e-10
4917 498 -1.6439819310369000e-04
498 499 -2.4812327723314001e-12
499 499 7.5572713921767997e-03
559 499 -6.6666666666667001e-03
4917 499 -1.6200616222694999e-04
500 500 9.1570168792967001e-03
503 500 -6.0449126029417995e-04
553 500 -4.3424181703620999e-04
501 501 1.8333367348317999e-02
502 501 -3.4655012440605999e-05
553 501 -5.4466059424444996e-04
501 502 -4.7344569466437997e-06
502 502 1.7296210836532998e-02
553 502 -1.4116553130323999e-04
4917 502 -1.6666666666667000e-02
500 503 -5.7602928972092004e-04
503 503 9.2198267293508007e-03
553 503 -4.3585333305119002e-04
4917 503 -6.6666666666667001e-03
504 504 8.2268529796072996e-03
516 504 -1.6724053466102000e-04
517 504 -2.2501493209767000e-08
505 505 9.2186585863171001e-03
506 505 -6.7145424168554000e-04
505 506 -6.4621250808231999e-04
506 506 9.2946634962191004e-03
522 506 -6.6666666666667001e-03
507 507 9.2342712675433994e-03
510 507 -6.0775734545531995e-04
508 508 1.7814961333477999e-02
509 508 -1.1692117536616000e-06
508 509 -2.3405554629732999e-08
509 509 1.7308628105132999e-02
516 509 -1.6666666666667000e-02
507 510 -6.0681477620685997e-04
510 510 8.9711944233946007e-03
516 510 -6.6666666666667001e-03
511 511 1.9370279162961999e-02
512 511 -1.0930248813954999e-03
516 511 -4.3564759907252000e-04
511 512 -1.1581040920282000e-03
512 512 1.9281987100055999e-02
513 512 -1.6666666666667000e-02
516 512 -4.3449007756375001e-04
512 513 -1.6666666666667000e-02
513 513 3.3333333333333000e-02
514 513 -1.6666666666667000e-02
513 514 -1.6666666666667000e-02
514 514 1.7804039839584999e-02
515 514 -1.0430947883993999e-06
514 515 -2.0969522606776001e-08
515 515 1.7295045502319001e-02
522 515 -1.6666666666667000e-02
504 516 -1.6106897838173999e-04
509 516 -1.6666666666667000e-02
510 516 -6.6666666666667001e-03
511 516 -4.3952401887591001e-04
512 516 -4.3072154492831998e-04
516 516 2.5501362664455001e-02
517 516 -1.6177851399417999e-04
504 517 -9.3263214797548000e-07
516 517 -1.9279855039575999e-04
517 517 8.2574509519731006e-03
522 517 -6.6666666666667001e-03
518 518 8.2271322724422006e-03
521 518 -2.9169886802437001e-10
522 518 -1.6419196850816001e-04
519 519 1.9400095099431001e-02
520 519 -1.2672810045328000e-03
522 519 -4.3487045540274998e-04
519 520 -1.2022147182588999e-03
520 520 1.9480328084145002e-02
522 520 -4.3526820317891000e-04
528 520 -1.6666666666667000e-02
518 521 -1.9538605781698000e-12
521 521 7.5568574052382997e-03
522 521 -1.6197898211780000e-04
528 521 -6.6666666666667001e-03
506 522 -6.6666666666667001e-03
515 522 -1.6666666666667000e-02
517 522 -6.6666666666667001e-03
518 522 -1.6142395198885000e-04
519 522 -4.3339691874956000e-04
520 522 -4.3677913453923000e-04
521 522 -1.6142354038706000e-04
522 522 3.1996745129301001e-02
523 523 9.2077690986431000e-03
524 523 -5.9099066606579996e-04
528 523 -4.5468342555490999e-04
523 524 -5.4175512836287002e-04
524 524 8.7772364405698002e-03
525 524 -6.6666666666667001e-03
528 524 -4.1321378500802002e-04
524 525 -6.6666666666667001e-03
525 525 1.3333333333332999e-02
552 525 -6.6666666666667001e-03
526 526 1.7814058849745001e-02
527 526 -5.6778869915687005e-07
528 526 -1.4020654051962001e-04
526 527 -2.4614978157692999e-08
527 527 1.7617008421919000e-02
528 527 -1.3975472622228000e-04
553 527 -1.6666666666667000e-02
520 528 -1.6666666666667000e-02
521 528 -6.6666666666667001e-03
523 528 -5.1333444391550001e-04
524 528 -3.5712379038172002e-04
526 528 -1.3966698186216000e-04
527 528 -1.3884921305318000e-04
528 528 2.5746397400480001e-02
529 529 8.2271682617128996e-03
541 529 -1.6427086840479000e-04
542 529 -2.1341789156276000e-10
530 530 9.2197976653397001e-03
531 530 -6.0214323393681000e-04
530 531 -5.5533676939032003e-04
531 531 8.8158523663733994e-03
546 531 -6.6666666666667001e-03
532 532 9.2177605418912994e-03
535 532 -6.7154558184747001e-04
533 533 1.7814708854904000e-02
534 533 -1.2159709605754001e-06
533 534 -2.4005438919457000e-08
534 534 1.7295881858251001e-02
541 534 -1.6666666666667000e-02
532 535 -6.3260455545544004e-04
535 535 9.2769330562918004e-03
541 535 -6.6666666666667001e-03
536 536 1.9393311164440999e-02
537 536 -1.2607416922467999e-03
541 536 -4.3496732258766998e-04
536 537 -1.1909278589480000e-03
537 537 1.9470938972927000e-02
538 537 -1.6666666666667000e-02
541 537 -4.3517142846113000e-04
537 538 -1.6666666666667000e-02
538 538 3.3333333333333000e-02
539 538 -1.6666666666667000e-02
538 539 -1.6666666666667000e-02
539 539 1.7817274017329000e-02
540 539 -1.2367617896629999e-06
539 540 -2.3598447748915001e-08
540 540 1.7319911968198001e-02
546 540 -1.6666666666667000e-02
529 541 -1.6142389376494999e-04
534 541 -1.6666666666667000e-02
535 541 -6.6666666666667001e-03
536 541 -4.3421722109873002e-04
537 541 -4.3594068362056001e-04
541 541 2.5217087702088001e-02
542 541 -1.6142359861096001e-04
529 542 -2.7314062748113998e-12
541 542 -1.6301086891880000e-04
542 542 7.9540286451852005e-03
546 542 -6.6666666666667001e-03
543 543 8.7539187825871004e-03
546 543 -5.2943896586318004e-04
547 543 -4.0526634202654000e-05
544 544 1.9253723630786000e-02
545 544 -1.0054842099632001e-03
546 544 -4.4829128031458998e-04
544 545 -9.4543615737173003e-04
545 545 1.8919390589451999e-02
546 545 -4.2116944087340998e-04
550 545 -1.6666666666667000e-02
531 546 -6.6666666666667001e-03
540 546 -1.6666666666667000e-02
542 546 -6.6666666666667001e-03
543 546 -5.5628808922383996e-04
544 546 -5.2636596888563003e-04
545 546 -3.4495296057682000e-04
546 546 3.2178402980706997e-02
547 546 -1.3139333316515000e-04
543 547 -1.7694886412437000e-06
546 547 -1.6200421207012000e-04
547 547 7.5773072587416003e-03
550 547 -6.6666666666667001e-03
548 548 1.7822332671072999e-02
549 548 -6.8119669509431999e-06
550 548 -1.6509549282041000e-04
548 549 -2.9476582768253998e-07
549 549 1.7616668035556001e-02
550 549 -1.5045079906927001e-04
553 549 -1.6666666666667000e-02
545 550 -1.6666666666667000e-02
547 550 -6.6666666666667001e-03
548 550 -1.4394836662847001e-04
549 550 -1.3456782828686999e-04
550 550 2.5024768382941001e-02
551 550 3.1248911200044999e-05
552 550 -7.1893033358903997e-04
550 551 -1.6309843835750999e-04
551 551 7.6319286081932003e-03
552 551 -4.7191221875069000e-05
553 551 -6.6666666666667001e-03
525 552 -6.6666666666667001e-03
550 552 -5.3016577054725001e-04
551 552 -2.6600158037452001e-04
552 552 8.6180223907745997e-03
500 553 -4.3207149183429000e-04
501 553 -5.6262028700399002e-04
502 553 -1.1031096738495000e-04
503 553 -4.3816222247309000e-04
527 553 -1.6666666666667000e-02
549 553 -1.6666666666667000e-02
551 553 -6.6666666666667001e-03
553 553 4.2160070733939001e-02
554 554 1.9470836887416000e-02
555 554 -1.1887390208260001e-03
4917 554 -4.3509938513865002e-04
554 555 -1.2633641679776000e-03
555 555 1.9394860130516001e-02
556 555 -1.6666666666667000e-02
4917 555 -4.3503939613465998e-04
555 556 -1.6666666666667000e-02
556 556 3.3333333333333000e-02
557 556 -1.6666666666667000e-02
556 557 -1.6666666666667000e-02
557 557 1.9387633166842000e-02
558 557 -1.2560059910120000e-03
4920 557 -4.3506755700995999e-04
557 558 -1.1813741238418001e-03
558 558 1.9462347055593000e-02
559 558 -1.6666666666667000e-02
4920 558 -4.3507122710506997e-04
491 559 -4.3507754678675001e-04
492 559 -1.4023605396108001e-04
493 559 -1.3828014095425999e-04
494 559 -4.3502200497503001e-04
497 559 -6.6666666666667001e-03
499 559 -6.6666666666667001e-03
558 559 -1.6666666666667000e-02
559 559 3.2205782280779000e-02
560 560 1.7814667813969998e-02
561 560 -1.1747564248055000e-06
569 560 -1.4158620135250999e-04
560 561 -2.3543684018065999e-08
561 561 1.7304144283355999e-02
562 561 -1.6666666666667000e-02
569 561 -1.3967497198856001e-04
561 562 -1.6666666666667000e-02
562 562 3.3333333333333000e-02
4899 562 -1.6666666666667000e-02
563 563 8.2271772059384005e-03
566 563 -6.1046284824855999e-10
4900 563 -1.6460527045312001e-04
564 564 1.9463639434539000e-02
565 564 -1.1814882683143001e-03
4900 564 -4.3506991518254997e-04
564 565 -1.2564082783976000e-03
565 565 1.9388696001151999e-02
569 565 -1.6666666666667000e-02
4900 565 -4.3506886894232000e-04
563 566 -4.1355606257266000e-12
566 566 7.5572185719484999e-03
569 566 -6.6666666666667001e-03
4900 566 -1.6206251926763999e-04
567 567 9.2658696205831000e-03
568 567 -6.2287630210810000e-04
569 567 -4.3505414948918003e-04
567 568 -6.7156708215239001e-04
568 568 9.2170005376243994e-03
569 568 -4.3504423778325998e-04
4898 568 -6.6666666666667001e-03
560 569 -1.4019528434242999e-04
561 569 -1.3832091057291001e-04
565 569 -1.6666666666667000e-02
566 569 -6.6666666666667001e-03
567 569 -4.3506951959951999e-04
568 569 -4.3502970234568999e-04
569 569 2.5661402769472999e-02
570 570 8.2271771943244008e-03
573 570 -6.1034233826044999e-10
4895 570 -1.6460514605155999e-04
571 571 1.9463644579440002e-02
572 571 -1.1814913729513001e-03
4895 571 -4.3506943374737998e-04
571 572 -1.2564185265791000e-03
572 572 1.9388715559308999e-02
589 572 -1.6666666666667000e-02
4895 572 -4.3506935037836001e-04
570 573 -4.1347325494370999e-12
573 573 7.5572177284549003e-03
589 573 -6.6666666666667001e-03
4895 573 -1.6206249572704999e-04
574 574 1.9463363649874998e-02
575 574 -1.1812163744886999e-03
587 574 -4.3506939447700001e-04
574 575 -1.2561379315261000e-03
575 575 1.9388441984770001e-02
576 575 -1.6666666666667000e-02
587 575 -4.3506938964873001e-04
575 576 -1.6666666666667000e-02
576 576 2.3854346543977001e-02
578 576 -6.6666666666667001e-03
577 577 8.2271771464043006e-03
578 577 -6.2210395737909003e-10
587 577 -1.6461555573390999e-04
576 578 -6.6666666666667001e-03
577 578 -4.2156354912882996e-12
578 578 7.5572176553335996e-03
587 578 -1.6206460168079000e-04
579 579 1.7814705876088001e-02
580 579 -1.2129900462294000e-06
594 579 -1.4164078895221999e-04
579 580 -2.3972001669228001e-08
580 580 1.7296474377134000e-02
587 580 -1.6666666666667000e-02
594 580 -1.3967096441908999e-04
581 581 1.7814705792014000e-02
582 581 -1.2128946591532999e-06
589 581 -1.4163974452508001e-04
581 582 -2.3970060966472998e-08
582 582 1.7296474375815999e-02
587 582 -1.6666666666667000e-02
589 582 -1.3967078342659001e-04
583 583 9.2658253194654993e-03
584 583 -6.2285723996367999e-04
594 583 -4.3506659290119002e-04
583 584 -6.7147340008922999e-04
584 584 9.2165833953595996e-03
585 584 -6.6666666666667001e-03
594 584 -4.3503179297692002e-04
584 585 -6.6666666666667001e-03
585 585 1.3333333333332999e-02
586 585 -6.6666666666667001e-03
585 586 -6.6666666666667001e-03
586 586 9.2651582046828999e-03
588 586 -6.2280677550629996e-04
589 586 -4.3506663485111998e-04
574 587 -4.3506941257037002e-04
575 587 -4.3506937200743999e-04
577 587 -1.6142418713793001e-04
578 587 -1.6142330523798000e-04
580 587 -1.6666666666667000e-02
582 587 -1.6666666666667000e-02
587 587 4.1983407544788999e-02
588 587 -6.6666666666667001e-03
586 588 -6.7135354389494001e-04
587 588 -6.6666666666667001e-03
588 588 9.2159849037512006e-03
589 588 -4.3503175101952001e-04
572 589 -1.6666666666667000e-02
573 589 -6.6666666666667001e-03
581 589 -1.4022934621854999e-04
582 589 -1.3828684869679001e-04
586 589 -4.3512071432610000e-04
588 589 -4.3498060657097001e-04
589 589 2.5686830917235001e-02
590 590 8.2271777987825007e-03
593 590 -6.0898063481972998e-10
4898 590 -1.6460470085451000e-04
591 591 1.9463675663372999e-02
592 591 -1.1815241816152001e-03
4898 591 -4.3506976814105001e-04
591 592 -1.2564469115463001e-03
592 592 1.9388736093439000e-02
594 592 -1.6666666666667000e-02
4898 592 -4.3506901598423998e-04
590 593 -4.1251874302417000e-12
593 593 7.5572183582244996e-03
594 593 -6.6666666666667001e-03
4898 593 -1.6206224331016001e-04
579 594 -1.4022942352431001e-04
580 594 -1.3828677139102999e-04
583 594 -4.3512055411832999e-04
584 594 -4.3498076170533001e-04
592 594 -1.6666666666667000e-02
593 594 -6.6666666666667001e-03
594 594 2.5658182566306000e-02
595 595 8.2271937150081992e-03
596 595 -3.9331377036430999e-10
4897 595 -1.6436943745075001e-04
595 596 -3.9110361832652999e-10
596 596 8.2270624839346999e-03
4897 596 -1.6434432872870999e-04
4898 596 -6.6666666666667001e-03
597 597 9.2658579747244008e-03
600 597 -6.2287246228778998e-04
625 597 -4.3505790593352002e-04
598 598 1.7814705967565000e-02
599 598 -1.2130707694176999e-06
625 598 -1.4163994041713001e-04
598 599 -2.3972037856845000e-08
599 599 1.7296439383269999e-02
625 599 -1.3967075502907000e-04
4880 599 -1.6666666666667000e-02
597 600 -6.7154076565311002e-04
600 600 9.2168762510079008e-03
625 600 -4.3504048108157002e-04
4880 600 -6.6666666666667001e-03
601 601 1.9463640970560001e-02
602 601 -1.1814877685982000e-03
630 601 -4.3506941349295001e-04
601 602 -1.2564151371921000e-03
602 602 1.9388712642396000e-02
625 602 -1.6666666666667000e-02
630 602 -4.3506937063278001e-04
603 603 1.7814432125335001e-02
604 603 -9.3406391239611998e-07
624 603 -1.4035015181730999e-04
603 604 -9.3405729989499998e-07
604 604 1.7814431671893002e-02
624 604 -1.4035013468465001e-04
625 604 -1.6666666666667000e-02
605 605 8.2271771328336005e-03
606 605 -5.4670399741287002e-10
630 605 -1.6458363204482001e-04
605 606 -3.8229862146624996e-12
606 606 7.5912128216309004e-03
607 606 -6.6666666666667001e-03
630 606 -1.6212750732480001e-04
606 607 -6.6666666666667001e-03
607 607 1.3333333333332999e-02
622 607 -6.6666666666667001e-03
608 608 8.2271784631104995e-03
620 608 -1.6478951650237999e-04
621 608 -8.5393269123537000e-10
609 609 9.2623729887891006e-03
617 609 -6.2197974348499995e-04
610 610 9.2641614986476006e-03
616 610 -6.2212122733820003e-04
611 611 1.7814586876120999e-02
612 611 -1.0934214865536000e-06
611 612 -2.2714242307708000e-08
612 612 1.7322708803545001e-02
613 612 -1.6666666666667000e-02
612 613 -1.6666666666667000e-02
613 613 3.3333333333333000e-02
614 613 -1.6666666666667000e-02
613 614 -1.6666666666667000e-02
614 614 1.7322695658174000e-02
615 614 -1.1636236885737000e-17
614 615 -6.9238703959414001e-19
615 615 1.7297058168463001e-02
620 615 -1.6666666666667000e-02
610 616 -6.6796467614751000e-04
616 616 9.2011911537685995e-03
620 616 -6.6666666666667001e-03
609 617 -6.6764395846426996e-04
617 617 9.1996361864780992e-03
620 617 -6.6666666666667001e-03
618 618 1.9458691850835000e-02
619 618 -1.1766545250755001e-03
620 618 -4.3507062659276999e-04
618 619 -1.2514545413950999e-03
619 619 1.9383836829810999e-02
620 619 -4.3506815752811999e-04
624 619 -1.6666666666667000e-02
608 620 -1.6142435260278000e-04
615 620 -1.6666666666667000e-02
616 620 -6.6666666666667001e-03
617 620 -6.6666666666667001e-03
618 620 -4.3507982874728000e-04
619 620 -4.3505918669672000e-04
620 620 3.1978484737613999e-02
621 620 -1.6142313977314000e-04
608 621 -5.8136880875240001e-12
620 621 -1.6209924795296000e-04
621 621 7.5572198957224003e-03
624 621 -6.6666666666667001e-03
607 622 -6.6666666666667001e-03
622 622 7.5912135056028004e-03
623 622 -6.9453763321915001e-10
624 622 -1.6685425017296001e-04
622 623 -1.2541482059738000e-11
623 623 7.5572176962333997e-03
624 623 -1.6631925685990000e-04
625 623 -6.6666666666667001e-03
603 624 -1.3925810207089000e-04
604 624 -1.3925809284445000e-04
619 624 -1.6666666666667000e-02
621 624 -6.6666666666667001e-03
622 624 -1.6142437304602001e-04
623 624 -1.6142311932988999e-04
624 624 2.4964518076493001e-02
597 625 -4.3508492638488002e-04
598 625 -1.4022950406851001e-04
599 625 -1.3828669084682999e-04
600 625 -4.3501492790216998e-04
602 625 -1.6666666666667000e-02
604 625 -1.6666666666667000e-02
623 625 -6.6666666666667001e-03
625 625 4.2092978117756003e-02
626 626 9.2658450044367999e-03
629 626 -6.2285672937720997e-04
694 626 -4.3505747723418000e-04
627 627 1.7814706868175999e-02
628 627 -1.2141943293565001e-06
694 627 -1.4165222490024001e-04
627 628 -2.3994873000014998e-08
628 628 1.7296438786172999e-02
630 628 -1.6666666666667000e-02
694 628 -1.3967288257581999e-04
626 629 -6.7152718706230000e-04
629 629 9.2168765549318007e-03
630 629 -6.6666666666667001e-03
694 629 -4.3504090981744001e-04
601 630 -4.3506957415824997e-04
602 630 -4.3506921398032999e-04
605 630 -1.6142413271034000e-04
606 630 -1.6142335966557001e-04
628 630 -1.6666666666667000e-02
629 630 -6.6666666666667001e-03
630 630 2.5491541059029000e-02
631 631 8.2271772059257994e-03
632 631 -6.1045024715612004e-10
4900 631 -1.6460526653445999e-04
631 632 -4.1354943126670996e-12
632 632 7.5572244601555998e-03
694 632 -6.6666666666667001e-03
4900 632 -1.6206253020091001e-04
633 633 8.2271939136023004e-03
634 633 -5.9427780099596998e-10
4897 633 -1.6461212341272000e-04
633 634 -4.0193638017803000e-12
634 634 7.5572256780046003e-03
694 634 -6.6666666666667001e-03
4897 634 -1.6205936532353999e-04
635 635 9.2208719367708001e-03
638 635 -6.7465812577738999e-04
688 635 -4.3502455567850001e-04
636 636 1.7814468035511000e-02
637 636 -1.0488650605104999e-06
688 636 -1.3985394791757999e-04
636 637 -2.0640604129461001e-08
637 637 1.7296378047166001e-02
688 637 -1.3936133258441000e-04
4897 637 -1.6666666666667000e-02
635 638 -6.2677569315593997e-04
638 638 9.2699869700100992e-03
688 638 -4.3507382867799001e-04
4897 638 -6.6666666666667001e-03
639 639 8.2271686699970006e-03
651 639 -1.6426985046145000e-04
652 639 -2.1277681266801000e-10
640 640 9.2202658401787999e-03
641 640 -6.0240884318256004e-04
640 641 -5.5654574572241999e-04
641 641 8.8192218543661008e-03
657 641 -6.6666666666667001e-03
642 642 9.2177619808665005e-03
645 642 -6.7154542028500998e-04
643 643 1.7814708862961000e-02
644 643 -1.2159790545471999e-06
643 644 -2.4005532464305001e-08
644 644 1.7295880310231000e-02
651 644 -1.6666666666667000e-02
642 645 -6.3262791707462997e-04
645 645 9.2769610877108995e-03
651 645 -6.6666666666667001e-03
646 646 1.9393322087097001e-02
647 646 -1.2607535129143001e-03
651 646 -4.3496728437907999e-04
646 647 -1.1909407785606000e-03
647 647 1.9470951825160999e-02
648 647 -1.6666666666667000e-02
651 647 -4.3517146664513002e-04
647 648 -1.6666666666667000e-02
648 648 3.3333333333333000e-02
649 648 -1.6666666666667000e-02
648 649 -1.6666666666667000e-02
649 649 1.7817276497289002e-02
650 649 -1.2380547690697000e-06
649 650 -2.3610100093180999e-08
650 650 1.7319635183399001e-02
657 650 -1.6666666666667000e-02
639 651 -1.6142389330624999e-04
644 651 -1.6666666666667000e-02
645 651 -6.6666666666667001e-03
646 651 -4.3421689095787997e-04
647 651 -4.3594102086637001e-04
651 651 2.5564983772371999e-02
652 651 -1.6142359906966001e-04
639 652 -2.7344542360375002e-12
651 652 -1.6301706824042999e-04
652 652 7.9559479917556998e-03
657 652 -6.6666666666667001e-03
653 653 8.7517624938082995e-03
656 653 -3.8159341822396002e-05
657 653 -5.2942837042612996e-04
654 654 1.9241059148084001e-02
655 654 -1.0000610457201000e-03
657 654 -4.5339279908332999e-04
654 655 -8.9833265004516001e-04
655 655 1.8827898500666001e-02
657 655 -4.1539733763078002e-04
663 655 -1.6666666666667000e-02
653 656 -1.7658304693032001e-06
656 656 7.5848943579453999e-03
657 656 -1.6201397525355000e-04
663 656 -6.6666666666667001e-03
641 657 -6.6666666666667001e-03
650 657 -1.6666666666667000e-02
652 657 -6.6666666666667001e-03
653 657 -5.5447753609831000e-04
654 657 -5.6077513059717002e-04
655 657 -3.1028764488522001e-04
656 657 -1.3320388629068001e-04
657 657 3.2177821518034000e-02
658 658 8.9537282363629008e-03
659 658 -3.1177503900042998e-04
663 658 -5.0665853483225997e-04
658 659 -1.6123156505225999e-04
659 659 8.0755511006616008e-03
660 659 -6.6666666666667001e-03
663 659 -3.1738861904604001e-04
659 660 -6.6666666666667001e-03
660 660 1.3333333333332999e-02
687 660 -6.6666666666667001e-03
661 661 1.8332525667883001e-02
662 661 -2.1019798640577999e-04
663 661 -3.7508357471795000e-04
661 662 -1.8296036711789001e-04
662 662 1.8443704279466001e-02
663 662 -4.8251928898159001e-04
688 662 -1.6666666666667000e-02
655 663 -1.6666666666667000e-02
656 663 -6.6666666666667001e-03
658 663 -6.2613247043343998e-04
659 663 -2.0081554394455999e-04
661 663 -4.1111179350648998e-04
662 663 -4.4618448331956999e-04
663 663 2.5830843180946000e-02
664 664 8.2277712901225007e-03
676 664 -1.6661601221518000e-04
677 664 -1.3485747605462001e-08
665 665 9.2185979424054994e-03
666 665 -6.7146175848137996e-04
665 666 -6.4528774970489000e-04
666 666 9.2933616960683002e-03
681 666 -6.6666666666667001e-03
667 667 9.2407130454172006e-03
670 667 -6.1139819940482000e-04
668 668 1.7814985785236000e-02
669 668 -1.1836305538958000e-06
668 669 -2.3555833725656000e-08
669 669 1.7305668902203999e-02
676 669 -1.6666666666667000e-02
667 670 -6.2151217539774999e-04
670 670 9.0208904978516004e-03
676 670 -6.6666666666667001e-03
671 671 1.9391960358552000e-02
672 671 -1.1136946880060999e-03
676 671 -4.3553487526655000e-04
671 672 -1.1806326856285000e-03
672 672 1.9305853714255999e-02
673 672 -1.6666666666667000e-02
676 672 -4.3460319748817998e-04
672 673 -1.6666666666667000e-02
673 673 3.3333333333333000e-02
674 673 -1.6666666666667000e-02
673 674 -1.6666666666667000e-02
674 674 1.7805859567004999e-02
675 674 -1.0714183833593001e-06
674 675 -2.1470323074857000e-08
675 675 1.7295119230857001e-02
681 675 -1.6666666666667000e-02
664 676 -1.6134806588423000e-04
669 676 -1.6666666666667000e-02
670 676 -6.6666666666667001e-03
671 676 -4.3874164726261003e-04
672 676 -4.3148328857665999e-04
676 676 2.5163509036744001e-02
677 676 -1.6149942649168001e-04
664 677 -2.1136600132052001e-07
676 677 -1.9223121861141999e-04
677 677 8.2546936922522005e-03
681 677 -6.6666666666667001e-03
678 678 8.2271082899206000e-03
681 678 -1.6421292240382000e-04
682 678 -3.0029675633627999e-10
679 679 1.9467561550968002e-02
680 679 -1.1907256483083000e-03
681 679 -4.3652804569404999e-04
679 680 -1.2450338854529000e-03
680 680 1.9349760459133999e-02
681 680 -4.3360377620670998e-04
685 680 -1.6666666666667000e-02
666 681 -6.6666666666667001e-03
675 681 -1.6666666666667000e-02
677 681 -6.6666666666667001e-03
678 681 -1.6142395806348001e-04
679 681 -4.4757158163885000e-04
680 681 -4.2282240546836000e-04
681 681 3.1996085503949001e-02
682 681 -1.6142353431243000e-04
678 682 -2.0173875702799002e-12
681 682 -1.6198841835694000e-04
682 682 7.5598335183751997e-03
685 682 -6.6666666666667001e-03
683 683 1.7814815055787001e-02
684 683 -1.2850552424654000e-06
685 683 -1.4320781276268001e-04
683 684 -1.9949834000714001e-06
684 684 1.7829457388333001e-02
685 684 -1.9976115540402999e-04
688 684 -1.6666666666667000e-02
680 685 -1.6666666666667000e-02
682 685 -6.6666666666667001e-03
683 685 -1.3901253021241999e-04
684 685 -1.3950366470292001e-04
685 685 2.5198357429668999e-02
686 685 -8.7493204193086993e-06
687 685 -6.7893210196968003e-04
685 686 -1.6303378944122001e-04
686 686 7.5771225241255003e-03
687 686 -2.3078443256067001e-05
688 686 -6.6666666666667001e-03
660 687 -6.6666666666667001e-03
685 687 -5.2885195760292002e-04
686 687 -1.8944830778297000e-04
687 687 8.3271369308249004e-03
635 688 -4.3495166473245998e-04
636 688 -1.4009663935065999e-04
637 688 -1.3841955556468001e-04
638 688 -4.3515087485176002e-04
662 688 -1.6666666666667000e-02
684 688 -1.6666666666667000e-02
686 688 -6.6666666666667001e-03
688 688 4.2191401792621999e-02
689 689 1.9464001301838001e-02
690 689 -1.1818950588244001e-03
4897 689 -4.3507562398367998e-04
689 690 -1.2567333340456001e-03
690 690 1.9388883924717000e-02
691 690 -1.6666666666667000e-02
4897 690 -4.3506316001871997e-04
690 691 -1.6666666666667000e-02
691 691 3.3333333333333000e-02
692 691 -1.6666666666667000e-02
691 692 -1.6666666666667000e-02
692 692 1.9388491063619000e-02
693 692 -1.2563258419959001e-03
4900 692 -4.3506705905406001e-04
692 693 -1.1814695299140999e-03
693 693 1.9463451807892999e-02
694 693 -1.6666666666667000e-02
4900 693 -4.3507172505438999e-04
626 694 -4.3508316685270001e-04
627 694 -1.4023041502096999e-04
628 694 -1.3828577989437001e-04
629 694 -4.3501661528498999e-04
632 694 -6.6666666666667001e-03
634 694 -6.6666666666667001e-03
693 694 -1.6666666666667000e-02
694 694 3.2208482239301998e-02
695 695 1.7814013954117001e-02
696 695 -5.1777949546222005e-07
704 695 -1.4041504345098000e-04
695 696 -4.9679703165757003e-08
696 696 1.7749224810708002e-02
697 696 -1.6666666666667000e-02
704 696 -1.4017814566509999e-04
696 697 -1.6666666666667000e-02
697 697 3.3333333333333000e-02
4879 697 -1.6666666666667000e-02
698 698 8.2271771332232992e-03
701 698 -6.1068950214461001e-10
4880 698 -1.6460538225427000e-04
699 699 1.9463636420034000e-02
700 699 -1.1814831236562000e-03
4880 699 -4.3506939301752001e-04
699 700 -1.2564107146957001e-03
700 700 1.9388708786247998e-02
704 700 -1.6666666666667000e-02
4880 700 -4.3506939110821000e-04
698 701 -4.1371374243457001e-12
701 701 7.5572176525595001e-03
704 701 -6.6666666666667001e-03
4880 701 -1.6206255903391999e-04
702 702 9.2658836713048007e-03
703 702 -6.2288380728623999e-04
704 702 -4.3505078414326999e-04
702 703 -6.7159483175838999e-04
703 703 9.2171154185450993e-03
704 703 -4.3504760323958002e-04
4878 703 -6.6666666666667001e-03
695 704 -1.3960581888225999e-04
696 704 -1.3891037603307001e-04
700 704 -1.6666666666667000e-02
701 704 -6.6666666666667001e-03
702 704 -4.3505571689184998e-04
703 704 -4.3504293837177000e-04
704 704 2.5740483178795001e-02
705 705 9.2658580408254993e-03
708 705 -6.2287253573167995e-04
4875 705 -4.3505790681590002e-04
706 706 1.7814705963203000e-02
707 706 -1.2130656685787000e-06
4875 706 -1.4163988460517000e-04
706 707 -2.3971934134139000e-08
707 707 1.7296439384450000e-02
724 707 -1.6666666666667000e-02
4875 707 -1.3967074536070000e-04
705 708 -6.7154083604313998e-04
708 708 9.2168762883779991e-03
724 708 -6.6666666666667001e-03
4875 708 -4.3504048019911998e-04
709 709 1.7814705962431000e-02
710 709 -1.2130648916869999e-06
722 709 -1.4163987611525000e-04
709 710 -2.3971918333609000e-08
710 710 1.7296439384436001e-02
711 710 -1.6666666666667000e-02
722 710 -1.3967074388979999e-04
710 711 -1.6666666666667000e-02
711 711 2.3854346543977001e-02
713 711 -6.6666666666667001e-03
712 712 9.2658580527799003e-03
713 712 -6.2287254722522001e-04
722 712 -4.3505790681678001e-04
711 713 -6.6666666666667001e-03
712 713 -6.7154084801896005e-04
713 713 9.2168762998098997e-03
722 713 -4.3504048019823999e-04
714 714 1.7814431860190001e-02
715 714 -9.3380130978868005e-07
729 714 -1.4034808738023000e-04
714 715 -9.3380104376926001e-07
715 715 1.7814431841814998e-02
722 715 -1.6666666666667000e-02
729 715 -1.4034808730484000e-04
716 716 1.9463636410873002e-02
717 716 -1.1814831141803001e-03
724 716 -4.3506939293642998e-04
716 717 -1.2564107062424999e-03
717 717 1.9388708779695001e-02
722 717 -1.6666666666667000e-02
724 717 -4.3506939118931001e-04
718 718 9.2658893877213006e-03
719 718 -6.2288631971129001e-04
729 718 -4.3504919508614002e-04
718 719 -6.7160687699120995e-04
719 719 9.2171687804816996e-03
720 719 -6.6666666666667001e-03
729 719 -4.3504919230939000e-04
719 720 -6.6666666666667001e-03
720 720 1.3333333333332999e-02
721 720 -6.6666666666667001e-03
720 721 -6.6666666666667001e-03
721 721 8.2271770959314993e-03
723 721 -6.1068904611510995e-10
724 721 -1.6460538237520001e-04
709 722 -1.4022949930428001e-04
710 722 -1.3828669561105999e-04
712 722 -4.3508493001452001e-04
713 722 -4.3501492442116999e-04
715 722 -1.6666666666667000e-02
717 722 -1.6666666666667000e-02
722 722 4.2092980445436003e-02
723 722 -6.6666666666667001e-03
721 723 -4.1371345579240001e-12
722 723 -6.6666666666667001e-03
723 723 7.5572176524089998e-03
724 723 -1.6206255910848001e-04
707 724 -1.6666666666667000e-02
708 724 -6.6666666666667001e-03
716 724 -4.3506939948563002e-04
717 724 -4.3506938480369000e-04
721 724 -1.6142417899728999e-04
723 724 -1.6142331337862001e-04
724 724 2.5577546358234001e-02
725 725 8.2271771300477994e-03
728 725 -6.0761405390667000e-10
4878 725 -1.6460260703199999e-04
726 726 1.9463710783395000e-02
727 726 -1.1815558478008999e-03
4878 726 -4.3506939293346003e-04
726 727 -1.2564850787949999e-03
727 727 1.9388781513414999e-02
729 727 -1.6666666666667000e-02
4878 727 -4.3506939119228002e-04
725 728 -4.1159909955975003e-12
728 728 7.5572176523818002e-03
729 728 -6.6666666666667001e-03
4878 728 -1.6206200182116001e-04
714 729 -1.3925809764457999e-04
715 729 -1.3925809727075001e-04
718 729 -4.3504919939217997e-04
719 729 -4.3504918823719999e-04
727 729 -1.6666666666667000e-02
728 729 -6.6666666666667001e-03
729 729 2.5745828784932999e-02
730 730 9.2658836715619006e-03
731 730 -6.2288380754842003e-04
4877 730 -4.3505078414326999e-04
730 731 -6.7159483203000996e-04
731 731 9.2171154187928005e-03
4877 731 -4.3504760323958002e-04
4878 731 -6.6666666666667001e-03
732 732 9.2658572264749002e-03
735 732 -6.2287217524022002e-04
760 732 -4.3505813723412000e-04
733 733 1.7814705960903999e-02
734 733 -1.2130639132273000e-06
760 733 -1.4163988024472999e-04
733 734 -2.3971912126343001e-08
734 734 1.7296439682324999e-02
760 734 -1.3967074513676999e-04
4860 734 -1.6666666666667000e-02
732 735 -6.7153909488624000e-04
735 735 9.2168685677092004e-03
760 735 -4.3504024976051000e-04
4860 735 -6.6666666666667001e-03
736 736 1.7814431860283999e-02
737 736 -9.3380141070361004e-07
765 736 -1.4034808798195001e-04
736 737 -9.3380058276868997e-07
737 737 1.7814431803094000e-02
760 737 -1.6666666666667000e-02
765 737 -1.4034808774731001e-04
738 738 1.9463636417199000e-02
739 738 -1.1814831277889000e-03
759 738 -4.3506939468411000e-04
738 739 -1.2564106943798001e-03
739 739 1.9388708733237000e-02
759 739 -4.3506938944162002e-04
760 739 -1.6666666666667000e-02
740 740 9.2658893867352994e-03
741 740 -6.2288631849013001e-04
765 740 -4.3504919497714003e-04
740 741 -6.7160687637249003e-04
741 741 9.2171687828157007e-03
742 741 -6.6666666666667001e-03
765 741 -4.3504919241838999e-04
741 742 -6.6666666666667001e-03
742 742 1.3333333333332999e-02
757 742 -6.6666666666667001e-03
743 743 9.2658580456259996e-03
755 743 -4.3505790547610000e-04
756 743 -6.2287253779638003e-04
744 744 8.2271771293656003e-03
752 744 -6.0692932014083005e-10
745 745 8.2271771293656003e-03
751 745 -6.0692932011372995e-10
746 746 1.9463727386655000e-02
747 746 -1.1815720888718999e-03
746 747 -1.2565016720501000e-03
747 747 1.9388797722520001e-02
748 747 -1.6666666666667000e-02
747 748 -1.6666666666667000e-02
748 748 3.3333333333333000e-02
749 748 -1.6666666666667000e-02
748 749 -1.6666666666667000e-02
749 749 1.9463727303456999e-02
750 749 -1.1815720805982001e-03
749 750 -1.2565016460338000e-03
750 750 1.9388797655353000e-02
755 750 -1.6666666666667000e-02
745 751 -4.1112831454957996e-12
751 751 7.5572176572844003e-03
755 751 -6.6666666666667001e-03
744 752 -4.1112831454957996e-12
752 752 7.5572176572844003e-03
755 752 -6.6666666666667001e-03
753 753 1.7814705963216000e-02
754 753 -1.2130656822335999e-06
755 753 -1.4163988466097001e-04
753 754 -2.3971934325217000e-08
754 754 1.7296439382558999e-02
755 754 -1.3967074536700000e-04
759 754 -1.6666666666667000e-02
743 755 -4.3508492451494000e-04
750 755 -1.6666666666667000e-02
751 755 -6.6666666666667001e-03
752 755 -6.6666666666667001e-03
753 755 -1.4022949994572001e-04
754 755 -1.3828669496961999e-04
755 755 3.2092980135837001e-02
756 755 -4.3501492969511002e-04
743 756 -6.7154084614531005e-04
755 756 -4.3504048153902999e-04
756 756 9.2168763333271998e-03
759 756 -6.6666666666667001e-03
742 757 -6.6666666666667001e-03
757 757 8.2271770990377004e-03
758 757 -6.1068849626545999e-10
759 757 -1.6460538183970001e-04
757 758 -4.1371306358692002e-12
758 758 7.5572176552991003e-03
759 758 -1.6206255900250000e-04
760 758 -6.6666666666667001e-03
738 759 -4.3506941433597000e-04
739 759 -4.3506937028060002e-04
754 759 -1.6666666666667000e-02
756 759 -6.6666666666667001e-03
757 759 -1.6142417899690000e-04
758 759 -1.6142331337901000e-04
759 759 2.5259818665314002e-02
732 760 -4.3508587504165002e-04
733 760 -1.4022949838301001e-04
734 760 -1.3828669653232999e-04
735 760 -4.3501401817473999e-04
737 760 -1.6666666666667000e-02
739 760 -1.6666666666667000e-02
758 760 -6.6666666666667001e-03
760 760 4.2092980344891999e-02
761 761 8.2271771329842005e-03
764 761 -6.1055896768957998e-10
829 761 -1.6460526476288001e-04
762 762 1.9463639567687999e-02
763 762 -1.1814862027338001e-03
829 762 -4.3506939326756999e-04
762 763 -1.2564138595318999e-03
763 763 1.9388711856948002e-02
765 763 -1.6666666666667000e-02
829 763 -4.3506939085817000e-04
761 764 -4.1362398834510996e-12
764 764 7.5572176529900004e-03
765 764 -6.6666666666667001e-03
829 764 -1.6206253544486001e-04
736 765 -1.3925809803940999e-04
737 765 -1.3925809687593001e-04
740 765 -4.3504919894511002e-04
741 765 -4.3504918866591000e-04
763 765 -1.6666666666667000e-02
764 765 -6.6666666666667001e-03
765 765 2.5687101828320000e-02
766 766 8.2271769293494005e-03
767 766 -4.0439207982173001e-10
4880 766 -1.6436041110460999e-04
766 767 -4.0095918205693002e-10
767 767 8.2269517783076004e-03
829 767 -6.6666666666667001e-03
4880 767 -1.6435900730786001e-04
768 768 9.2658591405840006e-03
769 768 -6.2287302536270003e-04
4877 768 -4.3505760433627002e-04
768 769 -6.7154314033208995e-04
769 769 9.2168864523058999e-03
829 769 -6.6666666666667001e-03
4877 769 -4.3504078270471000e-04
770 770 8.2271771444870998e-03
773 770 -6.2211178561319997e-10
823 770 -1.6461556266750000e-04
771 771 1.9463363474356000e-02
772 771 -1.1812161934473000e-03
823 771 -4.3506939295507999e-04
771 772 -1.2561377695283001e-03
772 772 1.9388441858335999e-02
823 772 -4.3506939117066000e-04
4877 772 -1.6666666666667000e-02
770 773 -4.2156894425419004e-12
773 773 7.5572176525232002e-03
823 773 -1.6206460306993000e-04
4877 773 -6.6666666666667001e-03
774 774 9.2658591388064000e-03
786 774 -4.3505760485696999e-04
787 774 -6.2287302463188000e-04
775 775 8.2271769267610994e-03
776 775 -4.0191622477884999e-10
775 776 -3.9850399360319002e-10
776 776 8.2269517617971008e-03
792 776 -6.6666666666667001e-03
777 777 8.2271771293656992e-03
780 777 -6.0692933055871998e-10
778 778 1.9463727390865999e-02
779 778 -1.1815720893224000e-03
778 779 -1.2565016862774001e-03
779 779 1.9388797754971002e-02
786 779 -1.6666666666667000e-02
777 780 -4.1112832004155000e-12
780 780 7.5572176523751996e-03
786 780 -6.6666666666667001e-03
781 781 1.7814667720701002e-02
782 781 -1.1746439225347999e-06
786 781 -1.4158464057423999e-04
781 782 -2.3541051373708000e-08
782 782 1.7304137624984998e-02
783 782 -1.6666666666667000e-02
786 782 -1.3967468070910001e-04
782 783 -1.6666666666667000e-02
783 783 3.3333333333333000e-02
784 783 -1.6666666666667000e-02
783 784 -1.6666666666667000e-02
784 784 1.7305133916006001e-02
785 784 -1.0204620097372000e-06
784 785 -9.2756824737844999e-08
785 785 1.7296507754292000e-02
792 785 -1.6666666666667000e-02
774 786 -4.3508369156315999e-04
779 786 -1.6666666666667000e-02
780 786 -6.6666666666667001e-03
781 786 -1.4019519619305000e-04
782 786 -1.3832099872229000e-04
786 786 2.5661459029230001e-02
787 786 -4.3501611204964000e-04
774 787 -6.7154313648208998e-04
786 787 -4.3504078218396997e-04
787 787 9.2168864349201005e-03
792 787 -6.6666666666667001e-03
788 788 8.2271771329808993e-03
791 788 -6.1055919491938002e-10
792 788 -1.6460526496675000e-04
789 789 1.9463639563732000e-02
790 789 -1.1814861975604999e-03
792 789 -4.3506939293682002e-04
789 790 -1.2564138590971999e-03
790 790 1.9388711863062999e-02
792 790 -4.3506939118892002e-04
798 790 -1.6666666666667000e-02
788 791 -4.1362414439117001e-12
791 791 7.5572176524086997e-03
792 791 -1.6206253548464001e-04
798 791 -6.6666666666667001e-03
776 792 -6.6666666666667001e-03
785 792 -1.6666666666667000e-02
787 792 -6.6666666666667001e-03
788 792 -1.6142417890467999e-04
789 792 -4.3506939948895001e-04
790 792 -4.3506938480044000e-04
791 792 -1.6142331347122999e-04
792 792 3.1983709882380001e-02
793 793 9.2658267234999002e-03
794 793 -6.2285877350237002e-04
798 793 -4.3506661862450997e-04
793 794 -6.7147483057455003e-04
794 794 9.2165839756503994e-03
795 794 -6.6666666666667001e-03
798 794 -4.3503176724909998e-04
794 795 -6.6666666666667001e-03
795 795 1.3333333333332999e-02
822 795 -6.6666666666667001e-03
796 796 1.7814705781332998e-02
797 796 -1.2128829439891999e-06
798 796 -1.4163961748666999e-04
796 797 -2.3969823723447001e-08
797 797 1.7296474399385000e-02
798 797 -1.3967076145446000e-04
823 797 -1.6666666666667000e-02
790 798 -1.6666666666667000e-02
791 798 -6.6666666666667001e-03
793 798 -4.3512065987348002e-04
794 798 -4.3498066027559002e-04
796 798 -1.4022933671415999e-04
797 798 -1.3828685820118001e-04
798 798 2.5658224967505000e-02
799 799 9.2658591388064000e-03
811 799 -4.3505760485696999e-04
812 799 -6.2287302463188000e-04
800 800 8.2271769267610994e-03
801 800 -4.0191622472462002e-10
800 801 -3.9850399360354002e-10
801 801 8.2269517617971008e-03
816 801 -6.6666666666667001e-03
802 802 8.2271771293656992e-03
805 802 -6.0692933055871998e-10
803 803 1.9463727390865999e-02
804 803 -1.1815720893224000e-03
803 804 -1.2565016862774001e-03
804 804 1.9388797754971002e-02
811 804 -1.6666666666667000e-02
802 805 -4.1112832004155000e-12
805 805 7.5572176523751996e-03
811 805 -6.6666666666667001e-03
806 806 1.7814667720701002e-02
807 806 -1.1746439225347999e-06
811 806 -1.4158464057423999e-04
806 807 -2.3541051373708000e-08
807 807 1.7304137624984998e-02
808 807 -1.6666666666667000e-02
811 807 -1.3967468070910001e-04
807 808 -1.6666666666667000e-02
808 808 3.3333333333333000e-02
809 808 -1.6666666666667000e-02
808 809 -1.6666666666667000e-02
809 809 1.7305133916006001e-02
810 809 -1.0204620097372000e-06
809 810 -9.2756824737839996e-08
810 810 1.7296507754292000e-02
816 810 -1.6666666666667000e-02
799 811 -4.3508369156315002e-04
804 811 -1.6666666666667000e-02
805 811 -6.6666666666667001e-03
806 811 -1.4019519619305000e-04
807 811 -1.3832099872229000e-04
811 811 2.5313614949291002e-02
812 811 -4.3501611204964000e-04
799 812 -6.7154313648209996e-04
811 812 -4.3504078218396997e-04
812 812 9.2168864349201005e-03
816 812 -6.6666666666667001e-03
813 813 8.2271771329808993e-03
816 813 -1.6460526496675000e-04
817 813 -6.1055919491897005e-10
814 814 1.9463639563732000e-02
815 814 -1.1814861975604999e-03
816 814 -4.3506939293683000e-04
814 815 -1.2564138590970000e-03
815 815 1.9388711863062999e-02
816 815 -4.3506939118890999e-04
820 815 -1.6666666666667000e-02
801 816 -6.6666666666667001e-03
810 816 -1.6666666666667000e-02
812 816 -6.6666666666667001e-03
813 816 -1.6142417890467999e-04
814 816 -4.3506939948906000e-04
815 816 -4.3506938480033001e-04
816 816 3.1983709882380001e-02
817 816 -1.6142331347122999e-04
813 817 -4.1362413625938003e-12
816 817 -1.6206253548464001e-04
817 817 7.5572176524086997e-03
820 817 -6.6666666666667001e-03
818 818 1.7814705781332998e-02
819 818 -1.2128829439929999e-06
820 818 -1.4163961748671000e-04
818 819 -2.3969823723498002e-08
819 819 1.7296474399385000e-02
820 819 -1.3967076145447000e-04
823 819 -1.6666666666667000e-02
815 820 -1.6666666666667000e-02
817 820 -6.6666666666667001e-03
818 820 -1.4022933671416999e-04
819 820 -1.3828685820117001e-04
820 820 2.5369107810150001e-02
821 820 -4.3498064122888001e-04
822 820 -4.3512067818340000e-04
820 821 -4.3503175983762002e-04
821 821 9.2159844723267003e-03
822 821 -6.7135360807864003e-04
823 821 -6.6666666666667001e-03
795 822 -6.6666666666667001e-03
820 822 -4.3506662603457001e-04
821 822 -6.2280688336808999e-04
822 822 9.2651574121736992e-03
770 823 -1.6142418714351999e-04
771 823 -4.3506939964200000e-04
772 823 -4.3506938465081999e-04
773 823 -1.6142330523239001e-04
797 823 -1.6666666666667000e-02
819 823 -1.6666666666667000e-02
821 823 -6.6666666666667001e-03
823 823 4.1983407340967997e-02
824 824 1.7814667665348002e-02
825 824 -1.1745883105052000e-06
4877 824 -1.4158455976877001e-04
824 825 -2.3540444971939999e-08
825 825 1.7304149230523001e-02
826 825 -1.6666666666667000e-02
4877 825 -1.3967468676893001e-04
825 826 -1.6666666666667000e-02
826 826 3.3333333333333000e-02
827 826 -1.6666666666667000e-02
826 827 -1.6666666666667000e-02
827 827 1.7305145390730001e-02
828 827 -1.0203306197078000e-06
4880 827 -1.6235155242458999e-04
827 828 -9.2670171059074004e-08
828 828 1.7296507666921000e-02
829 828 -1.6666666666667000e-02
4880 828 -1.6160172019161000e-04
761 829 -1.6142417890451999e-04
762 829 -4.3506940229938999e-04
763 829 -4.3506938205192997e-04
764 829 -1.6142331347138999e-04
767 829 -6.6666666666667001e-03
769 829 -6.6666666666667001e-03
828 829 -1.6666666666667000e-02
829 829 3.2099657915038000e-02
830 830 1.7814667606994999e-02
831 830 -1.1745369385840001e-06
839 830 -1.4158455475903999e-04
830 831 -2.3539954092523999e-08
831 831 1.7304161429112001e-02
832 831 -1.6666666666667000e-02
839 831 -1.3967470746126999e-04
831 832 -1.6666666666667000e-02
832 832 3.3333333333333000e-02
4859 832 -1.6666666666667000e-02
833 833 8.2271771537872004e-03
836 833 -6.1078687947273003e-10
4860 833 -1.6460549330431999e-04
834 834 1.9463633956748001e-02
835 834 -1.1814808398423000e-03
4860 834 -4.3506941539680002e-04
834 835 -1.2564080423057000e-03
835 835 1.9388705709474000e-02
839 835 -1.6666666666667000e-02
4860 835 -4.3506936872892999e-04
833 836 -4.1378015646371004e-12
836 836 7.5572176909771997e-03
839 836 -6.6666666666667001e-03
4860 836 -1.6206257648559999e-04
837 837 9.2658558542339006e-03
838 837 -6.2287147656367003e-04
839 837 -4.3505852027491998e-04
837 838 -6.7153610610219997e-04
838 838 9.2168557098106993e-03
839 838 -4.3503986668463001e-04
4858 838 -6.6666666666667001e-03
830 839 -1.4019510016874000e-04
831 839 -1.3832109474660000e-04
835 839 -1.6666666666667000e-02
836 839 -6.6666666666667001e-03
837 839 -4.3508744602579000e-04
838 839 -4.3501251165723001e-04
839 839 2.5661465894489002e-02
840 840 8.2271771580534996e-03
843 840 -6.1053565347407999e-10
4855 840 -1.6460527299831001e-04
841 841 1.9463640064843000e-02
842 841 -1.1814867781767999e-03
4855 841 -4.3506940421896999e-04
841 842 -1.2564142764529000e-03
842 842 1.9388712022256002e-02
859 842 -1.6666666666667000e-02
4855 842 -4.3506937990677000e-04
840 843 -4.1360727511776000e-12
843 843 7.5572176739184000e-03
859 843 -6.6666666666667001e-03
4855 843 -1.6206253099341000e-04
844 844 1.9463363507183001e-02
845 844 -1.1812162292262000e-03
857 844 -4.3506939347570000e-04
844 845 -1.2561377980956001e-03
845 845 1.9388441875068999e-02
846 845 -1.6666666666667000e-02
857 845 -4.3506939065003999e-04
845 846 -1.6666666666667000e-02
846 846 2.3854346543977001e-02
848 846 -6.6666666666667001e-03
847 847 8.2271771453764995e-03
848 847 -6.2211024035107000e-10
857 847 -1.6461556129210999e-04
846 848 -6.6666666666667001e-03
847 848 -4.2156787859268000e-12
848 848 7.5572176534973003e-03
857 848 -1.6206460279451001e-04
849 849 1.7814705791493000e-02
850 849 -1.2128983876622000e-06
864 849 -1.4163978700061999e-04
849 850 -2.3970137901419999e-08
850 850 1.7296474394711998e-02
857 850 -1.6666666666667000e-02
864 850 -1.3967079082687000e-04
851 851 1.7814705783979000e-02
852 851 -1.2128862215894000e-06
859 851 -1.4163965318947000e-04
851 852 -2.3969890206135000e-08
852 852 1.7296474394735001e-02
857 852 -1.6666666666667000e-02
859 852 -1.3967076763355001e-04
853 853 9.2658265748289999e-03
854 853 -6.2285855954456000e-04
864 853 -4.3506661202342999e-04
853 854 -6.7147465336497001e-04
854 854 9.2165840277758006e-03
855 854 -6.6666666666667001e-03
864 854 -4.3503177385133002e-04
854 855 -6.6666666666667001e-03
855 855 1.3333333333332999e-02
856 855 -6.6666666666667001e-03
855 856 -6.6666666666667001e-03
856 856 9.2651576110487008e-03
858 856 -6.2280684990195995e-04
859 856 -4.3506662949362998e-04
844 857 -4.3506940406452002e-04
845 857 -4.3506938032579002e-04
847 857 -1.6142418714241001e-04
848 857 -1.6142330523349999e-04
850 857 -1.6666666666667000e-02
852 857 -1.6666666666667000e-02
857 857 4.1983407381513002e-02
858 857 -6.6666666666667001e-03
856 858 -6.7135357890729999e-04
857 858 -6.6666666666667001e-03
858 858 9.2159845424948008e-03
859 858 -4.3503175637795002e-04
842 859 -1.6666666666667000e-02
843 859 -6.6666666666667001e-03
851 859 -1.4022933937272999e-04
852 859 -1.3828685554261001e-04
856 859 -4.3512069236429003e-04
858 859 -4.3498062763013998e-04
859 859 2.5686834226281000e-02
860 860 8.2271773178905008e-03
863 860 -6.1093245142200995e-10
4858 860 -1.6460583586205000e-04
861 861 1.9463630222595001e-02
862 861 -1.1814776126162000e-03
4858 861 -4.3506944525978001e-04
861 862 -1.2564042324991001e-03
862 862 1.9388701220754000e-02
864 862 -1.6666666666667000e-02
4858 862 -4.3506933886595001e-04
860 863 -4.1387527715884999e-12
863 863 7.5572177564728000e-03
864 863 -6.6666666666667001e-03
4858 863 -1.6206260094619001e-04
849 864 -1.4022934923578999e-04
850 864 -1.3828684567955001e-04
853 864 -4.3512063276431002e-04
854 864 -4.3498068627482003e-04
862 864 -1.6666666666667000e-02
863 864 -6.6666666666667001e-03
864 864 2.5658218829374999e-02
865 865 8.2271796562985999e-03
866 865 -4.2475215996251999e-10
4857 865 -1.6439023999545999e-04
865 866 -4.2071804885307998e-10
866 866 8.2269303778153002e-03
4857 866 -1.6438478060381000e-04
4858 866 -6.6666666666667001e-03
867 867 9.2628348858645997e-03
870 867 -6.2009266107748999e-04
895 867 -4.3506469658666002e-04
868 868 1.7814916687763999e-02
869 868 -1.4149304241822000e-06
895 868 -1.4370085360379000e-04
868 869 -2.8083607705484000e-08
869 869 1.7296453860953000e-02
895 869 -1.4002522715722001e-04
4840 869 -1.6666666666667000e-02
867 870 -6.6858982013156003e-04
870 870 9.2137838406974003e-03
895 870 -4.3503368960379999e-04
4840 870 -6.6666666666667001e-03
871 871 1.9461097471632001e-02
872 871 -1.1815532948148001e-03
900 871 -4.3574019343587002e-04
871 872 -1.2468106117820999e-03
872 872 1.9366328342135000e-02
895 872 -1.6666666666667000e-02
900 872 -4.3439713866767001e-04
873 873 1.9301890982778000e-02
874 873 -1.0273676216275001e-03
894 873 -4.3588839986857000e-04
873 874 -1.0883503029655000e-03
874 874 1.9210582623598000e-02
894 874 -4.3424810525536002e-04
895 874 -1.6666666666667000e-02
875 875 8.2271740526983998e-03
876 875 -5.0214807005196995e-10
900 875 -1.6455619214297999e-04
875 876 -3.5873854876962001e-12
876 876 7.6106062757342000e-03
877 876 -6.6666666666667001e-03
900 876 -1.6216255405312999e-04
876 877 -6.6666666666667001e-03
877 877 1.3333333333332999e-02
892 877 -6.6666666666667001e-03
878 878 9.1934656784754005e-03
890 878 -4.5285881676289001e-04
891 878 -5.7195806686690005e-04
879 879 8.2271771054128993e-03
887 879 -5.8287844146135997e-10
880 880 8.2272394015574998e-03
886 880 -5.8679127299762000e-10
881 881 1.9446924614180999e-02
882 881 -1.1788809355379000e-03
881 882 -1.2040016646516999e-03
882 882 1.9271641576013000e-02
883 882 -1.6666666666667000e-02
882 883 -1.6666666666667000e-02
883 883 3.3333333333333000e-02
884 883 -1.6666666666667000e-02
883 884 -1.6666666666667000e-02
884 884 1.9309500967790001e-02
885 884 -1.1532124965920999e-03
884 885 -1.1695515628231999e-03
885 885 1.9188771023779999e-02
890 885 -1.6666666666667000e-02
880 886 -3.9968267626946999e-12
886 886 7.5691109440380001e-03
890 886 -6.6666666666667001e-03
879 887 -3.9879087990039997e-12
887 887 7.5690760805151996e-03
890 887 -6.6666666666667001e-03
888 888 1.7818821838504001e-02
889 888 -5.0258339091126997e-06
890 888 -1.5833160208053999e-04
888 889 -1.0722337377572000e-07
889 889 1.7318608427915001e-02
890 889 -1.4276672525047001e-04
894 889 -1.6666666666667000e-02
878 890 -5.0729796942281002e-04
885 890 -1.6666666666667000e-02
886 890 -6.6666666666667001e-03
887 890 -6.6666666666667001e-03
888 890 -1.4327562050086000e-04
889 890 -1.3524057441448000e-04
890 890 3.1896239204640998e-02
891 890 -3.6340480925429000e-04
878 891 -5.2833818142725998e-04
890 891 -4.1544695469372000e-04
891 891 8.7969462555402000e-03
894 891 -6.6666666666667001e-03
877 892 -6.6666666666667001e-03
892 892 7.6106872694363999e-03
893 892 -1.9756342805082000e-38
894 892 -1.6337702070558000e-04
892 893 8.1315162936413001e-20
893 893 7.5584671297013999e-03
894 893 -1.6309263746796000e-04
895 893 -6.6666666666667001e-03
873 894 -4.4089921358351000e-04
874 894 -4.2939053934175001e-04
889 894 -1.6666666666667000e-02
891 894 -6.6666666666667001e-03
892 894 -1.6142374618796000e-04
893 894 -1.6142374618796000e-04
894 894 2.5169261217590999e-02
867 895 -4.3511237191725999e-04
868 895 -1.4039309132141001e-04
869 895 -1.3812310359392999e-04
870 895 -4.3498862509240002e-04
872 895 -1.6666666666667000e-02
874 895 -1.6666666666667000e-02
893 895 -6.6666666666667001e-03
895 895 4.2035976975831002e-02
896 896 9.2172340863738000e-03
899 896 -6.7161838747676998e-04
964 896 -4.3501544918773998e-04
897 897 1.7814705185935000e-02
898 897 -1.2122884983823001e-06
964 897 -1.4162865356527000e-04
897 898 -2.3953590530079001e-08
898 898 1.7296383982942001e-02
900 898 -1.6666666666667000e-02
964 898 -1.3966870138067001e-04
896 899 -6.2373058621864998e-04
899 899 9.2668019517089008e-03
900 899 -6.6666666666667001e-03
964 899 -4.3508293250486000e-04
871 900 -4.4076706338317003e-04
872 900 -4.2949359276281998e-04
875 900 -1.6142410067859000e-04
876 900 -1.6142339169733001e-04
898 900 -1.6666666666667000e-02
899 900 -6.6666666666667001e-03
900 900 2.5492719605262001e-02
901 901 8.2271771538016004e-03
902 901 -6.1080129321764000e-10
4860 901 -1.6460549778444001e-04
901 902 -4.1378773855572002e-12
902 902 7.5572109596798000e-03
964 902 -6.6666666666667001e-03
4860 902 -1.6206256398584000e-04
903 903 8.2271798706533006e-03
904 903 -6.4165373327201003e-10
4857 903 -1.6463599995089999e-04
903 904 -4.3492399882093003e-12
904 904 7.5572111619067002e-03
964 904 -6.6666666666667001e-03
4857 904 -1.6206796317317000e-04
905 905 9.2754537369450999e-03
908 905 -6.3221269442904004e-04
958 905 -4.3512641579595001e-04
906 906 1.7814209838717000e-02
907 906 -7.1621229973363001e-07
958 906 -1.3925809745766999e-04
906 907 -1.3939627923890000e-08
907 907 1.7296522248001999e-02
958 907 -1.3925809745766999e-04
4857 907 -1.6666666666667000e-02
905 908 -6.8085915026367002e-04
908 908 9.2239739616677002e-03
958 908 -4.3497194172696001e-04
4857 908 -6.6666666666667001e-03
909 909 9.1995140382261000e-03
921 909 -4.6033702654328001e-04
922 909 -5.8568366366284000e-04
910 910 8.2271768310723005e-03
911 910 -3.0742933376733000e-10
910 911 -3.4659049265926999e-12
911 911 7.8894407295934006e-03
927 911 -6.6666666666667001e-03
912 912 8.2272576187875004e-03
915 912 -6.0755006994450997e-10
913 913 1.9457312765802998e-02
914 913 -1.1807734288370999e-03
913 914 -1.2379126255483001e-03
914 914 1.9346591001936999e-02
921 914 -1.6666666666667000e-02
912 915 -4.0990018679868999e-12
915 915 7.5594425822566999e-03
921 915 -6.6666666666667001e-03
916 916 1.7814827361893999e-02
917 916 -1.3303726797702000e-06
921 916 -1.4478216112341001e-04
916 917 -2.9413360361068998e-08
917 917 1.7348495587883001e-02
918 917 -1.6666666666667000e-02
921 917 -1.4044247309645999e-04
917 918 -1.6666666666667000e-02
918 918 3.3333333333333000e-02
919 918 -1.6666666666667000e-02
918 919 -1.6666666666667000e-02
919 919 1.7966566460256999e-02
920 919 -2.6702197953315000e-04
919 920 -2.1413361374505999e-04
920 920 1.7737443985672001e-02
927 920 -1.6666666666667000e-02
909 921 -5.4203818770401000e-04
914 921 -1.6666666666667000e-02
915 921 -6.6666666666667001e-03
916 921 -1.4030242441151000e-04
917 921 -1.3821377050383000e-04
921 921 2.5584428162615001e-02
922 921 -3.2732857461085000e-04
909 922 -5.0333432045869000e-04
921 922 -4.0596947654524001e-04
922 922 8.6886482824067007e-03
927 922 -6.6666666666667001e-03
923 923 8.8027140625875997e-03
926 923 -8.8333721734674001e-05
927 923 -5.2977814130552995e-04
924 924 1.8795707066316000e-02
925 924 -5.6090019896418001e-04
927 924 -4.8629033650785002e-04
924 925 -2.8853428673305002e-04
925 925 1.8043894742456001e-02
927 925 -3.7104379343563001e-04
933 925 -1.6666666666667000e-02
923 926 -3.6913236518743998e-06
926 926 7.6280167761530000e-03
927 926 -1.6222505157107000e-04
933 926 -6.6666666666667001e-03
911 927 -6.6666666666667001e-03
920 927 -1.6666666666667000e-02
922 927 -6.6666666666667001e-03
923 927 -5.9307902712696001e-04
924 927 -7.2551991039454002e-04
925 927 -1.3362031235072001e-04
926 927 -9.4602395262035003e-05
927 927 3.2160183585610000e-02
928 928 8.9358913124055993e-03
929 928 -2.6481628960996000e-04
933 928 -5.3237401260812999e-04
928 929 -4.7763345051852999e-05
929 929 7.7142772526917003e-03
930 929 -6.6666666666667001e-03
933 929 -1.6325816301242000e-04
929 930 -6.6666666666667001e-03
930 930 1.3333333333332999e-02
957 930 -6.6666666666667001e-03
931 931 1.8580035853276999e-02
932 931 -4.1602877674243999e-04
933 931 -4.2061409669706001e-04
931 932 -4.7042436656832002e-04
932 932 1.8701471298539999e-02
933 932 -4.4874669917180002e-04
958 932 -1.6666666666667000e-02
925 933 -1.6666666666667000e-02
926 933 -6.6666666666667001e-03
928 933 -7.0737825501912001e-04
929 933 1.9696832630131999e-05
931 933 -4.1359583447545998e-04
932 933 -4.5813264226051998e-04
933 933 2.5723998044052000e-02
934 934 9.2607395371144003e-03
946 934 -4.3636372269492999e-04
947 934 -6.2032213473672002e-04
935 935 8.2271189910856999e-03
936 935 -2.2164514185201000e-10
935 936 -8.0331871667308006e-12
936 936 8.1938680573968008e-03
951 936 -6.6666666666667001e-03
937 937 8.2271771289387004e-03
940 937 -6.0650068524487997e-10
938 938 1.9463215562054000e-02
939 938 -1.1815163548432000e-03
938 939 -1.2547729333847000e-03
939 939 1.9384856763051999e-02
946 939 -1.6666666666667000e-02
937 940 -4.1090302869534999e-12
940 940 7.5574192879666003e-03
946 940 -6.6666666666667001e-03
941 941 1.7814569211131000e-02
942 941 -1.0754929003185000e-06
946 941 -1.4171820558728999e-04
941 942 -2.2920152924695001e-08
942 942 1.7334862182814000e-02
943 942 -1.6666666666667000e-02
946 942 -1.3975797120589000e-04
942 943 -1.6666666666667000e-02
943 943 3.3333333333333000e-02
944 943 -1.6666666666667000e-02
943 944 -1.6666666666667000e-02
944 944 1.7863648829014998e-02
945 944 -1.3399645891944999e-04
944 945 -2.4474251920868999e-05
945 945 1.7308015178863000e-02
951 945 -1.6666666666667000e-02
934 946 -4.4042263151423001e-04
939 946 -1.6666666666667000e-02
940 946 -6.6666666666667001e-03
941 946 -1.4010445339348001e-04
942 946 -1.3841174152185999e-04
946 946 2.5313241865410001e-02
947 946 -4.2988456829653001e-04
934 947 -6.6128897870220999e-04
946 947 -4.3372591878474998e-04
947 947 9.1743085966869992e-03
951 947 -6.6666666666667001e-03
948 948 8.2271714172684005e-03
951 948 -1.6509905873954999e-04
952 948 -1.5224608089575000e-09
949 949 1.9444729023081999e-02
950 949 -1.1675165400040000e-03
951 949 -4.3629577783676999e-04
949 950 -1.2249297212633000e-03
950 950 1.9334847792088002e-02
951 950 -4.3383807475141001e-04
955 950 -1.6666666666667000e-02
936 951 -6.6666666666667001e-03
945 951 -1.6666666666667000e-02
947 951 -6.6666666666667001e-03
948 951 -1.6142483122713001e-04
949 951 -4.4532860869981000e-04
950 951 -4.2502787130015997e-04
951 951 3.1970286119050000e-02
952 951 -1.6142266114878000e-04
948 952 -1.0475373085002001e-11
951 952 -1.6216657830109000e-04
952 952 7.5593391978909996e-03
955 952 -6.6666666666667001e-03
953 953 1.7814259625804001e-02
954 953 -7.8477756384038005e-07
955 953 -1.4364779708532000e-04
953 954 -3.9267535600053002e-06
954 954 1.7869166957325999e-02
955 954 -2.8943293991645999e-04
958 954 -1.6666666666667000e-02
950 955 -1.6666666666667000e-02
952 955 -6.6666666666667001e-03
953 955 -1.3797651109081000e-04
954 955 -1.4053968382453000e-04
955 955 2.5189740214919001e-02
956 955 -6.4668879437350998e-05
957 955 -6.2301254295163996e-04
955 956 -1.6302237473854000e-04
956 956 7.5601062873695999e-03
957 956 -9.8550590362567992e-06
958 956 -6.6666666666667001e-03
930 957 -6.6666666666667001e-03
955 957 -5.2846526651392995e-04
956 957 -1.1288881220411999e-04
957 957 8.1827103131001007e-03
905 958 -4.3537275284594000e-04
906 958 -1.3982801994723000e-04
907 958 -1.3868817496811000e-04
908 958 -4.3473858924765002e-04
932 958 -1.6666666666667000e-02
954 958 -1.6666666666667000e-02
956 958 -6.6666666666667001e-03
958 958 4.2318471457369000e-02
959 959 1.9387999066546001e-02
960 959 -1.2556835155925000e-03
4857 959 -4.3506791300796001e-04
959 960 -1.1808439798506999e-03
960 960 1.9462950941243000e-02
961 960 -1.6666666666667000e-02
4857 960 -4.3507087111082997e-04
960 961 -1.6666666666667000e-02
961 961 3.3333333333333000e-02
962 961 -1.6666666666667000e-02
961 962 -1.6666666666667000e-02
962 962 1.9388801390402000e-02
963 962 -1.2564482729829000e-03
4860 962 -4.3506707555453997e-04
962 963 -1.1816796339304001e-03
963 963 1.9463748473142001e-02
964 963 -1.6666666666667000e-02
4860 963 -4.3507170855415001e-04
896 964 -4.3491645744910001e-04
897 964 -1.4022889411936001e-04
898 964 -1.3828730079597999e-04
899 964 -4.3518761187015997e-04
902 964 -6.6666666666667001e-03
904 964 -6.6666666666667001e-03
963 964 -1.6666666666667000e-02
964 964 3.2209326236669999e-02
965 965 1.7814013784885001e-02
966 965 -5.1760292775437004e-07
974 965 -1.4041238991841000e-04
965 966 -4.9664274035787998e-08
966 966 1.7749226699298001e-02
967 966 -1.6666666666667000e-02
974 966 -1.4017604131830001e-04
966 967 -1.6666666666667000e-02
967 967 3.3333333333333000e-02
4839 967 -1.6666666666667000e-02
968 968 8.2271755736808994e-03
971 968 -6.1385408328081998e-10
4840 968 -1.6460824141074001e-04
969 969 1.9388642563505001e-02
970 969 -1.2563353189012001e-03
4840 969 -4.3506788654758998e-04
969 970 -1.1814888080528001e-03
970 970 1.9463605082259000e-02
974 970 -1.6666666666667000e-02
4840 970 -4.3507089757094999e-04
968 971 -4.1588966493994003e-12
971 971 7.5572148828674003e-03
974 971 -6.6666666666667001e-03
4840 971 -1.6206312970243000e-04
972 972 9.2658899628054008e-03
973 972 -6.2288998752393996e-04
974 972 -4.3505083877998999e-04
972 973 -6.7160094732798999e-04
973 973 9.2171198079821996e-03
974 973 -4.3504754860196999e-04
4838 973 -6.6666666666667001e-03
965 974 -1.3960569706091000e-04
966 974 -1.3891049785443000e-04
970 974 -1.6666666666667000e-02
971 974 -6.6666666666667001e-03
972 974 -4.3505594108023002e-04
973 974 -4.3504272338469997e-04
974 974 2.5740624962008001e-02
975 975 9.2658693571439996e-03
978 975 -6.2288398955795995e-04
4835 975 -4.3505810483814998e-04
976 976 1.7814705192104999e-02
977 976 -1.2122684535332001e-06
4835 976 -1.4163117976628999e-04
976 977 -2.3955731261915001e-08
977 977 1.7296439632557999e-02
994 977 -1.6666666666667000e-02
4835 977 -1.3966923766348000e-04
975 978 -6.7155157814227000e-04
978 978 9.2168811858852999e-03
994 978 -6.6666666666667001e-03
4835 978 -4.3504028215937999e-04
979 979 1.7814705962718998e-02
980 979 -1.2130652521510999e-06
992 979 -1.4163987997202999e-04
979 980 -2.3971925579967999e-08
980 980 1.7296439382505999e-02
981 980 -1.6666666666667000e-02
992 980 -1.3967074455466000e-04
980 981 -1.6666666666667000e-02
981 981 2.3854346543977001e-02
983 981 -6.6666666666667001e-03
982 982 9.2658580541028004e-03
983 982 -6.2287254445032001e-04
992 982 -4.3505790535277997e-04
981 983 -6.6666666666667001e-03
982 983 -6.7154085395634995e-04
983 983 9.2168763450768999e-03
992 983 -4.3504048166237002e-04
984 984 1.7814431860648999e-02
985 984 -9.3380169161141004e-07
999 984 -1.4034809067909999e-04
984 985 -9.3380105116494004e-07
985 985 1.7814431816506000e-02
992 985 -1.6666666666667000e-02
999 985 -1.4034809003809001e-04
986 986 1.9463634348872001e-02
987 986 -1.1814811086838001e-03
994 986 -4.3506939414556997e-04
986 987 -1.2564086363386999e-03
987 987 1.9388706727960999e-02
992 987 -1.6666666666667000e-02
994 987 -4.3506938998017001e-04
988 988 9.2658893793421005e-03
989 988 -6.2288631249304003e-04
999 988 -4.3504919519782000e-04
988 989 -6.7160686873213001e-04
989 989 9.2171687691244997e-03
990 989 -6.6666666666667001e-03
999 989 -4.3504919219771002e-04
989 990 -6.6666666666667001e-03
990 990 1.3333333333332999e-02
991 990 -6.6666666666667001e-03
990 991 -6.6666666666667001e-03
991 991 8.2271770979310006e-03
993 991 -6.1077406123557999e-10
994 991 -1.6460545885851001e-04
979 992 -1.4022949959729001e-04
980 992 -1.3828669531804999e-04
982 992 -4.3508492400965999e-04
983 992 -4.3501493017963000e-04
985 992 -1.6666666666667000e-02
987 992 -1.6666666666667000e-02
992 992 4.2092980305504998e-02
993 992 -6.6666666666667001e-03
991 993 -4.1377190234041001e-12
992 993 -6.6666666666667001e-03
993 993 7.5572176547752997e-03
994 993 -1.6206257446700999e-04
977 994 -1.6666666666667000e-02
978 994 -6.6666666666667001e-03
986 994 -4.3506940975984000e-04
987 994 -4.3506937475589001e-04
991 994 -1.6142417905791001e-04
993 994 -1.6142331331799999e-04
994 994 2.5577544107979001e-02
995 995 8.2271771295637005e-03
998 995 -6.0763765123736000e-10
4838 995 -1.6460262839285001e-04
996 996 1.9463710204915999e-02
997 996 -1.1815552873156001e-03
4838 996 -4.3506939465888999e-04
996 997 -1.2564844807143999e-03
997 997 1.9388780895268000e-02
999 997 -1.6666666666667000e-02
4838 997 -4.3506938946685000e-04
995 998 -4.1161533900644997e-12
998 998 7.5572176553869996e-03
999 998 -6.6666666666667001e-03
4838 998 -1.6206200611668001e-04
984 999 -1.3925809790668001e-04
985 999 -1.3925809700865999e-04
988 999 -4.3504919985025003e-04
989 999 -4.3504918779793997e-04
997 999 -1.6666666666667000e-02
998 999 -6.6666666666667001e-03
999 999 2.5745828628431000e-02
1000 1000 9.2658847071689001e-03
1001 1000 -6.2288507907719997e-04
4837 1000 -4.3505083880212002e-04
1000 1001 -6.7159581371109003e-04
1001 1001 9.2171147774127004e-03
4837 1001 -4.3504754857984999e-04
4838 1001 -6.6666666666667001e-03
1002 1002 8.9843635007965002e-03
1005 1002 -3.4646611475053001e-04
1030 1002 -4.5243588245370001e-04
1003 1003 1.8721871647507000e-02
1004 1003 -4.3837537230442998e-04
1030 1003 -5.5838533769928997e-04
1003 1004 -4.8135994708840997e-05
1004 1004 1.7350548437436001e-02
1030 1004 -1.4397279795721999e-04
4820 1004 -1.6666666666667000e-02
1002 1005 -3.4583596385727000e-04
1005 1005 8.7452743689089008e-03
1030 1005 -4.1593017364533998e-04
4820 1005 -6.6666666666667001e-03
1006 1006 1.7814402720798001e-02
1007 1006 -9.0869620475681999e-07
1035 1006 -1.4180188083336999e-04
1006 1007 -2.2798670062973001e-08
1007 1007 1.7407889481608999e-02
1030 1007 -1.6666666666667000e-02
1035 1007 -1.3993786158816000e-04
1008 1008 1.7814558412370000e-02
1009 1008 -1.0631643042115000e-06
1029 1008 -1.4359761456454999e-04
1008 1009 -2.6813147265464001e-08
1009 1009 1.7407893878715001e-02
1029 1009 -1.4041772382949999e-04
1030 1009 -1.6666666666667000e-02
1010 1010 9.2101930922316999e-03
1011 1010 -5.9471021412692998e-04
1035 1010 -4.5697720637483000e-04
1010 1011 -5.2632478040201005e-04
1011 1011 8.7402442947015994e-03
1012 1011 -6.6666666666667001e-03
1035 1011 -4.1033374935087999e-04
1011 1012 -6.6666666666667001e-03
1012 1012 1.3333333333332999e-02
1027 1012 -6.6666666666667001e-03
1013 1013 8.2272124857125997e-03
1025 1013 -1.6514151187899001e-04
1026 1013 -1.5268621252329000e-09
1014 1014 9.2593681394399999e-03
1022 1014 -6.2062204350436996e-04
1015 1015 9.2593681394399999e-03
1021 1015 -6.2062204350436996e-04
1016 1016 1.7814408013405000e-02
1017 1016 -9.2586284055542998e-07
1016 1017 -1.3465755707052001e-06
1017 1017 1.7826500893221998e-02
1018 1017 -1.6666666666667000e-02
1017 1018 -1.6666666666667000e-02
1018 1018 3.3333333333333000e-02
1019 1018 -1.6666666666667000e-02
1018 1019 -1.6666666666667000e-02
1019 1019 1.7827197713598999e-02
1020 1019 -1.8951776302607001e-06
1019 1020 -2.8094976388398001e-08
1020 1020 1.7298203006572001e-02
1025 1020 -1.6666666666667000e-02
1015 1021 -6.6133029768951997e-04
1021 1021 9.1727203043807000e-03
1025 1021 -6.6666666666667001e-03
1014 1022 -6.6133029768951997e-04
1022 1022 9.1727203043807000e-03
1025 1022 -6.6666666666667001e-03
1023 1023 1.9445691775870001e-02
1024 1023 -1.1676906149282000e-03
1025 1023 -4.3606430736771001e-04
1023 1024 -1.2282634582105999e-03
1024 1024 1.9342306871983000e-02
1025 1024 -4.3407124644626998e-04
1029 1024 -1.6666666666667000e-02
1013 1025 -1.6142483167309001e-04
1020 1025 -1.6666666666667000e-02
1021 1025 -6.6666666666667001e-03
1022 1025 -6.6666666666667001e-03
1023 1025 -4.4339508095760002e-04
1024 1025 -4.2692217775743002e-04
1025 1025 3.1970307100456001e-02
1026 1025 -1.6142266070283000e-04
1013 1026 -1.0475664247931000e-11
1025 1026 -1.6216545614407000e-04
1026 1026 7.5589448428084998e-03
1029 1026 -6.6666666666667001e-03
1012 1027 -6.6666666666667001e-03
1027 1027 8.5931407379605997e-03
1028 1027 -2.9563208182299000e-04
1029 1027 -4.9348974167800000e-04
1027 1028 -1.7438974442607000e-04
1028 1028 8.0874525825030998e-03
1029 1028 -3.4913839059686998e-04
1030 1028 -6.6666666666667001e-03
1008 1029 -1.4007378919254001e-04
1009 1029 -1.3844240572279999e-04
1024 1029 -1.6666666666667000e-02
1026 1029 -6.6666666666667001e-03
1027 1029 -5.9844315591758997e-04
1028 1029 -2.4611654813724002e-04
1029 1029 2.5304021579317000e-02
1002 1030 -4.6786884887825000e-04
1003 1030 -9.0084191172836001e-04
1004 1030 2.2791065733941999e-04
1005 1030 -4.0280357809973000e-04
1007 1030 -1.6666666666667000e-02
1009 1030 -1.6666666666667000e-02
1028 1030 -6.6666666666667001e-03
1030 1030 4.2140452482146998e-02
1031 1031 8.2271764946989998e-03
1034 1031 -6.0337104125402001e-10
1099 1031 -1.6459940415889000e-04
1032 1032 1.9462494482403000e-02
1033 1032 -1.1814863469772000e-03
1099 1032 -4.3535765999362999e-04
1032 1033 -1.2522157285626001e-03
1033 1033 1.9378956682939999e-02
1035 1033 -1.6666666666667000e-02
1099 1033 -4.3478085834731001e-04
1031 1034 -4.0885675690103004e-12
1034 1034 7.5577262235008002e-03
1035 1034 -6.6666666666667001e-03
1099 1034 -1.6206237050924000e-04
1006 1035 -1.3995384541529000e-04
1007 1035 -1.3856234950005000e-04
1010 1035 -5.2926004176484997e-04
1011 1035 -3.4082663055829001e-04
1033 1035 -1.6666666666667000e-02
1034 1035 -6.6666666666667001e-03
1035 1035 2.5604926271495999e-02
1036 1036 8.2271753687033992e-03
1037 1036 -4.0641744232559999e-10
4840 1036 -1.6436307297095000e-04
1036 1037 -4.1145986892422001e-10
1037 1037 8.2273354557873997e-03
1099 1037 -6.6666666666667001e-03
4840 1037 -1.6459254434916001e-04
1038 1038 9.2171785306697004e-03
1039 1038 -6.7160726669303003e-04
4837 1038 -4.3504316125938001e-04
1038 1039 -6.2303587673752001e-04
1039 1039 9.2660505214281000e-03
1099 1039 -6.6666666666667001e-03
4837 1039 -4.3505522595380000e-04
1040 1040 8.2271766176674008e-03
1043 1040 -6.2434647118014004e-10
1093 1040 -1.6461753820230999e-04
1041 1041 1.9388392427311999e-02
1042 1041 -1.2560852672680999e-03
1093 1041 -4.3506907087249999e-04
1041 1042 -1.1811820340981000e-03
1042 1042 1.9463320407154001e-02
1093 1042 -4.3506971325291003e-04
4837 1042 -1.6666666666667000e-02
1040 1043 -4.2310606688939001e-12
1043 1043 7.5572170506546998e-03
1093 1043 -1.6206499923802000e-04
4837 1043 -6.6666666666667001e-03
1044 1044 8.2267916008759000e-03
1056 1044 -1.6745307190782000e-04
1057 1044 -2.8765648702504998e-07
1045 1045 9.2158090290707997e-03
1046 1045 -6.7111853916788998e-04
1045 1046 -6.2809221011475005e-04
1046 1046 9.2716830913012992e-03
1062 1046 -6.6666666666667001e-03
1047 1047 9.2317944418172006e-03
1050 1047 -6.0628834791792003e-04
1048 1048 1.7814949594545000e-02
1049 1048 -1.1634262406875001e-06
1048 1049 -2.3346642980720001e-08
1049 1049 1.7309819116546998e-02
1056 1049 -1.6666666666667000e-02
1047 1050 -6.0100664477931995e-04
1050 1050 8.9523158935740001e-03
1056 1050 -6.6666666666667001e-03
1051 1051 1.9362092634377000e-02
1052 1051 -1.0849224896439000e-03
1056 1051 -4.3556687465309000e-04
1051 1052 -1.1508647383951999e-03
1052 1052 1.9276323829519999e-02
1053 1052 -1.6666666666667000e-02
1056 1052 -4.3457108871091001e-04
1052 1053 -1.6666666666667000e-02
1053 1053 3.3333333333333000e-02
1054 1053 -1.6666666666667000e-02
1053 1054 -1.6666666666667000e-02
1054 1054 1.7805654691444000e-02
1055 1054 -1.0636731289136000e-06
1054 1055 -2.1360939140506999e-08
1055 1055 1.7296098474536999e-02
1062 1055 -1.6666666666667000e-02
1044 1056 -1.6134120606440001e-04
1049 1056 -1.6666666666667000e-02
1050 1056 -6.6666666666667001e-03
1051 1056 -4.3886630954274999e-04
1052 1056 -4.3136475697458002e-04
1056 1056 2.5498006788363000e-02
1057 1056 -1.6150628631150999e-04
1044 1057 -5.1077188761478004e-07
1056 1057 -1.7456622528437001e-04
1057 1057 8.2350397197932992e-03
1062 1057 -6.6666666666667001e-03
1058 1058 8.2271265754708996e-03
1061 1058 -5.0856249674870996e-10
1062 1058 -1.6450503595365001e-04
1059 1059 1.9391524709818999e-02
1060 1059 -1.2591375452384000e-03
1062 1059 -4.3504827456840002e-04
1059 1060 -1.1853003902857001e-03
1060 1060 1.9466989292752000e-02
1062 1060 -4.3509050814180002e-04
1068 1060 -1.6666666666667000e-02
1058 1061 -3.4359270120859002e-12
1061 1061 7.5571769338408003e-03
1062 1061 -1.6204239916673999e-04
1068 1061 -6.6666666666667001e-03
1046 1062 -6.6666666666667001e-03
1055 1062 -1.6666666666667000e-02
1057 1062 -6.6666666666667001e-03
1058 1062 -1.6142410622233000e-04
1059 1062 -4.3489340836372998e-04
1060 1062 -4.3524932995115003e-04
1061 1062 -1.6142338615358001e-04
1062 1062 3.1986697358832000e-02
1063 1063 9.2658906634361000e-03
1064 1063 -6.2294136698856997e-04
1068 1063 -4.3507108735635000e-04
1063 1064 -6.7153296989175997e-04
1064 1064 9.2165116117102000e-03
1065 1064 -6.6666666666667001e-03
1068 1064 -4.3502729763650002e-04
1064 1065 -6.6666666666667001e-03
1065 1065 1.3333333333332999e-02
1092 1065 -6.6666666666667001e-03
1066 1066 1.7814700876548999e-02
1067 1066 -1.2067501286457999e-06
1068 1066 -1.4157259255848001e-04
1066 1067 -2.3845340047271002e-08
1067 1067 1.7296481111593001e-02
1068 1067 -1.3965915749249001e-04
1093 1067 -1.6666666666667000e-02
1060 1068 -1.6666666666667000e-02
1061 1068 -6.6666666666667001e-03
1063 1068 -4.3513900552870002e-04
1064 1068 -4.3496306595424002e-04
1066 1068 -1.4022436317362999e-04
1067 1068 -1.3829183174170000e-04
1068 1068 2.5660678921809000e-02
1069 1069 8.2272804387026992e-03
1081 1069 -1.6682590363951001e-04
1082 1069 -6.9272762367465006e-08
1070 1070 9.2156996006169008e-03
1071 1070 -6.7119954999953001e-04
1070 1071 -6.2499248178726004e-04
1071 1071 9.2682061533587001e-03
1086 1071 -6.6666666666667001e-03
1072 1072 9.2385141358620002e-03
1075 1072 -6.1014024350848997e-04
1073 1073 1.7814974684234000e-02
1074 1073 -1.1785066881050000e-06
1073 1074 -2.3502693770948001e-08
1074 1074 1.7306682905681998e-02
1081 1074 -1.6666666666667000e-02
1072 1075 -6.1635938949893996e-04
1075 1075 9.0031423502174995e-03
1081 1075 -6.6666666666667001e-03
1076 1076 1.9384816296553999e-02
1077 1076 -1.1066288876554000e-03
1081 1076 -4.3546086746497998e-04
1076 1077 -1.1743814458314999e-03
1077 1077 1.9301040968006999e-02
1078 1077 -1.6666666666667000e-02
1081 1077 -4.3467741306952001e-04
1077 1078 -1.6666666666667000e-02
1078 1078 3.3333333333333000e-02
1079 1078 -1.6666666666667000e-02
1078 1079 -1.6666666666667000e-02
1079 1079 1.7807374471665000e-02
1080 1079 -1.0903244823128000e-06
1079 1080 -2.1834266849059001e-08
1080 1080 1.7296278335471999e-02
1086 1080 -1.6666666666667000e-02
1069 1081 -1.6141734336666999e-04
1074 1081 -1.6666666666667000e-02
1075 1081 -6.6666666666667001e-03
1076 1081 -4.3813322998057002e-04
1077 1081 -4.3207830069496997e-04
1081 1081 2.5160008285413000e-02
1082 1081 -1.6143014900925001e-04
1069 1082 -8.7529329850156995e-08
1081 1082 -1.7016224823950999e-04
1082 1082 8.2304225970921997e-03
1086 1082 -6.6666666666667001e-03
1083 1083 8.2271161563679009e-03
1086 1083 -1.6455784745528999e-04
1087 1083 -5.5938069826392998e-10
1084 1084 1.9390210516214000e-02
1085 1084 -1.2577391471729001e-03
1086 1084 -4.3503707005788000e-04
1084 1085 -1.1845162058520999e-03
1085 1085 1.9465917610503002e-02
1086 1085 -4.3510171074968000e-04
1090 1085 -1.6666666666667000e-02
1071 1086 -6.6666666666667001e-03
1080 1086 -1.6666666666667000e-02
1082 1086 -6.6666666666667001e-03
1083 1086 -1.6142414243578999e-04
1084 1086 -4.3480043041126999e-04
1085 1086 -4.3534440795432998e-04
1086 1086 3.1985102335463998e-02
1087 1086 -1.6142334994011999e-04
1083 1087 -3.7846489887479000e-12
1086 1087 -1.6205297642674999e-04
1087 1087 7.5571564945249997e-03
1090 1087 -6.6666666666667001e-03
1088 1088 1.7814697849875001e-02
1089 1088 -1.2036172791805001e-06
1090 1088 -1.4153819463694000e-04
1088 1089 -2.3781625783492000e-08
1089 1089 1.7296481052596999e-02
1090 1089 -1.3965319680421000e-04
1093 1089 -1.6666666666667000e-02
1085 1090 -1.6666666666667000e-02
1087 1090 -6.6666666666667001e-03
1088 1090 -1.4022182464769000e-04
1089 1090 -1.3829437026765000e-04
1090 1090 2.5372841394117000e-02
1091 1090 -4.3497915219651000e-04
1092 1090 -4.3512222939589000e-04
1090 1091 -4.3503138626126999e-04
1091 1091 9.2159414211464997e-03
1092 1091 -6.7146016030211004e-04
1093 1091 -6.6666666666667001e-03
1065 1092 -6.6666666666667001e-03
1090 1092 -4.3506699954491999e-04
1091 1092 -6.2292921755248995e-04
1092 1092 9.2651119823990002e-03
1040 1093 -1.6142418873749001e-04
1041 1093 -4.3506672392321002e-04
1042 1093 -4.3507212034948000e-04
1043 1093 -1.6142330363842999e-04
1067 1093 -1.6666666666667000e-02
1089 1093 -1.6666666666667000e-02
1091 1093 -6.6666666666667001e-03
1093 1093 4.1983349294722000e-02
1094 1094 1.7814667590104999e-02
1095 1094 -1.1744972753311999e-06
4837 1094 -1.4158356035348001e-04
1094 1095 -2.3538580394907001e-08
1095 1095 1.7304149543252000e-02
1096 1095 -1.6666666666667000e-02
4837 1095 -1.3967450833917000e-04
1095 1096 -1.6666666666667000e-02
1096 1096 3.3333333333333000e-02
1097 1096 -1.6666666666667000e-02
1096 1097 -1.6666666666667000e-02
1097 1097 1.7305144036749001e-02
1098 1097 -1.0186321115859001e-06
4840 1097 -1.6235086704370001e-04
1097 1098 -9.2384291312006001e-08
1098 1098 1.7296488397527999e-02
1099 1098 -1.6666666666667000e-02
4840 1098 -1.6159919340074001e-04
1031 1099 -1.6142417376785001e-04
1032 1099 -4.3751836425936998e-04
1033 1099 -4.3267370618864002e-04
1034 1099 -1.6142331860806000e-04
1037 1099 -6.6666666666667001e-03
1039 1099 -6.6666666666667001e-03
1098 1099 -1.6666666666667000e-02
1099 1099 3.2099840780430003e-02
1100 1100 1.7813975422366998e-02
1101 1100 -4.7421674147989001e-07
1109 1100 -1.3980878507755001e-04
1100 1101 -4.6142901029791998e-08
1101 1101 1.7749992967901002e-02
1102 1101 -1.6666666666667000e-02
1109 1101 -1.3968084073795001e-04
1101 1102 -1.6666666666667000e-02
1102 1102 3.3333333333333000e-02
4819 1102 -1.6666666666667000e-02
1103 1103 8.2267676166027995e-03
1106 1103 -7.7328958590461000e-08
4820 1103 -1.6700154063885000e-04
1104 1104 1.9321067715551001e-02
1105 1104 -1.1852104534010000e-03
4820 1104 -4.3464749617677998e-04
1104 1105 -1.1313600039256999e-03
1105 1105 1.9403802415012002e-02
1109 1105 -1.6666666666667000e-02
4820 1105 -4.3549070717579001e-04
1103 1106 -5.6298105599181995e-10
1106 1106 7.5565025935396997e-03
1109 1106 -6.6666666666667001e-03
4820 1106 -1.6254232136002001e-04
1107 1107 9.2187376987761006e-03
1108 1107 -6.7328356078381999e-04
1109 1107 -4.3504469751751000e-04
1107 1108 -6.2457325443324998e-04
1108 1108 9.2676513973120999e-03
1109 1108 -4.3505368977673001e-04
4818 1108 -6.6666666666667001e-03
1100 1109 -1.3957552453803000e-04
1101 1109 -1.3894067037731000e-04
1105 1109 -1.6666666666667000e-02
1106 1109 -6.6666666666667001e-03
1107 1109 -4.3503144112486998e-04
1108 1109 -4.3506770342304000e-04
1109 1109 2.5782340254468999e-02
1110 1110 9.2683457201265997e-03
1113 1110 -6.2544736153542996e-04
4815 1110 -4.3509790860331001e-04
1111 1111 1.7814550042880000e-02
1112 1111 -1.0467522967802000e-06
4815 1111 -1.3985578044501000e-04
1111 1112 -2.0594847074952001e-08
1112 1112 1.7296491369619998e-02
1129 1112 -1.6666666666667000e-02
4815 1112 -1.3935604705512999e-04
1110 1113 -6.7397362691592002e-04
1113 1113 9.2180586698187000e-03
1129 1113 -6.6666666666667001e-03
4815 1113 -4.3500046689747002e-04
1114 1114 1.7814705514175001e-02
1115 1114 -1.2126180884472999e-06
1127 1114 -1.4163499766380001e-04
1114 1115 -2.3962835151963999e-08
1115 1115 1.7296439456750998e-02
1116 1115 -1.6666666666667000e-02
1127 1115 -1.3966989883836000e-04
1115 1116 -1.6666666666667000e-02
1116 1116 2.3854346543977001e-02
1118 1116 -6.6666666666667001e-03
1117 1117 9.2658647538348994e-03
1118 1117 -6.2287905532929996e-04
1127 1117 -4.3505797092103002e-04
1116 1118 -6.6666666666667001e-03
1117 1118 -6.7154725812001005e-04
1118 1118 9.2168807884563993e-03
1127 1118 -4.3504041608837001e-04
1119 1119 1.7814432372336000e-02
1120 1119 -9.3443551441722998e-07
1134 1119 -1.4035283107727999e-04
1119 1120 -9.3552804944204000e-07
1120 1120 1.7814466452405000e-02
1127 1120 -1.6666666666667000e-02
1134 1120 -1.4055031215471999e-04
1121 1121 1.9388298882420000e-02
1122 1121 -1.2559837546856000e-03
1129 1121 -4.3506779953982001e-04
1121 1122 -1.1811493015396000e-03
1122 1122 1.9463256003625001e-02
1127 1122 -1.6666666666667000e-02
1129 1122 -4.3507098457786999e-04
1123 1123 9.2658766226043996e-03
1124 1123 -6.2287387841377002e-04
1134 1123 -4.3504974567823998e-04
1123 1124 -6.7159063443184995e-04
1124 1124 9.2171399018911998e-03
1125 1124 -6.6666666666667001e-03
1134 1124 -4.3504864171576999e-04
1124 1125 -6.6666666666667001e-03
1125 1125 1.3333333333332999e-02
1126 1125 -6.6666666666667001e-03
1125 1126 -6.6666666666667001e-03
1126 1126 8.2271609311993996e-03
1128 1126 -6.2832725633716002e-10
1129 1126 -1.6462124676097000e-04
1114 1127 -1.4022913720901001e-04
1115 1127 -1.3828705770632999e-04
1117 1127 -4.3508519347697000e-04
1118 1127 -4.3501467174738000e-04
1120 1127 -1.6666666666667000e-02
1122 1127 -1.6666666666667000e-02
1127 1127 4.2093157156707001e-02
1128 1127 -6.6666666666667001e-03
1126 1128 -4.2585166813208999e-12
1127 1128 -6.6666666666667001e-03
1128 1128 7.5572147356734003e-03
1129 1128 -1.6206576060598000e-04
1112 1129 -1.6666666666667000e-02
1113 1129 -6.6666666666667001e-03
1121 1129 -4.3505616432667002e-04
1122 1129 -4.3508291802798999e-04
1126 1129 -1.6142419158146000e-04
1128 1129 -1.6142330079445001e-04
1129 1129 2.5577077309419001e-02
1130 1130 8.2271830615076001e-03
1133 1130 -6.0424561791583003e-10
4818 1130 -1.6460721661636001e-04
1131 1131 1.9463777027947000e-02
1132 1131 -1.1816424177799000e-03
4818 1131 -4.3507217722124001e-04
1131 1132 -1.2565302076765000e-03
1132 1132 1.9388764519264998e-02
1134 1132 -1.6666666666667000e-02
4818 1132 -4.3506660687986002e-04
1130 1133 -4.0910611901375999e-12
1133 1133 7.5572229501458003e-03
1134 1133 -6.6666666666667001e-03
4818 1133 -1.6206132816636999e-04
1119 1134 -1.3925775657587999e-04
1120 1134 -1.3925843833945001e-04
1123 1134 -4.3505145758268999e-04
1124 1134 -4.3504702278362003e-04
1132 1134 -1.6666666666667000e-02
1133 1134 -6.6666666666667001e-03
1134 1134 2.5745569521212000e-02
1135 1135 9.2188670287347008e-03
1136 1135 -6.7310408269835001e-04
4817 1135 -4.3504469759702002e-04
1135 1136 -6.2455626194049996e-04
1136 1136 9.2676394762475998e-03
4817 1136 -4.3505368969723999e-04
4818 1136 -6.6666666666667001e-03
1137 1137 8.2271770638936998e-03
1140 1137 -6.2213046529895001e-10
1165 1137 -1.6461557925598000e-04
1138 1138 1.9388443234892999e-02
1139 1138 -1.2561373334056001e-03
1165 1138 -4.3506892621347998e-04
1138 1139 -1.1812398799761999e-03
1139 1139 1.9463376581971000e-02
1165 1139 -4.3506985791157002e-04
4800 1139 -1.6666666666667000e-02
1137 1140 -4.2158153248736003e-12
1140 1140 7.5572168225067999e-03
1165 1140 -1.6206460485279999e-04
4800 1140 -6.6666666666667001e-03
1141 1141 1.7814703288691999e-02
1142 1141 -1.2104104488448000e-06
1170 1141 -1.4161258619880000e-04
1141 1142 -2.3919539711231001e-08
1142 1142 1.7296474392518999e-02
1165 1142 -1.6666666666667000e-02
1170 1142 -1.3966607764651000e-04
1143 1143 1.7814704867820001e-02
1144 1143 -1.2114942893320000e-06
1164 1143 -1.4162435082813000e-04
1143 1144 -2.3941557046869001e-08
1144 1144 1.7296474446324001e-02
1164 1144 -1.3966811547404999e-04
1165 1144 -1.6666666666667000e-02
1145 1145 9.2658657423110007e-03
1146 1145 -6.2289561717040998e-04
1170 1145 -4.3506649714777001e-04
1145 1146 -6.7151400229081002e-04
1146 1146 9.2166249793995993e-03
1147 1146 -6.6666666666667001e-03
1170 1146 -4.3503188874699999e-04
1146 1147 -6.6666666666667001e-03
1147 1147 1.3333333333332999e-02
1162 1147 -6.6666666666667001e-03
1148 1148 8.2271647245322002e-03
1160 1148 -1.6513057943981000e-04
1161 1148 -1.6238378921598000e-09
1149 1149 8.2271194302158002e-03
1157 1149 -2.2201784703951000e-10
1150 1150 9.2609569243453996e-03
1156 1150 -6.2067292307394005e-04
1151 1151 1.7814541198029998e-02
1152 1151 -1.0475286860060000e-06
1151 1152 -2.2306264197971002e-08
1152 1152 1.7334865476452001e-02
1153 1152 -1.6666666666667000e-02
1152 1153 -1.6666666666667000e-02
1153 1153 3.3333333333333000e-02
1154 1153 -1.6666666666667000e-02
1153 1154 -1.6666666666667000e-02
1154 1154 1.7863587795625000e-02
1155 1154 -1.3392449169682001e-04
1154 1155 -2.4486868385362000e-05
1155 1155 1.7308130333414998e-02
1160 1155 -1.6666666666667000e-02
1150 1156 -6.6120582628864005e-04
1156 1156 9.1723535474182005e-03
1160 1156 -6.6666666666667001e-03
1149 1157 -7.7776092567169998e-12
1157 1157 8.1919691995512994e-03
1160 1157 -6.6666666666667001e-03
1158 1158 1.9374672657654000e-02
1159 1158 -1.2420144256358001e-03
1160 1158 -4.3506458303415999e-04
1158 1159 -1.1676707728496001e-03
1159 1159 1.9449381366280001e-02
1160 1159 -4.3507420101779001e-04
1164 1159 -1.6666666666667000e-02
1148 1160 -1.6142490407263001e-04
1155 1160 -1.6666666666667000e-02
1156 1160 -6.6666666666667001e-03
1157 1160 -6.6666666666667001e-03
1158 1160 -4.3503003692531999e-04
1159 1160 -4.3510964962674003e-04
1160 1160 3.1969454206731002e-02
1161 1160 -1.6142258830327999e-04
1148 1161 -1.1163153852596000e-11
1160 1161 -1.6216800829660000e-04
1161 1161 7.5572083054326004e-03
1164 1161 -6.6666666666667001e-03
1147 1162 -6.6666666666667001e-03
1162 1162 9.2651793188831006e-03
1163 1162 -6.2282742252396997e-04
1164 1162 -4.3506675777407999e-04
1162 1163 -6.7137432178800995e-04
1163 1163 9.2160014432025993e-03
1164 1163 -4.3503162807499002e-04
1165 1163 -6.6666666666667001e-03
1143 1164 -1.4022821097190000e-04
1144 1164 -1.3828798394344000e-04
1159 1164 -1.6666666666667000e-02
1161 1164 -6.6666666666667001e-03
1162 1164 -4.3512122182756002e-04
1163 1164 -4.3498011972418002e-04
1164 1164 2.5369661927563000e-02
1137 1165 -1.6142418715687999e-04
1138 1165 -4.3506552202042000e-04
1139 1165 -4.3507334934089000e-04
1140 1165 -1.6142330521903001e-04
1142 1165 -1.6666666666667000e-02
1144 1165 -1.6666666666667000e-02
1163 1165 -6.6666666666667001e-03
1165 1165 4.1983406820260999e-02
1166 1166 8.2271698567006994e-03
1169 1166 -7.1531146496595004e-10
1234 1166 -1.6469204019576000e-04
1167 1167 1.9386474485620000e-02
1168 1167 -1.2540841634791000e-03
1234 1167 -4.3506053348564002e-04
1167 1168 -1.1796710697318000e-03
1168 1168 1.9461568056380999e-02
1170 1168 -1.6666666666667000e-02
1234 1168 -4.3507825039066999e-04
1166 1169 -4.8573829413418001e-12
1169 1169 7.5572015360976996e-03
1170 1169 -6.6666666666667001e-03
1234 1169 -1.6207993565264001e-04
1141 1170 -1.4022733321313001e-04
1142 1170 -1.3828886170220999e-04
1145 1170 -4.3512016764572000e-04
1146 1170 -4.3498113206738998e-04
1168 1170 -1.6666666666667000e-02
1169 1170 -6.6666666666667001e-03
1170 1170 2.5600480685542000e-02
1171 1171 8.2267392890493993e-03
1172 1171 -4.8804113510112997e-08
4820 1171 -1.6668597812519000e-04
1171 1172 -3.8851878984545997e-08
1172 1172 8.2206481591674003e-03
1234 1172 -6.6666666666667001e-03
4820 1172 -1.6661850384121999e-04
1173 1173 9.2667706239640008e-03
1174 1173 -6.2387093717658005e-04
4817 1173 -4.3527732347380999e-04
1173 1174 -6.7131250069298000e-04
1174 1174 9.2111468537761001e-03
1234 1174 -6.6666666666667001e-03
4817 1174 -4.3482080269017999e-04
1175 1175 8.9160755638882008e-03
1178 1175 -2.2170657319125001e-04
1228 1175 -5.3072055752740005e-04
1176 1176 1.8971985211863000e-02
1177 1176 -8.2358725989180000e-04
1228 1176 -4.3443205954239999e-04
1176 1177 -7.8060261253494999e-04
1177 1177 1.9041562711851999e-02
1228 1177 -4.3570523999908001e-04
4817 1177 -1.6666666666667000e-02
1175 1178 -1.5427939537918998e-05
1178 1178 7.5713853709557999e-03
1228 1178 -1.6234825659178001e-04
4817 1178 -6.6666666666667001e-03
1179 1179 8.2271904951878999e-03
1191 1179 -1.6475639096143001e-04
1192 1179 -7.6031773195012000e-10
1180 1180 8.2272402561217005e-03
1181 1180 -5.8619318824339001e-10
1180 1181 -3.9937080629740004e-12
1181 1181 7.5694469240521998e-03
1197 1181 -6.6666666666667001e-03
1182 1182 9.2645269730707996e-03
1185 1182 -6.2228324186452001e-04
1183 1183 1.7814703423261000e-02
1184 1183 -1.2105137650506000e-06
1183 1184 -2.3942592915596999e-08
1184 1184 1.7296931494142000e-02
1191 1184 -1.6666666666667000e-02
1182 1185 -6.6873121472082997e-04
1185 1185 9.2045278779365001e-03
1191 1185 -6.6666666666667001e-03
1186 1186 1.9443848085411001e-02
1187 1186 -1.1751338309328001e-03
1191 1186 -4.3879036754079998e-04
1186 1187 -1.1999106546707000e-03
1187 1187 1.9267504079268999e-02
1188 1187 -1.6666666666667000e-02
1191 1187 -4.3130113128812001e-04
1187 1188 -1.6666666666667000e-02
1188 1188 3.3333333333333000e-02
1189 1188 -1.6666666666667000e-02
1188 1189 -1.6666666666667000e-02
1189 1189 1.9307301710632999e-02
1190 1189 -1.1525581070361000e-03
1189 1190 -1.1669596585098000e-03
1190 1190 1.9183367936108000e-02
1197 1190 -1.6666666666667000e-02
1179 1191 -1.6142428492157000e-04
1184 1191 -1.6666666666667000e-02
1185 1191 -6.6666666666667001e-03
1186 1191 -4.6639884979214001e-04
1187 1191 -4.0432448017499001e-04
1191 1191 2.5545280793041001e-02
1192 1191 -1.6142320745434000e-04
1179 1192 -5.2195734093864999e-12
1191 1192 -1.6211493946845999e-04
1192 1192 7.5694130397204002e-03
1197 1192 -6.6666666666667001e-03
1193 1193 9.1739125907865995e-03
1196 1193 -5.5760601301383999e-04
1197 1193 -4.6263508188780001e-04
1194 1194 1.7818843059268001e-02
1195 1194 -5.0144424884230004e-06
1197 1194 -1.5853410355578000e-04
1194 1195 -1.0986593461157999e-07
1195 1195 1.7331454073636999e-02
1197 1195 -1.4298089433905999e-04
1203 1195 -1.6666666666667000e-02
1193 1196 -4.7260906573627003e-04
1196 1196 8.6510606617147996e-03
1197 1196 -4.0287418497987002e-04
1203 1196 -6.6666666666667001e-03
1181 1197 -6.6666666666667001e-03
1190 1197 -1.6666666666667000e-02
1192 1197 -6.6666666666667001e-03
1193 1197 -5.4492758329081003e-04
1194 1197 -1.4324165185903000e-04
1195 1197 -1.3527454305631000e-04
1196 1197 -3.2383829035146998e-04
1197 1197 3.1894937306884003e-02
1198 1198 8.7852672361910002e-03
1199 1198 -6.4475315143082998e-05
1203 1198 -5.3038530583555000e-04
1198 1199 -5.6888122662251997e-06
1199 1199 7.9112544457947999e-03
1200 1199 -6.6666666666667001e-03
1203 1199 -1.6303558971545999e-04
1199 1200 -6.6666666666667001e-03
1200 1200 1.3333333333332999e-02
1227 1200 -6.6666666666667001e-03
1201 1201 1.8755120975330001e-02
1202 1201 -4.7737087732855000e-04
1203 1201 -5.6470461471858004e-04
1201 1202 -1.0089078522164999e-04
1202 1202 1.7466949514097000e-02
1203 1202 -1.4727063114632999e-04
1228 1202 -1.6666666666667000e-02
1195 1203 -1.6666666666667000e-02
1196 1203 -6.6666666666667001e-03
1198 1203 -5.7322869245125005e-04
1199 1203 -1.1445272993773999e-04
1201 1203 -8.9141603767906995e-04
1202 1203 2.1848478329012999e-04
1203 1203 2.5562207351954001e-02
1204 1204 9.2632640697137003e-03
1216 1204 -4.3515315461351001e-04
1217 1204 -6.2057220751739000e-04
1205 1205 9.2655178011355008e-03
1206 1205 -6.2272284099736000e-04
1205 1206 -6.7082426864513000e-04
1206 1206 9.2137088906211993e-03
1221 1206 -6.6666666666667001e-03
1207 1207 8.2272590558726006e-03
1210 1207 -6.1034850245683995e-10
1208 1208 1.9460480541234001e-02
1209 1208 -1.1812073492735000e-03
1208 1209 -1.2484463214622000e-03
1209 1209 1.9370385678443999e-02
1216 1209 -1.6666666666667000e-02
1207 1210 -4.1132635553403001e-12
1210 1210 7.5581662199372002e-03
1216 1210 -6.6666666666667001e-03
1211 1211 1.7813831944595002e-02
1212 1211 -3.1458113611659000e-07
1216 1211 -1.4463985395467001e-04
1211 1212 -5.6492675952948002e-06
1212 1212 1.7935841256432002e-02
1213 1212 -1.6666666666667000e-02
1216 1212 -3.5010579275817001e-04
1212 1213 -1.6666666666667000e-02
1213 1213 3.3333333333333000e-02
1214 1213 -1.6666666666667000e-02
1213 1214 -1.6666666666667000e-02
1214 1214 1.7939888447656999e-02
1215 1214 -9.7229162781405004e-06
1214 1215 -1.2141343455918001e-07
1215 1215 1.7296666219047001e-02
1221 1215 -1.6666666666667000e-02
1204 1216 -4.3547340629042000e-04
1209 1216 -1.6666666666667000e-02
1210 1216 -6.6666666666667001e-03
1211 1216 -1.3583228732940000e-04
1212 1216 -1.4268390758594000e-04
1216 1216 2.5277126460055001e-02
1217 1216 -4.3464241520352998e-04
1204 1217 -6.6857992375867999e-04
1216 1217 -4.3494517855945997e-04
1217 1217 9.2115459374369005e-03
1221 1217 -6.6666666666667001e-03
1218 1218 8.2271754459873007e-03
1221 1218 -1.6464494493743001e-04
1222 1218 -6.6196210471297001e-10
1219 1219 1.9393278933680001e-02
1220 1219 -1.2549131819122000e-03
1221 1219 -4.3295676451401998e-04
1219 1220 -1.2624881246428999e-03
1220 1220 1.9522863753309000e-02
1221 1220 -4.3716756328782000e-04
1225 1220 -1.6666666666667000e-02
1206 1221 -6.6666666666667001e-03
1215 1221 -1.6666666666667000e-02
1217 1221 -6.6666666666667001e-03
1218 1221 -1.6142421566033000e-04
1219 1221 -4.1747886770680999e-04
1220 1221 -4.5305802768308000e-04
1221 1221 3.1982450794457003e-02
1222 1221 -1.6142327671559001e-04
1218 1222 -4.4763018795481998e-12
1221 1222 -1.6206307038946999e-04
1222 1222 7.5535160643355999e-03
1225 1222 -6.6666666666667001e-03
1223 1223 1.7814097087342998e-02
1224 1223 -5.7594185714006004e-07
1225 1223 -1.3943940591542000e-04
1223 1224 -1.2986181111076001e-08
1224 1224 1.7369198755007999e-02
1225 1224 -1.3925809745766999e-04
1228 1224 -1.6666666666667000e-02
1220 1225 -1.6666666666667000e-02
1222 1225 -6.6666666666667001e-03
1223 1225 -1.3970177239443999e-04
1224 1225 -1.3881442252090001e-04
1225 1225 2.5589386100378000e-02
1226 1225 -3.3065681874932000e-04
1227 1225 -5.3563841116209001e-04
1225 1226 -3.9959955842280002e-04
1226 1226 8.4393096985866008e-03
1227 1226 -3.9974564894073000e-04
1228 1226 -6.6666666666667001e-03
1200 1227 -6.6666666666667001e-03
1225 1227 -4.6488491736152002e-04
1226 1227 -4.7689839919809002e-04
1227 1227 8.7454649405901003e-03
1175 1228 -6.9456102883415003e-04
1176 1228 -4.3216771816946000e-04
1177 1228 -4.3809622329988001e-04
1178 1228 6.8796064451590996e-06
1202 1228 -1.6666666666667000e-02
1224 1228 -1.6666666666667000e-02
1226 1228 -6.6666666666667001e-03
1228 1228 4.2166341456563998e-02
1229 1229 1.7814553588932001e-02
1230 1229 -1.0859866549689000e-06
4817 1229 -1.4064159293804000e-04
1229 1230 -2.1763892276243002e-08
1230 1230 1.7305266482623000e-02
1231 1230 -1.6666666666667000e-02
4817 1230 -1.3950703657723999e-04
1230 1231 -1.6666666666667000e-02
1231 1231 3.3333333333333000e-02
1232 1231 -1.6666666666667000e-02
1231 1232 -1.6666666666667000e-02
1232 1232 1.7305459881722000e-02
1233 1232 -2.0471531660851000e-07
4820 1232 -1.6165322523230001e-04
1232 1233 -1.7666722634978000e-08
1233 1233 1.7296740340198999e-02
1234 1233 -1.6666666666667000e-02
4820 1233 -1.6085111995898000e-04
1166 1234 -1.6142425364618001e-04
1167 1234 -4.3499595868228002e-04
1168 1234 -4.3514448496656001e-04
1169 1234 -1.6142323872973000e-04
1172 1234 -6.6666666666667001e-03
1174 1234 -6.6666666666667001e-03
1233 1234 -1.6666666666667000e-02
1234 1234 3.2097137913716003e-02
1235 1235 1.9463616422299001e-02
1236 1235 -1.1814807682092000e-03
1244 1235 -4.3507379725520002e-04
1235 1236 -1.2563437017647000e-03
1236 1236 1.9388556263219999e-02
1237 1236 -1.6666666666667000e-02
1244 1236 -4.3506498680889998e-04
1236 1237 -1.6666666666667000e-02
1237 1237 3.3333333333333000e-02
4799 1237 -1.6666666666667000e-02
1238 1238 9.2658599702365001e-03
1241 1238 -6.2287445045532000e-04
4800 1238 -4.3505792973547999e-04
1239 1239 1.7814705833197001e-02
1240 1239 -1.2129335825294000e-06
4800 1239 -1.4163844238262001e-04
1239 1240 -2.3969249063355002e-08
1240 1240 1.7296439412179000e-02
1244 1240 -1.6666666666667000e-02
4800 1240 -1.3967049554451999e-04
1238 1241 -6.7154269413069001e-04
1241 1241 9.2168774486994006e-03
1244 1241 -6.6666666666667001e-03
4800 1241 -4.3504045727753998e-04
1242 1242 8.2271769300818007e-03
1243 1242 -4.0440463985224999e-10
1244 1242 -1.6436042252788999e-04
1242 1243 -4.0086302329876998e-10
1243 1243 8.2269446257463002e-03
1244 1243 -1.6435897310340000e-04
4798 1243 -6.6666666666667001e-03
1235 1244 -4.3510682340651001e-04
1236 1244 -4.3503278544336998e-04
1240 1244 -1.6666666666667000e-02
1241 1244 -6.6666666666667001e-03
1242 1244 -1.6142374865043001e-04
1243 1244 -1.6142374372547999e-04
1244 1244 2.5564231760460000e-02
1245 1245 8.2271771336138999e-03
1248 1245 -6.1069393149091005e-10
4795 1245 -1.6460538623371001e-04
1246 1246 1.9463636315445999e-02
1247 1246 -1.1814830196663999e-03
4795 1246 -4.3506939236516998e-04
1246 1247 -1.2564106177368999e-03
1247 1247 1.9388708703840001e-02
1264 1247 -1.6666666666667000e-02
4795 1247 -4.3506939176057001e-04
1245 1248 -4.1371677939059001e-12
1248 1248 7.5572176514273996e-03
1264 1248 -6.6666666666667001e-03
4795 1248 -1.6206255983013999e-04
1249 1249 1.9463363476091001e-02
1250 1249 -1.1812161950962000e-03
1262 1249 -4.3506939294003002e-04
1249 1250 -1.2561377714325999e-03
1250 1250 1.9388441860488999e-02
1251 1250 -1.6666666666667000e-02
1262 1250 -4.3506939118571002e-04
1250 1251 -1.6666666666667000e-02
1251 1251 2.3854346543977001e-02
1253 1251 -6.6666666666667001e-03
1252 1252 8.2271771444914002e-03
1253 1252 -6.2211171481296001e-10
1262 1252 -1.6461556260490999e-04
1251 1253 -6.6666666666667001e-03
1252 1253 -4.2156889554597002e-12
1253 1253 7.5572176524966997e-03
1262 1253 -1.6206460305730999e-04
1254 1254 1.7814705782520000e-02
1255 1254 -1.2128841291019000e-06
1269 1254 -1.4163963042626999e-04
1254 1255 -2.3969847817809000e-08
1255 1255 1.7296474399194000e-02
1262 1255 -1.6666666666667000e-02
1269 1255 -1.3967076369622000e-04
1256 1256 1.7814705781140000e-02
1257 1256 -1.2128827903843000e-06
1264 1256 -1.4163961580487000e-04
1256 1257 -2.3969820591447000e-08
1257 1257 1.7296474399164000e-02
1262 1257 -1.6666666666667000e-02
1264 1257 -1.3967076116272001e-04
1258 1258 9.2658267050181008e-03
1259 1258 -6.2285875596608997e-04
1269 1258 -4.3506661862261999e-04
1258 1259 -6.7147481228133998e-04
1259 1259 9.2165839580194992e-03
1260 1259 -6.6666666666667001e-03
1269 1259 -4.3503176725099999e-04
1259 1260 -6.6666666666667001e-03
1260 1260 1.3333333333332999e-02
1261 1260 -6.6666666666667001e-03
1260 1261 -6.6666666666667001e-03
1261 1261 9.2651574157165007e-03
1263 1261 -6.2280688594257001e-04
1264 1261 -4.3506662587793998e-04
1249 1262 -4.3506939951411998e-04
1250 1262 -4.3506938477587002e-04
1252 1262 -1.6142418714347001e-04
1253 1262 -1.6142330523245000e-04
1255 1262 -1.6666666666667000e-02
1257 1262 -1.6666666666667000e-02
1262 1262 4.1983407342804001e-02
1263 1262 -6.6666666666667001e-03
1261 1263 -6.7135361175087995e-04
1262 1263 -6.6666666666667001e-03
1263 1263 9.2159844803912996e-03
1264 1263 -4.3503175999426999e-04
1247 1264 -1.6666666666667000e-02
1248 1264 -6.6666666666667001e-03
1256 1264 -1.4022933658982000e-04
1257 1264 -1.3828685832551000e-04
1261 1264 -4.3512067754152998e-04
1263 1264 -4.3498064184444002e-04
1264 1264 2.5686835580353000e-02
1265 1265 8.2271771367099008e-03
1268 1265 -6.1067423428794997e-10
4798 1265 -1.6460537000819001e-04
1266 1266 1.9463636765100999e-02
1267 1266 -1.1814834837968000e-03
4798 1266 -4.3506939716070998e-04
1266 1267 -1.2564110206562001e-03
1267 1267 1.9388708999978001e-02
1269 1267 -1.6666666666667000e-02
4798 1267 -4.3506938696503001e-04
1265 1268 -4.1370321774173003e-12
1268 1268 7.5572176601306001e-03
1269 1268 -6.6666666666667001e-03
4798 1268 -1.6206255626787999e-04
1254 1269 -1.4022933767457999e-04
1255 1269 -1.3828685724076001e-04
1258 1269 -4.3512065986283001e-04
1259 1269 -4.3498066028591997e-04
1267 1269 -1.6666666666667000e-02
1268 1269 -6.6666666666667001e-03
1269 1269 2.5658224499132000e-02
1270 1270 9.2658638985273004e-03
1271 1270 -6.2287791947685000e-04
4797 1270 -4.3505787180413000e-04
1270 1271 -6.7154667641312004e-04
1271 1271 9.2168829446817001e-03
4797 1271 -4.3504051521394002e-04
4798 1271 -6.6666666666667001e-03
1272 1272 8.2279291035043996e-03
1275 1272 -1.9025832774824001e-06
1300 1272 -1.6836200961290999e-04
1273 1273 1.9276480743660999e-02
1274 1273 -1.1382680129803000e-03
1300 1273 -4.3450721400579002e-04
1273 1274 -1.0907790579768001e-03
1274 1274 1.9359944019680001e-02
1300 1274 -4.3563052189867001e-04
4780 1274 -1.6666666666667000e-02
1272 1275 -1.4526730979161000e-08
1275 1275 7.5562972993423001e-03
1300 1275 -1.6281616049123999e-04
4780 1275 -6.6666666666667001e-03
1276 1276 1.7814566888860999e-02
1277 1276 -1.0683709109943999e-06
1305 1276 -1.4076152118562999e-04
1276 1277 -2.1719910574726998e-08
1277 1277 1.7312664936888999e-02
1300 1277 -1.6666666666667000e-02
1305 1277 -1.3953667019010000e-04
1278 1278 1.8734210988793000e-02
1279 1278 -4.5381246844753998e-04
1299 1278 -5.5973913719208003e-04
1278 1279 -5.7057154383291998e-05
1279 1279 1.7366239482672002e-02
1299 1279 -1.4443786721312000e-04
1300 1279 -1.6666666666667000e-02
1280 1280 9.2667448049115007e-03
1281 1280 -6.2387120891114003e-04
1305 1280 -4.3511807642873001e-04
1280 1281 -6.7222053959996005e-04
1281 1281 9.2159158200481994e-03
1282 1281 -6.6666666666667001e-03
1305 1281 -4.3498028717709001e-04
1281 1282 -6.6666666666667001e-03
1282 1282 1.3333333333332999e-02
1297 1282 -6.6666666666667001e-03
1283 1283 8.9574123845884996e-03
1295 1283 -5.0646626974941997e-04
1296 1283 -3.1528508140585000e-04
1284 1284 8.2272152463551008e-03
1292 1284 -5.6409213089926996e-10
1285 1285 8.2272152463551008e-03
1291 1285 -5.6409213073664005e-10
1286 1286 1.9433530014118999e-02
1287 1286 -1.1754793193109001e-03
1286 1287 -1.1611231402039999e-03
1287 1287 1.9181033668901001e-02
1288 1287 -1.6666666666667000e-02
1287 1288 -1.6666666666667000e-02
1288 1288 3.3333333333333000e-02
1289 1288 -1.6666666666667000e-02
1288 1289 -1.6666666666667000e-02
1289 1289 1.9200205871702999e-02
1290 1289 -1.1191014843119000e-03
1289 1290 -1.0981231946379001e-03
1290 1290 1.9043522488178002e-02
1295 1290 -1.6666666666667000e-02
1285 1291 -3.8903633344623003e-12
1291 1291 7.5805013403289004e-03
1295 1291 -6.6666666666667001e-03
1284 1292 -3.8903633344623003e-12
1292 1292 7.5805013403289004e-03
1295 1292 -6.6666666666667001e-03
1293 1293 1.8334360741354999e-02
1294 1293 -1.5557669092515998e-05
1295 1293 -5.4326925610398999e-04
1293 1294 -6.1297718770816003e-06
1294 1294 1.7390272629694000e-02
1295 1294 -1.4155448027321999e-04
1299 1294 -1.6666666666667000e-02
1283 1295 -6.2737231560294001e-04
1290 1295 -1.6666666666667000e-02
1291 1295 -6.6666666666667001e-03
1292 1295 -6.6666666666667001e-03
1293 1295 -5.4576015662921996e-04
1294 1295 -1.2717109775972000e-04
1295 1295 3.2126837200446998e-02
1296 1295 -2.0000126770655999e-04
1283 1296 -1.6300001752714001e-04
1295 1296 -3.1799485329040003e-04
1296 1296 8.0740213625753003e-03
1299 1296 -6.6666666666667001e-03
1282 1297 -6.6666666666667001e-03
1297 1297 8.9392264872186003e-03
1298 1297 -2.9002356893797999e-04
1299 1297 -4.7034593471763998e-04
1297 1298 -2.7037737049660001e-04
1298 1298 8.5759236474830004e-03
1299 1298 -3.9166310920684002e-04
1300 1298 -6.6666666666667001e-03
1278 1299 -9.0841243593492004e-04
1279 1299 2.3548118154597999e-04
1294 1299 -1.6666666666667000e-02
1296 1299 -6.6666666666667001e-03
1297 1299 -4.9202635151933004e-04
1298 1299 -3.7364462380697999e-04
1299 1299 2.5410127917276999e-02
1272 1300 -1.6284376233496000e-04
1273 1300 -4.3098036386767001e-04
1274 1300 -4.3926603509005999e-04
1275 1300 -1.6000373004096001e-04
1277 1300 -1.6666666666667000e-02
1279 1300 -1.6666666666667000e-02
1298 1300 -6.6666666666667001e-03
1300 1300 4.1913453155524999e-02
1301 1301 8.2271766974476995e-03
1304 1301 -6.1451505269317004e-10
1369 1301 -1.6460824167986000e-04
1302 1302 1.9389444640545001e-02
1303 1302 -1.2562610872027999e-03
1369 1302 -4.3480833318232999e-04
1302 1303 -1.1942607274220999e-03
1303 1303 1.9471020588940000e-02
1305 1303 -1.6666666666667000e-02
1369 1303 -4.3533023390464001e-04
1301 1304 -4.1618525523336000e-12
1304 1304 7.5567593094001996e-03
1305 1304 -6.6666666666667001e-03
1369 1304 -1.6206222095743999e-04
1276 1305 -1.4010632998782000e-04
1277 1305 -1.3840986492750999e-04
1280 1305 -4.3533239162563998e-04
1281 1305 -4.3477756214226000e-04
1303 1305 -1.6666666666667000e-02
1304 1305 -6.6666666666667001e-03
1305 1305 2.5639267395752001e-02
1306 1306 9.2658370870614994e-03
1307 1306 -6.2286442757633999e-04
4800 1306 -4.3506426420355002e-04
1306 1307 -6.7149467206358004e-04
1307 1307 9.2166647877722999e-03
1369 1307 -6.6666666666667001e-03
4800 1307 -4.3503412205356999e-04
1308 1308 9.2658408067304993e-03
1309 1308 -6.2286780518499999e-04
4797 1308 -4.3506426406313999e-04
1308 1309 -6.7149821591780000e-04
1309 1309 9.2166683417842996e-03
1369 1309 -6.6666666666667001e-03
4797 1309 -4.3503412219401001e-04
1310 1310 8.2271770566386994e-03
1313 1310 -6.3470754798997998e-10
1363 1310 -1.6462656264687000e-04
1311 1311 1.9388157484541001e-02
1312 1311 -1.2558422911329999e-03
1363 1311 -4.3506810672843001e-04
1311 1312 -1.1809934559781001e-03
1312 1312 1.9463105316502999e-02
1363 1312 -4.3507067739206000e-04
4797 1312 -1.6666666666667000e-02
1310 1313 -4.3023287765618002e-12
1313 1313 7.5572153739949001e-03
1363 1313 -1.6206680723074001e-04
4797 1313 -6.6666666666667001e-03
1314 1314 9.2517311151247995e-03
1326 1314 -4.3824588211859998e-04
1327 1314 -6.1476119152238000e-04
1315 1315 8.2269983576996001e-03
1316 1315 -2.2976914636266000e-10
1315 1316 -5.5250388183715002e-12
1316 1316 8.1527741025804994e-03
1332 1316 -6.6666666666667001e-03
1317 1317 8.2272583518046005e-03
1320 1317 -6.0951716148153998e-10
1318 1318 1.9459558086095001e-02
1319 1318 -1.1810882965700000e-03
1318 1319 -1.2453679486263999e-03
1319 1319 1.9363410690334999e-02
1326 1319 -1.6666666666667000e-02
1317 1320 -4.1090723702492999e-12
1320 1320 7.5585352883414001e-03
1326 1320 -6.6666666666667001e-03
1321 1321 1.7814728386922000e-02
1322 1321 -1.2334970112362000e-06
1326 1321 -1.4347006535201000e-04
1321 1322 -2.6460545228924000e-08
1322 1322 1.7335937863412001e-02
1323 1322 -1.6666666666667000e-02
1326 1322 -1.4011759827399999e-04
1322 1323 -1.6666666666667000e-02
1323 1323 3.3333333333333000e-02
1324 1323 -1.6666666666667000e-02
1323 1324 -1.6666666666667000e-02
1324 1324 1.7869221918574998e-02
1325 1324 -1.3825936397604999e-04
1324 1325 -2.5386527737871998e-05
1325 1325 1.7311291079118000e-02
1332 1325 -1.6666666666667000e-02
1314 1326 -4.4799862421601998e-04
1319 1326 -1.6666666666667000e-02
1320 1326 -6.6666666666667001e-03
1321 1326 -1.4023004418649000e-04
1322 1326 -1.3828615072885000e-04
1326 1326 2.5612453441180998e-02
1327 1326 -4.2256358013212998e-04
1314 1327 -6.4510777582199997e-04
1326 1327 -4.3180007673951999e-04
1327 1327 9.1168325097132005e-03
1332 1327 -6.6666666666667001e-03
1328 1328 8.2272513392431992e-03
1331 1328 -5.4963780874122002e-09
1332 1328 -1.6582980599242001e-04
1329 1329 1.9430721584039998e-02
1330 1329 -1.1498543753192000e-03
1332 1329 -4.3518614150463001e-04
1329 1330 -1.2223799804672001e-03
1330 1330 1.9353152559200001e-02
1332 1330 -4.3495259875032000e-04
1338 1330 -1.6666666666667000e-02
1328 1331 -3.8288060459277000e-11
1331 1331 7.5574212369105996e-03
1332 1331 -1.6229277729544001e-04
1338 1331 -6.6666666666667001e-03
1316 1332 -6.6666666666667001e-03
1325 1332 -1.6666666666667000e-02
1327 1332 -6.6666666666667001e-03
1328 1332 -1.6142767535055999e-04
1329 1332 -4.3602835148290998e-04
1330 1332 -4.3413227767849998e-04
1331 1332 -1.6141981702535001e-04
1332 1332 3.1955237666978997e-02
1333 1333 9.2652529716563004e-03
1334 1333 -6.2236140762758998e-04
1338 1333 -4.3508719555457998e-04
1333 1334 -6.7083282191369997e-04
1334 1334 9.2154171864948006e-03
1335 1334 -6.6666666666667001e-03
1338 1334 -4.3501118460075998e-04
1334 1335 -6.6666666666667001e-03
1335 1335 1.3333333333332999e-02
1362 1335 -6.6666666666667001e-03
1336 1336 1.7814738436837001e-02
1337 1336 -1.2444300173999000e-06
1338 1336 -1.4198271545839001e-04
1336 1337 -2.4613432184789001e-08
1337 1337 1.7296512999536998e-02
1338 1337 -1.3973028799337000e-04
1363 1337 -1.6666666666667000e-02
1330 1338 -1.6666666666667000e-02
1331 1338 -6.6666666666667001e-03
1333 1338 -4.3520488137755998e-04
1334 1338 -4.3489989642103998e-04
1336 1338 -1.4025488617284000e-04
1337 1338 -1.3826130874250000e-04
1338 1338 2.5646448708894001e-02
1339 1339 9.2527344942525003e-03
1351 1339 -4.3797470590071000e-04
1352 1339 -6.1529457495860000e-04
1340 1340 8.2269940868582008e-03
1341 1340 -2.2842557169063999e-10
1340 1341 -5.6926198809733002e-12
1341 1341 8.1584178777189993e-03
1356 1341 -6.6666666666667001e-03
1342 1342 8.2272585623787003e-03
1345 1342 -6.0961802353767000e-10
1343 1343 1.9459660274664999e-02
1344 1343 -1.1811017777326000e-03
1343 1344 -1.2457077506377999e-03
1344 1344 1.9364179819138998e-02
1351 1344 -1.6666666666667000e-02
1342 1345 -4.1095565549547999e-12
1345 1345 7.5584943623348997e-03
1351 1345 -6.6666666666667001e-03
1346 1346 1.7814722076039000e-02
1347 1346 -1.2276781785336999e-06
1351 1346 -1.4340588270969000e-04
1346 1347 -2.6322788202708000e-08
1347 1347 1.7335779245471000e-02
1348 1347 -1.6666666666667000e-02
1351 1347 -1.4010396829879001e-04
1347 1348 -1.6666666666667000e-02
1348 1348 3.3333333333333000e-02
1349 1348 -1.6666666666667000e-02
1348 1349 -1.6666666666667000e-02
1349 1349 1.7868405123619001e-02
1350 1349 -1.3763574608290999e-04
1349 1350 -2.5248622948813000e-05
1350 1350 1.7310811059478001e-02
1356 1350 -1.6666666666667000e-02
1339 1351 -4.4690816470510002e-04
1344 1351 -1.6666666666667000e-02
1345 1351 -6.6666666666667001e-03
1346 1351 -1.4022546179953999e-04
1347 1351 -1.3829073311579000e-04
1351 1351 2.5266055535281998e-02
1352 1351 -4.2362051808415000e-04
1339 1352 -6.4713425348242001e-04
1351 1352 -4.3207985377808998e-04
1352 1352 9.1245275998207993e-03
1356 1352 -6.6666666666667001e-03
1353 1353 8.2272428126709003e-03
1356 1353 -1.6573095002159999e-04
1357 1353 -4.5784764856758997e-09
1354 1354 1.9433519847512001e-02
1355 1354 -1.1524907834149999e-03
1356 1354 -4.3516386860622999e-04
1354 1355 -1.2253918198788000e-03
1355 1355 1.9356523820987001e-02
1356 1355 -4.3497488683142001e-04
1360 1355 -1.6666666666667000e-02
1341 1356 -6.6666666666667001e-03
1350 1356 -1.6666666666667000e-02
1352 1356 -6.6666666666667001e-03
1353 1356 -1.6142701726283001e-04
1354 1356 -4.3584764264009999e-04
1355 1356 -4.3430883015122001e-04
1356 1356 3.1957178657569002e-02
1357 1356 -1.6142047511308999e-04
1353 1357 -3.1824133952004998e-11
1356 1357 -1.6227443170327999e-04
1357 1357 7.5573830803702001e-03
1360 1357 -6.6666666666667001e-03
1358 1358 1.7814732183183000e-02
1359 1358 -1.2383975888695001e-06
1360 1358 -1.4191800187233000e-04
1358 1359 -2.4490657466602999e-08
1359 1359 1.7296512860523999e-02
1360 1359 -1.3971907314796000e-04
1363 1359 -1.6666666666667000e-02
1355 1360 -1.6666666666667000e-02
1357 1360 -6.6666666666667001e-03
1358 1360 -1.4024999687644999e-04
1359 1360 -1.3826619803889001e-04
1360 1360 2.5359462235566999e-02
1361 1360 -4.3495033186028001e-04
1362 1360 -4.3515228372286000e-04
1360 1361 -4.3502402359636998e-04
1361 1361 9.2146331100012996e-03
1362 1361 -6.7075757368663998e-04
1363 1361 -6.6666666666667001e-03
1335 1362 -6.6666666666667001e-03
1360 1362 -4.3507436062345002e-04
1361 1362 -6.2235587365129996e-04
1362 1362 9.2639365865947992e-03
1310 1363 -1.6142419612747000e-04
1311 1363 -4.3505871746382999e-04
1312 1363 -4.3508030736735999e-04
1313 1363 -1.6142329624844001e-04
1337 1363 -1.6666666666667000e-02
1359 1363 -1.6666666666667000e-02
1361 1363 -6.6666666666667001e-03
1363 1363 4.1983085215844998e-02
1364 1364 1.7814013789868001e-02
1365 1364 -5.1763004472936002e-07
4797 1364 -1.4041279923243999e-04
1364 1365 -4.9666840693603999e-08
1365 1365 1.7749226579455001e-02
1366 1365 -1.6666666666667000e-02
4797 1365 -1.4017636652279000e-04
1365 1366 -1.6666666666667000e-02
1366 1366 3.3333333333333000e-02
1367 1366 -1.6666666666667000e-02
1366 1367 -1.6666666666667000e-02
1367 1367 1.7749601020858000e-02
1368 1367 -4.2703631817988997e-07
4800 1367 -1.4128616310940000e-04
1367 1368 -9.4772445000974001e-09
1368 1368 1.7296433458169998e-02
1369 1368 -1.6666666666667000e-02
4800 1368 -1.3969994608326001e-04
1301 1369 -1.6142418173613999e-04
1302 1369 -4.3289957699138001e-04
1303 1369 -4.3728820760491002e-04
1304 1369 -1.6142331063977999e-04
1307 1369 -6.6666666666667001e-03
1309 1369 -6.6666666666667001e-03
1368 1369 -1.6666666666667000e-02
1369 1369 3.2099560266099003e-02
1370 1370 1.9463175170550000e-02
1371 1370 -1.1811207854425000e-03
1379 1370 -4.3509307216951001e-04
1370 1371 -1.2556940252647000e-03
1371 1371 1.9387542679506001e-02
1372 1371 -1.6666666666667000e-02
1379 1371 -4.3504571017417999e-04
1371 1372 -1.6666666666667000e-02
1372 1372 3.3333333333333000e-02
4779 1372 -1.6666666666667000e-02
1373 1373 9.2677252909603002e-03
1376 1373 -6.2485704691145002e-04
4780 1373 -4.3509103753972000e-04
1374 1374 1.7814587120294000e-02
1375 1374 -1.0824233272866999e-06
4780 1374 -1.4023021492908999e-04
1374 1375 -2.1316158477194002e-08
1375 1375 1.7296483272732002e-02
1379 1375 -1.6666666666667000e-02
4780 1375 -1.3941987984202999e-04
1373 1376 -6.7339751012201001e-04
1376 1376 9.2176742350237005e-03
1379 1376 -6.6666666666667001e-03
4780 1376 -4.3500734107970002e-04
1377 1377 8.2271747919785993e-03
1378 1377 -6.2558479396712002e-10
1379 1377 -1.6461872586395000e-04
1377 1378 -4.2397967595443002e-12
1378 1378 7.5572758294084998e-03
1379 1378 -1.6206535768643001e-04
4778 1378 -6.6666666666667001e-03
1370 1379 -4.3527052534299000e-04
1371 1379 -4.3487268853138999e-04
1375 1379 -1.6666666666667000e-02
1376 1379 -6.6666666666667001e-03
1377 1379 -1.6142418961989001e-04
1378 1379 -1.6142330275601999e-04
1379 1379 2.5548544737707998e-02
1380 1380 8.2271757352046001e-03
1383 1380 -6.1721285173221997e-10
4775 1380 -1.6461123764725000e-04
1381 1381 1.9388562693232001e-02
1382 1381 -1.2562548374525000e-03
4775 1381 -4.3506813539286000e-04
1381 1382 -1.1813970330971000e-03
1382 1382 1.9463517325672999e-02
1399 1382 -1.6666666666667000e-02
4775 1382 -4.3507064872787000e-04
1380 1383 -4.1819954171848003e-12
1383 1383 7.5572153383474004e-03
1399 1383 -6.6666666666667001e-03
4775 1383 -1.6206373198066000e-04
1384 1384 1.7814705978151001e-02
1385 1384 -1.2130820060521999e-06
1397 1384 -1.4164006306560000e-04
1384 1385 -2.3972266186943000e-08
1385 1385 1.7296439378354001e-02
1386 1385 -1.6666666666667000e-02
1397 1385 -1.3967077626995001e-04
1385 1386 -1.6666666666667000e-02
1386 1386 2.3854346543977001e-02
1388 1386 -6.6666666666667001e-03
1387 1387 9.2658578224982992e-03
1388 1387 -6.2287230268217003e-04
1397 1387 -4.3505790223012999e-04
1386 1388 -6.6666666666667001e-03
1387 1388 -6.7154062195841000e-04
1388 1388 9.2168762161813998e-03
1397 1388 -4.3504048478529002e-04
1389 1389 1.9463660586737000e-02
1390 1389 -1.1815072698291001e-03
1404 1389 -4.3506945313432000e-04
1389 1390 -1.2564344584180000e-03
1390 1390 1.9388730663515000e-02
1397 1390 -1.6666666666667000e-02
1404 1390 -4.3506933099141001e-04
1391 1391 1.7814431599414999e-02
1392 1391 -9.3353249793693001e-07
1399 1391 -1.4034602743011001e-04
1391 1392 -9.3351368839121999e-07
1392 1392 1.7814430309871000e-02
1397 1392 -1.6666666666667000e-02
1399 1392 -1.4034597383916000e-04
1393 1393 8.2271772238015992e-03
1394 1393 -5.4596930587436996e-10
1404 1393 -1.6458301363205999e-04
1393 1394 -3.8177420408776000e-12
1394 1394 7.5912127522918997e-03
1395 1394 -6.6666666666667001e-03
1404 1394 -1.6212734168440001e-04
1394 1395 -6.6666666666667001e-03
1395 1395 1.3333333333332999e-02
1396 1395 -6.6666666666667001e-03
1395 1396 -6.6666666666667001e-03
1396 1396 7.5912134278406001e-03
1398 1396 -6.9576637212986996e-10
1399 1396 -1.6685431397136000e-04
1384 1397 -1.4022951317684999e-04
1385 1397 -1.3828668173849001e-04
1387 1397 -4.3508491118231002e-04
1388 1397 -4.3501494248146002e-04
1390 1397 -1.6666666666667000e-02
1392 1397 -1.6666666666667000e-02
1397 1397 4.2092973677958001e-02
1398 1397 -6.6666666666667001e-03
1396 1398 -1.2563720297527000e-11
1397 1398 -6.6666666666667001e-03
1398 1398 7.5572177645015998e-03
1399 1398 -1.6631931656964000e-04
1382 1399 -1.6666666666667000e-02
1383 1399 -6.6666666666667001e-03
1391 1399 -1.3925811056961999e-04
1392 1399 -1.3925808434571001e-04
1396 1399 -1.6142437415535000e-04
1398 1399 -1.6142311822057000e-04
1399 1399 2.5282473487377999e-02
1400 1400 9.2657301327984994e-03
1403 1400 -6.2273722138620001e-04
4778 1400 -4.3505560676162001e-04
1401 1401 1.7814714680907000e-02
1402 1401 -1.2225452180474000e-06
4778 1401 -1.4174316841612000e-04
1401 1402 -2.4164644729901000e-08
1402 1402 1.7296436372546999e-02
1404 1402 -1.6666666666667000e-02
4778 1402 -1.3968863471975999e-04
1400 1403 -6.7141433050345995e-04
1403 1403 9.2168223706131005e-03
1404 1403 -6.6666666666667001e-03
4778 1403 -4.3504278042777000e-04
1389 1404 -4.3506991100890000e-04
1390 1404 -4.3506888455257999e-04
1393 1404 -1.6142413218509001e-04
1394 1404 -1.6142336019081999e-04
1402 1404 -1.6666666666667000e-02
1403 1404 -6.6666666666667001e-03
1404 1404 2.5550290012265001e-02
1405 1405 8.2272091201535998e-03
1406 1405 -4.7814145149720995e-10
4777 1405 -1.6451243717860000e-04
1405 1406 -3.2198710875226000e-12
1406 1406 7.5572783221764996e-03
4777 1406 -1.6203513271229001e-04
4778 1406 -6.6666666666667001e-03
1407 1407 8.9528946520012007e-03
1410 1407 -2.7130584009623000e-04
1435 1407 -5.3141109268566001e-04
1408 1408 1.8832470080303001e-02
1409 1408 -6.7691582762774004e-04
1435 1408 -4.3502315652077999e-04
1408 1409 -6.2566568480661004e-04
1409 1409 1.8885199935816999e-02
1435 1409 -4.3511561933396998e-04
4760 1409 -1.6666666666667000e-02
1407 1410 -2.7729685595879000e-05
1410 1410 7.5848807133965003e-03
1435 1410 -1.6251983450644999e-04
4760 1410 -6.6666666666667001e-03
1411 1411 1.7814263017635001e-02
1412 1411 -7.6575807953839004e-07
1440 1411 -1.3996326048535001e-04
1411 1412 -1.9029212998639000e-08
1412 1412 1.7406261803043999e-02
1435 1412 -1.6666666666667000e-02
1440 1412 -1.3944545079541001e-04
1413 1413 1.8765787689042000e-02
1414 1413 -5.1285647747207003e-04
1434 1413 -5.3289892097102001e-04
1413 1414 -1.8387424420953001e-04
1414 1414 1.7733071970894999e-02
1434 1414 -2.7456729932888999e-04
1435 1414 -1.6666666666667000e-02
1415 1415 9.2192716113021992e-03
1416 1415 -6.7364603061447002e-04
1440 1415 -4.3495360254460001e-04
1415 1416 -6.2719519535190001e-04
1416 1416 9.2704938635207994e-03
1417 1416 -6.6666666666667001e-03
1440 1416 -4.3514473915375003e-04
1416 1417 -6.6666666666667001e-03
1417 1417 1.3333333333332999e-02
1432 1417 -6.6666666666667001e-03
1418 1418 9.1787682148736002e-03
1430 1418 -4.5995548544389001e-04
1431 1418 -5.6145553739278997e-04
1419 1419 8.2272401922446007e-03
1427 1419 -5.8623600078658000e-10
1420 1420 8.2271771048130996e-03
1426 1420 -5.8227644142458001e-10
1421 1421 1.9447786340480000e-02
1422 1421 -1.1789831824761000e-03
1421 1422 -1.2039239238517999e-03
1422 1422 1.9271550421795000e-02
1423 1422 -1.6666666666667000e-02
1422 1423 -1.6666666666667000e-02
1423 1423 3.3333333333333000e-02
1424 1423 -1.6666666666667000e-02
1423 1424 -1.6666666666667000e-02
1424 1424 1.9307500931937002e-02
1425 1424 -1.1526155104810999e-03
1424 1425 -1.1671593351367999e-03
1425 1425 1.9183785718239001e-02
1430 1425 -1.6666666666667000e-02
1420 1426 -3.9849020365070998e-12
1426 1426 7.5693878356654001e-03
1430 1426 -6.6666666666667001e-03
1419 1427 -3.9939315926847001e-12
1427 1427 7.5694227569229004e-03
1430 1427 -6.6666666666667001e-03
1428 1428 1.7818914247327001e-02
1429 1428 -5.0592826705295997e-06
1430 1428 -1.5861161421958000e-04
1428 1429 -1.0994004819902001e-07
1429 1429 1.7327998950525000e-02
1430 1429 -1.4293440690423001e-04
1434 1429 -1.6666666666667000e-02
1418 1430 -5.3467435309339996e-04
1425 1430 -1.6666666666667000e-02
1426 1430 -6.6666666666667001e-03
1427 1430 -6.6666666666667001e-03
1428 1430 -1.4327965999316999e-04
1429 1430 -1.3523653492217001e-04
1430 1430 3.1895147956417999e-02
1431 1430 -3.3480161899824000e-04
1418 1431 -4.8744586764736003e-04
1430 1431 -4.0646935364868002e-04
1431 1431 8.6884537802918993e-03
1434 1431 -6.6666666666667001e-03
1417 1432 -6.6666666666667001e-03
1432 1432 8.7840169858596998e-03
1433 1432 -6.7068366382836995e-05
1434 1432 -5.3009383470479002e-04
1432 1433 -3.4137436557068000e-06
1433 1433 7.7046947229690004e-03
1434 1433 -1.6236583248223000e-04
1435 1433 -6.6666666666667001e-03
1413 1434 -8.0740287367933995e-04
1414 1434 1.1320025090134001e-05
1429 1434 -1.6666666666667000e-02
1431 1434 -6.6666666666667001e-03
1432 1434 -5.7602123246511001e-04
1433 1434 -1.1166018992388001e-04
1434 1434 2.5381140734703000e-02
1407 1435 -7.2740026583266004e-04
1408 1435 -4.3491685500089000e-04
1409 1435 -4.3523097861720999e-04
1410 1435 3.9718843443669997e-05
1412 1435 -1.6666666666667000e-02
1414 1435 -1.6666666666667000e-02
1433 1435 -6.6666666666667001e-03
1435 1435 4.2162868145379000e-02
1436 1436 8.2271755945956000e-03
1439 1436 -6.3037264305824000e-10
1504 1436 -1.6462177669715000e-04
1437 1437 1.9389715778736001e-02
1438 1437 -1.2558415981832000e-03
1504 1437 -4.3459635339178002e-04
1437 1438 -1.2036275900076999e-03
1438 1438 1.9476661046336999e-02
1440 1438 -1.6666666666667000e-02
1504 1438 -4.3554171649301001e-04
1436 1439 -4.2695566836783003e-12
1439 1439 7.5563850881992002e-03
1440 1439 -6.6666666666667001e-03
1504 1439 -1.6206418832197001e-04
1411 1440 -1.3984338919235999e-04
1412 1440 -1.3867280572298001e-04
1415 1440 -4.3467135346997998e-04
1416 1440 -4.3544311788171999e-04
1438 1440 -1.6666666666667000e-02
1439 1440 -6.6666666666667001e-03
1440 1440 2.5697388375727999e-02
1441 1441 9.2677014614776006e-03
1442 1441 -6.2484656595755998e-04
4780 1441 -4.3509766597692000e-04
1441 1442 -6.7334712371335003e-04
1442 1442 9.2174513737044994e-03
1504 1442 -6.6666666666667001e-03
4780 1442 -4.3500070964125998e-04
1443 1443 8.2272089611324008e-03
1444 1443 -3.1726764689469001e-10
4777 1443 -1.6427646359820999e-04
1443 1444 -3.0154050278988998e-10
1444 1444 8.2259030732524004e-03
1504 1444 -6.6666666666667001e-03
4777 1444 -1.6422143709246000e-04
1445 1445 9.1904969781905002e-03
1448 1445 -6.4134162712301001e-04
1498 1445 -4.3469712689232000e-04
1446 1446 1.7818957982474001e-02
1447 1446 -5.6748245400334001e-06
1498 1446 -1.5858736904519999e-04
1446 1447 -1.1722451774872000e-07
1447 1447 1.7296057237290999e-02
1498 1447 -1.4260272861115001e-04
4777 1447 -1.6666666666667000e-02
1445 1448 -6.0267568180275000e-04
1448 1448 9.2456948716172008e-03
1498 1448 -4.3540064202834998e-04
4777 1448 -6.6666666666667001e-03
1449 1449 9.2604376160510000e-03
1461 1449 -4.3645459416452999e-04
1462 1449 -6.2019275994149004e-04
1450 1450 8.2271187744355993e-03
1451 1450 -2.2206953473863999e-10
1450 1451 -7.7416980670339996e-12
1451 1451 8.1916818627231006e-03
1467 1451 -6.6666666666667001e-03
1452 1452 8.2271771289531993e-03
1455 1452 -6.0651517066825004e-10
1453 1453 1.9463232892843001e-02
1454 1453 -1.1815182736807000e-03
1453 1454 -1.2548313256595001e-03
1454 1454 1.9384989813705001e-02
1461 1454 -1.6666666666667000e-02
1452 1455 -4.1091064419498003e-12
1455 1455 7.5574124685062003e-03
1461 1455 -6.6666666666667001e-03
1456 1456 1.7814568241886000e-02
1457 1456 -1.0745112657111999e-06
1461 1456 -1.4170707401660001e-04
1456 1457 -2.2898883575383000e-08
1457 1457 1.7334868098895999e-02
1458 1457 -1.6666666666667000e-02
1461 1457 -1.3975572113413001e-04
1457 1458 -1.6666666666667000e-02
1458 1458 3.3333333333333000e-02
1459 1458 -1.6666666666667000e-02
1458 1459 -1.6666666666667000e-02
1459 1459 1.7863589134397999e-02
1460 1459 -1.3392269893449001e-04
1459 1460 -2.4489577368919000e-05
1460 1460 1.7308148035804001e-02
1467 1460 -1.6666666666667000e-02
1449 1461 -4.4079339987408998e-04
1454 1461 -1.6666666666667000e-02
1455 1461 -6.6666666666667001e-03
1456 1461 -1.4010366936597000e-04
1457 1461 -1.3841252554937000e-04
1461 1461 2.5661473113815999e-02
1462 1461 -4.2952730076695000e-04
1449 1462 -6.6063521142009998e-04
1461 1462 -4.3363378974190002e-04
1462 1462 9.1715107130020002e-03
1467 1462 -6.6666666666667001e-03
1463 1463 8.2271657711199004e-03
1466 1463 -1.6404963552708000e-09
1467 1463 -1.6513529790030001e-04
1464 1464 1.9375472411164000e-02
1465 1464 -1.2417853121018999e-03
1467 1464 -4.3475025839796001e-04
1464 1465 -1.1826349749054000e-03
1465 1465 1.9458079095091001e-02
1467 1465 -4.3538819975357001e-04
1473 1465 -1.6666666666667000e-02
1463 1466 -1.1274128380397999e-11
1466 1466 7.5566632753143997e-03
1467 1466 -1.6216768905895999e-04
1473 1466 -6.6666666666667001e-03
1451 1467 -6.6666666666667001e-03
1460 1467 -1.6666666666667000e-02
1462 1467 -6.6666666666667001e-03
1463 1467 -1.6142491605693001e-04
1464 1467 -4.3245717833493002e-04
1465 1467 -4.3774165179510997e-04
1466 1467 -1.6142257631897999e-04
1467 1467 3.1969324485459000e-02
1468 1468 9.2178046469003003e-03
1469 1468 -5.9786563433025005e-04
1473 1468 -4.5092678065811003e-04
1468 1469 -5.6519669959336004e-04
1469 1469 8.8411902220059003e-03
1470 1469 -6.6666666666667001e-03
1473 1469 -4.1776680214706998e-04
1469 1470 -6.6666666666667001e-03
1470 1470 1.3333333333332999e-02
1497 1470 -6.6666666666667001e-03
1471 1471 1.7813994444250001e-02
1472 1471 -4.9937540690158004e-07
1473 1471 -1.3993285251418999e-04
1471 1472 -3.0650412616240000e-08
1472 1472 1.7703679431447999e-02
1473 1472 -1.3972058088421001e-04
1498 1472 -1.6666666666667000e-02
1465 1473 -1.6666666666667000e-02
1466 1473 -6.6666666666667001e-03
1468 1473 -4.9873375280220004e-04
1469 1473 -3.7213527569588003e-04
1471 1473 -1.3960748171355000e-04
1472 1473 -1.3890871320179000e-04
1473 1473 2.5768296274294999e-02
1474 1474 9.2028920964922992e-03
1486 1474 -4.5883792707147999e-04
1487 1474 -5.8808506025529003e-04
1475 1475 8.2271768268474006e-03
1476 1475 -3.0318728577257001e-10
1475 1476 -3.4930142702102998e-12
1476 1476 7.9004460936018001e-03
1491 1476 -6.6666666666667001e-03
1477 1477 8.2272577421730001e-03
1480 1477 -6.0778904457670998e-10
1478 1478 1.9457579410893999e-02
1479 1478 -1.1808127160936000e-03
1478 1479 -1.2388003143074999e-03
1479 1479 1.9348587839923000e-02
1486 1479 -1.6666666666667000e-02
1477 1480 -4.1002167490924001e-12
1480 1480 7.5593330679765000e-03
1486 1480 -6.6666666666667001e-03
1481 1481 1.7814816977168000e-02
1482 1481 -1.3222312141667001e-06
1486 1481 -1.4463978982467000e-04
1481 1482 -2.9071239092579000e-08
1482 1482 1.7346097140194999e-02
1483 1482 -1.6666666666667000e-02
1486 1482 -1.4040121222971000e-04
1482 1483 -1.6666666666667000e-02
1483 1483 3.3333333333333000e-02
1484 1483 -1.6666666666667000e-02
1483 1484 -1.6666666666667000e-02
1484 1484 1.7947510293064999e-02
1485 1484 -2.4514397955006998e-04
1484 1485 -1.9396809731690999e-04
1485 1485 1.7702916214269001e-02
1491 1485 -1.6666666666667000e-02
1474 1486 -5.3601366381939995e-04
1479 1486 -1.6666666666667000e-02
1480 1486 -6.6666666666667001e-03
1481 1486 -1.4029687535504001e-04
1482 1486 -1.3821931956029999e-04
1486 1486 2.5239253873908001e-02
1487 1486 -3.3370207478392998e-04
1474 1487 -5.1229546980152999e-04
1486 1487 -4.0793848021888999e-04
1487 1487 8.7108485884661007e-03
1491 1487 -6.6666666666667001e-03
1488 1488 8.7977679204175006e-03
1491 1488 -5.2981374940510001e-04
1492 1488 -8.3825682428131994e-05
1489 1489 1.9158607538382999e-02
1490 1489 -9.2537980064358002e-04
1491 1489 -4.6564667966470999e-04
1489 1490 -7.5038038043690998e-04
1490 1490 1.8607923514751001e-02
1491 1490 -4.0041371040385002e-04
1495 1490 -1.6666666666667000e-02
1476 1491 -6.6666666666667001e-03
1485 1491 -1.6666666666667000e-02
1487 1491 -6.6666666666667001e-03
1488 1491 -5.8948576531996999e-04
1489 1491 -6.2641976905852999e-04
1490 1491 -2.4242252113918999e-04
1491 1491 3.2170708759077002e-02
1492 1491 -9.8195657069024994e-05
1488 1492 -3.2093075828262998e-06
1491 1492 -1.6214434530445999e-04
1492 1492 7.6009233173983002e-03
1495 1492 -6.6666666666667001e-03
1493 1493 1.8442102456166998e-02
1494 1493 -8.9416539499608994e-05
1495 1493 -5.4616077892573995e-04
1493 1494 -2.4024621021828000e-05
1494 1494 1.7713773658895999e-02
1495 1494 -1.4744284839753001e-04
1498 1494 -1.6666666666667000e-02
1490 1495 -1.6666666666667000e-02
1492 1495 -6.6666666666667001e-03
1493 1495 -5.9771312520216996e-04
1494 1495 -7.5218129186766994e-05
1495 1495 2.5283374015407999e-02
1496 1495 3.7815945741889997e-05
1497 1495 -7.2549736813088002e-04
1495 1496 -1.6292768029012999e-04
1496 1496 7.6108336928183001e-03
1497 1496 -4.1635063385269998e-05
1498 1496 -6.6666666666667001e-03
1470 1497 -6.6666666666667001e-03
1495 1497 -5.3023064566409003e-04
1496 1497 -2.6982734727638998e-04
1497 1497 8.6600913674279995e-03
1445 1498 -4.3362401634101000e-04
1446 1498 -1.4388937544550001e-04
1447 1498 -1.3462681946983999e-04
1448 1498 -4.3653366425362001e-04
1472 1498 -1.6666666666667000e-02
1494 1498 -1.6666666666667000e-02
1496 1498 -6.6666666666667001e-03
1498 1498 4.1889682869410999e-02
1499 1499 1.9467152414485999e-02
1500 1499 -1.1850409573858000e-03
4777 1499 -4.3508501045956002e-04
1499 1500 -1.2598051752012000e-03
1500 1500 1.9391686682971001e-02
1501 1500 -1.6666666666667000e-02
4777 1500 -4.3505377289206998e-04
1500 1501 -1.6666666666667000e-02
1501 1501 3.3333333333333000e-02
1502 1501 -1.6666666666667000e-02
1501 1502 -1.6666666666667000e-02
1502 1502 1.7814255889938999e-02
1503 1502 -1.0769676840468999e-06
4780 1502 -1.4019096495897001e-04
1502 1503 -2.1226524191565000e-08
1503 1503 1.7296491675755001e-02
1504 1503 -1.6666666666667000e-02
4780 1503 -1.3941995033011999e-04
1436 1504 -1.6142419305502999e-04
1437 1504 -4.3113819096397002e-04
1438 1504 -4.3908952323442002e-04
1439 1504 -1.6142329932087999e-04
1442 1504 -6.6666666666667001e-03
1444 1504 -6.6666666666667001e-03
1503 1504 -1.6666666666667000e-02
1504 1504 3.2099154362546997e-02
1505 1505 1.9464054070068001e-02
1506 1505 -1.1819687388984999e-03
1514 1505 -4.3508119338527999e-04
1505 1506 -1.2567268873044000e-03
1506 1506 1.9388767429650001e-02
1507 1506 -1.6666666666667000e-02
1514 1506 -4.3505759029809998e-04
1506 1507 -1.6666666666667000e-02
1507 1507 3.3333333333333000e-02
4759 1507 -1.6666666666667000e-02
1508 1508 9.2178430040705996e-03
1511 1508 -6.7175930232247995e-04
4760 1508 -4.3501679772469997e-04
1509 1509 1.7814660255090001e-02
1510 1509 -1.2169622625456000e-06
4760 1509 -1.4168850470843000e-04
1509 1510 -2.4050899273356000e-08
1510 1510 1.7296372977098001e-02
1514 1510 -1.6666666666667000e-02
4760 1510 -1.3967912776788999e-04
1508 1511 -6.2405843107994001e-04
1511 1511 9.2671550960926000e-03
1514 1511 -6.6666666666667001e-03
4760 1511 -4.3508158441537002e-04
1512 1512 8.2271935965474996e-03
1513 1512 -3.9128860681210001e-10
1514 1512 -1.6436648683754000e-04
1512 1513 -3.8825423080743002e-10
1513 1513 8.2270054802317995e-03
1514 1513 -1.6434118500113001e-04
4758 1513 -6.6666666666667001e-03
1505 1514 -4.3516971990437001e-04
1506 1514 -4.3497127263718001e-04
1510 1514 -1.6666666666667000e-02
1511 1514 -6.6666666666667001e-03
1512 1514 -1.6142374811759999e-04
1513 1514 -1.6142374425831001e-04
1514 1514 2.5564815165201000e-02
1515 1515 8.2271906660175004e-03
1518 1515 -5.9671520584723997e-10
4755 1515 -1.6461017159475000e-04
1516 1516 1.9463944123302001e-02
1517 1516 -1.1818317052155001e-03
4755 1516 -4.3507509598326001e-04
1516 1517 -1.2566775564077000e-03
1517 1517 1.9388842828025998e-02
1534 1517 -1.6666666666667000e-02
4755 1517 -4.3506368803914998e-04
1515 1518 -4.0370721586629999e-12
1518 1518 7.5572286014651000e-03
1534 1518 -6.6666666666667001e-03
4755 1518 -1.6205986350032001e-04
1519 1519 1.9463369489690002e-02
1520 1519 -1.1812225604373001e-03
1532 1519 -4.3506946360429000e-04
1519 1520 -1.2561431953222999e-03
1520 1520 1.9388445652278999e-02
1521 1520 -1.6666666666667000e-02
1532 1520 -4.3506932052142999e-04
1520 1521 -1.6666666666667000e-02
1521 1521 2.3854346543977001e-02
1523 1521 -6.6666666666667001e-03
1522 1522 8.2271772563403001e-03
1523 1522 -6.2184159757544996e-10
1532 1522 -1.6461546548962000e-04
1521 1523 -6.6666666666667001e-03
1522 1523 -4.2137974245361001e-12
1523 1523 7.5572177843104002e-03
1532 1523 -1.6206455413590999e-04
1524 1524 1.7814705842452001e-02
1525 1524 -1.2129550475044000e-06
1539 1524 -1.4164036625759999e-04
1524 1525 -2.3971252593931000e-08
1525 1525 1.7296473566421999e-02
1532 1525 -1.6666666666667000e-02
1539 1525 -1.3967088973021000e-04
1526 1526 1.7814707104958000e-02
1527 1526 -1.2145344919860999e-06
1534 1526 -1.4165767643390000e-04
1526 1527 -2.4003394713495999e-08
1527 1527 1.7296473580419001e-02
1532 1527 -1.6666666666667000e-02
1534 1527 -1.3967388965551000e-04
1528 1528 9.2658276355633007e-03
1529 1528 -6.2285857541514002e-04
1539 1528 -4.3506611510221000e-04
1528 1529 -6.7147762444470002e-04
1529 1529 9.2165999969621003e-03
1530 1529 -6.6666666666667001e-03
1539 1529 -4.3503227085808999e-04
1529 1530 -6.6666666666667001e-03
1530 1530 1.3333333333332999e-02
1531 1530 -6.6666666666667001e-03
1530 1531 -6.6666666666667001e-03
1531 1531 9.2651555623633995e-03
1533 1531 -6.2278436928144996e-04
1534 1531 -4.3506655071065997e-04
1519 1532 -4.3506999979393000e-04
1520 1532 -4.3506879772862002e-04
1522 1532 -1.6142418694731000e-04
1523 1532 -1.6142330542860000e-04
1525 1532 -1.6666666666667000e-02
1527 1532 -1.6666666666667000e-02
1532 1532 4.1983414531645002e-02
1533 1532 -6.6666666666667001e-03
1531 1533 -6.7133292341138996e-04
1532 1533 -6.6666666666667001e-03
1533 1533 9.2159835073093999e-03
1534 1533 -4.3503183517466001e-04
1517 1534 -1.6666666666667000e-02
1518 1534 -6.6666666666667001e-03
1526 1534 -1.4023067570095000e-04
1527 1534 -1.3828551921439000e-04
1531 1534 -4.3512036573442999e-04
1533 1534 -4.3498094109188000e-04
1534 1534 2.5686183504841999e-02
1535 1535 8.2271775403454008e-03
1538 1535 -6.0992258195783003e-10
4758 1535 -1.6460521533459999e-04
1536 1536 1.9463653634854999e-02
1537 1536 -1.1815016419811000e-03
4758 1536 -4.3506962909063002e-04
1536 1537 -1.2564260097221000e-03
1537 1537 1.9388718653699000e-02
1539 1537 -1.6666666666667000e-02
4758 1537 -4.3506915503492999e-04
1535 1538 -4.1317419773170002e-12
1538 1538 7.5572180951629002e-03
1539 1538 -6.6666666666667001e-03
4758 1538 -1.6206241643405001e-04
1524 1539 -1.4022939551303000e-04
1525 1539 -1.3828679940230000e-04
1528 1539 -4.3511859464204000e-04
1529 1539 -4.3498264082292000e-04
1537 1539 -1.6666666666667000e-02
1538 1539 -6.6666666666667001e-03
1539 1539 2.5658197727750999e-02
1540 1540 9.2658545806861992e-03
1541 1540 -6.2286416638621003e-04
4757 1540 -4.3505625250979998e-04
1540 1541 -6.7154214282492996e-04
1541 1541 9.2169226581495997e-03
4757 1541 -4.3504213463600001e-04
4758 1541 -6.6666666666667001e-03
1542 1542 8.9843601162341996e-03
1545 1542 -3.4646180241618997e-04
1570 1542 -4.5243851678734002e-04
1543 1543 1.8721870828880001e-02
1544 1543 -4.3837420721045003e-04
1570 1543 -5.5838535565162003e-04
1543 1544 -4.8136118686399001e-05
1544 1544 1.7350550123523999e-02
1570 1544 -1.4397283278804000e-04
4740 1544 -1.6666666666667000e-02
1542 1545 -3.4582697427536002e-04
1545 1545 8.7452452480093999e-03
1570 1545 -4.1592698543747999e-04
4740 1545 -6.6666666666667001e-03
1546 1546 1.7814403511654000e-02
1547 1546 -9.0974761950902000e-07
1575 1546 -1.4181500044560999e-04
1546 1547 -2.2825919269908001e-08
1547 1547 1.7407889120992000e-02
1570 1547 -1.6666666666667000e-02
1575 1547 -1.3994136722613999e-04
1548 1548 1.7814558414914000e-02
1549 1548 -1.0631664836633000e-06
1569 1548 -1.4359763056473999e-04
1548 1549 -2.6813181184315999e-08
1549 1549 1.7407893525524999e-02
1569 1549 -1.4041772665269000e-04
1570 1549 -1.6666666666667000e-02
1550 1550 9.2101739911966997e-03
1551 1550 -5.9468622025412004e-04
1575 1550 -4.5697815460487998e-04
1550 1551 -5.2630195340297003e-04
1551 1551 8.7402240951868007e-03
1552 1551 -6.6666666666667001e-03
1575 1551 -4.1033254015917999e-04
1551 1552 -6.6666666666667001e-03
1552 1552 1.3333333333332999e-02
1567 1552 -6.6666666666667001e-03
1553 1553 8.2272124856255999e-03
1565 1553 -1.6514151193438000e-04
1566 1553 -1.5268625619121000e-09
1554 1554 9.2593681379259003e-03
1562 1554 -6.2062204281113000e-04
1555 1555 9.2593681379259003e-03
1561 1555 -6.2062204281113000e-04
1556 1556 1.7814408013405000e-02
1557 1556 -9.2586284060053004e-07
1556 1557 -1.3465755699285001e-06
1557 1557 1.7826500893199999e-02
1558 1557 -1.6666666666667000e-02
1557 1558 -1.6666666666667000e-02
1558 1558 3.3333333333333000e-02
1559 1558 -1.6666666666667000e-02
1558 1559 -1.6666666666667000e-02
1559 1559 1.7827197713574001e-02
1560 1559 -1.8951776245505001e-06
1559 1560 -2.8094976338408999e-08
1560 1560 1.7298203007198001e-02
1565 1560 -1.6666666666667000e-02
1555 1561 -6.6133029450240002e-04
1561 1561 9.1727202910180002e-03
1565 1561 -6.6666666666667001e-03
1554 1562 -6.6133029450240002e-04
1562 1562 9.1727202910180002e-03
1565 1562 -6.6666666666667001e-03
1563 1563 1.9445691747970999e-02
1564 1563 -1.1676906068568999e-03
1565 1563 -4.3606431288895000e-04
1563 1564 -1.2282633741771999e-03
1564 1564 1.9342306688631000e-02
1565 1564 -4.3407124088881000e-04
1569 1564 -1.6666666666667000e-02
1553 1565 -1.6142483167340001e-04
1560 1565 -1.6666666666667000e-02
1561 1565 -6.6666666666667001e-03
1562 1565 -6.6666666666667001e-03
1563 1565 -4.4339512705840998e-04
1564 1565 -4.2692213260236002e-04
1565 1565 3.1970307096400002e-02
1566 1565 -1.6142266070251000e-04
1553 1566 -1.0475667472863000e-11
1565 1566 -1.6216545620022999e-04
1566 1566 7.5589448525797001e-03
1569 1566 -6.6666666666667001e-03
1552 1567 -6.6666666666667001e-03
1567 1567 8.5931445174419006e-03
1568 1567 -2.9563277089241999e-04
1569 1567 -4.9348976002287998e-04
1567 1568 -1.7438997981756999e-04
1568 1568 8.0874533584614008e-03
1569 1568 -3.4913835853942003e-04
1570 1568 -6.6666666666667001e-03
1548 1569 -1.4007379097544001e-04
1549 1569 -1.3844240393989999e-04
1564 1569 -1.6666666666667000e-02
1566 1569 -6.6666666666667001e-03
1567 1569 -5.9844349975527995e-04
1568 1569 -2.4611621118054999e-04
1569 1569 2.5304021180174000e-02
1542 1570 -4.6787367647195001e-04
1543 1570 -9.0084062181442002e-04
1544 1570 2.2790936742548000e-04
1545 1570 -4.0279847719606001e-04
1547 1570 -1.6666666666667000e-02
1549 1570 -1.6666666666667000e-02
1568 1570 -6.6666666666667001e-03
1570 1570 4.2140452029212003e-02
1571 1571 8.2271877726185997e-03
1574 1571 -5.8824896693223999e-10
1639 1571 -1.6459923353607999e-04
1572 1572 1.9462839531630999e-02
1573 1572 -1.1818637544328001e-03
1639 1572 -4.3536244442248998e-04
1572 1573 -1.2525259957848001e-03
1573 1573 1.9379153364612000e-02
1575 1573 -1.6666666666667000e-02
1639 1573 -4.3477606501823000e-04
1571 1574 -3.9814796198070998e-12
1574 1574 7.5577356489664000e-03
1575 1574 -6.6666666666667001e-03
1639 1574 -1.6205945101268999e-04
1546 1575 -1.3995466126173999e-04
1547 1575 -1.3856153365360001e-04
1550 1575 -5.2925922122254996e-04
1551 1575 -3.4082730103034001e-04
1573 1575 -1.6666666666667000e-02
1574 1575 -6.6666666666667001e-03
1575 1575 2.5604492287599000e-02
1576 1576 9.2178491365353995e-03
1577 1576 -6.7175749757954998e-04
4760 1576 -4.3501071062614999e-04
1576 1577 -6.2420504488773997e-04
1577 1577 9.2673151898456999e-03
1639 1577 -6.6666666666667001e-03
4760 1577 -4.3508766935431001e-04
1578 1578 9.2172122169681993e-03
1579 1578 -6.7158899925450996e-04
4757 1578 -4.3501069917059999e-04
1578 1579 -6.2381856175482001e-04
1579 1579 9.2668988049668007e-03
1639 1579 -6.6666666666667001e-03
4757 1579 -4.3508768080415000e-04
1580 1580 8.2271766770396007e-03
1583 1580 -6.2419412988860998e-10
1633 1580 -1.6461740976955001e-04
1581 1581 1.9463302840650998e-02
1582 1581 -1.1811664018850001e-03
1633 1581 -4.3507198629839000e-04
1581 1582 -1.2560489699919000e-03
1582 1582 1.9388304156968999e-02
1633 1582 -4.3506679780597001e-04
4757 1582 -1.6666666666667000e-02
1580 1583 -4.2300304966417002e-12
1583 1583 7.5572221300503001e-03
1633 1583 -1.6206498351918001e-04
4757 1583 -6.6666666666667001e-03
1584 1584 8.2267916006112992e-03
1596 1584 -1.6745307190849001e-04
1597 1584 -2.8765638698906999e-07
1585 1585 9.2158090298132007e-03
1586 1585 -6.7111853860703002e-04
1585 1586 -6.2809223122996000e-04
1586 1586 9.2716831153948007e-03
1602 1586 -6.6666666666667001e-03
1587 1587 9.2317944418601004e-03
1590 1587 -6.0628834794351002e-04
1588 1588 1.7814949594545000e-02
1589 1588 -1.1634262407481999e-06
1588 1589 -2.3346642981301998e-08
1589 1589 1.7309819116532999e-02
1596 1589 -1.6666666666667000e-02
1587 1590 -6.0100664487979004e-04
1590 1590 8.9523158938970993e-03
1596 1590 -6.6666666666667001e-03
1591 1591 1.9362092634507999e-02
1592 1591 -1.0849224897299999e-03
1596 1591 -4.3556687465034003e-04
1591 1592 -1.1508647385254000e-03
1592 1592 1.9276323829713001e-02
1593 1592 -1.6666666666667000e-02
1596 1592 -4.3457108871367001e-04
1592 1593 -1.6666666666667000e-02
1593 1593 3.3333333333333000e-02
1594 1593 -1.6666666666667000e-02
1593 1594 -1.6666666666667000e-02
1594 1594 1.7805654691500999e-02
1595 1594 -1.0636731356238001e-06
1594 1595 -2.1360939223613001e-08
1595 1595 1.7296098473263001e-02
1602 1595 -1.6666666666667000e-02
1584 1596 -1.6134120572517001e-04
1589 1596 -1.6666666666667000e-02
1590 1596 -6.6666666666667001e-03
1591 1596 -4.3886630952216001e-04
1592 1596 -4.3136475699467999e-04
1596 1596 2.5498006788480999e-02
1597 1596 -1.6150628665073999e-04
1584 1597 -5.1077271407099995e-07
1596 1597 -1.7456624910713999e-04
1597 1597 8.2350397464125008e-03
1602 1597 -6.6666666666667001e-03
1598 1598 8.2271265756180007e-03
1601 1598 -5.0856211457528997e-10
1602 1598 -1.6450503556199000e-04
1599 1599 1.9391524681311001e-02
1600 1599 -1.2591375589696000e-03
1602 1599 -4.3504828661535000e-04
1599 1600 -1.1852997859517001e-03
1600 1600 1.9466988956054001e-02
1602 1600 -4.3509049609645998e-04
1608 1600 -1.6666666666667000e-02
1598 1601 -3.4359244783405999e-12
1601 1601 7.5571769549845997e-03
1602 1601 -1.6204239912866999e-04
1608 1601 -6.6666666666667001e-03
1586 1602 -6.6666666666667001e-03
1595 1602 -1.6666666666667000e-02
1597 1602 -6.6666666666667001e-03
1598 1602 -1.6142410622206000e-04
1599 1602 -4.3489350875788001e-04
1600 1602 -4.3524922730077002e-04
1601 1602 -1.6142338615386000e-04
1602 1602 3.1986697371226003e-02
1603 1603 9.2658908087013998e-03
1604 1603 -6.2294139975606995e-04
1608 1603 -4.3507103456993002e-04
1603 1604 -6.7153331795246002e-04
1604 1604 9.2165133390686993e-03
1605 1604 -6.6666666666667001e-03
1608 1604 -4.3502735043449001e-04
1604 1605 -6.6666666666667001e-03
1605 1605 1.3333333333332999e-02
1632 1605 -6.6666666666667001e-03
1606 1606 1.7814700881665001e-02
1607 1606 -1.2067557813316001e-06
1608 1606 -1.4157263353110000e-04
1606 1607 -2.3845435552102999e-08
1607 1607 1.7296480684697999e-02
1608 1607 -1.3965916385391000e-04
1633 1607 -1.6666666666667000e-02
1600 1608 -1.6666666666667000e-02
1601 1608 -6.6666666666667001e-03
1603 1608 -4.3513878898690999e-04
1604 1608 -4.3496327362200002e-04
1606 1608 -1.4022436793816999e-04
1607 1608 -1.3829182697717001e-04
1608 1608 2.5660677336141999e-02
1609 1609 8.2272804387213006e-03
1621 1609 -1.6682590361144999e-04
1622 1609 -6.9272743723104994e-08
1610 1610 9.2156996026761008e-03
1611 1610 -6.7119954846287997e-04
1610 1611 -6.2499254114862005e-04
1611 1611 9.2682062188173993e-03
1626 1611 -6.6666666666667001e-03
1612 1612 9.2385141361000008e-03
1615 1612 -6.1014024363615998e-04
1613 1613 1.7814974684234000e-02
1614 1613 -1.1785066886200001e-06
1613 1614 -2.3502693776521002e-08
1614 1614 1.7306682905572999e-02
1621 1614 -1.6666666666667000e-02
1612 1615 -6.1635939001390997e-04
1615 1615 9.0031423519740996e-03
1621 1615 -6.6666666666667001e-03
1616 1616 1.9384816297308000e-02
1617 1616 -1.1066288884258001e-03
1621 1616 -4.3546086746946999e-04
1616 1617 -1.1743814465531000e-03
1617 1617 1.9301040968614999e-02
1618 1617 -1.6666666666667000e-02
1621 1617 -4.3467741306502003e-04
1617 1618 -1.6666666666667000e-02
1618 1618 3.3333333333333000e-02
1619 1618 -1.6666666666667000e-02
1618 1619 -1.6666666666667000e-02
1619 1619 1.7807374471590001e-02
1620 1619 -1.0903244972175001e-06
1619 1620 -2.1834267013759999e-08
1620 1620 1.7296278332008998e-02
1626 1620 -1.6666666666667000e-02
1609 1621 -1.6141734321398999e-04
1614 1621 -1.6666666666667000e-02
1615 1621 -6.6666666666667001e-03
1616 1621 -4.3813323001833999e-04
1617 1621 -4.3207830065801001e-04
1621 1621 2.5160008286301001e-02
1622 1621 -1.6143014916191999e-04
1609 1622 -8.7529741333732997e-08
1621 1622 -1.7016231775105999e-04
1622 1622 8.2304226646454006e-03
1626 1622 -6.6666666666667001e-03
1623 1623 8.2271161567105001e-03
1626 1623 -1.6455784639687001e-04
1627 1623 -5.5937955365615997e-10
1624 1624 1.9390210435443998e-02
1625 1624 -1.2577391848500000e-03
1626 1624 -4.3503710402024000e-04
1624 1625 -1.1845145099294999e-03
1625 1625 1.9465916662298001e-02
1626 1625 -4.3510167679429001e-04
1630 1625 -1.6666666666667000e-02
1611 1626 -6.6666666666667001e-03
1620 1626 -1.6666666666667000e-02
1622 1626 -6.6666666666667001e-03
1623 1626 -1.6142414243497001e-04
1624 1626 -4.3480071302442000e-04
1625 1626 -4.3534411897762999e-04
1626 1626 3.1985102368440002e-02
1627 1626 -1.6142334994094000e-04
1623 1627 -3.7846413691379999e-12
1626 1627 -1.6205297633048999e-04
1627 1627 7.5571565540428001e-03
1630 1627 -6.6666666666667001e-03
1628 1628 1.7814697860293001e-02
1629 1628 -1.2036291493482999e-06
1630 1628 -1.4153830415585000e-04
1628 1629 -2.3781847812999000e-08
1629 1629 1.7296480625776999e-02
1630 1629 -1.3965321505570000e-04
1633 1629 -1.6666666666667000e-02
1625 1630 -1.6666666666667000e-02
1627 1630 -6.6666666666667001e-03
1628 1630 -1.4022183445020999e-04
1629 1630 -1.3829436046513001e-04
1630 1630 2.5372837226713001e-02
1631 1630 -4.3498010929993001e-04
1632 1630 -4.3512123141434999e-04
1630 1631 -4.3503162961949001e-04
1631 1631 9.2159512647570999e-03
1632 1631 -6.7146222422869003e-04
1633 1631 -6.6666666666667001e-03
1605 1632 -6.6666666666667001e-03
1630 1632 -4.3506675622983002e-04
1631 1632 -6.2292961761778996e-04
1632 1632 9.2651147562953003e-03
1580 1633 -1.6142418862870000e-04
1581 1633 -4.3509142827008999e-04
1582 1633 -4.3504784160088001e-04
1583 1633 -1.6142330374721000e-04
1607 1633 -1.6666666666667000e-02
1629 1633 -1.6666666666667000e-02
1631 1633 -6.6666666666667001e-03
1633 1633 4.1983353178868997e-02
1634 1634 1.7814014100006999e-02
1635 1634 -5.1809772441270004e-07
4757 1634 -1.4041974191399999e-04
1634 1635 -4.9736768171530997e-08
1635 1635 1.7749249265121999e-02
1636 1635 -1.6666666666667000e-02
4757 1635 -1.4018195838035001e-04
1635 1636 -1.6666666666667000e-02
1636 1636 3.3333333333333000e-02
1637 1636 -1.6666666666667000e-02
1636 1637 -1.6666666666667000e-02
1637 1637 1.7749586641028998e-02
1638 1637 -4.2870842639072999e-07
4760 1637 -1.4132824272476000e-04
1637 1638 -9.5137704979880995e-09
1638 1638 1.7296353151124998e-02
1639 1638 -1.6666666666667000e-02
4760 1638 -1.3970898174010999e-04
1571 1639 -1.6142416266362001e-04
1572 1639 -4.3755998866047002e-04
1573 1639 -4.3263294980389999e-04
1574 1639 -1.6142332971229000e-04
1577 1639 -6.6666666666667001e-03
1579 1639 -6.6666666666667001e-03
1638 1639 -1.6666666666667000e-02
1639 1639 3.2100272875676003e-02
1640 1640 1.7813975163927000e-02
1641 1640 -4.7383044063967998e-07
1649 1640 -1.3980568032673999e-04
1640 1641 -4.5750856138025002e-08
1641 1641 1.7749642349471999e-02
1642 1641 -1.6666666666667000e-02
1649 1641 -1.3967719678533000e-04
1641 1642 -1.6666666666667000e-02
1642 1642 3.3333333333333000e-02
4739 1642 -1.6666666666667000e-02
1643 1643 8.2267672770825993e-03
1646 1643 -7.7390355988112000e-08
4740 1643 -1.6700189396864001e-04
1644 1644 1.9321065033079000e-02
1645 1644 -1.1851981538280999e-03
4740 1644 -4.3464437961438998e-04
1644 1645 -1.1314796279232001e-03
1645 1645 1.9403872692943001e-02
1649 1645 -1.6666666666667000e-02
4740 1645 -4.3549381511302998e-04
1643 1646 -5.6343227138405997e-10
1646 1646 7.5564975785069001e-03
1649 1646 -6.6666666666667001e-03
4740 1646 -1.6254237567082000e-04
1647 1647 9.2674812002876000e-03
1648 1647 -6.2449498562918999e-04
1649 1647 -4.3506186750014999e-04
1647 1648 -6.7320219029489000e-04
1648 1648 9.2183164281598000e-03
1649 1648 -4.3503651909041998e-04
4738 1648 -6.6666666666667001e-03
1640 1649 -1.3957554188806000e-04
1641 1649 -1.3894065302728000e-04
1645 1649 -1.6666666666667000e-02
1646 1649 -6.6666666666667001e-03
1647 1649 -4.3510136843634000e-04
1648 1649 -4.3499915212711000e-04
1649 1649 2.5782676050662000e-02
1650 1650 9.2683524017062001e-03
1653 1650 -6.2545573799495998e-04
4735 1650 -4.3509816496081999e-04
1651 1651 1.7814549658700000e-02
1652 1651 -1.0462371300689000e-06
4735 1651 -1.3985151856771001e-04
1651 1652 -2.0584340032439000e-08
1652 1652 1.7296491733666999e-02
1669 1652 -1.6666666666667000e-02
4735 1652 -1.3935516173740000e-04
1650 1653 -6.7398065604890001e-04
1653 1653 9.2180574153189997e-03
1669 1653 -6.6666666666667001e-03
4735 1653 -4.3500021041443002e-04
1654 1654 1.7814705494348999e-02
1655 1654 -1.2125963027319000e-06
1667 1654 -1.4163475972117000e-04
1654 1655 -2.3962392470189000e-08
1655 1655 1.7296439467183001e-02
1656 1655 -1.6666666666667000e-02
1667 1655 -1.3966985763070000e-04
1655 1656 -1.6666666666667000e-02
1656 1656 2.3854346543977001e-02
1658 1656 -6.6666666666667001e-03
1657 1657 9.2658650362505996e-03
1658 1657 -6.2287936315353004e-04
1667 1657 -4.3505797875997002e-04
1656 1658 -6.6666666666667001e-03
1657 1658 -6.7154753005492995e-04
1658 1658 9.2168808246055993e-03
1667 1658 -4.3504040824874003e-04
1659 1659 1.7814431801006000e-02
1660 1659 -9.3374529786811998e-07
1674 1659 -1.4034741338989000e-04
1659 1660 -9.3489207095224002e-07
1660 1660 1.7814467528367000e-02
1667 1660 -1.6666666666667000e-02
1674 1660 -1.4055531455267999e-04
1661 1661 1.9388296401992001e-02
1662 1661 -1.2559808922602000e-03
1669 1661 -4.3506772298652002e-04
1661 1662 -1.1811504859162000e-03
1662 1662 1.9463255371613999e-02
1667 1662 -1.6666666666667000e-02
1669 1662 -4.3507106113037001e-04
1663 1663 9.2658880998097003e-03
1664 1663 -6.2288659099316002e-04
1674 1663 -4.3505003257918000e-04
1663 1664 -6.7160219904951004e-04
1664 1664 9.2171423058522994e-03
1665 1664 -6.6666666666667001e-03
1674 1664 -4.3504835481283000e-04
1664 1665 -6.6666666666667001e-03
1665 1665 1.3333333333332999e-02
1666 1665 -6.6666666666667001e-03
1665 1666 -6.6666666666667001e-03
1666 1666 8.2271531437602997e-03
1668 1666 -6.2826566048350997e-10
1669 1666 -1.6462130326633001e-04
1654 1667 -1.4022911954869000e-04
1655 1667 -1.3828707536665000e-04
1657 1667 -4.3508522565433998e-04
1658 1667 -4.3501464088928002e-04
1660 1667 -1.6666666666667000e-02
1662 1667 -1.6666666666667000e-02
1667 1667 4.2093165784655003e-02
1668 1667 -6.6666666666667001e-03
1666 1668 -4.2581329902656003e-12
1667 1668 -6.6666666666667001e-03
1668 1668 7.5572145986840004e-03
1669 1668 -1.6206578229430001e-04
1652 1669 -1.6666666666667000e-02
1653 1669 -6.6666666666667001e-03
1661 1669 -4.3505552850449998e-04
1662 1669 -4.3508356818655998e-04
1666 1669 -1.6142419153987000e-04
1668 1669 -1.6142330083605000e-04
1669 1669 2.5577074045528000e-02
1670 1670 8.2271769163125008e-03
1673 1670 -6.1247014693138999e-10
4738 1670 -1.6460698461450999e-04
1671 1671 1.9388668569391001e-02
1672 1671 -1.2563678947356001e-03
4738 1671 -4.3506900710631999e-04
1671 1672 -1.1814613147834001e-03
1672 1672 1.9463604817295001e-02
1674 1672 -1.6666666666667000e-02
4738 1672 -4.3506977701894003e-04
1670 1673 -4.1493802872636998e-12
1673 1673 7.5572169545869003e-03
1674 1673 -6.6666666666667001e-03
4738 1673 -1.6206287966453000e-04
1659 1674 -1.3925774036840000e-04
1660 1674 -1.3925845454694001e-04
1663 1674 -4.3505263437740001e-04
1664 1674 -4.3504589430990001e-04
1672 1674 -1.6666666666667000e-02
1673 1674 -6.6666666666667001e-03
1674 1674 2.5745866689018002e-02
1675 1675 9.2659121051217007e-03
1676 1675 -6.2293397761401003e-04
4737 1675 -4.3506192128018001e-04
1675 1676 -6.7158085326819998e-04
1676 1676 9.2168073433162006e-03
4737 1676 -4.3503646530340998e-04
4738 1676 -6.6666666666667001e-03
1677 1677 8.2271771614225997e-03
1680 1677 -6.2221361979459995e-10
1705 1677 -1.6461567418236001e-04
1678 1678 1.9463354245958998e-02
1679 1678 -1.1812130145197001e-03
1705 1678 -4.3507084461253998e-04
1678 1679 -1.2561131880670000e-03
1679 1679 1.9388389052618998e-02
1705 1679 -4.3506793950650002e-04
4720 1679 -1.6666666666667000e-02
1677 1680 -4.2163943043946002e-12
1680 1680 7.5572201847408996e-03
1705 1680 -1.6206462662858001e-04
4720 1680 -6.6666666666667001e-03
1681 1681 1.7814702603258001e-02
1682 1681 -1.2096096895178001e-06
1710 1681 -1.4160381409032000e-04
1681 1682 -2.3903260634981001e-08
1682 1682 1.7296474661140999e-02
1705 1682 -1.6666666666667000e-02
1710 1682 -1.3966455795733001e-04
1683 1683 1.7814705778497000e-02
1684 1683 -1.2128810672312001e-06
1704 1683 -1.4163961317540001e-04
1683 1684 -2.3969800478389999e-08
1684 1684 1.7296474723645001e-02
1704 1684 -1.3967076128656999e-04
1705 1684 -1.6666666666667000e-02
1685 1685 9.2658747540866008e-03
1686 1685 -6.2290655519816999e-04
1710 1685 -4.3506702516748000e-04
1685 1686 -6.7152212594873996e-04
1686 1686 9.2166178077138002e-03
1687 1686 -6.6666666666667001e-03
1710 1686 -4.3503136063429001e-04
1686 1687 -6.6666666666667001e-03
1687 1687 1.3333333333332999e-02
1702 1687 -6.6666666666667001e-03
1688 1688 8.2271771302528003e-03
1700 1688 -1.6460260652033999e-04
1701 1688 -6.0761349498812995e-10
1689 1689 9.2658836798798997e-03
1697 1689 -6.2288381319662003e-04
1690 1690 9.2658836798798997e-03
1696 1690 -6.2288381319662003e-04
1691 1691 1.7814013954006998e-02
1692 1691 -5.1777938357890997e-07
1691 1692 -4.9679692709123999e-08
1692 1692 1.7749224811249999e-02
1693 1692 -1.6666666666667000e-02
1692 1693 -1.6666666666667000e-02
1693 1693 3.3333333333333000e-02
1694 1693 -1.6666666666667000e-02
1693 1694 -1.6666666666667000e-02
1694 1694 1.7749599295933002e-02
1695 1694 -4.2710630228166000e-07
1694 1695 -9.4784909122984997e-09
1695 1695 1.7296415154929998e-02
1700 1695 -1.6666666666667000e-02
1690 1696 -6.7159484520596996e-04
1696 1696 9.2171154637583005e-03
1700 1696 -6.6666666666667001e-03
1689 1697 -6.7159484520596996e-04
1697 1697 9.2171154637583005e-03
1700 1697 -6.6666666666667001e-03
1698 1698 1.9388781557060999e-02
1699 1698 -1.2564851052679999e-03
1700 1698 -4.3506939176055998e-04
1698 1699 -1.1815558763516999e-03
1699 1699 1.9463710809279999e-02
1700 1699 -4.3506939236518001e-04
1704 1699 -1.6666666666667000e-02
1688 1700 -1.6142417680407999e-04
1695 1700 -1.6666666666667000e-02
1696 1700 -6.6666666666667001e-03
1697 1700 -6.6666666666667001e-03
1698 1700 -4.3506938955049001e-04
1699 1700 -4.3506939463186002e-04
1700 1700 3.1983788151295003e-02
1701 1700 -1.6142331557183001e-04
1688 1701 -4.1159872789018002e-12
1700 1701 -1.6206200171336999e-04
1701 1701 7.5572176499780000e-03
1704 1701 -6.6666666666667001e-03
1687 1702 -6.6666666666667001e-03
1702 1702 9.2651423102187002e-03
1703 1702 -6.2280592182754001e-04
1704 1702 -4.3506646570225000e-04
1702 1703 -6.7135198488589998e-04
1703 1703 9.2159758057654001e-03
1704 1703 -4.3503192019782002e-04
1705 1703 -6.6666666666667001e-03
1683 1704 -1.4022933505401000e-04
1684 1704 -1.3828685986133000e-04
1699 1704 -1.6666666666667000e-02
1701 1704 -6.6666666666667001e-03
1702 1704 -4.3512002045089000e-04
1703 1704 -4.3498127196858001e-04
1704 1704 2.5369108019331999e-02
1677 1705 -1.6142418721563001e-04
1678 1705 -4.3508173106599998e-04
1679 1705 -4.3505732504714998e-04
1680 1705 -1.6142330516028000e-04
1682 1705 -1.6666666666667000e-02
1684 1705 -1.6666666666667000e-02
1703 1705 -6.6666666666667001e-03
1705 1705 4.1983404691838998e-02
1706 1706 8.2271641132538997e-03
1709 1706 -7.1987172153378003e-10
1774 1706 -1.6469557866771999e-04
1707 1707 1.9386404066135000e-02
1708 1707 -1.2539937735172001e-03
1774 1707 -4.3505772620283000e-04
1707 1708 -1.1797333657416001e-03
1708 1708 1.9461560185839000e-02
1710 1708 -1.6666666666667000e-02
1774 1708 -4.3508105749029999e-04
1706 1709 -4.8888276049545999e-12
1709 1709 7.5571962231453004e-03
1710 1709 -6.6666666666667001e-03
1774 1709 -1.6208064322943000e-04
1681 1710 -1.4022668412266999e-04
1682 1710 -1.3828951079267001e-04
1685 1710 -4.3512233533939002e-04
1686 1710 -4.3497905316849001e-04
1708 1710 -1.6666666666667000e-02
1709 1710 -6.6666666666667001e-03
1710 1710 2.5600801507201999e-02
1711 1711 8.2267388572521000e-03
1712 1711 -4.8773328001965998e-08
4740 1711 -1.6668637390586001e-04
1711 1712 -3.8541448850222997e-08
1712 1712 8.2204588846508993e-03
1774 1712 -6.6666666666667001e-03
4740 1712 -1.6661681717029000e-04
1713 1713 9.2651096337109003e-03
1714 1713 -6.2258091585473002e-04
4737 1713 -4.3528487446594001e-04
1713 1714 -6.6989455872352001e-04
1714 1714 9.2093742433511008e-03
1774 1714 -6.6666666666667001e-03
4737 1714 -4.3481323405174000e-04
1715 1715 8.2271771147470994e-03
1718 1715 -6.2268857836634003e-10
1768 1715 -1.6461603594470999e-04
1716 1716 1.9388480959255001e-02
1717 1716 -1.2561202691226999e-03
1768 1716 -4.3505312389939001e-04
1716 1717 -1.1820343880217000e-03
1717 1717 1.9463818133596000e-02
1768 1717 -4.3508565938565999e-04
4737 1717 -1.6666666666667000e-02
1715 1718 -4.2195557004960997e-12
1718 1718 7.5571890353097002e-03
1768 1718 -1.6206464098303001e-04
4737 1718 -6.6666666666667001e-03
1719 1719 8.2271769292460006e-03
1731 1719 -1.6436041302721999e-04
1732 1719 -4.0439871304940000e-10
1720 1720 9.2658580931405006e-03
1721 1720 -6.2287256692747004e-04
1720 1721 -6.7154092885390003e-04
1721 1721 9.2168766446839006e-03
1737 1721 -6.6666666666667001e-03
1722 1722 9.2658580565476000e-03
1725 1722 -6.2287255084631996e-04
1723 1723 1.7814705962187000e-02
1724 1723 -1.2130646465134999e-06
1723 1724 -2.3971913347377000e-08
1724 1724 1.7296439384435001e-02
1731 1724 -1.6666666666667000e-02
1722 1725 -6.7154085176910998e-04
1725 1725 9.2168763032910005e-03
1731 1725 -6.6666666666667001e-03
1726 1726 1.9463616696795999e-02
1727 1726 -1.1814810031601001e-03
1731 1726 -4.3507378916757001e-04
1726 1727 -1.2563440610616999e-03
1727 1727 1.9388556775373000e-02
1728 1727 -1.6666666666667000e-02
1731 1727 -4.3506499489676001e-04
1727 1728 -1.6666666666667000e-02
1728 1728 3.3333333333333000e-02
1729 1728 -1.6666666666667000e-02
1728 1729 -1.6666666666667000e-02
1729 1729 1.7814613193378001e-02
1730 1729 -1.2114352535202000e-06
1729 1730 -2.3943846574185000e-08
1730 1730 1.7296439342315000e-02
1737 1730 -1.6666666666667000e-02
1719 1731 -1.6142374865745000e-04
1724 1731 -1.6666666666667000e-02
1725 1731 -6.6666666666667001e-03
1726 1731 -4.3510675469457999e-04
1727 1731 -4.3503285264144000e-04
1731 1731 2.5564232021594999e-02
1732 1731 -1.6142374371846000e-04
1719 1732 -4.0084700884885000e-10
1731 1732 -1.6435896062017000e-04
1732 1732 8.2269439560933993e-03
1737 1732 -6.6666666666667001e-03
1733 1733 8.2271771331809997e-03
1736 1733 -6.1068558492930001e-10
1737 1733 -1.6460537867380001e-04
1734 1734 1.9388708988810999e-02
1735 1734 -1.2564108178201000e-03
1737 1734 -4.3506936806492002e-04
1734 1735 -1.1814844461566000e-03
1735 1735 1.9463637210112999e-02
1737 1735 -4.3506941606082002e-04
1743 1735 -1.6666666666667000e-02
1733 1736 -4.1371103367810000e-12
1736 1736 7.5572176085323996e-03
1737 1736 -1.6206255822744000e-04
1743 1736 -6.6666666666667001e-03
1721 1737 -6.6666666666667001e-03
1730 1737 -1.6666666666667000e-02
1732 1737 -6.6666666666667001e-03
1733 1737 -1.6142417899481001e-04
1734 1737 -4.3506919264247999e-04
1735 1737 -4.3506959597694000e-04
1736 1737 -1.6142331338109999e-04
1737 1737 3.1983706535264000e-02
1738 1738 9.2658252360751994e-03
1739 1738 -6.2285817629080997e-04
1743 1738 -4.3506706142664998e-04
1738 1739 -6.7147158238951995e-04
1739 1739 9.2165692222545004e-03
1740 1739 -6.6666666666667001e-03
1743 1739 -4.3503132436862999e-04
1739 1740 -6.6666666666667001e-03
1740 1740 1.3333333333332999e-02
1767 1740 -6.6666666666667001e-03
1741 1741 1.7814705766245002e-02
1742 1741 -1.2128678631468000e-06
1743 1741 -1.4163952981689000e-04
1741 1742 -2.3969588615846001e-08
1742 1742 1.7296475960795001e-02
1743 1742 -1.3967074904494000e-04
1768 1742 -1.6666666666667000e-02
1735 1743 -1.6666666666667000e-02
1736 1743 -6.6666666666667001e-03
1738 1743 -4.3512247593255002e-04
1739 1743 -4.3497891868596002e-04
1741 1743 -1.4022932381820000e-04
1742 1743 -1.3828687109714000e-04
1743 1743 2.5658228398155999e-02
1744 1744 8.2271769292511995e-03
1756 1744 -1.6436041302936999e-04
1757 1744 -4.0439873235892999e-10
1745 1745 9.2658580894516007e-03
1746 1745 -6.2287256529626998e-04
1745 1746 -6.7154092102948996e-04
1746 1746 9.2168766100338001e-03
1761 1746 -6.6666666666667001e-03
1747 1747 9.2658580565773002e-03
1750 1747 -6.2287255085901000e-04
1748 1748 1.7814705962187000e-02
1749 1748 -1.2130646465834000e-06
1748 1749 -2.3971913348209001e-08
1749 1749 1.7296439384420999e-02
1756 1749 -1.6666666666667000e-02
1747 1750 -6.7154085182977001e-04
1750 1750 9.2168763035597005e-03
1756 1750 -6.6666666666667001e-03
1751 1751 1.9463616696877999e-02
1752 1751 -1.1814810032630000e-03
1756 1751 -4.3507378917099002e-04
1751 1752 -1.2563440611146001e-03
1752 1752 1.9388556775351999e-02
1753 1752 -1.6666666666667000e-02
1756 1752 -4.3506499489334000e-04
1752 1753 -1.6666666666667000e-02
1753 1753 3.3333333333333000e-02
1754 1753 -1.6666666666667000e-02
1753 1754 -1.6666666666667000e-02
1754 1754 1.7814613193298998e-02
1755 1754 -1.2114352454632000e-06
1754 1755 -2.3943846474239000e-08
1755 1755 1.7296439343622998e-02
1761 1755 -1.6666666666667000e-02
1744 1756 -1.6142374865774000e-04
1749 1756 -1.6666666666667000e-02
1750 1756 -6.6666666666667001e-03
1751 1756 -4.3510675472366002e-04
1752 1756 -4.3503285261300002e-04
1756 1756 2.5216387941399000e-02
1757 1756 -1.6142374371817000e-04
1744 1757 -4.0084661357257002e-10
1756 1757 -1.6435896045209999e-04
1757 1757 8.2269439287884008e-03
1761 1757 -6.6666666666667001e-03
1758 1758 8.2271771333275005e-03
1761 1758 -1.6460537908855001e-04
1762 1758 -6.1068612529649999e-10
1759 1759 1.9388709076166001e-02
1760 1759 -1.2564107971320001e-03
1761 1759 -4.3506933686492002e-04
1759 1760 -1.1814860320680999e-03
1760 1760 1.9463638095588001e-02
1761 1760 -4.3506944726080002e-04
1765 1760 -1.6666666666667000e-02
1746 1761 -6.6666666666667001e-03
1755 1761 -1.6666666666667000e-02
1757 1761 -6.6666666666667001e-03
1758 1761 -1.6142417899520000e-04
1759 1761 -4.3506893337393998e-04
1760 1761 -4.3506986108779000e-04
1761 1761 3.1983706521924997e-02
1762 1761 -1.6142331338071000e-04
1758 1762 -4.1371139150201000e-12
1761 1762 -1.6206255820081999e-04
1762 1762 7.5572175534253999e-03
1765 1762 -6.6666666666667001e-03
1763 1763 1.7814705757284000e-02
1764 1763 -1.2128591493794000e-06
1765 1763 -1.4163943464066999e-04
1763 1764 -2.3969411397049999e-08
1764 1764 1.7296475960598998e-02
1765 1764 -1.3967073255328000e-04
1768 1764 -1.6666666666667000e-02
1760 1765 -1.6666666666667000e-02
1762 1765 -6.6666666666667001e-03
1763 1765 -1.4022931675746001e-04
1764 1765 -1.3828687815787999e-04
1765 1765 2.5369114685641000e-02
1766 1765 -4.3497784418400001e-04
1767 1765 -4.3512359472220002e-04
1765 1766 -4.3503104838767001e-04
1766 1766 9.2159456573961997e-03
1767 1766 -6.7134538473118002e-04
1768 1766 -6.6666666666667001e-03
1740 1767 -6.6666666666667001e-03
1765 1767 -4.3506733735764998e-04
1766 1767 -6.2280466970249997e-04
1767 1767 9.2651381067998008e-03
1715 1768 -1.6142418755554999e-04
1716 1768 -4.3493424387978003e-04
1717 1768 -4.3520758712976002e-04
1718 1768 -1.6142330482036001e-04
1742 1768 -1.6666666666667000e-02
1764 1768 -1.6666666666667000e-02
1766 1768 -6.6666666666667001e-03
1768 1768 4.1983392848854002e-02
1769 1769 1.7814658283262001e-02
1770 1769 -1.1649879738390001e-06
4737 1769 -1.4152780248429000e-04
1769 1770 -2.3392860364959999e-08
1770 1770 1.7305237871950999e-02
1771 1770 -1.6666666666667000e-02
4737 1770 -1.3966640422366001e-04
1770 1771 -1.6666666666667000e-02
1771 1771 3.3333333333333000e-02
1772 1771 -1.6666666666667000e-02
1771 1772 -1.6666666666667000e-02
1772 1772 1.7305426645890000e-02
1773 1772 -2.0340723036829001e-07
4740 1772 -1.6165018861015999e-04
1772 1773 -1.7596558947320001e-08
1773 1773 1.7296752228706001e-02
1774 1773 -1.6666666666667000e-02
4740 1773 -1.6085222625703000e-04
1706 1774 -1.6142425690359000e-04
1707 1774 -4.3497269714869998e-04
1708 1774 -4.3516827252617003e-04
1709 1774 -1.6142323547233001e-04
1712 1774 -6.6666666666667001e-03
1714 1774 -6.6666666666667001e-03
1773 1774 -1.6666666666667000e-02
1774 1774 3.2097035417717003e-02
1775 1775 1.9463587720240001e-02
1776 1775 -1.1814986044821000e-03
1784 1775 -4.3508510392046998e-04
1775 1776 -1.2561957396833999e-03
1776 1776 1.9388187351139001e-02
1777 1776 -1.6666666666667000e-02
1784 1776 -4.3505367942098998e-04
1776 1777 -1.6666666666667000e-02
1777 1777 3.3333333333333000e-02
4719 1777 -1.6666666666667000e-02
1778 1778 9.2658602664035996e-03
1781 1778 -6.2286975536349003e-04
4720 1778 -4.3505579579330002e-04
1779 1779 1.7814706315352001e-02
1780 1779 -1.2134992018092001e-06
4720 1779 -1.4164448712193999e-04
1779 1780 -2.3980617119391999e-08
1780 1780 1.7296436368691000e-02
1784 1780 -1.6666666666667000e-02
4720 1780 -1.3967153748352000e-04
1778 1781 -6.7155056638368001e-04
1781 1781 9.2169419344236992e-03
1784 1781 -6.6666666666667001e-03
4720 1781 -4.3504259138376998e-04
1782 1782 8.2271773015296003e-03
1783 1782 -4.0360234945858000e-10
1784 1782 -1.6435949466425001e-04
1782 1783 -4.0509993809991999e-10
1783 1783 8.2272251069491001e-03
1784 1783 -1.6442932112416001e-04
4718 1783 -6.6666666666667001e-03
1775 1784 -4.3520289868043002e-04
1776 1784 -4.3493882546391998e-04
1780 1784 -1.6666666666667000e-02
1781 1784 -6.6666666666667001e-03
1782 1784 -1.6142374567917000e-04
1783 1784 -1.6142374669674001e-04
1784 1784 2.5564263198622001e-02
1785 1785 8.2271773493963005e-03
1788 1785 -6.1021609116662001e-10
4715 1785 -1.6460523282929999e-04
1786 1786 1.9463647045613999e-02
1787 1786 -1.1814945012577000e-03
4715 1786 -4.3506954451946002e-04
1786 1787 -1.2564200341705000e-03
1787 1787 1.9388714686167999e-02
1804 1787 -1.6666666666667000e-02
4715 1787 -4.3506923960620999e-04
1785 1788 -4.1338178627021998e-12
1788 1788 7.5572179338179004e-03
1804 1788 -6.6666666666667001e-03
4715 1788 -1.6206247148061999e-04
1789 1789 1.9463365011827001e-02
1790 1789 -1.1812178068491999e-03
1802 1789 -4.3506941041971000e-04
1789 1790 -1.2561391534588000e-03
1790 1790 1.9388442843483001e-02
1791 1790 -1.6666666666667000e-02
1802 1790 -4.3506937370602999e-04
1790 1791 -1.6666666666667000e-02
1791 1791 2.3854346543977001e-02
1793 1791 -6.6666666666667001e-03
1792 1792 8.2271771675057007e-03
1793 1792 -6.2204293054420996e-10
1802 1792 -1.6461552843383999e-04
1791 1793 -6.6666666666667001e-03
1792 1793 -4.2152095809449001e-12
1793 1793 7.5572176848323997e-03
1802 1793 -1.6206459067963000e-04
1794 1794 1.7814706660858000e-02
1795 1794 -1.2139252548025000e-06
1809 1794 -1.4165102398439001e-04
1794 1795 -2.3991022715887001e-08
1795 1795 1.7296474199858001e-02
1802 1795 -1.6666666666667000e-02
1809 1795 -1.3967273780735999e-04
1796 1796 1.7814705820965001e-02
1797 1796 -1.2129272098287000e-06
1804 1796 -1.4164009161496001e-04
1796 1797 -2.3970714598251001e-08
1797 1797 1.7296474188439000e-02
1802 1797 -1.6666666666667000e-02
1804 1797 -1.3967084324014001e-04
1798 1798 9.2658137032185003e-03
1799 1798 -6.2284393078178995e-04
1809 1798 -4.3506633921391999e-04
1798 1799 -6.7146122131261996e-04
1799 1799 9.2165797856828009e-03
1800 1799 -6.6666666666667001e-03
1809 1799 -4.3503204670811000e-04
1799 1800 -6.6666666666667001e-03
1800 1800 1.3333333333332999e-02
1801 1800 -6.6666666666667001e-03
1800 1801 -6.6666666666667001e-03
1801 1801 9.2651670827313994e-03
1803 1801 -6.2280687530363995e-04
1804 1801 -4.3506675708909997e-04
1789 1802 -4.3506954800001001e-04
1790 1802 -4.3506923956322999e-04
1792 1802 -1.6142418709374999e-04
1793 1802 -1.6142330528215999e-04
1795 1802 -1.6666666666667000e-02
1797 1802 -1.6666666666667000e-02
1802 1802 4.1983409161253003e-02
1803 1802 -6.6666666666667001e-03
1801 1803 -6.7135390591679001e-04
1802 1803 -6.6666666666667001e-03
1803 1803 9.2159891205516997e-03
1804 1803 -4.3503162876009000e-04
1787 1804 -1.6666666666667000e-02
1788 1804 -6.6666666666667001e-03
1796 1804 -1.4022937268001000e-04
1797 1804 -1.3828682223533000e-04
1801 1804 -4.3512121567087998e-04
1803 1804 -4.3498012579963000e-04
1804 1804 2.5686818323350999e-02
1805 1805 8.2271846870189003e-03
1808 1805 -6.0547514391478995e-10
4718 1805 -1.6461043200278000e-04
1806 1806 1.9463742406117000e-02
1807 1806 -1.1816148651237000e-03
4718 1806 -4.3507302152269000e-04
1806 1807 -1.2564889489401999e-03
1807 1807 1.9388705804831000e-02
1809 1807 -1.6666666666667000e-02
4718 1807 -4.3506576256120997e-04
1805 1808 -4.0990256432803002e-12
1808 1808 7.5572245462495998e-03
1809 1808 -6.6666666666667001e-03
4718 1808 -1.6206153651994001e-04
1794 1809 -1.4023018158149000e-04
1795 1809 -1.3828601333385000e-04
1798 1809 -4.3511951148076999e-04
1799 1809 -4.3498176168514999e-04
1807 1809 -1.6666666666667000e-02
1808 1809 -6.6666666666667001e-03
1809 1809 2.5657812770729000e-02
1810 1810 9.2187922694489007e-03
1811 1810 -6.7303081441765996e-04
4717 1810 -4.3504802495390000e-04
1810 1811 -6.2440390789916995e-04
1811 1811 9.2674775634473006e-03
4717 1811 -4.3505036243479000e-04
4718 1811 -6.6666666666667001e-03
1812 1812 8.2271770687734995e-03
1815 1812 -6.2191461264707002e-10
1840 1812 -1.6461539063240000e-04
1813 1813 1.9463366290546000e-02
1814 1813 -1.1812204887631001e-03
1840 1813 -4.3506983145787001e-04
1813 1814 -1.2561357703826000e-03
1814 1814 1.9388431339797001e-02
1840 1814 -4.3506895266724998e-04
4700 1814 -1.6666666666667000e-02
1812 1815 -4.2143362524046002e-12
1815 1815 7.5572184142296004e-03
1840 1815 -1.6206457015226000e-04
4700 1815 -6.6666666666667001e-03
1816 1816 1.7814706403592000e-02
1817 1816 -1.2135901889202000e-06
1845 1816 -1.4164733068141000e-04
1816 1817 -2.3984185661766001e-08
1817 1817 1.7296473809567999e-02
1840 1817 -1.6666666666667000e-02
1845 1817 -1.3967209703275000e-04
1818 1818 1.7814704877991999e-02
1819 1818 -1.2115037005790000e-06
1839 1818 -1.4162442172762000e-04
1818 1819 -2.3941718853034999e-08
1819 1819 1.7296473801158001e-02
1839 1819 -1.3966812661595000e-04
1840 1819 -1.6666666666667000e-02
1820 1820 9.2658188855948998e-03
1821 1820 -6.2284927589117002e-04
1845 1820 -4.3506607629327997e-04
1820 1821 -6.7146825420751001e-04
1821 1821 9.2165927251340006e-03
1822 1821 -6.6666666666667001e-03
1845 1821 -4.3503230967359999e-04
1821 1822 -6.6666666666667001e-03
1822 1822 1.3333333333332999e-02
1837 1822 -6.6666666666667001e-03
1823 1823 8.2271647242455007e-03
1835 1823 -1.6513057933901999e-04
1836 1823 -1.6238374314172999e-09
1824 1824 8.2271194302155001e-03
1832 1824 -2.2201784561576001e-10
1825 1825 9.2609569254043997e-03
1831 1825 -6.2067292357935000e-04
1826 1826 1.7814541198031001e-02
1827 1826 -1.0475286864424000e-06
1826 1827 -2.2306264201564000e-08
1827 1827 1.7334865476328998e-02
1828 1827 -1.6666666666667000e-02
1827 1828 -1.6666666666667000e-02
1828 1828 3.3333333333333000e-02
1829 1828 -1.6666666666667000e-02
1828 1829 -1.6666666666667000e-02
1829 1829 1.7863587794982001e-02
1830 1829 -1.3392449120209999e-04
1829 1830 -2.4486868284754001e-05
1830 1830 1.7308130333044999e-02
1835 1830 -1.6666666666667000e-02
1825 1831 -6.6120582862897001e-04
1831 1831 9.1723535572225002e-03
1835 1831 -6.6666666666667001e-03
1824 1832 -7.7776101387966994e-12
1832 1832 8.1919692065637005e-03
1835 1832 -6.6666666666667001e-03
1833 1833 1.9374672592910001e-02
1834 1833 -1.2420144359846000e-03
1835 1833 -4.3506460544701997e-04
1833 1834 -1.1676696488391999e-03
1834 1834 1.9449380735394001e-02
1835 1834 -4.3507417860560999e-04
1839 1834 -1.6666666666667000e-02
1823 1835 -1.6142490407230001e-04
1830 1835 -1.6666666666667000e-02
1831 1835 -6.6666666666667001e-03
1832 1835 -6.6666666666667001e-03
1833 1835 -4.3503022034390999e-04
1834 1835 -4.3510946200211998e-04
1835 1835 3.1969454210015999e-02
1836 1835 -1.6142258830361000e-04
1823 1836 -1.1163151070042000e-11
1835 1836 -1.6216800836753000e-04
1836 1836 7.5572083445458998e-03
1839 1836 -6.6666666666667001e-03
1822 1837 -6.6666666666667001e-03
1837 1837 9.2651956594430006e-03
1838 1837 -6.2282868291787998e-04
1839 1837 -4.3506670121336001e-04
1837 1838 -6.7137759656043996e-04
1838 1838 9.2160177822717005e-03
1839 1838 -4.3503168464565999e-04
1840 1838 -6.6666666666667001e-03
1818 1839 -1.4022821887611000e-04
1819 1839 -1.3828797603923000e-04
1834 1839 -1.6666666666667000e-02
1836 1839 -6.6666666666667001e-03
1837 1839 -4.3512099016566002e-04
1838 1839 -4.3498034192848998e-04
1839 1839 2.5369659242857001e-02
1812 1840 -1.6142418700290000e-04
1813 1840 -4.3507312463255001e-04
1814 1840 -4.3506574177281000e-04
1815 1840 -1.6142330537301000e-04
1817 1840 -1.6666666666667000e-02
1819 1840 -1.6666666666667000e-02
1838 1840 -6.6666666666667001e-03
1840 1840 4.1983412387450000e-02
1841 1841 8.2271817048529001e-03
1844 1841 -6.0175453645824999e-10
1909 1841 -1.6460319737562001e-04
1842 1842 1.9463840033417001e-02
1843 1842 -1.1817002659991001e-03
1909 1842 -4.3507185936966000e-04
1842 1843 -1.2565946089009999e-03
1843 1843 1.9388835197213999e-02
1845 1843 -1.6666666666667000e-02
1909 1843 -4.3506692473675002e-04
1841 1844 -4.0743472206259997e-12
1844 1844 7.5572223056157000e-03
1845 1844 -6.6666666666667001e-03
1909 1844 -1.6206088692886000e-04
1816 1845 -1.4022991015794000e-04
1817 1845 -1.3828628475740000e-04
1820 1845 -4.3511843399239000e-04
1821 1845 -4.3498279494981002e-04
1843 1845 -1.6666666666667000e-02
1844 1845 -6.6666666666667001e-03
1845 1845 2.5599219083271001e-02
1846 1846 9.2171788436792006e-03
1847 1846 -6.7159899429164005e-04
4720 1846 -4.3503846051497002e-04
1846 1847 -6.2314453620764996e-04
1847 1847 9.2661680524562008e-03
1909 1847 -6.6666666666667001e-03
4720 1847 -4.3505992630331997e-04
1848 1848 9.2188042883291996e-03
1849 1848 -6.7302875692753996e-04
4717 1848 -4.3503849993122002e-04
1848 1849 -6.2463726654408004e-04
1849 1849 9.2677298487965996e-03
1909 1849 -6.6666666666667001e-03
4717 1849 -4.3505988689144002e-04
1850 1850 8.9160562216759002e-03
1853 1850 -2.2168444728055999e-04
1903 1850 -5.3072048722320995e-04
1851 1851 1.8971989229496999e-02
1852 1851 -8.2362309284054005e-04
1903 1851 -4.3446456914503998e-04
1851 1852 -7.7981753026707995e-04
1852 1852 1.9041073077050000e-02
1903 1852 -4.3567287759418001e-04
4717 1852 -1.6666666666667000e-02
1850 1853 -1.5426169644217999e-05
1853 1853 7.5714135017952997e-03
1903 1853 -1.6234832533499000e-04
4717 1853 -6.6666666666667001e-03
1854 1854 8.2271904951882000e-03
1866 1854 -1.6475639095338000e-04
1867 1854 -7.6031771425213998e-10
1855 1855 8.2272402561201999e-03
1856 1855 -5.8619318129278002e-10
1855 1856 -3.9937080277440001e-12
1856 1856 7.5694469276834002e-03
1872 1856 -6.6666666666667001e-03
1857 1857 9.2645269731277003e-03
1860 1857 -6.2228324189015000e-04
1858 1858 1.7814703423261000e-02
1859 1858 -1.2105137651592000e-06
1858 1859 -2.3942592916762999e-08
1859 1859 1.7296931494120999e-02
1866 1859 -1.6666666666667000e-02
1857 1860 -6.6873121484250998e-04
1860 1860 9.2045278784672006e-03
1866 1860 -6.6666666666667001e-03
1861 1861 1.9443848081231001e-02
1862 1861 -1.1751338301589000e-03
1866 1861 -4.3879036859065999e-04
1861 1862 -1.1999106407626001e-03
1862 1862 1.9267504048912001e-02
1863 1862 -1.6666666666667000e-02
1866 1862 -4.3130113021083998e-04
1862 1863 -1.6666666666667000e-02
1863 1863 3.3333333333333000e-02
1864 1863 -1.6666666666667000e-02
1863 1864 -1.6666666666667000e-02
1864 1864 1.9307301672490999e-02
1865 1864 -1.1525580968923001e-03
1864 1865 -1.1669596341667000e-03
1865 1865 1.9183367884165001e-02
1872 1865 -1.6666666666667000e-02
1854 1866 -1.6142428492156000e-04
1859 1866 -1.6666666666667000e-02
1860 1866 -6.6666666666667001e-03
1861 1866 -4.6639885858568999e-04
1862 1866 -4.0432447151519002e-04
1866 1866 2.5545280793319001e-02
1867 1866 -1.6142320745436001e-04
1854 1867 -5.2195732768605998e-12
1866 1867 -1.6211493947439001e-04
1867 1867 7.5694130433511001e-03
1872 1867 -6.6666666666667001e-03
1868 1868 9.1739126948207992e-03
1871 1868 -5.5760609058090995e-04
1872 1868 -4.6263502114010001e-04
1869 1869 1.7818843063298000e-02
1870 1869 -5.0144463254663001e-06
1872 1869 -1.5853410936669999e-04
1869 1870 -1.0986600001342001e-07
1870 1870 1.7331453989035000e-02
1872 1870 -1.4298089419508000e-04
1878 1870 -1.6666666666667000e-02
1868 1871 -4.7260939280231002e-04
1871 1871 8.6510614919499008e-03
1872 1871 -4.0287426784719999e-04
1878 1871 -6.6666666666667001e-03
1856 1872 -6.6666666666667001e-03
1865 1872 -1.6666666666667000e-02
1867 1872 -6.6666666666667001e-03
1868 1872 -5.4492734876779997e-04
1869 1872 -1.4324165505119000e-04
1870 1872 -1.3527453986415000e-04
1871 1872 -3.2383854262436998e-04
1872 1872 3.1894937286469000e-02
1873 1873 8.7852667654422009e-03
1874 1873 -6.4474726084158001e-05
1878 1873 -5.3038531675590002e-04
1873 1874 -5.6888653694660002e-06
1874 1874 7.9112608823642006e-03
1875 1874 -6.6666666666667001e-03
1878 1874 -1.6303561080620001e-04
1874 1875 -6.6666666666667001e-03
1875 1875 1.3333333333332999e-02
1902 1875 -6.6666666666667001e-03
1876 1876 1.8755122071794000e-02
1877 1876 -4.7737264410175999e-04
1878 1876 -5.6470463002978005e-04
1876 1877 -1.0089052584317000e-04
1877 1877 1.7466946429728999e-02
1878 1877 -1.4727055318588999e-04
1903 1877 -1.6666666666667000e-02
1870 1878 -1.6666666666667000e-02
1871 1878 -6.6666666666667001e-03
1873 1878 -5.7322820871897001e-04
1874 1878 -1.1445321367002000e-04
1876 1878 -8.9141805350854996e-04
1877 1878 2.1848679911961000e-04
1878 1878 2.5562207335797001e-02
1879 1879 9.2632640697968005e-03
1891 1879 -4.3515315469861001e-04
1892 1879 -6.2057220790876996e-04
1880 1880 9.2655178007588004e-03
1881 1880 -6.2272284085744002e-04
1880 1881 -6.7082426799003998e-04
1881 1881 9.2137088877245997e-03
1896 1881 -6.6666666666667001e-03
1882 1882 8.2272590558725000e-03
1885 1882 -6.1034850291567001e-10
1883 1883 1.9460480541799999e-02
1884 1883 -1.1812073493446000e-03
1883 1884 -1.2484463233280001e-03
1884 1884 1.9370385682676999e-02
1891 1884 -1.6666666666667000e-02
1882 1885 -4.1132635848571998e-12
1885 1885 7.5581662197181003e-03
1891 1885 -6.6666666666667001e-03
1886 1886 1.7813831944593999e-02
1887 1886 -3.1458112694872000e-07
1891 1886 -1.4463985370350999e-04
1886 1887 -5.6492674384909997e-06
1887 1887 1.7935841256438999e-02
1888 1887 -1.6666666666667000e-02
1891 1887 -3.5010579545879998e-04
1887 1888 -1.6666666666667000e-02
1888 1888 3.3333333333333000e-02
1889 1888 -1.6666666666667000e-02
1888 1889 -1.6666666666667000e-02
1889 1889 1.7939888447806002e-02
1890 1889 -9.7229162772241005e-06
1889 1890 -1.2141343466813000e-07
1890 1890 1.7296666219391001e-02
1896 1890 -1.6666666666667000e-02
1879 1891 -4.3547340663812998e-04
1884 1891 -1.6666666666667000e-02
1885 1891 -6.6666666666667001e-03
1886 1891 -1.3583228742286999e-04
1887 1891 -1.4268390749247001e-04
1891 1891 2.5277126464398000e-02
1892 1891 -4.3464241487002001e-04
1879 1892 -6.6857992364817995e-04
1891 1892 -4.3494517847426998e-04
1892 1892 9.2115459349903991e-03
1896 1892 -6.6666666666667001e-03
1893 1893 8.2271754455259995e-03
1896 1893 -1.6464494499244999e-04
1897 1893 -6.6196204246126996e-10
1894 1894 1.9393278835603999e-02
1895 1894 -1.2549131872709000e-03
1896 1894 -4.3295680890580000e-04
1894 1895 -1.2624868038214000e-03
1895 1895 1.9522862447401000e-02
1896 1895 -4.3716751950843998e-04
1900 1895 -1.6666666666667000e-02
1881 1896 -6.6666666666667001e-03
1890 1896 -1.6666666666667000e-02
1892 1896 -6.6666666666667001e-03
1893 1896 -1.6142421566027999e-04
1894 1896 -4.1747923878691998e-04
1895 1896 -4.5305764829340001e-04
1896 1896 3.1982450795265002e-02
1897 1896 -1.6142327671563001e-04
1893 1897 -4.4763017082114999e-12
1896 1897 -1.6206307055740001e-04
1897 1897 7.5535161424630003e-03
1900 1897 -6.6666666666667001e-03
1898 1898 1.7814097099346001e-02
1899 1898 -5.7595236955531997e-07
1900 1898 -1.3943941761930000e-04
1898 1899 -1.2986340284959000e-08
1899 1899 1.7369195907954001e-02
1900 1899 -1.3925809745766999e-04
1903 1899 -1.6666666666667000e-02
1895 1900 -1.6666666666667000e-02
1897 1900 -6.6666666666667001e-03
1898 1900 -1.3970178101826999e-04
1899 1900 -1.3881441389707001e-04
1900 1900 2.5589386559453999e-02
1901 1900 -3.3066024295690002e-04
1902 1900 -5.3563548086677003e-04
1900 1901 -3.9960124588803999e-04
1901 1901 8.4393264929641006e-03
1902 1901 -3.9975377953429002e-04
1903 1901 -6.6666666666667001e-03
1875 1902 -6.6666666666667001e-03
1900 1902 -4.6488372773709999e-04
1901 1902 -4.7690422928209000e-04
1902 1902 8.7454769518377998e-03
1850 1903 -6.9454415454329001e-04
1851 1903 -4.3231583489454001e-04
1852 1903 -4.3794174222611001e-04
1853 1903 6.8627321542991000e-06
1877 1903 -1.6666666666667000e-02
1899 1903 -1.6666666666667000e-02
1901 1903 -6.6666666666667001e-03
1903 1903 4.2166342197220999e-02
1904 1904 1.7813953923499000e-02
1905 1904 -4.8354532294162004e-07
4717 1904 -1.3991992056516000e-04
1904 1905 -4.6595179181676003e-08
1905 1905 1.7749490444395000e-02
1906 1905 -1.6666666666667000e-02
4717 1905 -1.3978493205116000e-04
1905 1906 -1.6666666666667000e-02
1906 1906 3.3333333333333000e-02
1907 1906 -1.6666666666667000e-02
1906 1907 -1.6666666666667000e-02
1907 1907 1.7749890729243999e-02
1908 1907 -4.2951193281156001e-07
4720 1907 -1.4129275188290999e-04
1907 1908 -9.5267862710313007e-09
1908 1908 1.7296396346365001e-02
1909 1908 -1.6666666666667000e-02
4720 1908 -1.3970088295890001e-04
1841 1909 -1.6142417248454999e-04
1842 1909 -4.3509036187034002e-04
1843 1909 -4.3504888419522002e-04
1844 1909 -1.6142331989136001e-04
1847 1909 -6.6666666666667001e-03
1849 1909 -6.6666666666667001e-03
1908 1909 -1.6666666666667000e-02
1909 1909 3.2099901355165002e-02
1910 1910 1.9463544448352001e-02
1911 1910 -1.1814927204923001e-03
1919 1910 -4.3509469874926002e-04
1910 1911 -1.2560493476698000e-03
1911 1911 1.9387855439124000e-02
1912 1911 -1.6666666666667000e-02
1919 1911 -4.3504408334136001e-04
1911 1912 -1.6666666666667000e-02
1912 1912 3.3333333333333000e-02
4699 1912 -1.6666666666667000e-02
1913 1913 9.2658638029748993e-03
1916 1913 -6.2287401696866002e-04
4700 1913 -4.3505582062952999e-04
1914 1914 1.7814706092578000e-02
1915 1914 -1.2132040449540000e-06
4700 1914 -1.4164125692431000e-04
1914 1915 -2.3974617711510999e-08
1915 1915 1.7296436526324999e-02
1919 1915 -1.6666666666667000e-02
4700 1915 -1.3967097803198000e-04
1913 1916 -6.7155476900837997e-04
1916 1916 9.2169446345923001e-03
1919 1916 -6.6666666666667001e-03
4700 1916 -4.3504256654590000e-04
1917 1917 8.2271772591854999e-03
1918 1917 -6.0964056554608997e-10
1919 1917 -1.6460467532597000e-04
1917 1918 -4.1300984278963001e-12
1918 1918 7.5572788037690996e-03
1919 1918 -1.6206250498287001e-04
4698 1918 -6.6666666666667001e-03
1910 1919 -4.3528442499322001e-04
1911 1919 -4.3485909252901001e-04
1915 1919 -1.6666666666667000e-02
1916 1919 -6.6666666666667001e-03
1917 1919 -1.6142417824432001e-04
1918 1919 -1.6142331413158999e-04
1919 1919 2.5548962869576999e-02
1920 1920 8.2271771645471992e-03
1923 1920 -6.0730059802587003e-10
4695 1920 -1.6460236520800001e-04
1921 1921 1.9463718180255999e-02
1922 1921 -1.1815633025912000e-03
4695 1921 -4.3506943397649998e-04
1921 1922 -1.2564920852682999e-03
1922 1922 1.9388787520679001e-02
1939 1922 -1.6666666666667000e-02
4695 1922 -4.3506935014924001e-04
1920 1923 -4.1138263096850001e-12
1923 1923 7.5572177271944997e-03
1939 1923 -6.6666666666667001e-03
4695 1923 -1.6206194462834001e-04
1924 1924 1.7814705986656999e-02
1925 1924 -1.2130902094437000e-06
1937 1924 -1.4164015255301000e-04
1924 1925 -2.3972432925202001e-08
1925 1925 1.7296439376672999e-02
1926 1925 -1.6666666666667000e-02
1937 1925 -1.3967079177000001e-04
1925 1926 -1.6666666666667000e-02
1926 1926 2.3854346543977001e-02
1928 1926 -6.6666666666667001e-03
1927 1927 9.2658576978512999e-03
1928 1927 -6.2287218362580999e-04
1937 1927 -4.3505790071243002e-04
1926 1928 -6.6666666666667001e-03
1927 1928 -6.7154050644237999e-04
1928 1928 9.2168761426693006e-03
1937 1928 -4.3504048630313002e-04
1929 1929 1.9463661593498001e-02
1930 1929 -1.1815083747091001e-03
1944 1929 -4.3506948249652999e-04
1929 1930 -1.2564351561208001e-03
1930 1930 1.9388730762683000e-02
1937 1930 -1.6666666666667000e-02
1944 1930 -4.3506930162918003e-04
1931 1931 1.7814431870227000e-02
1932 1931 -9.3381150294604005e-07
1939 1931 -1.4034815792142999e-04
1931 1932 -9.3378391099053995e-07
1932 1932 1.7814429964304001e-02
1937 1932 -1.6666666666667000e-02
1939 1932 -1.4034815010140000e-04
1933 1933 8.2271772273472994e-03
1934 1933 -5.4592669932349000e-10
1944 1933 -1.6458297576834999e-04
1933 1934 -3.8174395139793997e-12
1934 1934 7.5912130144891003e-03
1935 1934 -6.6666666666667001e-03
1944 1934 -1.6212733271602999e-04
1934 1935 -6.6666666666667001e-03
1935 1935 1.3333333333332999e-02
1936 1935 -6.6666666666667001e-03
1935 1936 -6.6666666666667001e-03
1936 1936 7.5912136916814997e-03
1938 1936 -6.9518038601419998e-10
1939 1936 -1.6685428408045000e-04
1924 1937 -1.4022951982488999e-04
1925 1937 -1.3828667509045001e-04
1927 1937 -4.3508490494766999e-04
1928 1937 -4.3501494846066998e-04
1930 1937 -1.6666666666667000e-02
1932 1937 -1.6666666666667000e-02
1937 1937 4.2092970439293997e-02
1938 1937 -6.6666666666667001e-03
1936 1938 -1.2553105007547999e-11
1937 1938 -6.6666666666667001e-03
1938 1938 7.5572178184668999e-03
1939 1938 -1.6631928657894000e-04
1922 1939 -1.6666666666667000e-02
1923 1939 -6.6666666666667001e-03
1931 1939 -1.3925811684477999e-04
1932 1939 -1.3925807807056001e-04
1936 1939 -1.6142437362628000e-04
1938 1939 -1.6142311874963000e-04
1939 1939 2.5282354060827999e-02
1940 1940 9.2657238991777999e-03
1943 1940 -6.2273075541012003e-04
4698 1940 -4.3505549882627998e-04
1941 1941 1.7814715109202000e-02
1942 1941 -1.2229993220648999e-06
4698 1941 -1.4174809979358000e-04
1941 1942 -2.4173876957260000e-08
1942 1942 1.7296436233886998e-02
1944 1942 -1.6666666666667000e-02
4698 1942 -1.3968948884546999e-04
1940 1943 -6.7140826065894004e-04
1943 1943 9.2168196255298998e-03
1944 1943 -6.6666666666667001e-03
4698 1943 -4.3504288837000003e-04
1929 1944 -4.3507016051103000e-04
1930 1944 -4.3506864054855001e-04
1933 1944 -1.6142413215468001e-04
1934 1944 -1.6142336022123999e-04
1942 1944 -1.6666666666667000e-02
1943 1944 -6.6666666666667001e-03
1944 1944 2.5550291284814002e-02
1945 1945 8.2272091638701007e-03
1946 1945 -4.7781707708968002e-10
4697 1945 -1.6451212362827999e-04
1945 1946 -3.2176510588889999e-12
1946 1946 7.5572811220450996e-03
4697 1946 -1.6203506240762000e-04
4698 1946 -6.6666666666667001e-03
1947 1947 8.9528944674001996e-03
1950 1947 -2.7130561372387002e-04
1975 1947 -5.3141108799159001e-04
1948 1948 1.8832470884111999e-02
1949 1948 -6.7691669877969997e-04
1975 1948 -4.3502303487815000e-04
1948 1949 -6.2566890506649995e-04
1949 1949 1.8885202280442999e-02
1975 1949 -4.3511574093303999e-04
4680 1949 -1.6666666666667000e-02
1947 1950 -2.7729597122494999e-05
1950 1950 7.5848805394872999e-03
1975 1950 -1.6251983312999001e-04
4680 1950 -6.6666666666667001e-03
1951 1951 1.7814263318028999e-02
1952 1951 -7.6607936787149999e-07
1980 1951 -1.3996704109693999e-04
1951 1952 -1.9037449451830000e-08
1952 1952 1.7406261520125001e-02
1975 1952 -1.6666666666667000e-02
1980 1952 -1.3944645507879999e-04
1953 1953 1.8765787677780001e-02
1954 1953 -5.1285637929678995e-04
1974 1953 -5.3289910011140005e-04
1953 1954 -1.8387391806566999e-04
1954 1954 1.7733070781704999e-02
1974 1954 -2.7456680391554997e-04
1975 1954 -1.6666666666667000e-02
1955 1955 9.2192644531256009e-03
1956 1955 -6.7363821013978996e-04
1980 1955 -4.3495351810138002e-04
1955 1956 -6.2718981283950003e-04
1956 1956 9.2704883846643996e-03
1957 1956 -6.6666666666667001e-03
1980 1956 -4.3514482351622997e-04
1956 1957 -6.6666666666667001e-03
1957 1957 1.3333333333332999e-02
1972 1957 -6.6666666666667001e-03
1958 1958 9.1787682476439005e-03
1970 1958 -4.5995546395496999e-04
1971 1958 -5.6145556036395000e-04
1959 1959 8.2272401922460006e-03
1967 1959 -5.8623599536139002e-10
1960 1960 8.2271771048130996e-03
1966 1960 -5.8227643592129001e-10
1961 1961 1.9447786337467000e-02
1962 1961 -1.1789831818316001e-03
1961 1962 -1.2039239141279001e-03
1962 1962 1.9271550400707001e-02
1963 1962 -1.6666666666667000e-02
1962 1963 -1.6666666666667000e-02
1963 1963 3.3333333333333000e-02
1964 1963 -1.6666666666667000e-02
1963 1964 -1.6666666666667000e-02
1964 1964 1.9307500905014000e-02
1965 1964 -1.1526155032097001e-03
1964 1965 -1.1671593160429000e-03
1965 1965 1.9183785677706001e-02
1970 1965 -1.6666666666667000e-02
1960 1966 -3.9849019819340996e-12
1966 1966 7.5693878385187999e-03
1970 1966 -6.6666666666667001e-03
1959 1967 -3.9939315653615996e-12
1967 1967 7.5694227597769004e-03
1970 1967 -6.6666666666667001e-03
1968 1968 1.7818914249353002e-02
1969 1968 -5.0592849262016004e-06
1970 1968 -1.5861161725573000e-04
1968 1969 -1.0994009244177000e-07
1969 1969 1.7327998920799999e-02
1970 1969 -1.4293440718001000e-04
1974 1969 -1.6666666666667000e-02
1958 1970 -5.3467426883770000e-04
1965 1970 -1.6666666666667000e-02
1966 1970 -6.6666666666667001e-03
1967 1970 -6.6666666666667001e-03
1968 1970 -1.4327966188644001e-04
1969 1970 -1.3523653302889999e-04
1970 1970 3.1895147939870000e-02
1971 1970 -3.3480170838734999e-04
1958 1971 -4.8744598181621002e-04
1970 1971 -4.0646938200502002e-04
1971 1971 8.6884540848430006e-03
1974 1971 -6.6666666666667001e-03
1957 1972 -6.6666666666667001e-03
1972 1972 8.7840194955773002e-03
1973 1972 -6.7069885884558003e-05
1974 1972 -5.3009436203453998e-04
1972 1973 -3.4137658566222999e-06
1973 1973 7.7046951296564003e-03
1974 1973 -1.6236583293665000e-04
1975 1973 -6.6666666666667001e-03
1953 1974 -8.0740325380317004e-04
1954 1974 1.1320814255436001e-05
1969 1974 -1.6666666666667000e-02
1971 1974 -6.6666666666667001e-03
1972 1974 -5.7602168547419999e-04
1973 1974 -1.1165973691479000e-04
1974 1974 2.5381140392314001e-02
1947 1975 -7.2740014050109005e-04
1948 1975 -4.3491645324902000e-04
1949 1975 -4.3523140416781999e-04
1950 1975 3.9718718112099002e-05
1952 1975 -1.6666666666667000e-02
1954 1975 -1.6666666666667000e-02
1973 1975 -6.6666666666667001e-03
1975 1975 4.2162868164720001e-02
1976 1976 8.2271777470808004e-03
1979 1976 -6.1689211164748996e-10
2044 1976 -1.6461066779035999e-04
1977 1977 1.9390018588040001e-02
1978 1977 -1.2561598429615000e-03
2044 1977 -4.3459833890705998e-04
1977 1978 -1.2038550009146999e-03
1978 1978 1.9476926576568999e-02
1980 1978 -1.6666666666667000e-02
2044 1978 -4.3553973704583997e-04
1976 1979 -4.1767167625994004e-12
1979 1979 7.5563884216087998e-03
1980 1979 -6.6666666666667001e-03
2044 1979 -1.6206180458978999e-04
1951 1980 -1.3984363803335001e-04
1952 1980 -1.3867255688198999e-04
1955 1980 -4.3467102643833001e-04
1956 1980 -4.3544345912057000e-04
1978 1980 -1.6666666666667000e-02
1979 1980 -6.6666666666667001e-03
1980 1980 2.5697088178733000e-02
1981 1981 9.2658192527736993e-03
1982 1981 -6.2285439101669997e-04
4700 1981 -4.3506823935367001e-04
1981 1982 -6.7146068059418000e-04
1982 1982 9.2165280190183007e-03
2044 1982 -6.6666666666667001e-03
4700 1982 -4.3503014622364001e-04
1983 1983 8.2272090047103008e-03
1984 1983 -3.1676946700211000e-10
4697 1983 -1.6427600321651000e-04
1983 1984 -3.1032843750451999e-10
1984 1984 8.2267009740091997e-03
2044 1984 -6.6666666666667001e-03
4697 1984 -1.6422565070318000e-04
1985 1985 9.1904982546547002e-03
1988 1985 -6.4134154689912996e-04
2038 1985 -4.3469612574051000e-04
1986 1986 1.7818958130005998e-02
1987 1986 -5.6749743583525997e-06
2038 1986 -1.5858758213658001e-04
1986 1987 -1.1722740861395000e-07
1987 1987 1.7296055975721002e-02
2038 1987 -1.4260274723641001e-04
4697 1987 -1.6666666666667000e-02
1985 1988 -6.0269749658870995e-04
1988 1988 9.2457208382464001e-03
2038 1988 -4.3540163966935001e-04
4697 1988 -6.6666666666667001e-03
1989 1989 9.2604376162706004e-03
2001 1989 -4.3645459409972001e-04
2002 1989 -6.2019276003673005e-04
1990 1990 8.2271187744355004e-03
1991 1990 -2.2206953461636000e-10
1990 1991 -7.7416982592784997e-12
1991 1991 8.1916818642816004e-03
2007 1991 -6.6666666666667001e-03
1992 1992 8.2271771289531993e-03
1995 1992 -6.0651517066080996e-10
1993 1993 1.9463232892834002e-02
1994 1993 -1.1815182736797001e-03
1993 1994 -1.2548313256290999e-03
1994 1994 1.9384989813636001e-02
2001 1994 -1.6666666666667000e-02
1992 1995 -4.1091064419106999e-12
1995 1995 7.5574124685097001e-03
2001 1995 -6.6666666666667001e-03
1996 1996 1.7814568241886999e-02
1997 1996 -1.0745112662427999e-06
2001 1996 -1.4170707402260001e-04
1996 1997 -2.2898883586919000e-08
1997 1997 1.7334868098890999e-02
1998 1997 -1.6666666666667000e-02
2001 1997 -1.3975572113534001e-04
1997 1998 -1.6666666666667000e-02
1998 1998 3.3333333333333000e-02
1999 1998 -1.6666666666667000e-02
1998 1999 -1.6666666666667000e-02
1999 1999 1.7863589134439001e-02
2000 1999 -1.3392269898613001e-04
1999 2000 -2.4489577357538001e-05
2000 2000 1.7308148035706999e-02
2007 2000 -1.6666666666667000e-02
1989 2001 -4.4079339960973000e-04
1994 2001 -1.6666666666667000e-02
1995 2001 -6.6666666666667001e-03
1996 2001 -1.4010366936639999e-04
1997 2001 -1.3841252554894001e-04
2001 2001 2.5661473113606999e-02
2002 2001 -4.2952730102173003e-04
1989 2002 -6.6063521188911999e-04
2001 2002 -4.3363378980764003e-04
2002 2002 9.1715107149960996e-03
2007 2002 -6.6666666666667001e-03
2003 2003 8.2271657711281004e-03
2006 2003 -1.6404962654198000e-09
2007 2003 -1.6513529787380999e-04
2004 2004 1.9375472408442999e-02
2005 2004 -1.2417853131721000e-03
2007 2004 -4.3475025958220000e-04
2004 2005 -1.1826349213023000e-03
2005 2005 1.9458079062734002e-02
2007 2005 -4.3538819857175001e-04
2013 2005 -1.6666666666667000e-02
2003 2006 -1.1274127800271000e-11
2006 2006 7.5566632773546001e-03
2007 2006 -1.6216768905836999e-04
2013 2006 -6.6666666666667001e-03
1991 2007 -6.6666666666667001e-03
2000 2007 -1.6666666666667000e-02
2002 2007 -6.6666666666667001e-03
2003 2007 -1.6142491605687000e-04
2004 2007 -4.3245718803000999e-04
2005 2007 -4.3774164187668999e-04
2006 2007 -1.6142257631904000e-04
2007 2007 3.1969324486169001e-02
2008 2008 9.2178046550863008e-03
2009 2008 -5.9786563720062998e-04
2013 2008 -4.5092677615532999e-04
2008 2009 -5.6519672363837005e-04
2009 2009 8.8411903005701994e-03
2010 2009 -6.6666666666667001e-03
2013 2009 -4.1776680748705999e-04
2009 2010 -6.6666666666667001e-03
2010 2010 1.3333333333332999e-02
2037 2010 -6.6666666666667001e-03
2011 2011 1.7813994444986998e-02
2012 2011 -4.9937618246700996e-07
2013 2011 -1.3993285525208999e-04
2011 2012 -3.0650253203719998e-08
2012 2012 1.7703678230284001e-02
2013 2012 -1.3972058099103000e-04
2038 2012 -1.6666666666667000e-02
2005 2013 -1.6666666666667000e-02
2006 2013 -6.6666666666667001e-03
2008 2013 -4.9873373444017004e-04
2009 2013 -3.7213529440964998e-04
2011 2013 -1.3960748245085000e-04
2012 2013 -1.3890871246449000e-04
2013 2013 2.5768296038958999e-02
2014 2014 9.2028920973938992e-03
2026 2014 -4.5883792658504998e-04
2027 2014 -5.8808506089706996e-04
2015 2015 8.2271768268474006e-03
2016 2015 -3.0318728419964001e-10
2015 2016 -3.4930142795808999e-12
2016 2016 7.9004460972521996e-03
2031 2016 -6.6666666666667001e-03
2017 2017 8.2272577421730001e-03
2020 2017 -6.0778904454442998e-10
2018 2018 1.9457579410862000e-02
2019 2018 -1.1808127160888001e-03
2018 2019 -1.2388003141906999e-03
2019 2019 1.9348587839661001e-02
2026 2019 -1.6666666666667000e-02
2017 2020 -4.1002168844504996e-12
2020 2020 7.5593330679918002e-03
2026 2020 -6.6666666666667001e-03
2021 2021 1.7814816977173999e-02
2022 2021 -1.3222312175910999e-06
2026 2021 -1.4463978984628000e-04
2021 2022 -2.9071239149497999e-08
2022 2022 1.7346097139878999e-02
2023 2022 -1.6666666666667000e-02
2026 2022 -1.4040121223287999e-04
2022 2023 -1.6666666666667000e-02
2023 2023 3.3333333333333000e-02
2024 2023 -1.6666666666667000e-02
2023 2024 -1.6666666666667000e-02
2024 2024 1.7947510289572002e-02
2025 2024 -2.4514397384467002e-04
2024 2025 -1.9396808993666999e-04
2025 2025 1.7702916200280000e-02
2031 2025 -1.6666666666667000e-02
2014 2026 -5.3601366182974997e-04
2019 2026 -1.6666666666667000e-02
2020 2026 -6.6666666666667001e-03
2021 2026 -1.4029687535788000e-04
2022 2026 -1.3821931955746000e-04
2026 2026 2.5239253873606999e-02
2027 2026 -3.3370207687959000e-04
2014 2027 -5.1229547261976999e-04
2026 2027 -4.0793848085195000e-04
2027 2027 8.7108485956984994e-03
2031 2027 -6.6666666666667001e-03
2028 2028 8.7977679147705004e-03
2031 2028 -5.2981374934942004e-04
2032 2028 -8.3825676427810999e-05
2029 2029 1.9158607517277999e-02
2030 2029 -9.2537978642128003e-04
2031 2029 -4.6564669056938998e-04
2029 2030 -7.5038029653887997e-04
2030 2030 1.8607923364992000e-02
2031 2030 -4.0041369634128001e-04
2035 2030 -1.6666666666667000e-02
2016 2031 -6.6666666666667001e-03
2025 2031 -1.6666666666667000e-02
2027 2031 -6.6666666666667001e-03
2028 2031 -5.8948576073003999e-04
2029 2031 -6.2641983507719004e-04
2030 2031 -2.4242245200410001e-04
2031 2031 3.2170708755814001e-02
2032 2031 -9.8195661658956999e-05
2028 2032 -3.2093074782389998e-06
2031 2032 -1.6214434532979999e-04
2032 2032 7.6009233328472999e-03
2035 2032 -6.6666666666667001e-03
2033 2033 1.8442102559713999e-02
2034 2033 -8.9416739742755006e-05
2035 2033 -5.4616078530561000e-04
2033 2034 -2.4024428755126999e-05
2034 2034 1.7713772314137999e-02
2035 2034 -1.4744282121840999e-04
2038 2034 -1.6666666666667000e-02
2030 2035 -1.6666666666667000e-02
2032 2035 -6.6666666666667001e-03
2033 2035 -5.9771340014313004e-04
2034 2035 -7.5217854245805002e-05
2035 2035 2.5283373984232999e-02
2036 2035 3.7815866324848003e-05
2037 2035 -7.2549728871384002e-04
2035 2036 -1.6292768098481001e-04
2036 2036 7.6108338522314998e-03
2037 2036 -4.1635055925717999e-05
2038 2036 -6.6666666666667001e-03
2010 2037 -6.6666666666667001e-03
2035 2037 -5.3023064590512000e-04
2036 2037 -2.6982725011715999e-04
2037 2037 8.6600913306407994e-03
1985 2038 -4.3361995922711001e-04
1986 2038 -1.4388950168950999e-04
1987 2038 -1.3462669322583001e-04
1988 2038 -4.3653788926805001e-04
2012 2038 -1.6666666666667000e-02
2034 2038 -1.6666666666667000e-02
2036 2038 -6.6666666666667001e-03
2038 2038 4.1889681620227000e-02
2039 2039 1.9467124894026001e-02
2040 2039 -1.1850466653301000e-03
4697 2039 -4.3509326767091002e-04
2039 2040 -1.2596894864617999e-03
2040 2040 1.9391409913752999e-02
2041 2040 -1.6666666666667000e-02
4697 2040 -4.3504551464545999e-04
2040 2041 -1.6666666666667000e-02
2041 2041 3.3333333333333000e-02
2042 2041 -1.6666666666667000e-02
2041 2042 -1.6666666666667000e-02
2042 2042 1.7814199354190999e-02
2043 2042 -1.2042406635311001e-06
4700 2042 -1.4163786929397999e-04
2042 2043 -2.3820624799613999e-08
2043 2043 1.7296452734699999e-02
2044 2043 -1.6666666666667000e-02
4700 2043 -1.3967120436982999e-04
1976 2044 -1.6142418342041001e-04
1977 2044 -4.3115338046234000e-04
1978 2044 -4.3907395517148997e-04
1979 2044 -1.6142330895549999e-04
1982 2044 -6.6666666666667001e-03
1984 2044 -6.6666666666667001e-03
2043 2044 -1.6666666666667000e-02
2044 2044 3.2099504520678002e-02
2045 2045 1.9464090182645999e-02
2046 2045 -1.1819754217411999e-03
2054 2045 -4.3507378896551002e-04
2045 2046 -1.2568422834258999e-03
2046 2046 1.9389026376227001e-02
2047 2046 -1.6666666666667000e-02
2054 2046 -4.3506499509882998e-04
2046 2047 -1.6666666666667000e-02
2047 2047 3.3333333333333000e-02
4679 2047 -1.6666666666667000e-02
2048 2048 9.2178437477735999e-03
2051 2048 -6.7175947950278998e-04
4680 2048 -4.3501652829260002e-04
2049 2049 1.7814660232880000e-02
2050 2049 -1.2169543557503999e-06
4680 2049 -1.4168840108727001e-04
2049 2050 -2.4050720520177999e-08
2050 2050 1.7296372569718999e-02
2054 2050 -1.6666666666667000e-02
4680 2050 -1.3967910909993999e-04
2048 2051 -6.2406527810538999e-04
2051 2051 9.2671625563897006e-03
2054 2051 -6.6666666666667001e-03
4680 2051 -4.3508185375970999e-04
2052 2052 8.2271938830006004e-03
2053 2052 -5.9101471327566997e-10
2054 2052 -1.6460905996734001e-04
2052 2053 -3.9969534368971003e-12
2053 2053 7.5572200783543004e-03
2054 2053 -1.6205874459019999e-04
4678 2053 -6.6666666666667001e-03
2045 2054 -4.3510677237508998e-04
2046 2054 -4.3503283482654998e-04
2050 2054 -1.6666666666667000e-02
2051 2054 -6.6666666666667001e-03
2052 2054 -1.6142416445996999e-04
2053 2054 -1.6142332791594001e-04
2054 2054 2.5549497509346999e-02
2055 2055 8.2271883031399002e-03
2058 2055 -5.9197212752516003e-10
4675 2055 -1.6460273972168001e-04
2056 2056 1.9464065133737000e-02
2057 2056 -1.1819437335125001e-03
4675 2056 -4.3507462473700998e-04
2056 2057 -1.2568000553307001e-03
2057 2057 1.9388974440961999e-02
2074 2057 -1.6666666666667000e-02
4675 2057 -4.3506415930177000e-04
2055 2058 -4.0051957406273004e-12
2058 2058 7.5572276155870003e-03
2074 2058 -6.6666666666667001e-03
4675 2058 -1.6205900794006000e-04
2059 2059 1.7814706019555999e-02
2060 2059 -1.2131323546632000e-06
2072 2059 -1.4164061337992000e-04
2059 2060 -2.3973289268409000e-08
2060 2060 1.7296439348780002e-02
2061 2060 -1.6666666666667000e-02
2072 2060 -1.3967087157223999e-04
2060 2061 -1.6666666666667000e-02
2061 2061 2.3854346543977001e-02
2063 2061 -6.6666666666667001e-03
2062 2062 9.2658572322336999e-03
2063 2062 -6.2287159967408003e-04
2072 2062 -4.3505788106087002e-04
2061 2063 -6.6666666666667001e-03
2062 2063 -6.7154002556072995e-04
2063 2063 9.2168762811454998e-03
2072 2063 -4.3504050595638999e-04
2064 2064 1.9463640110946999e-02
2065 2064 -1.1814878838628000e-03
2079 2064 -4.3506962759570002e-04
2064 2065 -1.2564120862119999e-03
2065 2065 1.9388705362259999e-02
2072 2065 -1.6666666666667000e-02
2079 2065 -4.3506915652985999e-04
2066 2066 1.7814432748021001e-02
2067 2066 -9.3495398348782998e-07
2074 2066 -1.4035710271601999e-04
2066 2067 -9.3488165867983002e-07
2067 2067 1.7814427757975999e-02
2072 2067 -1.6666666666667000e-02
2074 2067 -1.4035708207437000e-04
2068 2068 8.2271771910616999e-03
2069 2068 -5.4669749536883000e-10
2079 2068 -1.6458370191102000e-04
2068 2069 -3.8229266677745998e-12
2069 2069 7.5912135598774997e-03
2070 2069 -6.6666666666667001e-03
2079 2069 -1.6212750681254999e-04
2069 2070 -6.6666666666667001e-03
2070 2070 1.3333333333332999e-02
2071 2070 -6.6666666666667001e-03
2070 2071 -6.6666666666667001e-03
2071 2071 7.5912143146346003e-03
2073 2071 -6.9266226388611003e-10
2074 2071 -1.6685415416730999e-04
2059 2072 -1.4022955399813999e-04
2060 2072 -1.3828664091720001e-04
2062 2072 -4.3508482429926998e-04
2063 2072 -4.3501502580176998e-04
2065 2072 -1.6666666666667000e-02
2067 2072 -1.6666666666667000e-02
2072 2072 4.2092953755507999e-02
2073 2072 -6.6666666666667001e-03
2071 2073 -1.2507538105156000e-11
2072 2073 -6.6666666666667001e-03
2073 2073 7.5572181353789000e-03
2074 2073 -1.6631916515046999e-04
2057 2074 -1.6666666666667000e-02
2058 2074 -6.6666666666667001e-03
2066 2074 -1.3925814827684999e-04
2067 2074 -1.3925804663848001e-04
2071 2074 -1.6142437135280001e-04
2073 2074 -1.6142312102310999e-04
2074 2074 2.5281865285303001e-02
2075 2075 9.2658600364744007e-03
2078 2075 -6.2286963133165998e-04
4678 2075 -4.3505747970927001e-04
2076 2076 1.7814705863373002e-02
2077 2076 -1.2133283592495001e-06
4678 2076 -1.4164279085900999e-04
2076 2077 -2.3977266864388000e-08
2077 2077 1.7296438734273001e-02
2079 2077 -1.6666666666667000e-02
4678 2077 -1.3967124827607999e-04
2075 2078 -6.7154079804140996e-04
2078 2078 9.2168907791284008e-03
2079 2078 -6.6666666666667001e-03
4678 2078 -4.3504090734213999e-04
2064 2079 -4.3507139342881999e-04
2065 2079 -4.3506743480066002e-04
2068 2079 -1.6142413270406000e-04
2069 2079 -1.6142335967185000e-04
2077 2079 -1.6666666666667000e-02
2078 2079 -6.6666666666667001e-03
2079 2079 2.5550268271158000e-02
2080 2080 8.2271802312920000e-03
2081 2080 -6.3956906169497005e-10
4677 2080 -1.6463469260243001e-04
2080 2081 -4.3348110263718003e-12
2081 2081 7.5572190736099996e-03
4677 2081 -1.6206761839404000e-04
4678 2081 -6.6666666666667001e-03
2082 2082 8.9512106762211999e-03
2085 2082 -2.6879845222650998e-04
2110 2082 -5.3137015969669996e-04
2083 2083 1.8841567971059001e-02
2084 2083 -6.8640191269558003e-04
2110 2083 -4.3484526279453998e-04
2083 2084 -6.3832569273710002e-04
2084 2084 1.8896920015662001e-02
2110 2084 -4.3529332804246001e-04
4660 2084 -1.6666666666667000e-02
2082 2085 -2.6884685027286000e-05
2085 2085 7.5838623074779002e-03
2110 2085 -1.6250894858213001e-04
4660 2085 -6.6666666666667001e-03
2086 2086 1.7814269581237999e-02
2087 2086 -7.7254666510081999e-07
2115 2086 -1.3998837939840000e-04
2086 2087 -1.9079018525356999e-08
2087 2087 1.7403547782067999e-02
2110 2087 -1.6666666666667000e-02
2115 2087 -1.3945026071529999e-04
2088 2088 1.8764352238352999e-02
2089 2088 -5.0958939508185998e-04
2109 2088 -5.3540015242288996e-04
2088 2089 -1.7848706876198001e-04
2089 2089 1.7716695306253999e-02
2109 2089 -2.6738060691383999e-04
2110 2089 -1.6666666666667000e-02
2090 2090 9.2191903305174003e-03
2091 2090 -6.7361096168368998e-04
2115 2090 -4.3498658448309002e-04
2090 2091 -6.2635597513289001e-04
2091 2091 9.2695733889292999e-03
2092 2091 -6.6666666666667001e-03
2115 2091 -4.3511178329598001e-04
2091 2092 -6.6666666666667001e-03
2092 2092 1.3333333333332999e-02
2107 2092 -6.6666666666667001e-03
2093 2093 9.1793042213315999e-03
2105 2093 -4.6030945035082000e-04
2106 2093 -5.6240817200812999e-04
2094 2094 8.2271771059638007e-03
2102 2094 -5.8343167917809004e-10
2095 2095 8.2272397974525006e-03
2101 2095 -5.8737343970830999e-10
2096 2096 1.9447315097479000e-02
2097 2096 -1.1789644864984000e-03
2096 2097 -1.2052656697621000e-03
2097 2097 1.9274384799253998e-02
2098 2097 -1.6666666666667000e-02
2097 2098 -1.6666666666667000e-02
2098 2098 3.3333333333333000e-02
2099 2098 -1.6666666666667000e-02
2098 2099 -1.6666666666667000e-02
2099 2099 1.9312863652860002e-02
2100 2099 -1.1540785991958999e-03
2099 2100 -1.1714467699512001e-03
2100 2100 1.9192864317239999e-02
2105 2100 -1.6666666666667000e-02
2095 2101 -3.9996582017868997e-12
2101 2101 7.5688250604635000e-03
2105 2101 -6.6666666666667001e-03
2094 2102 -3.9906755864134999e-12
2102 2102 7.5687902516389004e-03
2105 2102 -6.6666666666667001e-03
2103 2103 1.7818578602287999e-02
2104 2103 -4.6958350114449998e-06
2105 2103 -1.5802785519946000e-04
2103 2104 -1.0184550578343000e-07
2104 2104 1.7328584743368000e-02
2105 2104 -1.4281210877502000e-04
2109 2104 -1.6666666666667000e-02
2093 2105 -5.3637895271996000e-04
2100 2105 -1.6666666666667000e-02
2101 2105 -6.6666666666667001e-03
2102 2105 -6.6666666666667001e-03
2103 2105 -1.4298300806592001e-04
2104 2105 -1.3553318684941999e-04
2105 2105 3.1898567584893997e-02
2106 2105 -3.3301006714742001e-04
2093 2106 -4.8653257857692001e-04
2105 2106 -4.0600149210328002e-04
2106 2106 8.6837104788179999e-03
2109 2106 -6.6666666666667001e-03
2092 2107 -6.6666666666667001e-03
2107 2107 8.7852293353821009e-03
2108 2107 -6.8520048124861993e-05
2109 2107 -5.2994673392679997e-04
2107 2108 -3.5283818482507999e-06
2108 2108 7.7084250708140001e-03
2109 2108 -1.6238311210501000e-04
2110 2108 -6.6666666666667001e-03
2088 2109 -8.1180178222715004e-04
2089 2109 2.1712529375624999e-05
2104 2109 -1.6666666666667000e-02
2106 2109 -6.6666666666667001e-03
2107 2109 -5.7734663406898998e-04
2108 2109 -1.1033478831999999e-04
2109 2109 2.5375662116697999e-02
2082 2110 -7.2590587191780000e-04
2083 2110 -4.3431163996786001e-04
2084 2110 -4.3587101040540001e-04
2085 2110 3.8224449528810997e-05
2087 2110 -1.6666666666667000e-02
2089 2110 -1.6666666666667000e-02
2108 2110 -6.6666666666667001e-03
2110 2110 4.2163056890626001e-02
2111 2111 8.2271908231961004e-03
2114 2111 -6.0589442566984996e-10
2179 2111 -1.6461769444756999e-04
2112 2112 1.9390240179596001e-02
2113 2112 -1.2564310823294999e-03
2179 2112 -4.3460634750528001e-04
2112 2113 -1.2037547248433000e-03
2113 2113 1.9476970402550000e-02
2115 2113 -1.6666666666667000e-02
2179 2113 -4.3553175246356998e-04
2111 2114 -4.0972498331501997e-12
2114 2114 7.5564031536717998e-03
2115 2114 -6.6666666666667001e-03
2179 2114 -1.6205969933432999e-04
2086 2115 -1.3984915050888001e-04
2087 2115 -1.3866704440645999e-04
2090 2115 -4.3480176563691998e-04
2091 2115 -4.3530715970416001e-04
2113 2115 -1.6666666666667000e-02
2114 2115 -6.6666666666667001e-03
2115 2115 2.5695241888461999e-02
2116 2116 9.2178036353017002e-03
2117 2116 -6.7176526415526001e-04
4680 2116 -4.3504667349939002e-04
2116 2117 -6.2333039635085997e-04
2117 2117 9.2663639649798006e-03
2179 2117 -6.6666666666667001e-03
4680 2117 -4.3505171386432003e-04
2118 2118 8.2271800175282000e-03
2119 2118 -4.2325285888449001e-10
4677 2118 -1.6438449569655000e-04
2118 2119 -4.2643168872727000e-10
2119 2119 8.2272766546375997e-03
2179 2119 -6.6666666666667001e-03
4677 2119 -1.6452846534017001e-04
2120 2120 9.2754687022629997e-03
2123 2120 -6.3221835555414996e-04
2173 2120 -4.3512207817195998e-04
2121 2121 1.7814209898762999e-02
2122 2121 -7.1628020872682999e-07
2173 2121 -1.3925809745766999e-04
2121 2122 -1.3940826735957999e-08
2122 2122 1.7296516102556000e-02
2173 2122 -1.3925809745766999e-04
4677 2122 -1.6666666666667000e-02
2120 2123 -6.8089139367420997e-04
2123 2123 9.2241211403234005e-03
2173 2123 -4.3497628261351999e-04
4677 2123 -6.6666666666667001e-03
2124 2124 9.1995140415333000e-03
2136 2124 -4.6033702473235002e-04
2137 2124 -5.8568366588341995e-04
2125 2125 8.2271768310723005e-03
2126 2125 -3.0742932846547001e-10
2125 2126 -3.4659049580187002e-12
2126 2126 7.8894407429069002e-03
2142 2126 -6.6666666666667001e-03
2127 2127 8.2272576187875004e-03
2130 2127 -6.0755006967308999e-10
2128 2128 1.9457312765480999e-02
2129 2128 -1.1807734287895000e-03
2128 2129 -1.2379126244908001e-03
2129 2129 1.9346590999557999e-02
2136 2129 -1.6666666666667000e-02
2127 2130 -4.0990018665792001e-12
2130 2130 7.5594425823857997e-03
2136 2130 -6.6666666666667001e-03
2131 2131 1.7814827361918001e-02
2132 2131 -1.3303727060222999e-06
2136 2131 -1.4478216133553999e-04
2131 2132 -2.9413360901781999e-08
2132 2132 1.7348495587006001e-02
2133 2132 -1.6666666666667000e-02
2136 2132 -1.4044247313789999e-04
2132 2133 -1.6666666666667000e-02
2133 2133 3.3333333333333000e-02
2134 2133 -1.6666666666667000e-02
2133 2134 -1.6666666666667000e-02
2134 2134 1.7966566448948999e-02
2135 2134 -2.6702195907175999e-04
2134 2135 -2.1413358521480999e-04
2135 2135 1.7737443932894000e-02
2142 2135 -1.6666666666667000e-02
2124 2136 -5.4203818027903996e-04
2129 2136 -1.6666666666667000e-02
2130 2136 -6.6666666666667001e-03
2131 2136 -1.4030242443271001e-04
2132 2136 -1.3821377048262999e-04
2136 2136 2.5584428159256999e-02
2137 2136 -3.2732858248352999e-04
2124 2137 -5.0333433072806996e-04
2136 2137 -4.0596947894548999e-04
2137 2137 8.6886483086625992e-03
2142 2137 -6.6666666666667001e-03
2138 2138 8.8027140436701002e-03
2141 2138 -8.8333700831691003e-05
2142 2138 -5.2977814145843997e-04
2139 2139 1.8795706958266999e-02
2140 2139 -5.6090008407632004e-04
2142 2139 -4.8629037933266002e-04
2139 2140 -2.8853409634593997e-04
2140 2140 1.8043894352556000e-02
2142 2140 -3.7104372625721999e-04
2148 2140 -1.6666666666667000e-02
2138 2141 -3.6913232319929998e-06
2141 2141 7.6280168354590002e-03
2142 2141 -1.6222505167432999e-04
2148 2141 -6.6666666666667001e-03
2126 2142 -6.6666666666667001e-03
2135 2142 -1.6666666666667000e-02
2137 2142 -6.6666666666667001e-03
2138 2142 -5.9307901051274003e-04
2139 2142 -7.2551999460359999e-04
2140 2142 -1.3362019916431000e-04
2141 2142 -9.4602411876253006e-05
2142 2142 3.2160183559241003e-02
2143 2143 8.9358913031327009e-03
2144 2143 -2.6481625806003002e-04
2148 2143 -5.3237401184448000e-04
2143 2144 -4.7763322728658999e-05
2144 2144 7.7142772238663997e-03
2145 2144 -6.6666666666667001e-03
2148 2144 -1.6325816267780000e-04
2144 2145 -6.6666666666667001e-03
2145 2145 1.3333333333332999e-02
2172 2145 -6.6666666666667001e-03
2146 2146 1.8580038870086000e-02
2147 2146 -4.1603020828980003e-04
2148 2146 -4.2061592007004998e-04
2146 2147 -4.7041777071589003e-04
2147 2147 1.8701462576907000e-02
2148 2147 -4.4874506159112002e-04
2173 2147 -1.6666666666667000e-02
2140 2148 -1.6666666666667000e-02
2141 2148 -6.6666666666667001e-03
2143 2148 -7.0737824584701000e-04
2144 2148 1.9696823458024000e-05
2146 2148 -4.1359875407009000e-04
2147 2148 -4.5812963108532998e-04
2148 2148 2.5723998241141001e-02
2149 2149 9.2607395396726005e-03
2161 2149 -4.3636372193207000e-04
2162 2149 -6.2032213583713004e-04
2150 2150 8.2271189910751996e-03
2151 2150 -2.2164513834899999e-10
2150 2151 -8.0331898279233006e-12
2151 2151 8.1938680758662005e-03
2166 2151 -6.6666666666667001e-03
2152 2152 8.2271771289387004e-03
2155 2152 -6.0650068513788002e-10
2153 2153 1.9463215561924999e-02
2154 2153 -1.1815163548289001e-03
2153 2154 -1.2547729329517000e-03
2154 2154 1.9384856762066000e-02
2161 2154 -1.6666666666667000e-02
2152 2155 -4.1090302863913999e-12
2155 2155 7.5574192880170001e-03
2161 2155 -6.6666666666667001e-03
2156 2156 1.7814569211137998e-02
2157 2156 -1.0754929076984999e-06
2161 2156 -1.4171820567091000e-04
2156 2157 -2.2920153084411001e-08
2157 2157 1.7334862182765001e-02
2158 2157 -1.6666666666667000e-02
2161 2157 -1.3975797122278000e-04
2157 2158 -1.6666666666667000e-02
2158 2158 3.3333333333333000e-02
2159 2158 -1.6666666666667000e-02
2158 2159 -1.6666666666667000e-02
2159 2159 1.7863648829525999e-02
2160 2159 -1.3399645954823000e-04
2159 2160 -2.4474251792365000e-05
2160 2160 1.7308015177742001e-02
2166 2160 -1.6666666666667000e-02
2149 2161 -4.4042262840147001e-04
2154 2161 -1.6666666666667000e-02
2155 2161 -6.6666666666667001e-03
2156 2161 -1.4010445339938000e-04
2157 2161 -1.3841174151596000e-04
2161 2161 2.5313241862506001e-02
2162 2161 -4.2988457129545003e-04
2149 2162 -6.6128898421079999e-04
2161 2162 -4.3372591955780998e-04
2162 2162 9.1743086202535993e-03
2166 2162 -6.6666666666667001e-03
2163 2163 8.2271714173311992e-03
2166 2163 -1.6509905843287999e-04
2167 2163 -1.5224598502468000e-09
2164 2164 1.9444728975693000e-02
2165 2164 -1.1675165397017000e-03
2166 2164 -4.3629579069159001e-04
2164 2165 -1.2249295456633000e-03
2165 2165 1.9334847386525002e-02
2166 2165 -4.3383806179193000e-04
2170 2165 -1.6666666666667000e-02
2151 2166 -6.6666666666667001e-03
2160 2166 -1.6666666666667000e-02
2162 2166 -6.6666666666667001e-03
2163 2166 -1.6142483122643999e-04
2164 2166 -4.4532871614457001e-04
2165 2166 -4.2502776600808001e-04
2166 2166 3.1970286127133998e-02
2167 2166 -1.6142266114947001e-04
2163 2167 -1.0475366620836999e-11
2166 2167 -1.6216657829055999e-04
2167 2167 7.5593392202222996e-03
2170 2167 -6.6666666666667001e-03
2168 2168 1.7814259773486000e-02
2169 2168 -7.8492691461362995e-07
2170 2168 -1.4364758667434000e-04
2168 2169 -3.9263415997204996e-06
2169 2169 1.7869159183230999e-02
2170 2169 -2.8942211245496001e-04
2173 2169 -1.6666666666667000e-02
2165 2170 -1.6666666666667000e-02
2167 2170 -6.6666666666667001e-03
2168 2170 -1.3797676822234999e-04
2169 2170 -1.4053942669299001e-04
2170 2170 2.5189744360168000e-02
2171 2170 -6.4669098256860995e-05
2172 2170 -6.2301232413213004e-04
2170 2171 -1.6302237711874999e-04
2171 2171 7.5601067863491000e-03
2172 2171 -9.8550593002539007e-06
2173 2171 -6.6666666666667001e-03
2145 2172 -6.6666666666667001e-03
2170 2172 -5.2846526629769005e-04
2171 2172 -1.1288856737570001e-04
2172 2172 8.1827100701968008e-03
2120 2173 -4.3535457977443001e-04
2121 2173 -1.3982807621678000e-04
2122 2173 -1.3868811869856000e-04
2123 2173 -4.3475603695666002e-04
2147 2173 -1.6666666666667000e-02
2169 2173 -1.6666666666667000e-02
2171 2173 -6.6666666666667001e-03
2173 2173 4.2318471460520000e-02
2174 2174 1.9462839971997999e-02
2175 2174 -1.1808093863782999e-03
4677 2174 -4.3509431390953001e-04
2174 2175 -1.2553548421539999e-03
2175 2175 1.9387180128222999e-02
2176 2175 -1.6666666666667000e-02
4677 2175 -4.3504446824207997e-04
2175 2176 -1.6666666666667000e-02
2176 2176 3.3333333333333000e-02
2177 2176 -1.6666666666667000e-02
2176 2177 -1.6666666666667000e-02
2177 2177 1.7814129909006000e-02
2178 2177 -1.2074200276043999e-06
4680 2177 -1.4168459514073001e-04
2177 2178 -2.3887611577452000e-08
2178 2178 1.7296414321518998e-02
2179 2178 -1.6666666666667000e-02
4680 2178 -1.3967936225727000e-04
2111 2179 -1.6142417517031000e-04
2112 2179 -4.3121884717298002e-04
2113 2179 -4.3900697232707002e-04
2114 2179 -1.6142331720560001e-04
2117 2179 -6.6666666666667001e-03
2119 2179 -6.6666666666667001e-03
2178 2179 -1.6666666666667000e-02
2179 2179 3.2099818703101003e-02
2180 2180 1.9463992262123000e-02
2181 2180 -1.1819050847771001e-03
2189 2180 -4.3508076334648998e-04
2180 2181 -1.2566684738303999e-03
2181 2181 1.9388719665159000e-02
2182 2181 -1.6666666666667000e-02
2189 2181 -4.3505802036854002e-04
2181 2182 -1.6666666666667000e-02
2182 2182 3.3333333333333000e-02
4659 2182 -1.6666666666667000e-02
2183 2183 9.2180883507824996e-03
2186 2183 -6.7205561404339996e-04
4660 2183 -4.3502271785853002e-04
2184 2184 1.7814643462719999e-02
2185 2184 -1.1970290796746000e-06
4660 2184 -1.4146978961180999e-04
2184 2185 -2.3645780771071001e-08
2185 2185 1.7296381077242001e-02
2189 2185 -1.6666666666667000e-02
4660 2185 -1.3964124824843001e-04
2183 2186 -6.2418376812028000e-04
2186 2186 9.2672782026846992e-03
2189 2186 -6.6666666666667001e-03
4660 2186 -4.3507566602648000e-04
2187 2187 8.2271927678151998e-03
2188 2187 -3.9299892318546999e-10
2189 2187 -1.6436762339030000e-04
2187 2188 -3.8992436063154999e-10
2188 2188 8.2270019544835992e-03
2189 2188 -1.6434351334457001e-04
4658 2188 -6.6666666666667001e-03
2180 2189 -4.3516605753279002e-04
2181 2189 -4.3497485459959001e-04
2185 2189 -1.6666666666667000e-02
2186 2189 -6.6666666666667001e-03
2187 2189 -1.6142374815379001e-04
2188 2189 -1.6142374422212000e-04
2189 2189 2.5564739530048002e-02
2190 2190 8.2271899728134004e-03
2193 2190 -5.9884807783166998e-10
4655 2190 -1.6461123024344001e-04
2191 2191 1.9463893698898001e-02
2192 2191 -1.1817795868818001e-03
4655 2191 -4.3507470501124998e-04
2191 2192 -1.2566303016525000e-03
2192 2192 1.9388805058971999e-02
2209 2192 -1.6666666666667000e-02
4655 2192 -4.3506407902483998e-04
2190 2193 -4.0519238078958999e-12
2193 2193 7.5572278647539999e-03
2209 2193 -6.6666666666667001e-03
4655 2193 -1.6206026445992000e-04
2194 2194 1.9463369114331001e-02
2195 2194 -1.1812221736085000e-03
2207 2194 -4.3506946052736001e-04
2194 2195 -1.2561428467024001e-03
2195 2195 1.9388445376450000e-02
2196 2195 -1.6666666666667000e-02
2207 2195 -4.3506932359836003e-04
2195 2196 -1.6666666666667000e-02
2196 2196 2.3854346543977001e-02
2198 2196 -6.6666666666667001e-03
2197 2197 8.2271772521262006e-03
2198 2197 -6.2185812391551998e-10
2207 2197 -1.6461547462623001e-04
2196 2198 -6.6666666666667001e-03
2197 2198 -4.2139124670797004e-12
2198 2198 7.5572177786062998e-03
2207 2198 -1.6206455710437000e-04
2199 2199 1.7814705839775000e-02
2200 2199 -1.2129519763291000e-06
2214 2199 -1.4164033512992000e-04
2199 2200 -2.3971192434155001e-08
2200 2200 1.7296473617104999e-02
2207 2200 -1.6666666666667000e-02
2214 2200 -1.3967088442629001e-04
2201 2201 1.7814707006039002e-02
2202 2201 -1.2144224600512001e-06
2209 2201 -1.4165645335816000e-04
2201 2202 -2.4001117618446001e-08
2202 2202 1.7296473629588999e-02
2207 2202 -1.6666666666667000e-02
2209 2202 -1.3967367779590999e-04
2203 2203 9.2658275692613992e-03
2204 2203 -6.2285857080082003e-04
2214 2203 -4.3506614409694001e-04
2203 2204 -6.7147744717831995e-04
2204 2204 9.2165990609824992e-03
2205 2204 -6.6666666666667001e-03
2214 2204 -4.3503224185843998e-04
2204 2205 -6.6666666666667001e-03
2205 2205 1.3333333333332999e-02
2206 2205 -6.6666666666667001e-03
2205 2206 -6.6666666666667001e-03
2206 2206 9.2651559881015994e-03
2208 2206 -6.2278591439734999e-04
2209 2206 -4.3506655789387998e-04
2194 2207 -4.3506997365574002e-04
2195 2207 -4.3506882329062999e-04
2197 2207 -1.6142418695922999e-04
2198 2207 -1.6142330541668001e-04
2200 2207 -1.6666666666667000e-02
2202 2207 -1.6666666666667000e-02
2207 2207 4.1983414096160000e-02
2208 2207 -6.6666666666667001e-03
2206 2208 -6.7133436403853997e-04
2207 2208 -6.6666666666667001e-03
2208 2208 9.2159837786316996e-03
2209 2208 -4.3503182799018998e-04
2192 2209 -1.6666666666667000e-02
2193 2209 -6.6666666666667001e-03
2201 2209 -1.4023058488223000e-04
2202 2209 -1.3828561003311000e-04
2206 2209 -4.3512039543613999e-04
2208 2209 -4.3498091259338998e-04
2209 2209 2.5686227540731001e-02
2210 2210 8.2271775245214996e-03
2213 2210 -6.0996762023907005e-10
4658 2210 -1.6460523542149999e-04
2211 2211 1.9463652600094999e-02
2212 2211 -1.1815005623540000e-03
4658 2211 -4.3506961927752000e-04
2211 2212 -1.2564250565699001e-03
2212 2212 1.9388717931874001e-02
2214 2212 -1.6666666666667000e-02
4658 2212 -4.3506916484806001e-04
2210 2213 -4.1320565297588000e-12
2213 2213 7.5572180768317997e-03
2214 2213 -6.6666666666667001e-03
4658 2213 -1.6206242473391000e-04
2199 2214 -1.4022939300205000e-04
2200 2214 -1.3828680191329000e-04
2203 2214 -4.3511871356323001e-04
2204 2214 -4.3498252677828000e-04
2212 2214 -1.6666666666667000e-02
2213 2214 -6.6666666666667001e-03
2214 2214 2.5658198862647998e-02
2215 2215 9.2658535274115009e-03
2216 2215 -6.2286330098867005e-04
4657 2215 -4.3505635203841000e-04
2215 2216 -6.7154065492871996e-04
2216 2216 9.2169186479447995e-03
4657 2216 -4.3504203510030001e-04
4658 2216 -6.6666666666667001e-03
2217 2217 9.2658577354453008e-03
2220 2217 -6.2287219590722003e-04
2245 2217 -4.3505790322448000e-04
2218 2218 1.7814705983037998e-02
2219 2218 -1.2130892173694000e-06
2245 2218 -1.4164014235581001e-04
2218 2219 -2.3972413031115001e-08
2219 2219 1.7296439379623000e-02
2245 2219 -1.3967079001275001e-04
4640 2219 -1.6666666666667000e-02
2217 2220 -6.7154050759083003e-04
2220 2220 9.2168761010215997e-03
2245 2220 -4.3504048379084997e-04
4640 2220 -6.6666666666667001e-03
2221 2221 1.7814432635389999e-02
2222 2221 -9.3481941043431999e-07
2250 2221 -1.4035606336580000e-04
2221 2222 -9.3479311761624003e-07
2222 2222 1.7814430821104999e-02
2245 2222 -1.6666666666667000e-02
2250 2222 -1.4035605586790000e-04
2223 2223 1.9463636232810999e-02
2224 2223 -1.1814832806335000e-03
2244 2223 -4.3506947770537000e-04
2223 2224 -1.2564096306462999e-03
2224 2224 1.9388706048027001e-02
2244 2224 -4.3506930642034998e-04
2245 2224 -1.6666666666667000e-02
2225 2225 9.2171530489454992e-03
2226 2225 -6.7158730649291998e-04
2250 2225 -4.3504879072642000e-04
2225 2226 -6.2287865889058998e-04
2226 2226 9.2658817794894002e-03
2227 2226 -6.6666666666667001e-03
2250 2226 -4.3504959666828999e-04
2226 2227 -6.6666666666667001e-03
2227 2227 1.3333333333332999e-02
2242 2227 -6.6666666666667001e-03
2228 2228 9.2658581047110004e-03
2240 2228 -4.3505788766656003e-04
2241 2228 -6.2287256019291995e-04
2229 2229 8.2271771293656003e-03
2237 2229 -6.0692931501762995e-10
2230 2230 8.2271771293656003e-03
2236 2230 -6.0692931499052004e-10
2231 2231 1.9463727384310001e-02
2232 2231 -1.1815720886212001e-03
2231 2232 -1.2565016641983000e-03
2232 2232 1.9388797704608999e-02
2233 2232 -1.6666666666667000e-02
2232 2233 -1.6666666666667000e-02
2233 2233 3.3333333333333000e-02
2234 2233 -1.6666666666667000e-02
2233 2234 -1.6666666666667000e-02
2234 2234 1.9463727275767999e-02
2235 2234 -1.1815720778160000e-03
2234 2235 -1.2565016257087001e-03
2235 2235 1.9388797606747998e-02
2240 2235 -1.6666666666667000e-02
2230 2236 -4.1112830643479001e-12
2236 2236 7.5572176596924003e-03
2240 2236 -6.6666666666667001e-03
2229 2237 -4.1112831185579998e-12
2237 2237 7.5572176596924003e-03
2240 2237 -6.6666666666667001e-03
2238 2238 1.7814705963683002e-02
2239 2238 -1.2130662072764999e-06
2240 2238 -1.4163988916446999e-04
2238 2239 -2.3971943851367999e-08
2239 2239 1.7296439357377000e-02
2240 2239 -1.3967074610245000e-04
2244 2239 -1.6666666666667000e-02
2228 2240 -4.3508485147081998e-04
2235 2240 -1.6666666666667000e-02
2236 2240 -6.6666666666667001e-03
2237 2240 -6.6666666666667001e-03
2238 2240 -1.4022950038214001e-04
2239 2240 -1.3828669453319999e-04
2240 2240 3.2092979968669999e-02
2241 2240 -4.3501499974173000e-04
2228 2241 -6.7154097522469005e-04
2240 2241 -4.3504049935014000e-04
2241 2241 9.2168769262570005e-03
2244 2241 -6.6666666666667001e-03
2227 2242 -6.6666666666667001e-03
2242 2242 8.2271880671884005e-03
2243 2242 -6.1141016054999999e-10
2244 2242 -1.6462013072183999e-04
2242 2243 -4.1387586091219002e-12
2243 2243 7.5572178008566004e-03
2244 2243 -1.6206255726617001e-04
2245 2243 -6.6666666666667001e-03
2223 2244 -4.3507011977951998e-04
2224 2244 -4.3506868038297998e-04
2239 2244 -1.6666666666667000e-02
2241 2244 -6.6666666666667001e-03
2242 2244 -1.6142417916822999e-04
2243 2244 -1.6142331320768001e-04
2244 2244 2.5259819048138999e-02
2217 2245 -4.3508491525196999e-04
2218 2245 -1.4022951902220999e-04
2219 2245 -1.3828667589313001e-04
2220 2245 -4.3501493857919999e-04
2222 2245 -1.6666666666667000e-02
2224 2245 -1.6666666666667000e-02
2243 2245 -6.6666666666667001e-03
2245 2245 4.2092970807793999e-02
2246 2246 8.2271877464626005e-03
2249 2246 -5.9375438216526004e-10
2314 2246 -1.6460366738274001e-04
2247 2247 1.9464023914165001e-02
2248 2247 -1.1819000172201000e-03
2314 2247 -4.3507401899050999e-04
2247 2248 -1.2567644875156000e-03
2248 2248 1.9388952209745000e-02
2250 2248 -1.6666666666667000e-02
2314 2248 -4.3506476506724001e-04
2246 2249 -4.0175969100568998e-12
2249 2249 7.5572265131715003e-03
2250 2249 -6.6666666666667001e-03
2314 2249 -1.6205934449304999e-04
2221 2250 -1.3925811593229999e-04
2222 2250 -1.3925807898304001e-04
2225 2250 -4.3504760885799000e-04
2226 2250 -4.3505084641201001e-04
2248 2250 -1.6666666666667000e-02
2249 2250 -6.6666666666667001e-03
2250 2250 2.5686664861645000e-02
2251 2251 9.2180879937909001e-03
2252 2251 -6.7205464271930004e-04
4660 2251 -4.3502134958378001e-04
2251 2252 -6.2421569866021997e-04
2252 2252 9.2673130022917997e-03
2314 2252 -6.6666666666667001e-03
4660 2252 -4.3507703392912001e-04
2253 2253 9.2171975206859994e-03
2254 2253 -6.7159032233326003e-04
4657 2253 -4.3502131866801999e-04
2253 2254 -6.2355899450591997e-04
2254 2254 9.2666168582218999e-03
2314 2254 -6.6666666666667001e-03
4657 2254 -4.3507706483548000e-04
2255 2255 8.2271772003372004e-03
2258 2255 -6.2197277701923000e-10
2308 2255 -1.6461551490126001e-04
2256 2256 1.9463353787737000e-02
2257 2256 -1.1812178850563999e-03
2308 2256 -4.3507215547096000e-04
2256 2257 -1.2560988983202001e-03
2257 2257 1.9388349081153999e-02
2308 2257 -4.3506662863051999e-04
4657 2257 -1.6666666666667000e-02
2255 2258 -4.2147336946932000e-12
2258 2258 7.5572224665023001e-03
2308 2258 -1.6206458860369000e-04
4657 2258 -6.6666666666667001e-03
2259 2259 9.2658591416128998e-03
2271 2259 -4.3505760403176003e-04
2272 2259 -6.2287302574460005e-04
2260 2260 8.2271769267610994e-03
2261 2260 -4.0191620649904002e-10
2260 2261 -3.9850431284281001e-10
2261 2261 8.2269517841433003e-03
2277 2261 -6.6666666666667001e-03
2262 2262 8.2271771293656992e-03
2265 2262 -6.0692933038724999e-10
2263 2263 1.9463727390657999e-02
2264 2263 -1.1815720893001000e-03
2263 2264 -1.2565016855788000e-03
2264 2264 1.9388797753376999e-02
2271 2264 -1.6666666666667000e-02
2262 2265 -4.1112832266190001e-12
2265 2265 7.5572176524558001e-03
2271 2265 -6.6666666666667001e-03
2266 2266 1.7814667720712000e-02
2267 2266 -1.1746439352990001e-06
2271 2266 -1.4158464071601000e-04
2266 2267 -2.3541051636770000e-08
2267 2267 1.7304137624979000e-02
2268 2267 -1.6666666666667000e-02
2271 2267 -1.3967468073446999e-04
2267 2268 -1.6666666666667000e-02
2268 2268 3.3333333333333000e-02
2269 2268 -1.6666666666667000e-02
2268 2269 -1.6666666666667000e-02
2269 2269 1.7305133916011999e-02
2270 2269 -1.0204620221337000e-06
2269 2270 -9.2756817872019995e-08
2270 2270 1.7296507753115999e-02
2277 2270 -1.6666666666667000e-02
2259 2271 -4.3508368817864998e-04
2264 2271 -1.6666666666667000e-02
2265 2271 -6.6666666666667001e-03
2266 2271 -1.4019519620336000e-04
2267 2271 -1.3832099871198000e-04
2271 2271 2.5661459024023000e-02
2272 2271 -4.3501611529525000e-04
2259 2272 -6.7154314254018997e-04
2271 2272 -4.3504078300924998e-04
2272 2272 9.2168864624605999e-03
2277 2272 -6.6666666666667001e-03
2273 2273 8.2271771331049997e-03
2276 2273 -6.1055877533623003e-10
2277 2273 -1.6460526461177001e-04
2274 2274 1.9463639522194001e-02
2275 2274 -1.1814862011253000e-03
2277 2274 -4.3506940404247998e-04
2274 2275 -1.2564136996290000e-03
2275 2275 1.9388711487283002e-02
2277 2275 -4.3506938008326001e-04
2283 2275 -1.6666666666667000e-02
2273 2276 -4.1362386525495998e-12
2276 2276 7.5572176718321001e-03
2277 2276 -1.6206253545186000e-04
2283 2276 -6.6666666666667001e-03
2261 2277 -6.6666666666667001e-03
2270 2277 -1.6666666666667000e-02
2272 2277 -6.6666666666667001e-03
2273 2277 -1.6142417890437999e-04
2274 2277 -4.3506949385567999e-04
2275 2277 -4.3506929251327001e-04
2276 2277 -1.6142331347153001e-04
2277 2277 3.1983709893261998e-02
2278 2278 9.2658268624780001e-03
2279 2278 -6.2285880590968003e-04
2283 2278 -4.3506656864477001e-04
2278 2279 -6.7147516154118997e-04
2279 2279 9.2165856127081995e-03
2280 2279 -6.6666666666667001e-03
2283 2279 -4.3503181723756999e-04
2279 2280 -6.6666666666667001e-03
2280 2280 1.3333333333332999e-02
2307 2280 -6.6666666666667001e-03
2281 2281 1.7814705786066001e-02
2282 2281 -1.2128881925117000e-06
2283 2281 -1.4163965532446000e-04
2281 2282 -2.3969912288933001e-08
2282 2282 1.7296474002351001e-02
2283 2282 -1.3967076730430001e-04
2308 2282 -1.6666666666667000e-02
2275 2283 -1.6666666666667000e-02
2276 2283 -6.6666666666667001e-03
2278 2283 -4.3512045488632999e-04
2279 2283 -4.3498085685711002e-04
2281 2283 -1.4022934113946999e-04
2282 2283 -1.3828685377587001e-04
2283 2283 2.5658223532318000e-02
2284 2284 9.2658591466003998e-03
2296 2284 -4.3505760256259003e-04
2297 2284 -6.2287302771620002e-04
2285 2285 8.2271769267610005e-03
2286 2285 -4.0191617420415001e-10
2285 2286 -3.9850488104330000e-10
2286 2286 8.2269518239162995e-03
2301 2286 -6.6666666666667001e-03
2287 2287 8.2271771293656992e-03
2290 2287 -6.0692933007379000e-10
2288 2288 1.9463727390275999e-02
2289 2288 -1.1815720892592999e-03
2288 2289 -1.2565016843015999e-03
2289 2289 1.9388797750463999e-02
2296 2289 -1.6666666666667000e-02
2287 2290 -4.1112831707607002e-12
2290 2290 7.5572176526030998e-03
2296 2290 -6.6666666666667001e-03
2291 2291 1.7814667720732001e-02
2292 2291 -1.1746439586460999e-06
2296 2291 -1.4158464097531001e-04
2291 2292 -2.3541052118195999e-08
2292 2292 1.7304137624966999e-02
2293 2292 -1.6666666666667000e-02
2296 2292 -1.3967468078089000e-04
2292 2293 -1.6666666666667000e-02
2293 2293 3.3333333333333000e-02
2294 2293 -1.6666666666667000e-02
2293 2294 -1.6666666666667000e-02
2294 2294 1.7305133916020999e-02
2295 2294 -1.0204620441067001e-06
2294 2295 -9.2756805658654999e-08
2295 2295 1.7296507751026001e-02
2301 2295 -1.6666666666667000e-02
2284 2296 -4.3508368215298000e-04
2289 2296 -1.6666666666667000e-02
2290 2296 -6.6666666666667001e-03
2291 2296 -1.4019519622221000e-04
2292 2296 -1.3832099869312000e-04
2296 2296 2.5313614934561000e-02
2297 2296 -4.3501612107363998e-04
2284 2297 -6.7154315331605997e-04
2296 2297 -4.3504078447854000e-04
2297 2297 9.2168865114839998e-03
2301 2297 -6.6666666666667001e-03
2298 2298 8.2271771333213006e-03
2301 2298 -1.6460526397984001e-04
2302 2298 -6.1055802687257995e-10
2299 2299 1.9463639445574998e-02
2300 2299 -1.1814862071679001e-03
2301 2299 -4.3506942440443998e-04
2299 2300 -1.2564134067541001e-03
2300 2300 1.9388710797839999e-02
2301 2300 -4.3506935972130001e-04
2305 2300 -1.6666666666667000e-02
2286 2301 -6.6666666666667001e-03
2295 2301 -1.6666666666667000e-02
2297 2301 -6.6666666666667001e-03
2298 2301 -1.6142417890385000e-04
2299 2301 -4.3506966687467999e-04
2300 2301 -4.3506912330710000e-04
2301 2301 3.1983709912655998e-02
2302 2301 -1.6142331347207000e-04
2298 2302 -4.1362336011968997e-12
2301 2302 -1.6206253539559001e-04
2302 2302 7.5572177074576001e-03
2305 2302 -6.6666666666667001e-03
2303 2303 1.7814705791012998e-02
2304 2303 -1.2128940277034999e-06
2305 2303 -1.4163971925438000e-04
2303 2304 -2.3970031019221999e-08
2304 2304 1.7296474002420001e-02
2305 2304 -1.3967077838321999e-04
2308 2304 -1.6666666666667000e-02
2300 2305 -1.6666666666667000e-02
2302 2305 -6.6666666666667001e-03
2303 2305 -1.4022934586875000e-04
2304 2305 -1.3828684904659000e-04
2305 2305 2.5369104060796999e-02
2306 2305 -4.3498152711615002e-04
2307 2305 -4.3511975444003999e-04
2305 2306 -4.3503198515235000e-04
2306 2306 9.2159936255330008e-03
2307 2306 -6.7135552652375005e-04
2308 2306 -6.6666666666667001e-03
2280 2307 -6.6666666666667001e-03
2305 2307 -4.3506640075895002e-04
2306 2307 -6.2280725689506996e-04
2307 2307 9.2651600239762998e-03
2255 2308 -1.6142418704255001e-04
2256 2308 -4.3509286654049001e-04
2257 2308 -4.3504643499787000e-04
2258 2308 -1.6142330533336000e-04
2282 2308 -1.6666666666667000e-02
2304 2308 -1.6666666666667000e-02
2306 2308 -6.6666666666667001e-03
2308 2308 4.1983410960578997e-02
2309 2309 1.7814014129831999e-02
2310 2309 -5.1813101261900004e-07
4657 2309 -1.4041996290081000e-04
2309 2310 -4.9816940998140001e-08
2310 2310 1.7749322503902001e-02
2311 2310 -1.6666666666667000e-02
4657 2310 -1.4018236126014000e-04
2310 2311 -1.6666666666667000e-02
2311 2311 3.3333333333333000e-02
2312 2311 -1.6666666666667000e-02
2311 2312 -1.6666666666667000e-02
2312 2312 1.7749655621101999e-02
2313 2312 -4.2212623794578999e-07
4660 2312 -1.4114582143521999e-04
2312 2313 -9.3636161632336999e-09
2313 2313 1.7296367407411001e-02
2314 2313 -1.6666666666667000e-02
4660 2313 -1.3966917102226000e-04
2246 2314 -1.6142416659770001e-04
2247 2314 -4.3510872482348999e-04
2248 2314 -4.3503092545258998e-04
2249 2314 -1.6142332577820999e-04
2252 2314 -6.6666666666667001e-03
2254 2314 -6.6666666666667001e-03
2313 2314 -1.6666666666667000e-02
2314 2314 3.2100129686737998e-02
2315 2315 1.7814013954131999e-02
2316 2315 -5.1777951936741999e-07
2324 2315 -1.4041504381115001e-04
2315 2316 -4.9679705290288998e-08
2316 2316 1.7749224810479001e-02
2317 2316 -1.6666666666667000e-02
2324 2316 -1.4017814595084001e-04
2316 2317 -1.6666666666667000e-02
2317 2317 3.3333333333333000e-02
4639 2317 -1.6666666666667000e-02
2318 2318 8.2271771336513994e-03
2321 2318 -6.1068825419397998e-10
4640 2318 -1.6460538112548001e-04
2319 2319 1.9463636448542002e-02
2320 2319 -1.1814831531194001e-03
4640 2319 -4.3506939321720999e-04
2319 2320 -1.2564107417061001e-03
2320 2320 1.9388708808267999e-02
2324 2320 -1.6666666666667000e-02
4640 2320 -4.3506939090853000e-04
2318 2321 -4.1371289237423001e-12
2321 2321 7.5572176529402997e-03
2324 2321 -6.6666666666667001e-03
4640 2321 -1.6206255880745000e-04
2322 2322 9.2658836705631006e-03
2323 2322 -6.2288380645767003e-04
2324 2322 -4.3505078413468999e-04
2322 2323 -6.7159483095683000e-04
2323 2323 9.2171154180856005e-03
2324 2323 -4.3504760324816999e-04
4638 2323 -6.6666666666667001e-03
2315 2324 -1.3960581889873000e-04
2316 2324 -1.3891037601661000e-04
2320 2324 -1.6666666666667000e-02
2321 2324 -6.6666666666667001e-03
2322 2324 -4.3505571685660999e-04
2323 2324 -4.3504293840555998e-04
2324 2324 2.5740483159563000e-02
2325 2325 9.2658580399377997e-03
2328 2325 -6.2287253469678003e-04
4635 2325 -4.3505790679269999e-04
2326 2326 1.7814705963263001e-02
2327 2326 -1.2130657417674000e-06
4635 2326 -1.4163988540570000e-04
2326 2327 -2.3971935621910000e-08
2327 2327 1.7296439384416998e-02
2344 2327 -1.6666666666667000e-02
4635 2327 -1.3967074549934999e-04
2325 2328 -6.7154083511759995e-04
2328 2328 9.2168762882160003e-03
2344 2328 -6.6666666666667001e-03
4635 2328 -4.3504048022232001e-04
2329 2329 1.7814705962431999e-02
2330 2329 -1.2130648921505000e-06
2342 2329 -1.4163987612032000e-04
2329 2330 -2.3971918342922002e-08
2330 2330 1.7296439384435001e-02
2331 2330 -1.6666666666667000e-02
2342 2330 -1.3967074389068001e-04
2330 2331 -1.6666666666667000e-02
2331 2331 2.3854346543977001e-02
2333 2331 -6.6666666666667001e-03
2332 2332 9.2658580527740005e-03
2333 2332 -6.2287254721860995e-04
2342 2332 -4.3505790681665999e-04
2331 2333 -6.6666666666667001e-03
2332 2333 -6.7154084801286998e-04
2333 2333 9.2168762998078996e-03
2342 2333 -4.3504048019836001e-04
2334 2334 1.7814431860190001e-02
2335 2334 -9.3380130995011997e-07
2349 2334 -1.4034808738133000e-04
2334 2335 -9.3380104343579997e-07
2335 2335 1.7814431841781001e-02
2342 2335 -1.6666666666667000e-02
2349 2335 -1.4034808730580001e-04
2336 2336 1.9463636411115998e-02
2337 2336 -1.1814831144315999e-03
2344 2336 -4.3506939293804002e-04
2336 2337 -1.2564107064742000e-03
2337 2337 1.9388708779886001e-02
2342 2337 -1.6666666666667000e-02
2344 2337 -4.3506939118768999e-04
2338 2338 9.2658893877218002e-03
2339 2338 -6.2288631970989995e-04
2349 2338 -4.3504919508535999e-04
2338 2339 -6.7160687699440000e-04
2339 2339 9.2171687805055001e-03
2340 2339 -6.6666666666667001e-03
2349 2339 -4.3504919231016997e-04
2339 2340 -6.6666666666667001e-03
2340 2340 1.3333333333332999e-02
2341 2340 -6.6666666666667001e-03
2340 2341 -6.6666666666667001e-03
2341 2341 8.2271770959560005e-03
2343 2341 -6.1068903595602002e-10
2344 2341 -1.6460538236570999e-04
2329 2342 -1.4022949930466000e-04
2330 2342 -1.3828669561068000e-04
2332 2342 -4.3508493001403000e-04
2333 2342 -4.3501492442163999e-04
2335 2342 -1.6666666666667000e-02
2337 2342 -1.6666666666667000e-02
2342 2342 4.2092980445251997e-02
2343 2342 -6.6666666666667001e-03
2341 2343 -4.1371344608506999e-12
2342 2343 -6.6666666666667001e-03
2343 2343 7.5572176524120998e-03
2344 2343 -1.6206255910654999e-04
2327 2344 -1.6666666666667000e-02
2328 2344 -6.6666666666667001e-03
2336 2344 -4.3506939949935000e-04
2337 2344 -4.3506938479027002e-04
2341 2344 -1.6142417899727999e-04
2343 2344 -1.6142331337862999e-04
2344 2344 2.5577546358518000e-02
2345 2345 8.2271771300491004e-03
2348 2345 -6.0761404997866999e-10
4638 2345 -1.6460260702843001e-04
2346 2346 1.9463710783485001e-02
2347 2346 -1.1815558478940999e-03
4638 2346 -4.3506939293408003e-04
2346 2347 -1.2564850788806001e-03
2347 2347 1.9388781513486001e-02
2349 2347 -1.6666666666667000e-02
4638 2347 -4.3506939119166002e-04
2345 2348 -4.1159909685873003e-12
2348 2348 7.5572176523829998e-03
2349 2348 -6.6666666666667001e-03
4638 2348 -1.6206200182044999e-04
2334 2349 -1.3925809764493000e-04
2335 2349 -1.3925809727041000e-04
2338 2349 -4.3504919938900001e-04
2339 2349 -4.3504918824025001e-04
2347 2349 -1.6666666666667000e-02
2348 2349 -6.6666666666667001e-03
2349 2349 2.5745828784871999e-02
2350 2350 9.2658836715291994e-03
2351 2350 -6.2288380749495997e-04
4637 2350 -4.3505078413468002e-04
2350 2351 -6.7159483202593000e-04
2351 2351 9.2171154190200007e-03
4637 2351 -4.3504760324816999e-04
4638 2351 -6.6666666666667001e-03
2352 2352 9.2658611831466006e-03
2355 2352 -6.2287349606373005e-04
2380 2352 -4.3505687856898001e-04
2353 2353 1.7814706010248000e-02
2354 2353 -1.2131194548319000e-06
2380 2353 -1.4164039600090999e-04
2353 2354 -2.3972956389849999e-08
2354 2354 1.7296437815138000e-02
2380 2354 -1.3967083117339001e-04
4620 2354 -1.6666666666667000e-02
2352 2355 -6.7154795016836997e-04
2355 2355 9.2169102595168993e-03
2380 2355 -4.3504150853056000e-04
4620 2355 -6.6666666666667001e-03
2356 2356 1.7814431863182000e-02
2357 2356 -9.3380457041368000e-07
2385 2356 -1.4034809631329999e-04
2356 2357 -9.3375461623212003e-07
2357 2357 1.7814428412518998e-02
2380 2357 -1.6666666666667000e-02
2385 2357 -1.4034808215604999e-04
2358 2358 1.9463635856612999e-02
2359 2358 -1.1814832189250000e-03
2379 2358 -4.3506955499226997e-04
2358 2359 -1.2564084327198000e-03
2359 2359 1.9388703347427001e-02
2379 2359 -4.3506922913338003e-04
2380 2359 -1.6666666666667000e-02
2360 2360 9.2658893772959994e-03
2361 2360 -6.2288630724913999e-04
2385 2360 -4.3504919429302998e-04
2360 2361 -6.7160686881157004e-04
2361 2361 9.2171687943131998e-03
2362 2361 -6.6666666666667001e-03
2385 2361 -4.3504919310249999e-04
2361 2362 -6.6666666666667001e-03
2362 2362 1.3333333333332999e-02
2377 2362 -6.6666666666667001e-03
2363 2363 9.2658580977050993e-03
2375 2363 -4.3505788964744998e-04
2376 2363 -6.2287255753439995e-04
2364 2364 8.2271771293656003e-03
2372 2364 -6.0692931545859001e-10
2365 2365 8.2271771293656003e-03
2371 2365 -6.0692931537726999e-10
2366 2366 1.9463727384364998e-02
2367 2366 -1.1815720886269999e-03
2366 2367 -1.2565016643652999e-03
2367 2367 1.9388797704990999e-02
2368 2367 -1.6666666666667000e-02
2367 2368 -1.6666666666667000e-02
2368 2368 3.3333333333333000e-02
2369 2368 -1.6666666666667000e-02
2368 2369 -1.6666666666667000e-02
2369 2369 1.9463727276734000e-02
2370 2369 -1.1815720779153000e-03
2369 2370 -1.2565016273373001e-03
2370 2370 1.9388797610513001e-02
2375 2370 -1.6666666666667000e-02
2365 2371 -4.1112831476966001e-12
2371 2371 7.5572176595106004e-03
2375 2371 -6.6666666666667001e-03
2364 2372 -4.1112831205914997e-12
2372 2372 7.5572176595106004e-03
2375 2372 -6.6666666666667001e-03
2373 2373 1.7814705963659000e-02
2374 2373 -1.2130661575799999e-06
2375 2373 -1.4163988876911000e-04
2373 2374 -2.3971942980692999e-08
2374 2374 1.7296439360462001e-02
2375 2374 -1.3967074603940999e-04
2379 2374 -1.6666666666667000e-02
2363 2375 -4.3508485959524001e-04
2370 2375 -1.6666666666667000e-02
2371 2375 -6.6666666666667001e-03
2372 2375 -6.6666666666667001e-03
2373 2375 -1.4022950034051001e-04
2374 2375 -1.3828669457482999e-04
2375 2375 3.2092979983497999e-02
2376 2375 -4.3501499195071998e-04
2363 2376 -6.7154096066474999e-04
2375 2376 -4.3504049736907001e-04
2376 2376 9.2168768599090994e-03
2379 2376 -6.6666666666667001e-03
2362 2377 -6.6666666666667001e-03
2377 2377 8.2271771192330007e-03
2378 2377 -6.1068117282689000e-10
2379 2377 -1.6460537531467001e-04
2377 2378 -4.1370812304136999e-12
2378 2378 7.5572179360059001e-03
2379 2378 -1.6206255822376000e-04
2380 2378 -6.6666666666667001e-03
2358 2379 -4.3507077649735000e-04
2359 2379 -4.3506803813719998e-04
2374 2379 -1.6666666666667000e-02
2376 2379 -6.6666666666667001e-03
2377 2379 -1.6142417899166000e-04
2378 2379 -1.6142331338425000e-04
2379 2379 2.5259818867429000e-02
2352 2380 -4.3508071272750003e-04
2353 2380 -1.4022954420501001e-04
2354 2380 -1.3828665071032999e-04
2355 2380 -4.3501896863847999e-04
2357 2380 -1.6666666666667000e-02
2359 2380 -1.6666666666667000e-02
2378 2380 -6.6666666666667001e-03
2380 2380 4.2092961369793000e-02
2381 2381 8.2271771330176009e-03
2384 2381 -6.1055882830272999e-10
2449 2381 -1.6460526464343999e-04
2382 2382 1.9463639557434000e-02
2383 2382 -1.1814862043505001e-03
2449 2382 -4.3506939621009002e-04
2382 2383 -1.2564138179818000e-03
2383 2383 1.9388711758103999e-02
2385 2383 -1.6666666666667000e-02
2449 2383 -4.3506938791565002e-04
2381 2384 -4.1362388885134000e-12
2384 2384 7.5572176581535999e-03
2385 2384 -6.6666666666667001e-03
2449 2384 -1.6206253543110999e-04
2356 2385 -1.3925813255732001e-04
2357 2385 -1.3925806235801999e-04
2360 2385 -4.3504919613926001e-04
2361 2385 -4.3504919135654000e-04
2383 2385 -1.6666666666667000e-02
2384 2385 -6.6666666666667001e-03
2385 2385 2.5687101284444999e-02
2386 2386 8.2271769297780004e-03
2387 2386 -4.0439125945185002e-10
4640 2386 -1.6436041063844000e-04
2386 2387 -4.0095847795519001e-10
2387 2387 8.2269517863943001e-03
2449 2387 -6.6666666666667001e-03
4640 2387 -1.6435900627022001e-04
2388 2388 9.2658591415455006e-03
2389 2388 -6.2287302574422004e-04
4637 2388 -4.3505760405282000e-04
2388 2389 -6.7154314241207002e-04
2389 2389 9.2168864617634995e-03
2449 2389 -6.6666666666667001e-03
4637 2389 -4.3504078298818003e-04
2390 2390 8.2271771444872993e-03
2393 2390 -6.2211178495149002e-10
2443 2390 -1.6461556266694999e-04
2391 2391 1.9463363474298001e-02
2392 2391 -1.1812161934535001e-03
2443 2391 -4.3506939297105999e-04
2391 2392 -1.2561377693002000e-03
2392 2392 1.9388441857796999e-02
2443 2392 -4.3506939115467999e-04
4637 2392 -1.6666666666667000e-02
2390 2393 -4.2156894380885999e-12
2393 2393 7.5572176525512003e-03
2443 2393 -1.6206460306987999e-04
4637 2393 -6.6666666666667001e-03
2394 2394 9.2658591388064000e-03
2406 2394 -4.3505760485696999e-04
2407 2394 -6.2287302463188000e-04
2395 2395 8.2271769267610994e-03
2396 2395 -4.0191622477881002e-10
2395 2396 -3.9850399360399001e-10
2396 2396 8.2269517617971008e-03
2412 2396 -6.6666666666667001e-03
2397 2397 8.2271771293656992e-03
2400 2397 -6.0692933055871998e-10
2398 2398 1.9463727390865999e-02
2399 2398 -1.1815720893224000e-03
2398 2399 -1.2565016862774001e-03
2399 2399 1.9388797754971002e-02
2406 2399 -1.6666666666667000e-02
2397 2400 -4.1112832004155000e-12
2400 2400 7.5572176523751996e-03
2406 2400 -6.6666666666667001e-03
2401 2401 1.7814667720701002e-02
2402 2401 -1.1746439225349001e-06
2406 2401 -1.4158464057423999e-04
2401 2402 -2.3541051373655001e-08
2402 2402 1.7304137624984998e-02
2403 2402 -1.6666666666667000e-02
2406 2402 -1.3967468070910001e-04
2402 2403 -1.6666666666667000e-02
2403 2403 3.3333333333333000e-02
2404 2403 -1.6666666666667000e-02
2403 2404 -1.6666666666667000e-02
2404 2404 1.7305133916006001e-02
2405 2404 -1.0204620097373000e-06
2404 2405 -9.2756824737803004e-08
2405 2405 1.7296507754292000e-02
2412 2405 -1.6666666666667000e-02
2394 2406 -4.3508369156315002e-04
2399 2406 -1.6666666666667000e-02
2400 2406 -6.6666666666667001e-03
2401 2406 -1.4019519619305000e-04
2402 2406 -1.3832099872229000e-04
2406 2406 2.5661459029230001e-02
2407 2406 -4.3501611204964998e-04
2394 2407 -6.7154313648211004e-04
2406 2407 -4.3504078218396997e-04
2407 2407 9.2168864349201005e-03
2412 2407 -6.6666666666667001e-03
2408 2408 8.2271771329808993e-03
2411 2408 -6.1055919491830996e-10
2412 2408 -1.6460526496675000e-04
2409 2409 1.9463639563732000e-02
2410 2409 -1.1814861975604999e-03
2412 2409 -4.3506939293685000e-04
2409 2410 -1.2564138590967001e-03
2410 2410 1.9388711863062000e-02
2412 2410 -4.3506939118888999e-04
2418 2410 -1.6666666666667000e-02
2408 2411 -4.1362413896944998e-12
2411 2411 7.5572176524088003e-03
2412 2411 -1.6206253548464001e-04
2418 2411 -6.6666666666667001e-03
2396 2412 -6.6666666666667001e-03
2405 2412 -1.6666666666667000e-02
2407 2412 -6.6666666666667001e-03
2408 2412 -1.6142417890467999e-04
2409 2412 -4.3506939948927001e-04
2410 2412 -4.3506938480013002e-04
2411 2412 -1.6142331347122999e-04
2412 2412 3.1983709882380001e-02
2413 2413 9.2658267235011995e-03
2414 2413 -6.2285877350281996e-04
2418 2413 -4.3506661862413002e-04
2413 2414 -6.7147483057731995e-04
2414 2414 9.2165839756632000e-03
2415 2414 -6.6666666666667001e-03
2418 2414 -4.3503176724949002e-04
2414 2415 -6.6666666666667001e-03
2415 2415 1.3333333333332999e-02
2442 2415 -6.6666666666667001e-03
2416 2416 1.7814705781332998e-02
2417 2416 -1.2128829440094000e-06
2418 2416 -1.4163961748679999e-04
2416 2417 -2.3969823723772999e-08
2417 2417 1.7296474399383002e-02
2418 2417 -1.3967076145448000e-04
2443 2417 -1.6666666666667000e-02
2410 2418 -1.6666666666667000e-02
2411 2418 -6.6666666666667001e-03
2413 2418 -4.3512065987190001e-04
2414 2418 -4.3498066027711002e-04
2416 2418 -1.4022933671417999e-04
2417 2418 -1.3828685820116001e-04
2418 2418 2.5658224967500001e-02
2419 2419 9.2658591388064000e-03
2431 2419 -4.3505760485696002e-04
2432 2419 -6.2287302463188998e-04
2420 2420 8.2271769267610994e-03
2421 2420 -4.0191622477872001e-10
2420 2421 -3.9850399360569002e-10
2421 2421 8.2269517617973003e-03
2436 2421 -6.6666666666667001e-03
2422 2422 8.2271771293656992e-03
2425 2422 -6.0692933055871998e-10
2423 2423 1.9463727390865999e-02
2424 2423 -1.1815720893224000e-03
2423 2424 -1.2565016862774001e-03
2424 2424 1.9388797754971002e-02
2431 2424 -1.6666666666667000e-02
2422 2425 -4.1112832004155000e-12
2425 2425 7.5572176523751996e-03
2431 2425 -6.6666666666667001e-03
2426 2426 1.7814667720701002e-02
2427 2426 -1.1746439225349001e-06
2431 2426 -1.4158464057424999e-04
2426 2427 -2.3541051373656000e-08
2427 2427 1.7304137624984998e-02
2428 2427 -1.6666666666667000e-02
2431 2427 -1.3967468070910001e-04
2427 2428 -1.6666666666667000e-02
2428 2428 3.3333333333333000e-02
2429 2428 -1.6666666666667000e-02
2428 2429 -1.6666666666667000e-02
2429 2429 1.7305133916006001e-02
2430 2429 -1.0204620097373000e-06
2429 2430 -9.2756824737740006e-08
2430 2430 1.7296507754292000e-02
2436 2430 -1.6666666666667000e-02
2419 2431 -4.3508369156313001e-04
2424 2431 -1.6666666666667000e-02
2425 2431 -6.6666666666667001e-03
2426 2431 -1.4019519619305000e-04
2427 2431 -1.3832099872229000e-04
2431 2431 2.5313614949291002e-02
2432 2431 -4.3501611204966001e-04
2419 2432 -6.7154313648213997e-04
2431 2432 -4.3504078218398000e-04
2432 2432 9.2168864349203000e-03
2436 2432 -6.6666666666667001e-03
2433 2433 8.2271771329808993e-03
2436 2433 -1.6460526496675000e-04
2437 2433 -6.1055919491599995e-10
2434 2434 1.9463639563732000e-02
2435 2434 -1.1814861975604999e-03
2436 2434 -4.3506939293693001e-04
2434 2435 -1.2564138590956001e-03
2435 2435 1.9388711863058999e-02
2436 2435 -4.3506939118880997e-04
2440 2435 -1.6666666666667000e-02
2421 2436 -6.6666666666667001e-03
2430 2436 -1.6666666666667000e-02
2432 2436 -6.6666666666667001e-03
2433 2436 -1.6142417890467999e-04
2434 2436 -4.3506939948989999e-04
2435 2436 -4.3506938479951002e-04
2436 2436 3.1983709882380001e-02
2437 2436 -1.6142331347122999e-04
2433 2437 -4.1362414167841002e-12
2436 2437 -1.6206253548464001e-04
2437 2437 7.5572176524089001e-03
2440 2437 -6.6666666666667001e-03
2438 2438 1.7814705781332998e-02
2439 2438 -1.2128829440308001e-06
2440 2438 -1.4163961748704001e-04
2438 2439 -2.3969823724178999e-08
2439 2439 1.7296474399383002e-02
2440 2439 -1.3967076145452001e-04
2443 2439 -1.6666666666667000e-02
2435 2440 -1.6666666666667000e-02
2437 2440 -6.6666666666667001e-03
2438 2440 -1.4022933671419999e-04
2439 2440 -1.3828685820114001e-04
2440 2440 2.5369107810138000e-02
2441 2440 -4.3498064123248000e-04
2442 2440 -4.3512067817965002e-04
2440 2441 -4.3503175983852999e-04
2441 2441 9.2159844723703008e-03
2442 2441 -6.7135360808784003e-04
2443 2441 -6.6666666666667001e-03
2415 2442 -6.6666666666667001e-03
2440 2442 -4.3506662603365001e-04
2441 2442 -6.2280688337027997e-04
2442 2442 9.2651574121914004e-03
2390 2443 -1.6142418714351999e-04
2391 2443 -4.3506939977771002e-04
2392 2443 -4.3506938451809001e-04
2393 2443 -1.6142330523239001e-04
2417 2443 -1.6666666666667000e-02
2439 2443 -1.6666666666667000e-02
2441 2443 -6.6666666666667001e-03
2443 2443 4.1983407340984998e-02
2444 2444 1.7814667665354000e-02
2445 2444 -1.1745883171267001e-06
4637 2444 -1.4158455982105000e-04
2444 2445 -2.3540445087016000e-08
2445 2445 1.7304149230061999e-02
2446 2445 -1.6666666666667000e-02
4637 2445 -1.3967468677748000e-04
2445 2446 -1.6666666666667000e-02
2446 2446 3.3333333333333000e-02
2447 2446 -1.6666666666667000e-02
2446 2447 -1.6666666666667000e-02
2447 2447 1.7305145390958999e-02
2448 2447 -1.0203313189724001e-06
4640 2447 -1.6235155271618999e-04
2447 2448 -9.2670234900565003e-08
2448 2448 1.7296507666581001e-02
2449 2448 -1.6666666666667000e-02
4640 2448 -1.6160172047933999e-04
2381 2449 -1.6142417890442000e-04
2382 2449 -4.3506942730248003e-04
2383 2449 -4.3506935759983999e-04
2384 2449 -1.6142331347149001e-04
2387 2449 -6.6666666666667001e-03
2389 2449 -6.6666666666667001e-03
2448 2449 -1.6666666666667000e-02
2449 2449 3.2099657918668999e-02
2450 2450 1.7814014238122001e-02
2451 2450 -5.1818812858685004e-07
2459 2450 -1.4041980577552001e-04
2450 2451 -5.0088873028715001e-08
2451 2451 1.7749572469335999e-02
2452 2451 -1.6666666666667000e-02
2459 2451 -1.4018301174098001e-04
2451 2452 -1.6666666666667000e-02
2452 2452 3.3333333333333000e-02
4619 2452 -1.6666666666667000e-02
2453 2453 8.2271775085802999e-03
2456 2453 -6.1018718742595997e-10
4620 2453 -1.6460541817094000e-04
2454 2454 1.9463635062292001e-02
2455 2454 -1.1814938402835999e-03
4620 2454 -4.3507224893134000e-04
2454 2455 -1.2563795708016000e-03
2455 2455 1.9388621419593001e-02
2459 2455 -1.6666666666667000e-02
4620 2455 -4.3506653516848002e-04
2453 2456 -4.1335869800421996e-12
2456 2456 7.5572226718092000e-03
2459 2456 -6.6666666666667001e-03
4620 2456 -1.6206247495652000e-04
2457 2457 9.2171802253324005e-03
2458 2457 -6.7159212188301002e-04
2459 2457 -4.3503355270663001e-04
2457 2458 -6.2325924950517003e-04
2458 2458 9.2662922315466002e-03
2459 2458 -4.3506483346321000e-04
4618 2458 -6.6666666666667001e-03
2450 2459 -1.3960580298751001e-04
2451 2459 -1.3891039192782999e-04
2455 2459 -1.6666666666667000e-02
2456 2459 -6.6666666666667001e-03
2457 2459 -4.3498767590087001e-04
2458 2459 -4.3511334559629002e-04
2459 2459 2.5740239020308000e-02
2460 2460 9.2658510290325995e-03
2463 2460 -6.2286379439484003e-04
4615 2460 -4.3505764141678999e-04
2461 2461 1.7814706455713002e-02
2462 2461 -1.2136935100834000e-06
4615 2461 -1.4164675030123999e-04
2461 2462 -2.3984693150147999e-08
2462 2462 1.7296439013503001e-02
2479 2462 -1.6666666666667000e-02
4615 2462 -1.3967193438040000e-04
2460 2463 -6.7153346850212998e-04
2463 2463 9.2168774536620993e-03
2479 2463 -6.6666666666667001e-03
4615 2463 -4.3504074562105999e-04
2464 2464 1.7814705982480000e-02
2465 2464 -1.2130869024820001e-06
2477 2464 -1.4164011645057000e-04
2464 2465 -2.3972365593811999e-08
2465 2465 1.7296439373920999e-02
2466 2465 -1.6666666666667000e-02
2477 2465 -1.3967078551179000e-04
2465 2466 -1.6666666666667000e-02
2466 2466 2.3854346543977001e-02
2468 2466 -6.6666666666667001e-03
2467 2467 9.2658577672967007e-03
2468 2467 -6.2287223630979997e-04
2477 2467 -4.3505789891047999e-04
2466 2468 -6.6666666666667001e-03
2467 2468 -6.7154057326178004e-04
2468 2468 9.2168762627440996e-03
2477 2468 -4.3504048810522999e-04
2469 2469 1.7814432434821999e-02
2470 2469 -9.3449311200185999e-07
2484 2469 -1.4035349909078001e-04
2469 2470 -9.3446919615357001e-07
2470 2470 1.7814430783998001e-02
2477 2470 -1.6666666666667000e-02
2484 2470 -1.4035349228430001e-04
2471 2471 1.9463638937188998e-02
2472 2471 -1.1814859588880999e-03
2479 2471 -4.3506947021669003e-04
2471 2472 -1.2564124644957001e-03
2472 2472 1.9388708932117998e-02
2477 2472 -1.6666666666667000e-02
2479 2472 -4.3506931390903001e-04
2473 2473 9.2171575381269008e-03
2474 2473 -6.7159340337065996e-04
2484 2473 -4.3504891043032997e-04
2473 2474 -6.2288097970161001e-04
2474 2474 9.2658840793310004e-03
2475 2474 -6.6666666666667001e-03
2484 2474 -4.3504947696479997e-04
2474 2475 -6.6666666666667001e-03
2475 2475 1.3333333333332999e-02
2476 2475 -6.6666666666667001e-03
2475 2476 -6.6666666666667001e-03
2476 2476 8.2271848229439996e-03
2478 2476 -6.1107989625377996e-10
2479 2476 -1.6461564965862001e-04
2464 2477 -1.4022951714712001e-04
2465 2477 -1.3828667776821999e-04
2467 2477 -4.3508489756134000e-04
2468 2477 -4.3501495554372000e-04
2470 2477 -1.6666666666667000e-02
2472 2477 -1.6666666666667000e-02
2477 2477 4.2092971745022002e-02
2478 2477 -6.6666666666667001e-03
2476 2478 -4.1374779588477002e-12
2477 2478 -6.6666666666667001e-03
2478 2478 7.5572177908404996e-03
2479 2478 -1.6206253685672000e-04
2462 2479 -1.6666666666667000e-02
2463 2479 -6.6666666666667001e-03
2471 2479 -4.3507005614901000e-04
2472 2479 -4.3506874261122001e-04
2476 2479 -1.6142417903466000e-04
2478 2479 -1.6142331334125000e-04
2479 2479 2.5577549721288000e-02
2480 2480 8.2271832433958008e-03
2483 2480 -5.9947233344149004e-10
4618 2480 -1.6460310143501000e-04
2481 2481 1.9463892066774999e-02
2482 2481 -1.1817567011671000e-03
4618 2481 -4.3507255931532002e-04
2481 2482 -1.2566413881059000e-03
2482 2482 1.9388865536008999e-02
2484 2482 -1.6666666666667000e-02
4618 2482 -4.3506622477855998e-04
2480 2483 -4.0582074487686997e-12
2483 2483 7.5572236403239996e-03
2484 2483 -6.6666666666667001e-03
4618 2483 -1.6206045158261999e-04
2469 2484 -1.3925811426202000e-04
2470 2484 -1.3925808065332000e-04
2473 2484 -4.3504807962329000e-04
2474 2484 -4.3505035548435000e-04
2482 2484 -1.6666666666667000e-02
2483 2484 -6.6666666666667001e-03
2484 2484 2.5745532060108999e-02
2485 2485 9.2188073485477001e-03
2486 2485 -6.7302176322457002e-04
4617 2485 -4.3503361008205002e-04
2485 2486 -6.2475242738894998e-04
2486 2486 9.2678548261773998e-03
4617 2486 -4.3506477609705000e-04
4618 2486 -6.6666666666667001e-03
2487 2487 8.2271770699716001e-03
2490 2487 -6.2194711618371001e-10
2515 2487 -1.6461541810081000e-04
2488 2488 1.9388446322371002e-02
2489 2488 -1.2561417547417000e-03
2515 2488 -4.3506928097132000e-04
2488 2489 -1.1812259363126001e-03
2489 2489 1.9463370700762001e-02
2515 2489 -4.3506950315437998e-04
4600 2489 -1.6666666666667000e-02
2487 2490 -4.2145565925339003e-12
2490 2490 7.5572174501478996e-03
2515 2490 -1.6206457374072001e-04
4600 2490 -6.6666666666667001e-03
2491 2491 1.7814706471129000e-02
2492 2491 -1.2136908406845999e-06
2520 2491 -1.4164844082426999e-04
2491 2492 -2.3986238876647999e-08
2492 2492 1.7296473902164999e-02
2515 2492 -1.6666666666667000e-02
2520 2492 -1.3967228960943000e-04
2493 2493 1.7814704875925000e-02
2494 2493 -1.2115019485101000e-06
2514 2493 -1.4162440719342001e-04
2493 2494 -2.3941687471197999e-08
2494 2494 1.7296473893576001e-02
2514 2494 -1.3966812426163000e-04
2515 2494 -1.6666666666667000e-02
2495 2495 9.2658178161468992e-03
2496 2495 -6.2284783967442997e-04
2520 2495 -4.3506605358989002e-04
2495 2496 -6.7146693334095998e-04
2496 2496 9.2165923581252005e-03
2497 2496 -6.6666666666667001e-03
2520 2496 -4.3503233238083002e-04
2496 2497 -6.6666666666667001e-03
2497 2497 1.3333333333332999e-02
2512 2497 -6.6666666666667001e-03
2498 2498 8.2271647243571996e-03
2510 2498 -1.6513057941545999e-04
2511 2498 -1.6238377017948001e-09
2499 2499 8.2271194302783006e-03
2507 2499 -2.2201784741536999e-10
2500 2500 9.2609569245928006e-03
2506 2500 -6.2067292320005000e-04
2501 2501 1.7814541198031001e-02
2502 2501 -1.0475286863207000e-06
2501 2502 -2.2306264200574000e-08
2502 2502 1.7334865476362999e-02
2503 2502 -1.6666666666667000e-02
2502 2503 -1.6666666666667000e-02
2503 2503 3.3333333333333000e-02
2504 2503 -1.6666666666667000e-02
2503 2504 -1.6666666666667000e-02
2504 2504 1.7863587795009000e-02
2505 2504 -1.3392449117663000e-04
2504 2505 -2.4486868330146999e-05
2505 2505 1.7308130333339000e-02
2510 2505 -1.6666666666667000e-02
2500 2506 -6.6120582687667000e-04
2506 2506 9.1723535498798008e-03
2510 2506 -6.6666666666667001e-03
2499 2507 -7.7776094385102005e-12
2507 2507 8.1919692009072998e-03
2510 2507 -6.6666666666667001e-03
2508 2508 1.9374672605023999e-02
2509 2508 -1.2420144321527999e-03
2510 2508 -4.3506460066591000e-04
2508 2509 -1.1676698869337000e-03
2509 2509 1.9449380868334001e-02
2510 2509 -4.3507418338657999e-04
2514 2509 -1.6666666666667000e-02
2498 2510 -1.6142490407249001e-04
2505 2510 -1.6666666666667000e-02
2506 2510 -6.6666666666667001e-03
2507 2510 -6.6666666666667001e-03
2508 2510 -4.3503018121708999e-04
2509 2510 -4.3510950202618000e-04
2510 2510 3.1969454207949000e-02
2511 2510 -1.6142258830341999e-04
2498 2511 -1.1163152793551000e-11
2510 2511 -1.6216800836325000e-04
2511 2511 7.5572083361601997e-03
2514 2511 -6.6666666666667001e-03
2497 2512 -6.6666666666667001e-03
2512 2512 9.2651962253387007e-03
2513 2512 -6.2282862404915000e-04
2514 2512 -4.3506679330243000e-04
2512 2513 -6.7137707748379999e-04
2513 2513 9.2160155008064008e-03
2514 2513 -4.3503159254039002e-04
2515 2513 -6.6666666666667001e-03
2493 2514 -1.4022821741672999e-04
2494 2514 -1.3828797749861001e-04
2509 2514 -1.6666666666667000e-02
2511 2514 -6.6666666666667001e-03
2512 2514 -4.3512136782075000e-04
2513 2514 -4.3497997975324999e-04
2514 2514 2.5369659786574000e-02
2487 2515 -1.6142418702610000e-04
2488 2515 -4.3506846916624003e-04
2489 2515 -4.3507033576255997e-04
2490 2515 -1.6142330534981000e-04
2492 2515 -1.6666666666667000e-02
2494 2515 -1.6666666666667000e-02
2513 2515 -6.6666666666667001e-03
2515 2515 4.1983411561633002e-02
2516 2516 8.2271828644429994e-03
2519 2516 -6.0705357385031996e-10
2584 2516 -1.6460950505468999e-04
2517 2517 1.9463708688043001e-02
2518 2517 -1.1815753447471000e-03
2584 2517 -4.3507220344955001e-04
2517 2518 -1.2564613209725000e-03
2518 2518 1.9388696827146001e-02
2520 2518 -1.6666666666667000e-02
2584 2518 -4.3506658065108999e-04
2516 2519 -4.1104189347144999e-12
2519 2519 7.5572229856167000e-03
2520 2519 -6.6666666666667001e-03
2584 2519 -1.6206184252259999e-04
2491 2520 -1.4022999171186000e-04
2492 2520 -1.3828620320348000e-04
2495 2520 -4.3511834065031998e-04
2496 2520 -4.3498288447489002e-04
2518 2520 -1.6666666666667000e-02
2519 2520 -6.6666666666667001e-03
2520 2520 2.5599179010752999e-02
2521 2521 8.2271773047261007e-03
2522 2521 -4.0390341608361998e-10
4620 2521 -1.6436046854016999e-04
2521 2522 -4.0328276583745000e-10
2522 2522 8.2271370828853000e-03
2584 2522 -6.6666666666667001e-03
4620 2522 -1.6435967511383001e-04
2523 2523 9.2674353242937994e-03
2524 2523 -6.2436376009722004e-04
4617 2523 -4.3505115250149000e-04
2523 2524 -6.7299677606907004e-04
2524 2524 9.2187044438547996e-03
2584 2524 -6.6666666666667001e-03
4617 2524 -4.3504723487481999e-04
2525 2525 8.9160539664805000e-03
2528 2525 -2.2168170778288999e-04
2578 2525 -5.3072047161555004e-04
2526 2526 1.8971990568524999e-02
2527 2526 -8.2362778870415001e-04
2578 2526 -4.3446743881218002e-04
2526 2527 -7.7974921356946999e-04
2527 2527 1.9041031336422001e-02
2578 2527 -4.3567002055457002e-04
4617 2527 -1.6666666666667000e-02
2525 2528 -1.5425869439228999e-05
2528 2528 7.5714157958846999e-03
2578 2528 -1.6234832893343001e-04
4617 2528 -6.6666666666667001e-03
2529 2529 8.2271904951919002e-03
2541 2529 -1.6475639092085000e-04
2542 2529 -7.6031765738402005e-10
2530 2530 8.2272402561212998e-03
2531 2530 -5.8619317577471999e-10
2530 2531 -3.9937080006833001e-12
2531 2531 7.5694469305067000e-03
2547 2531 -6.6666666666667001e-03
2532 2532 9.2645269734546992e-03
2535 2532 -6.2228324203515999e-04
2533 2533 1.7814703423262000e-02
2534 2533 -1.2105137658043001e-06
2533 2534 -2.3942592924245999e-08
2534 2534 1.7296931493997001e-02
2541 2534 -1.6666666666667000e-02
2532 2535 -6.6873121552978000e-04
2535 2535 9.2045278814648999e-03
2541 2535 -6.6666666666667001e-03
2536 2536 1.9443848079902001e-02
2537 2536 -1.1751338306198000e-03
2541 2536 -4.3879036913331999e-04
2536 2537 -1.1999106344044001e-03
2537 2537 1.9267504033966001e-02
2538 2537 -1.6666666666667000e-02
2541 2537 -4.3130112965401000e-04
2537 2538 -1.6666666666667000e-02
2538 2538 3.3333333333333000e-02
2539 2538 -1.6666666666667000e-02
2538 2539 -1.6666666666667000e-02
2539 2539 1.9307301650960000e-02
2540 2539 -1.1525580908364000e-03
2539 2540 -1.1669596150407999e-03
2540 2540 1.9183367843974002e-02
2547 2540 -1.6666666666667000e-02
2529 2541 -1.6142428492151999e-04
2534 2541 -1.6666666666667000e-02
2535 2541 -6.6666666666667001e-03
2536 2541 -4.6639886315942997e-04
2537 2541 -4.0432446701045999e-04
2541 2541 2.5545280794417001e-02
2542 2541 -1.6142320745439999e-04
2529 2542 -5.2195729473245997e-12
2541 2542 -1.6211493947254000e-04
2542 2542 7.5694130461740998e-03
2547 2542 -6.6666666666667001e-03
2543 2543 9.1739127117472005e-03
2546 2543 -5.5760610287873004e-04
2547 2543 -4.6263500741246000e-04
2544 2544 1.7818843065142000e-02
2545 2544 -5.0144483821784997e-06
2547 2544 -1.5853411225457000e-04
2544 2545 -1.0986604239787000e-07
2545 2545 1.7331453968937000e-02
2547 2545 -1.4298089458181001e-04
2553 2545 -1.6666666666667000e-02
2543 2546 -4.7260946296747000e-04
2546 2546 8.6510616778543003e-03
2547 2546 -4.0287428657123002e-04
2553 2546 -6.6666666666667001e-03
2531 2547 -6.6666666666667001e-03
2540 2547 -1.6666666666667000e-02
2542 2547 -6.6666666666667001e-03
2543 2547 -5.4492729442874002e-04
2544 2547 -1.4324165676494999e-04
2545 2547 -1.3527453815039001e-04
2546 2547 -3.2383860096876999e-04
2547 2547 3.1894937270657002e-02
2548 2548 8.7852667078624994e-03
2549 2548 -6.4474675676056006e-05
2553 2548 -5.3038531427782997e-04
2548 2549 -5.6888570025880996e-06
2549 2549 7.9112606052545009e-03
2550 2549 -6.6666666666667001e-03
2553 2549 -1.6303560938939001e-04
2549 2550 -6.6666666666667001e-03
2550 2550 1.3333333333332999e-02
2577 2550 -6.6666666666667001e-03
2551 2551 1.8755122330754999e-02
2552 2551 -4.7737305999976000e-04
2553 2551 -5.6470463371741000e-04
2551 2552 -1.0089046518548000e-04
2552 2552 1.7466945704913001e-02
2553 2552 -1.4727053486657000e-04
2578 2552 -1.6666666666667000e-02
2545 2553 -1.6666666666667000e-02
2546 2553 -6.6666666666667001e-03
2548 2553 -5.7322817511361996e-04
2549 2553 -1.1445324727537000e-04
2551 2553 -8.9141852760830996e-04
2552 2553 2.1848727321936999e-04
2553 2553 2.5562207324600000e-02
2554 2554 9.2632640781607992e-03
2566 2554 -4.3515315222116999e-04
2567 2554 -6.2057221126118997e-04
2555 2555 9.2655178096621993e-03
2556 2555 -6.2272284475992003e-04
2555 2556 -6.7082428663161003e-04
2556 2556 9.2137089699677998e-03
2571 2556 -6.6666666666667001e-03
2557 2557 8.2272590558725000e-03
2560 2557 -6.1034850241162998e-10
2558 2558 1.9460480541192000e-02
2559 2558 -1.1812073492682000e-03
2558 2559 -1.2484463213171999e-03
2559 2559 1.9370385678114999e-02
2566 2559 -1.6666666666667000e-02
2557 2560 -4.1132635551239996e-12
2560 2560 7.5581662199554001e-03
2566 2560 -6.6666666666667001e-03
2561 2561 1.7813831944597000e-02
2562 2561 -3.1458113654517999e-07
2566 2561 -1.4463985396761999e-04
2561 2562 -5.6492676019375003e-06
2562 2562 1.7935841256331998e-02
2563 2562 -1.6666666666667000e-02
2566 2562 -3.5010579255132001e-04
2562 2563 -1.6666666666667000e-02
2563 2563 3.3333333333333000e-02
2564 2563 -1.6666666666667000e-02
2563 2564 -1.6666666666667000e-02
2564 2564 1.7939888447638001e-02
2565 2564 -9.7229163701393001e-06
2564 2565 -1.2141343513669999e-07
2565 2565 1.7296666215889999e-02
2571 2565 -1.6666666666667000e-02
2554 2566 -4.3547339653019997e-04
2559 2566 -1.6666666666667000e-02
2560 2566 -6.6666666666667001e-03
2561 2566 -1.3583228732703999e-04
2562 2566 -1.4268390758830001e-04
2566 2566 2.5277126459830001e-02
2567 2566 -4.3464242456436002e-04
2554 2567 -6.6857994172433001e-04
2566 2567 -4.3494518095429002e-04
2567 2567 9.2115460167787998e-03
2571 2567 -6.6666666666667001e-03
2568 2568 8.2271754459291007e-03
2571 2568 -1.6464494392621999e-04
2572 2568 -6.6196065941075003e-10
2569 2569 1.9393278776726999e-02
2570 2569 -1.2549132197936001e-03
2571 2569 -4.3295684691331998e-04
2569 2570 -1.2624857016992001e-03
2570 2570 1.9522861358673000e-02
2571 2570 -4.3716748202539998e-04
2575 2570 -1.6666666666667000e-02
2556 2571 -6.6666666666667001e-03
2565 2571 -1.6666666666667000e-02
2567 2571 -6.6666666666667001e-03
2568 2571 -1.6142421565929000e-04
2569 2571 -4.1747955594778001e-04
2570 2571 -4.5305732401529000e-04
2571 2571 3.1982450828441998e-02
2572 2571 -1.6142327671662000e-04
2568 2572 -4.4762924504149998e-12
2571 2572 -1.6206307047697999e-04
2572 2572 7.5535162082840997e-03
2575 2572 -6.6666666666667001e-03
2573 2573 1.7814097103593000e-02
2574 2573 -5.7595864539854995e-07
2575 2573 -1.3943940168581999e-04
2573 2574 -1.2986467378718001e-08
2574 2574 1.7369195238594998e-02
2575 2574 -1.3925809745766999e-04
2578 2574 -1.6666666666667000e-02
2570 2575 -1.6666666666667000e-02
2572 2575 -6.6666666666667001e-03
2573 2575 -1.3970178605005000e-04
2574 2575 -1.3881440886529000e-04
2575 2575 2.5589386727203001e-02
2576 2575 -3.3066192792462998e-04
2577 2575 -5.3563396037445996e-04
2575 2576 -3.9960186307506001e-04
2576 2576 8.4393302752851004e-03
2577 2576 -3.9975548742151001e-04
2578 2576 -6.6666666666667001e-03
2550 2577 -6.6666666666667001e-03
2575 2577 -4.6488329172719999e-04
2576 2577 -4.7690459550802999e-04
2577 2577 8.7454766862880996e-03
2525 2578 -6.9454210493191996e-04
2526 2578 -4.3232889918350001e-04
2527 2578 -4.3792811591068998e-04
2528 2578 6.8606825429319004e-06
2552 2578 -1.6666666666667000e-02
2574 2578 -1.6666666666667000e-02
2576 2578 -6.6666666666667001e-03
2578 2578 4.2166342317069998e-02
2579 2579 1.7814562816801001e-02
2580 2579 -1.0955433438234000e-06
4617 2579 -1.4070038659127999e-04
2579 2580 -2.1913742356416000e-08
2580 2580 1.7304176913933999e-02
2581 2580 -1.6666666666667000e-02
4617 2580 -1.3951641938842000e-04
2580 2581 -1.6666666666667000e-02
2581 2581 3.3333333333333000e-02
2582 2581 -1.6666666666667000e-02
2581 2582 -1.6666666666667000e-02
2582 2582 1.7305182790657000e-02
2583 2582 -1.0267440618560000e-06
4620 2582 -1.6235460607460001e-04
2582 2583 -9.2975948496102997e-08
2583 2583 1.7296496402461000e-02
2584 2583 -1.6666666666667000e-02
4620 2583 -1.6160061888161999e-04
2516 2584 -1.6142417622587999e-04
2517 2584 -4.3509328308200001e-04
2518 2584 -4.3504602740348001e-04
2519 2584 -1.6142331615003001e-04
2522 2584 -6.6666666666667001e-03
2524 2584 -6.6666666666667001e-03
2583 2584 -1.6666666666667000e-02
2584 2584 3.2099761246746003e-02
2585 2585 1.9463616366086001e-02
2586 2585 -1.1814806371499001e-03
2594 2585 -4.3507377862118002e-04
2585 2586 -1.2563438418379000e-03
2586 2586 1.9388556770068000e-02
2587 2586 -1.6666666666667000e-02
2594 2586 -4.3506500544344999e-04
2586 2587 -1.6666666666667000e-02
2587 2587 3.3333333333333000e-02
4599 2587 -1.6666666666667000e-02
2588 2588 9.2658583334483992e-03
2591 2588 -6.2287296497705996e-04
4600 2588 -4.3505794284858000e-04
2589 2589 1.7814705937124000e-02
2590 2589 -1.2130322063321000e-06
4600 2589 -1.4163951999523000e-04
2589 2590 -2.3971255420823000e-08
2590 2590 1.7296439432830001e-02
2594 2590 -1.6666666666667000e-02
4600 2590 -1.3967068226726999e-04
2588 2591 -6.7154106067964002e-04
2591 2591 9.2168754893780999e-03
2594 2591 -6.6666666666667001e-03
4600 2591 -4.3504044416329001e-04
2592 2592 8.2271769285226001e-03
2593 2592 -4.0440991134095998e-10
2594 2592 -1.6436042685754999e-04
2592 2593 -4.0084228514772001e-10
2593 2593 8.2269429128979006e-03
2594 2593 -1.6435896794637000e-04
4598 2593 -6.6666666666667001e-03
2585 2594 -4.3510666506676998e-04
2586 2594 -4.3503294029522001e-04
2590 2594 -1.6666666666667000e-02
2591 2594 -6.6666666666667001e-03
2592 2594 -1.6142374866852000e-04
2593 2594 -1.6142374370739000e-04
2594 2594 2.5564231571986999e-02
2595 2595 8.2271771321804996e-03
2598 2595 -6.1069734160947997e-10
4595 2595 -1.6460538932023001e-04
2596 2596 1.9388708639879002e-02
2597 2596 -1.2564105406575000e-03
4595 2596 -4.3506939107351001e-04
2596 2597 -1.1814829918757000e-03
2597 2597 1.9463636264915998e-02
2614 2597 -1.6666666666667000e-02
4595 2597 -4.3506939305222998e-04
2595 2598 -4.1371913226362002e-12
2598 2598 7.5572176490428999e-03
2614 2598 -6.6666666666667001e-03
4595 2598 -1.6206256044706000e-04
2599 2599 1.9463363471450001e-02
2600 2599 -1.1812161907089999e-03
2612 2599 -4.3506939297116001e-04
2599 2600 -1.2561377664830000e-03
2600 2600 1.9388441855017001e-02
2601 2600 -1.6666666666667000e-02
2612 2600 -4.3506939115457998e-04
2600 2601 -1.6666666666667000e-02
2601 2601 2.3854346543977001e-02
2603 2601 -6.6666666666667001e-03
2602 2602 8.2271771445116999e-03
2603 2602 -6.2211190384966995e-10
2612 2602 -1.6461556277154999e-04
2601 2603 -6.6666666666667001e-03
2602 2603 -4.2156902286512999e-12
2603 2603 7.5572176525530999e-03
2612 2603 -1.6206460309085000e-04
2604 2604 1.7814705780627001e-02
2605 2604 -1.2128822615083000e-06
2619 2604 -1.4163961005086000e-04
2604 2605 -2.3969809860033001e-08
2605 2605 1.7296474399728999e-02
2612 2605 -1.6666666666667000e-02
2619 2605 -1.3967076016667000e-04
2606 2606 1.7814705780787001e-02
2607 2606 -1.2128824233898001e-06
2614 2606 -1.4163961182029000e-04
2606 2607 -2.3969813152681000e-08
2607 2607 1.7296474399732000e-02
2612 2607 -1.6666666666667000e-02
2614 2607 -1.3967076047327999e-04
2608 2608 9.2658267339400992e-03
2609 2608 -6.2285878340293996e-04
2619 2608 -4.3506661874873997e-04
2608 2609 -6.7147484019905999e-04
2609 2609 9.2165839818858994e-03
2610 2609 -6.6666666666667001e-03
2619 2609 -4.3503176712484997e-04
2609 2610 -6.6666666666667001e-03
2610 2610 1.3333333333332999e-02
2611 2610 -6.6666666666667001e-03
2610 2611 -6.6666666666667001e-03
2611 2611 9.2651574152666002e-03
2613 2611 -6.2280689045847003e-04
2614 2611 -4.3506662618757999e-04
2599 2612 -4.3506939977857001e-04
2600 2612 -4.3506938451725002e-04
2602 2612 -1.6142418714360001e-04
2603 2612 -1.6142330523231000e-04
2605 2612 -1.6666666666667000e-02
2607 2612 -1.6666666666667000e-02
2612 2612 4.1983407337922003e-02
2613 2612 -6.6666666666667001e-03
2611 2613 -6.7135361412789998e-04
2612 2613 -6.6666666666667001e-03
2613 2613 9.2159844709604997e-03
2614 2613 -4.3503175968456997e-04
2597 2614 -1.6666666666667000e-02
2598 2614 -6.6666666666667001e-03
2606 2614 -1.4022933629217999e-04
2607 2614 -1.3828685862316001e-04
2611 2614 -4.3512067881203999e-04
2613 2614 -4.3498064062594998e-04
2614 2614 2.5686835724673000e-02
2615 2615 8.2271771315875000e-03
2618 2615 -6.1070258032412998e-10
4598 2615 -1.6460539404216000e-04
2616 2616 1.9388708519342001e-02
2617 2616 -1.2564104145335001e-03
4598 2616 -4.3506939049756002e-04
2616 2617 -1.1814828988784001e-03
2617 2617 1.9463636155644001e-02
2619 2617 -1.6666666666667000e-02
4598 2617 -4.3506939362818002e-04
2615 2618 -4.1372273440787999e-12
2618 2618 7.5572176479869997e-03
2619 2618 -6.6666666666667001e-03
4598 2618 -1.6206256139384001e-04
2604 2619 -1.4022933616100001e-04
2605 2619 -1.3828685875433999e-04
2608 2619 -4.3512066038463998e-04
2609 2619 -4.3498065978531998e-04
2617 2619 -1.6666666666667000e-02
2618 2619 -6.6666666666667001e-03
2619 2619 2.5658225236689002e-02
2620 2620 9.2658595266115994e-03
2621 2620 -6.2287413889770002e-04
4597 2620 -4.3505793543515000e-04
2620 2621 -6.7154232372348000e-04
2621 2621 9.2168768592145005e-03
4597 2621 -4.3504045157736999e-04
4598 2621 -6.6666666666667001e-03
2622 2622 8.9843621288400993e-03
2625 2622 -3.4646445217916000e-04
2650 2622 -4.5243722288223999e-04
2623 2623 1.8721870814895000e-02
2624 2623 -4.3837422968028000e-04
2650 2623 -5.5838531986100997e-04
2623 2624 -4.8135887215866000e-05
2624 2624 1.7350549213759999e-02
2650 2624 -1.4397281090084999e-04
4580 2624 -1.6666666666667000e-02
2622 2625 -3.4583182289571999e-04
2625 2625 8.7452595271516002e-03
2650 2625 -4.1592855147375000e-04
4580 2625 -6.6666666666667001e-03
2626 2626 1.7814402701603001e-02
2627 2626 -9.0868387110267005e-07
2655 2626 -1.4180173232818000e-04
2626 2627 -2.2798360306399000e-08
2627 2627 1.7407889654406001e-02
2650 2627 -1.6666666666667000e-02
2655 2627 -1.3993782233834000e-04
2628 2628 1.7814558409583001e-02
2629 2628 -1.0631606719684001e-06
2649 2628 -1.4359757898292001e-04
2628 2629 -2.6813063826980002e-08
2629 2629 1.7407894052800001e-02
2649 2629 -1.4041771503283000e-04
2650 2629 -1.6666666666667000e-02
2630 2630 9.2101935666911005e-03
2631 2630 -5.9471059946325999e-04
2655 2630 -4.5697712384937001e-04
2630 2631 -5.2632548155213000e-04
2631 2631 8.7402456784846008e-03
2632 2631 -6.6666666666667001e-03
2655 2631 -4.1033385443027998e-04
2631 2632 -6.6666666666667001e-03
2632 2632 1.3333333333332999e-02
2647 2632 -6.6666666666667001e-03
2633 2633 8.2272124855427998e-03
2645 2633 -1.6514151211027999e-04
2646 2633 -1.5268634757317001e-09
2634 2634 9.2593681355718997e-03
2642 2634 -6.2062204173468996e-04
2635 2635 9.2593681355718997e-03
2641 2635 -6.2062204173468996e-04
2636 2636 1.7814408013405000e-02
2637 2636 -9.2586284058312002e-07
2636 2637 -1.3465755702257000e-06
2637 2637 1.7826500893208998e-02
2638 2637 -1.6666666666667000e-02
2637 2638 -1.6666666666667000e-02
2638 2638 3.3333333333333000e-02
2639 2638 -1.6666666666667000e-02
2638 2639 -1.6666666666667000e-02
2639 2639 1.7827197713575001e-02
2640 2639 -1.8951776183250999e-06
2639 2640 -2.8094976278470998e-08
2640 2640 1.7298203008141000e-02
2645 2640 -1.6666666666667000e-02
2635 2641 -6.6133028955434004e-04
2641 2641 9.1727202702718003e-03
2645 2641 -6.6666666666667001e-03
2634 2642 -6.6133028955434004e-04
2642 2642 9.1727202702718003e-03
2645 2642 -6.6666666666667001e-03
2643 2643 1.9445691820723001e-02
2644 2643 -1.1676906111169000e-03
2645 2643 -4.3606429445099999e-04
2643 2644 -1.2282636324921999e-03
2644 2644 1.9342307280952001e-02
2645 2644 -4.3407125944773002e-04
2649 2644 -1.6666666666667000e-02
2633 2645 -1.6142483167406999e-04
2640 2645 -1.6666666666667000e-02
2641 2645 -6.6666666666667001e-03
2642 2645 -6.6666666666667001e-03
2643 2645 -4.4339497290572002e-04
2644 2645 -4.2692228359815997e-04
2645 2645 3.1970307088737000e-02
2646 2645 -1.6142266070184999e-04
2633 2646 -1.0475673609063000e-11
2645 2646 -1.6216545618362999e-04
2646 2646 7.5589448205833996e-03
2649 2646 -6.6666666666667001e-03
2632 2647 -6.6666666666667001e-03
2647 2647 8.5931413853118001e-03
2648 2647 -2.9563205985058000e-04
2649 2647 -4.9348985995441004e-04
2647 2648 -1.7438955429226999e-04
2648 2648 8.0874519194990002e-03
2649 2648 -3.4913812878211001e-04
2650 2648 -6.6666666666667001e-03
2628 2649 -1.4007378632452001e-04
2629 2649 -1.3844240859081999e-04
2644 2649 -1.6666666666667000e-02
2646 2649 -6.6666666666667001e-03
2647 2649 -5.9844339298315995e-04
2648 2649 -2.4611616773816000e-04
2649 2649 2.5304022237756001e-02
2622 2650 -4.6787139431076001e-04
2623 2650 -9.0084085155037001e-04
2624 2650 2.2790959716142999e-04
2625 2650 -4.0280089397321000e-04
2627 2650 -1.6666666666667000e-02
2629 2650 -1.6666666666667000e-02
2648 2650 -6.6666666666667001e-03
2650 2650 4.2140452278396003e-02
2651 2651 8.2271766415495003e-03
2654 2651 -6.0368159504366997e-10
2719 2651 -1.6459968488419000e-04
2652 2652 1.9462486976694001e-02
2653 2652 -1.1814790194629001e-03
2719 2652 -4.3535760161354000e-04
2652 2653 -1.2522090563101000e-03
2653 2653 1.9378951195183000e-02
2655 2653 -1.6666666666667000e-02
2719 2653 -4.3478091683473000e-04
2651 2654 -4.0907024055268999e-12
2654 2654 7.5577261243382999e-03
2655 2654 -6.6666666666667001e-03
2719 2654 -1.6206242656709001e-04
2626 2655 -1.3995383581627999e-04
2627 2655 -1.3856235909906001e-04
2630 2655 -5.2925975757514999e-04
2631 2655 -3.4082692996076000e-04
2653 2655 -1.6666666666667000e-02
2654 2655 -6.6666666666667001e-03
2655 2655 2.5604931223813999e-02
2656 2656 9.2171769232089994e-03
2657 2656 -6.7160659193756997e-04
4600 2656 -4.3504394280359998e-04
2656 2657 -6.2301603065831996e-04
2657 2657 9.2660291463230997e-03
2719 2657 -6.6666666666667001e-03
4600 2657 -4.3505444445376002e-04
2658 2658 9.2171780339774002e-03
2659 2658 -6.7160778986422997e-04
4597 2658 -4.3504394282040999e-04
2658 2659 -6.2301716109273997e-04
2659 2659 9.2660303244702993e-03
2719 2659 -6.6666666666667001e-03
4597 2659 -4.3505444443695001e-04
2660 2660 8.2271766191484002e-03
2663 2660 -6.2434526560808996e-10
2713 2660 -1.6461753696682001e-04
2661 2661 1.9388392690333999e-02
2662 2661 -1.2560852861037001e-03
2713 2661 -4.3506900214031999e-04
2661 2662 -1.1811855957735999e-03
2662 2662 1.9463322422700002e-02
2713 2662 -4.3506978198492999e-04
4597 2662 -1.6666666666667000e-02
2660 2663 -4.2310519613173003e-12
2663 2663 7.5572169280243000e-03
2713 2663 -1.6206499874290000e-04
4597 2663 -6.6666666666667001e-03
2664 2664 8.2267916008608999e-03
2676 2664 -1.6745307190817001e-04
2677 2664 -2.8765648201306000e-07
2665 2665 9.2158090291104000e-03
2666 2665 -6.7111853913905996e-04
2665 2666 -6.2809221120941000e-04
2666 2666 9.2716830925503001e-03
2682 2666 -6.6666666666667001e-03
2667 2667 9.2317944418166004e-03
2670 2667 -6.0628834791767001e-04
2668 2668 1.7814949594545000e-02
2669 2668 -1.1634262406830000e-06
2668 2669 -2.3346642980700999e-08
2669 2669 1.7309819116548001e-02
2676 2669 -1.6666666666667000e-02
2667 2670 -6.0100664477835003e-04
2670 2670 8.9523158935709002e-03
2676 2670 -6.6666666666667001e-03
2671 2671 1.9362092634375001e-02
2672 2671 -1.0849224896368999e-03
2676 2671 -4.3556687465264000e-04
2671 2672 -1.1508647383945000e-03
2672 2672 1.9276323829528999e-02
2673 2672 -1.6666666666667000e-02
2676 2672 -4.3457108871136001e-04
2672 2673 -1.6666666666667000e-02
2673 2673 3.3333333333333000e-02
2674 2673 -1.6666666666667000e-02
2673 2674 -1.6666666666667000e-02
2674 2674 1.7805654691453000e-02
2675 2674 -1.0636731293404000e-06
2674 2675 -2.1360939146273999e-08
2675 2675 1.7296098474474001e-02
2682 2675 -1.6666666666667000e-02
2664 2676 -1.6134120604659999e-04
2669 2676 -1.6666666666667000e-02
2670 2676 -6.6666666666667001e-03
2671 2676 -4.3886630953930000e-04
2672 2676 -4.3136475697796002e-04
2676 2676 2.5498006788363999e-02
2677 2676 -1.6150628632930999e-04
2664 2677 -5.1077193119714997e-07
2676 2677 -1.7456622652893000e-04
2677 2677 8.2350397211842993e-03
2682 2677 -6.6666666666667001e-03
2678 2678 8.2271265754736006e-03
2681 2678 -5.0856247795824997e-10
2682 2678 -1.6450503593430001e-04
2679 2679 1.9391524708662001e-02
2680 2679 -1.2591375458960001e-03
2682 2679 -4.3504827508607002e-04
2679 2680 -1.1853003643841999e-03
2680 2680 1.9466989278350999e-02
2682 2680 -4.3509050762420001e-04
2688 2680 -1.6666666666667000e-02
2678 2681 -3.4359269129359001e-12
2681 2681 7.5571769347532996e-03
2682 2681 -1.6204239916460999e-04
2688 2681 -6.6666666666667001e-03
2666 2682 -6.6666666666667001e-03
2675 2682 -1.6666666666667000e-02
2677 2682 -6.6666666666667001e-03
2678 2682 -1.6142410622231999e-04
2679 2682 -4.3489341267774001e-04
2680 2682 -4.3524932554018999e-04
2681 2682 -1.6142338615360001e-04
2682 2682 3.1986697359440999e-02
2683 2683 9.2658906534649997e-03
2684 2683 -6.2294136134408997e-04
2688 2683 -4.3507108955834000e-04
2683 2684 -6.7153295097291995e-04
2684 2684 9.2165115358707993e-03
2685 2684 -6.6666666666667001e-03
2688 2684 -4.3502729543402002e-04
2684 2685 -6.6666666666667001e-03
2685 2685 1.3333333333332999e-02
2712 2685 -6.6666666666667001e-03
2686 2686 1.7814700876708001e-02
2687 2686 -1.2067502979949999e-06
2688 2686 -1.4157259419726999e-04
2686 2687 -2.3845343288806001e-08
2687 2687 1.7296481107145999e-02
2688 2687 -1.3965915776877001e-04
2713 2687 -1.6666666666667000e-02
2680 2688 -1.6666666666667000e-02
2681 2688 -6.6666666666667001e-03
2683 2688 -4.3513901456091001e-04
2684 2688 -4.3496305729221998e-04
2686 2688 -1.4022436331278000e-04
2687 2688 -1.3829183160256000e-04
2688 2688 2.5660678860457999e-02
2689 2689 8.2272804387216996e-03
2701 2689 -1.6682590363824000e-04
2702 2689 -6.9272761723032996e-08
2690 2690 9.2156996007116999e-03
2691 2690 -6.7119954993167001e-04
2690 2691 -6.2499248443484998e-04
2691 2691 9.2682061562781998e-03
2706 2691 -6.6666666666667001e-03
2692 2692 9.2385141358680995e-03
2695 2692 -6.1014024351160000e-04
2693 2693 1.7814974684234000e-02
2694 2693 -1.1785066881187000e-06
2693 2694 -2.3502693771121001e-08
2694 2694 1.7306682905679001e-02
2701 2694 -1.6666666666667000e-02
2692 2695 -6.1635938951134996e-04
2695 2695 9.0031423502598996e-03
2701 2695 -6.6666666666667001e-03
2696 2696 1.9384816296574001e-02
2697 2696 -1.1066288876764000e-03
2701 2696 -4.3546086746484001e-04
2696 2697 -1.1743814458543000e-03
2697 2697 1.9301040968031001e-02
2698 2697 -1.6666666666667000e-02
2701 2697 -4.3467741306965998e-04
2697 2698 -1.6666666666667000e-02
2698 2698 3.3333333333333000e-02
2699 2698 -1.6666666666667000e-02
2698 2699 -1.6666666666667000e-02
2699 2699 1.7807374471668001e-02
2700 2699 -1.0903244830443999e-06
2699 2700 -2.1834266857724999e-08
2700 2700 1.7296278335324999e-02
2706 2700 -1.6666666666667000e-02
2689 2701 -1.6141734336005999e-04
2694 2701 -1.6666666666667000e-02
2695 2701 -6.6666666666667001e-03
2696 2701 -4.3813322997955997e-04
2697 2701 -4.3207830069594998e-04
2701 2701 2.5160008285446001e-02
2702 2701 -1.6143014901585001e-04
2689 2702 -8.7529347801540995e-08
2701 2702 -1.7016225125875999e-04
2702 2702 8.2304226000263006e-03
2706 2702 -6.6666666666667001e-03
2703 2703 8.2271161563687994e-03
2706 2703 -1.6455784741066000e-04
2707 2703 -5.5938064997155997e-10
2704 2704 1.9390210513066001e-02
2705 2704 -1.2577391487359000e-03
2706 2704 -4.3503707140802998e-04
2704 2705 -1.1845161384955000e-03
2705 2705 1.9465917572872998e-02
2706 2705 -4.3510170939981002e-04
2710 2705 -1.6666666666667000e-02
2691 2706 -6.6666666666667001e-03
2700 2706 -1.6666666666667000e-02
2702 2706 -6.6666666666667001e-03
2703 2706 -1.6142414243576001e-04
2704 2706 -4.3480044164633999e-04
2705 2706 -4.3534439646628000e-04
2706 2706 3.1985102336849001e-02
2707 2706 -1.6142334994016000e-04
2703 2707 -3.7846486646182004e-12
2706 2707 -1.6205297642244001e-04
2707 2707 7.5571564969017001e-03
2710 2707 -6.6666666666667001e-03
2708 2708 1.7814697850254000e-02
2709 2708 -1.2036176817455000e-06
2710 2708 -1.4153819884238001e-04
2708 2709 -2.3781633768404000e-08
2709 2709 1.7296481048154001e-02
2710 2709 -1.3965319752539001e-04
2713 2709 -1.6666666666667000e-02
2705 2710 -1.6666666666667000e-02
2707 2710 -6.6666666666667001e-03
2708 2710 -1.4022182497579999e-04
2709 2710 -1.3829436993953001e-04
2710 2710 2.5372841236050998e-02
2711 2710 -4.3497917168948999e-04
2712 2710 -4.3512220907010002e-04
2710 2711 -4.3503139121705002e-04
2711 2711 9.2159415062062003e-03
2712 2711 -6.7146017669543999e-04
2713 2711 -6.6666666666667001e-03
2685 2712 -6.6666666666667001e-03
2710 2712 -4.3506699459002000e-04
2711 2712 -6.2292921319341999e-04
2712 2712 9.2651119102148995e-03
2660 2713 -1.6142418873662999e-04
2661 2713 -4.3506615296226000e-04
2662 2713 -4.3507270418145999e-04
2663 2713 -1.6142330363928001e-04
2687 2713 -1.6666666666667000e-02
2709 2713 -1.6666666666667000e-02
2711 2713 -6.6666666666667001e-03
2713 2713 4.1983349328651998e-02
2714 2714 1.7814013918771000e-02
2715 2714 -5.1773315522693000e-07
4597 2714 -1.4041434584265001e-04
2714 2715 -4.9675667223445998e-08
2715 2715 1.7749225327222000e-02
2716 2715 -1.6666666666667000e-02
4597 2715 -1.4017759246908999e-04
2715 2716 -1.6666666666667000e-02
2716 2716 3.3333333333333000e-02
2717 2716 -1.6666666666667000e-02
2716 2717 -1.6666666666667000e-02
2717 2717 1.7749599823620999e-02
2718 2717 -4.2711670003500001e-07
4600 2717 -1.4128722966108001e-04
2717 2718 -9.4785344208488993e-09
2718 2718 1.7296406253699000e-02
2719 2718 -1.6666666666667000e-02
4600 2718 -1.3970012842873001e-04
2651 2719 -1.6142417398925000e-04
2652 2719 -4.3751784950674002e-04
2653 2719 -4.3267421032874999e-04
2654 2719 -1.6142331838666000e-04
2657 2719 -6.6666666666667001e-03
2659 2719 -6.6666666666667001e-03
2718 2719 -1.6666666666667000e-02
2719 2719 3.2099832531840997e-02
2720 2720 1.7814570366516999e-02
2721 2720 -1.0718691134402999e-06
2729 2720 -1.4043193403781999e-04
2720 2721 -2.1425488284771999e-08
2721 2721 1.7304200435912000e-02
2722 2721 -1.6666666666667000e-02
2729 2721 -1.3946789461596000e-04
2721 2722 -1.6666666666667000e-02
2722 2722 3.3333333333333000e-02
4579 2722 -1.6666666666667000e-02
2723 2723 8.2267673353650008e-03
2726 2723 -7.7365370848278003e-08
4580 2723 -1.6700174637518001e-04
2724 2724 1.9321074491836000e-02
2725 2724 -1.1852022110170001e-03
4580 2724 -4.3464234485700998e-04
2724 2725 -1.1315693014286000e-03
2725 2725 1.9403930726121999e-02
2729 2725 -1.6666666666667000e-02
4580 2725 -4.3549584420769999e-04
2723 2726 -5.6324591256974005e-10
2726 2726 7.5564942875680999e-03
2729 2726 -6.6666666666667001e-03
4580 2726 -1.6254233439428001e-04
2727 2727 9.2674579894031998e-03
2728 2727 -6.2448895644944002e-04
2729 2727 -4.3507058846673001e-04
2727 2728 -6.7314399929500001e-04
2728 2728 9.2180307142814000e-03
2729 2728 -4.3502779663476000e-04
4578 2728 -6.6666666666667001e-03
2720 2729 -1.4011222378513001e-04
2721 2729 -1.3840397113020999e-04
2725 2729 -1.6666666666667000e-02
2726 2729 -6.6666666666667001e-03
2727 2729 -4.3513727061372998e-04
2728 2729 -4.3496471644232000e-04
2729 2729 2.5714979309560002e-02
2730 2730 8.2271641773991998e-03
2733 2730 -7.1966865357231001e-10
4575 2730 -1.6469542408882999e-04
2731 2731 1.9386407813675999e-02
2732 2731 -1.2539979005398000e-03
4575 2731 -4.3505778338862001e-04
2731 2732 -1.1797344005490000e-03
2732 2732 1.9461562644639000e-02
2749 2732 -1.6666666666667000e-02
4575 2732 -4.3508100030873999e-04
2730 2733 -4.8874279273128999e-12
2733 2733 7.5571963278442999e-03
2749 2733 -6.6666666666667001e-03
4575 2733 -1.6208061231864999e-04
2734 2734 1.9388431984031999e-02
2735 2734 -1.2561275543233000e-03
2747 2734 -4.3506936781304999e-04
2734 2735 -1.1812074509525000e-03
2735 2735 1.9463353955923000e-02
2736 2735 -1.6666666666667000e-02
2747 2735 -4.3506941631269000e-04
2735 2736 -1.6666666666667000e-02
2736 2736 2.3854346543977001e-02
2738 2736 -6.6666666666667001e-03
2737 2737 8.2271771344614008e-03
2738 2737 -6.2254399094222995e-10
2747 2737 -1.6461594411386999e-04
2736 2738 -6.6666666666667001e-03
2737 2738 -4.2186621284584003e-12
2738 2738 7.5572176071927004e-03
2747 2738 -1.6206467958090000e-04
2739 2739 1.7814705685244001e-02
2740 2739 -1.2128023460119001e-06
2754 2739 -1.4163880441065999e-04
2739 2740 -2.3968245427315001e-08
2740 2740 1.7296475709100999e-02
2747 2740 -1.6666666666667000e-02
2754 2740 -1.3967062292605999e-04
2741 2741 1.7814702613117000e-02
2742 2741 -1.2096206673739000e-06
2749 2741 -1.4160398329522001e-04
2741 2742 -2.3903529140393999e-08
2742 2742 1.7296475649261001e-02
2747 2742 -1.6666666666667000e-02
2749 2742 -1.3966458901184999e-04
2743 2743 9.2658256948644005e-03
2744 2743 -6.2285883406949002e-04
2754 2743 -4.3506727870329002e-04
2743 2744 -6.7147100135592002e-04
2744 2744 9.2165631081286992e-03
2745 2744 -6.6666666666667001e-03
2754 2744 -4.3503110705282998e-04
2744 2745 -6.6666666666667001e-03
2745 2745 1.3333333333332999e-02
2746 2745 -6.6666666666667001e-03
2745 2746 -6.6666666666667001e-03
2746 2746 9.2651802075545998e-03
2748 2746 -6.2285260839966996e-04
2749 2746 -4.3506693915664998e-04
2734 2747 -4.3506919060970001e-04
2735 2747 -4.3506959805707002e-04
2737 2747 -1.6142418745177000e-04
2738 2747 -1.6142330492414000e-04
2740 2747 -1.6666666666667000e-02
2742 2747 -1.6666666666667000e-02
2747 2747 4.1983396150619003e-02
2748 2747 -6.6666666666667001e-03
2746 2748 -6.7139677748889997e-04
2747 2748 -6.6666666666667001e-03
2748 2748 9.2159985391803995e-03
2749 2748 -4.3503144666030998e-04
2732 2749 -1.6666666666667000e-02
2733 2749 -6.6666666666667001e-03
2741 2749 -1.4022669259286001e-04
2742 2749 -1.3828950232247999e-04
2746 2749 -4.3512196974541001e-04
2748 2749 -4.3497940220277998e-04
2749 2749 2.5688132948543999e-02
2750 2750 8.2271773169408993e-03
2753 2750 -6.1622536734668005e-10
4578 2750 -1.6461056702666001e-04
2751 2751 1.9388579481503999e-02
2752 2751 -1.2562778004898999e-03
4578 2751 -4.3506912189410002e-04
2751 2752 -1.1813668013029000e-03
2752 2752 1.9463511300611001e-02
2754 2752 -1.6666666666667000e-02
4578 2752 -4.3506966223141001e-04
2750 2753 -4.1751495538879001e-12
2753 2753 7.5572171823107999e-03
2754 2753 -6.6666666666667001e-03
4578 2753 -1.6206355145551000e-04
2739 2754 -1.4022927085117999e-04
2740 2754 -1.3828692406416001e-04
2743 2754 -4.3512336720919002e-04
2744 2754 -4.3497806394983998e-04
2752 2754 -1.6666666666667000e-02
2753 2754 -6.6666666666667001e-03
2754 2754 2.5658254610200999e-02
2755 2755 8.2271927025421004e-03
2756 2755 -4.0105573351395998e-10
4577 2755 -1.6437798507752999e-04
2755 2756 -3.9217658316785002e-10
2756 2756 8.2266180523980995e-03
4577 2756 -1.6435162508072001e-04
4578 2756 -6.6666666666667001e-03
2757 2757 9.2658631685680008e-03
2760 2757 -6.2287750755335002e-04
2785 2757 -4.3505794571309001e-04
2758 2758 1.7814705622648998e-02
2759 2758 -1.2127254053151001e-06
2785 2758 -1.4163616884943999e-04
2758 2759 -2.3965016288840999e-08
2759 2759 1.7296439428856000e-02
2785 2759 -1.3967010169264001e-04
4560 2759 -1.6666666666667000e-02
2757 2760 -6.7154579153090002e-04
2760 2760 9.2168800298002996e-03
2785 2760 -4.3504044129852001e-04
4560 2760 -6.6666666666667001e-03
2761 2761 1.9388295190204002e-02
2762 2761 -1.2559813525250001e-03
2790 2761 -4.3506818251966999e-04
2761 2762 -1.1811272341306000e-03
2762 2762 1.9463242480347000e-02
2785 2762 -1.6666666666667000e-02
2790 2762 -4.3507060160142999e-04
2763 2763 1.7814432132811000e-02
2764 2763 -9.3407065506173001e-07
2784 2763 -1.4035001913028001e-04
2763 2764 -9.3490187880874999e-07
2764 2764 1.7814458020984001e-02
2784 2764 -1.4050066565228999e-04
2785 2764 -1.6666666666667000e-02
2765 2765 8.2271755987811997e-03
2766 2765 -5.6307285182695999e-10
2790 2765 -1.6459973079756000e-04
2765 2766 -3.9392578673344998e-12
2766 2766 7.5912043309650000e-03
2767 2766 -6.6666666666667001e-03
2790 2766 -1.6213109572514001e-04
2766 2767 -6.6666666666667001e-03
2767 2767 1.3333333333332999e-02
2782 2767 -6.6666666666667001e-03
2768 2768 8.2271784633737004e-03
2780 2768 -1.6478951701593000e-04
2781 2768 -8.5393316965390001e-10
2769 2769 9.2623729874518994e-03
2777 2769 -6.2197974288088998e-04
2770 2770 9.2641614973388992e-03
2776 2770 -6.2212122673573999e-04
2771 2771 1.7814586876120999e-02
2772 2771 -1.0934214865536000e-06
2771 2772 -2.2714242307708000e-08
2772 2772 1.7322708803545001e-02
2773 2772 -1.6666666666667000e-02
2772 2773 -1.6666666666667000e-02
2773 2773 3.3333333333333000e-02
2774 2773 -1.6666666666667000e-02
2773 2774 -1.6666666666667000e-02
2774 2774 1.7322695658174000e-02
2775 2774 -1.1636236836249001e-17
2774 2775 -8.0080725666209995e-19
2775 2775 1.7297058168837001e-02
2780 2775 -1.6666666666667000e-02
2770 2776 -6.6796467329003001e-04
2776 2776 9.2011911413611008e-03
2780 2776 -6.6666666666667001e-03
2769 2777 -6.6764395561756001e-04
2777 2777 9.1996361741395003e-03
2780 2777 -6.6666666666667001e-03
2778 2778 1.9458692095214000e-02
2779 2778 -1.1766545492112000e-03
2780 2778 -4.3507057074359000e-04
2778 2779 -1.2514553806571001e-03
2779 2779 1.9383838747353999e-02
2780 2779 -4.3506821337773002e-04
2784 2779 -1.6666666666667000e-02
2768 2780 -1.6142435260311000e-04
2775 2780 -1.6666666666667000e-02
2776 2780 -6.6666666666667001e-03
2777 2780 -6.6666666666667001e-03
2778 2780 -4.3507935660035000e-04
2779 2780 -4.3505964837954001e-04
2780 2780 3.1978484730888997e-02
2781 2780 -1.6142313977280000e-04
2768 2781 -5.8136908261299999e-12
2780 2781 -1.6209924778008000e-04
2781 2781 7.5572197975768002e-03
2784 2781 -6.6666666666667001e-03
2767 2782 -6.6666666666667001e-03
2782 2782 7.5912051463131996e-03
2783 2782 -6.9238779664426996e-10
2784 2782 -1.6685411879760001e-04
2782 2783 -1.2503056141255000e-11
2783 2783 7.5572155265101002e-03
2784 2783 -1.6631922757221000e-04
2785 2783 -6.6666666666667001e-03
2763 2784 -1.3925783865973999e-04
2764 2784 -1.3925835625560001e-04
2779 2784 -1.6666666666667000e-02
2781 2784 -6.6666666666667001e-03
2782 2784 -1.6142437110602001e-04
2783 2784 -1.6142312126988999e-04
2784 2784 2.4964525028132001e-02
2757 2785 -4.3508508995717998e-04
2758 2785 -1.4022922418365001e-04
2759 2785 -1.3828697073168999e-04
2760 2785 -4.3501477102460002e-04
2762 2785 -1.6666666666667000e-02
2764 2785 -1.6666666666667000e-02
2783 2785 -6.6666666666667001e-03
2785 2785 4.2093114706413998e-02
2786 2786 9.2683374026524008e-03
2789 2786 -6.2543890642774999e-04
2854 2786 -4.3509815489160998e-04
2787 2787 1.7814550428129999e-02
2788 2787 -1.0472221952174999e-06
2854 2787 -1.3985990532729999e-04
2787 2788 -2.0604433037359999e-08
2788 2788 1.7296491697988001e-02
2790 2788 -1.6666666666667000e-02
2854 2788 -1.3935685835354000e-04
2786 2789 -6.7396345610893000e-04
2789 2789 9.2180432094705004e-03
2790 2789 -6.6666666666667001e-03
2854 2789 -4.3500022048857000e-04
2761 2790 -4.3505934544546001e-04
2762 2790 -4.3507966518845998e-04
2765 2790 -1.6142414435873999e-04
2766 2790 -1.6142334801716999e-04
2788 2790 -1.6666666666667000e-02
2789 2790 -6.6666666666667001e-03
2790 2790 2.5491062118364001e-02
2791 2791 8.2267674533587007e-03
2792 2791 -7.7483678582280006e-08
4580 2791 -1.6700210035897999e-04
2791 2792 -5.6390307358856997e-10
2792 2792 7.5560787648311003e-03
2854 2792 -6.6666666666667001e-03
4580 2792 -1.6254095618064001e-04
2793 2793 8.2271929069833993e-03
2794 2793 -6.0789508071594999e-10
4577 2793 -1.6462182313118999e-04
2793 2794 -4.1093694993378997e-12
2794 2794 7.5561142412408997e-03
2854 2794 -6.6666666666667001e-03
4577 2794 -1.6205939061343999e-04
2795 2795 9.2693337233059996e-03
2798 2795 -6.2617490778597005e-04
2848 2795 -4.3505049914253999e-04
2796 2796 1.7814467388488998e-02
2797 2796 -1.0481885442919000e-06
2848 2796 -1.3984870625515999e-04
2796 2797 -2.0628298817926999e-08
2797 2797 1.7296413580616999e-02
2848 2797 -1.3936044012389999e-04
4577 2797 -1.6666666666667000e-02
2795 2798 -6.7465272406684997e-04
2798 2798 9.2207905422371002e-03
2848 2798 -4.3504788824446001e-04
4577 2798 -6.6666666666667001e-03
2799 2799 8.2271686700103007e-03
2811 2799 -1.6426985050277000e-04
2812 2799 -2.1277683750197000e-10
2800 2800 9.2202658243442006e-03
2801 2800 -6.0240883391431002e-04
2800 2801 -5.5654570313755998e-04
2801 2801 8.8192217354951998e-03
2817 2801 -6.6666666666667001e-03
2802 2802 9.2177619807761006e-03
2805 2802 -6.7154542029334999e-04
2803 2803 1.7814708862961000e-02
2804 2803 -1.2159790541515000e-06
2803 2804 -2.4005532459731999e-08
2804 2804 1.7295880310306998e-02
2811 2804 -1.6666666666667000e-02
2802 2805 -6.3262791567101002e-04
2805 2805 9.2769610860265993e-03
2811 2805 -6.6666666666667001e-03
2806 2806 1.9393322086473000e-02
2807 2806 -1.2607535123155000e-03
2811 2806 -4.3496728438468000e-04
2806 2807 -1.1909407776764000e-03
2807 2807 1.9470951824396000e-02
2808 2807 -1.6666666666667000e-02
2811 2807 -4.3517146663953001e-04
2807 2808 -1.6666666666667000e-02
2808 2808 3.3333333333333000e-02
2809 2808 -1.6666666666667000e-02
2808 2809 -1.6666666666667000e-02
2809 2809 1.7817276497117000e-02
2810 2809 -1.2380547195372999e-06
2809 2810 -2.3610099659366001e-08
2810 2810 1.7319635193071000e-02
2817 2810 -1.6666666666667000e-02
2799 2811 -1.6142389330627000e-04
2804 2811 -1.6666666666667000e-02
2805 2811 -6.6666666666667001e-03
2806 2811 -4.3421689100515000e-04
2807 2811 -4.3594102081806002e-04
2811 2811 2.5564983770366000e-02
2812 2811 -1.6142359906965001e-04
2799 2812 -2.7344541845847000e-12
2811 2812 -1.6301706802458000e-04
2812 2812 7.9559479241104007e-03
2817 2812 -6.6666666666667001e-03
2813 2813 8.7517625645283995e-03
2816 2813 -3.8159418118487002e-05
2817 2813 -5.2942837096166999e-04
2814 2814 1.9241059470961001e-02
2815 2814 -1.0000611928000999e-03
2817 2814 -4.5339265754560997e-04
2814 2815 -8.9833391235611001e-04
2815 2815 1.8827900905751000e-02
2817 2815 -4.1539750123069998e-04
2823 2815 -1.6666666666667000e-02
2813 2816 -1.7658307338175000e-06
2816 2816 7.5848941466306000e-03
2817 2816 -1.6201397500400000e-04
2823 2816 -6.6666666666667001e-03
2801 2817 -6.6666666666667001e-03
2810 2817 -1.6666666666667000e-02
2812 2817 -6.6666666666667001e-03
2813 2817 -5.5447759418408003e-04
2814 2817 -5.6077418015776999e-04
2815 2817 -3.1028860797374999e-04
2816 2817 -1.3320382820491001e-04
2817 2817 3.2177821537064999e-02
2818 2818 8.9537283436359992e-03
2819 2818 -3.1177527447878999e-04
2823 2818 -5.0665847784122004e-04
2818 2819 -1.6123175748013999e-04
2819 2819 8.0755513744833994e-03
2820 2819 -6.6666666666667001e-03
2823 2819 -3.1738878540978001e-04
2819 2820 -6.6666666666667001e-03
2820 2820 1.3333333333332999e-02
2847 2820 -6.6666666666667001e-03
2821 2821 1.8332175174383000e-02
2822 2821 -2.1007556370694001e-04
2823 2821 -3.7491902133300999e-04
2821 2822 -1.8283359156252000e-04
2822 2822 1.8443686719533999e-02
2823 2822 -4.8262351425674998e-04
2848 2822 -1.6666666666667000e-02
2815 2823 -1.6666666666667000e-02
2816 2823 -6.6666666666667001e-03
2818 2823 -6.2613246215777998e-04
2819 2823 -2.0081566758269000e-04
2821 2823 -4.1099310684882998e-04
2822 2823 -4.4623573274337998e-04
2823 2823 2.5830793103912002e-02
2824 2824 8.2277712896540994e-03
2836 2824 -1.6661601217388001e-04
2837 2824 -1.3485826539761000e-08
2825 2825 9.2185979408969995e-03
2826 2825 -6.7146175860993999e-04
2825 2826 -6.4528772855298002e-04
2826 2826 9.2933616664713000e-03
2841 2826 -6.6666666666667001e-03
2827 2827 9.2407130456003007e-03
2830 2827 -6.1139819950280997e-04
2828 2828 1.7814985785236000e-02
2829 2828 -1.1836305542474000e-06
2828 2829 -2.3555833729468998e-08
2829 2829 1.7305668902128001e-02
2836 2829 -1.6666666666667000e-02
2827 2830 -6.2151217579859005e-04
2830 2830 9.0208904992476000e-03
2836 2830 -6.6666666666667001e-03
2831 2831 1.9391960359086999e-02
2832 2831 -1.1136946885333999e-03
2836 2831 -4.3553487527742000e-04
2831 2832 -1.1806326860280001e-03
2832 2832 1.9305853714464999e-02
2833 2832 -1.6666666666667000e-02
2836 2832 -4.3460319747728001e-04
2832 2833 -1.6666666666667000e-02
2833 2833 3.3333333333333000e-02
2834 2833 -1.6666666666667000e-02
2833 2834 -1.6666666666667000e-02
2834 2834 1.7805859566795000e-02
2835 2834 -1.0714183749405000e-06
2834 2835 -2.1470322956980001e-08
2835 2835 1.7295119231956001e-02
2841 2835 -1.6666666666667000e-02
2824 2836 -1.6134806602667001e-04
2829 2836 -1.6666666666667000e-02
2830 2836 -6.6666666666667001e-03
2831 2836 -4.3874164735054001e-04
2832 2836 -4.3148328849070000e-04
2836 2836 2.5163509037517000e-02
2837 2836 -1.6149942634923999e-04
2824 2837 -2.1136572251057001e-07
2836 2837 -1.9223119679526000e-04
2837 2837 8.2546936645299003e-03
2841 2837 -6.6666666666667001e-03
2838 2838 8.2271082905067995e-03
2841 2838 -1.6421292277179000e-04
2842 2838 -3.0029700708739000e-10
2839 2839 1.9467561717663000e-02
2840 2839 -1.1907256665510001e-03
2841 2839 -4.3652800534238001e-04
2839 2840 -1.2450344612519001e-03
2840 2840 1.9349761760728001e-02
2841 2840 -4.3360381694925002e-04
2845 2840 -1.6666666666667000e-02
2826 2841 -6.6666666666667001e-03
2835 2841 -1.6666666666667000e-02
2837 2841 -6.6666666666667001e-03
2838 2841 -1.6142395806366001e-04
2839 2841 -4.4757123636795002e-04
2840 2841 -4.2282274416062998e-04
2841 2841 3.1996085490685000e-02
2842 2841 -1.6142353431224999e-04
2838 2842 -2.0173890453835999e-12
2841 2842 -1.6198841830265001e-04
2842 2842 7.5598334453429996e-03
2845 2842 -6.6666666666667001e-03
2843 2843 1.7814814867248001e-02
2844 2843 -1.2848627878873000e-06
2845 2843 -1.4320831034222000e-04
2843 2844 -1.9973715195396001e-06
2844 2844 1.7829506151201002e-02
2845 2844 -1.9992055928041001e-04
2848 2844 -1.6666666666667000e-02
2840 2845 -1.6666666666667000e-02
2842 2845 -6.6666666666667001e-03
2843 2845 -1.3901156606886000e-04
2844 2845 -1.3950462884648000e-04
2845 2845 2.5198347803857001e-02
2846 2845 -8.7476087191063008e-06
2847 2845 -6.7893381366988001e-04
2845 2846 -1.6303377145511001e-04
2846 2846 7.5771188014113998e-03
2847 2846 -2.3078397605958999e-05
2848 2846 -6.6666666666667001e-03
2820 2847 -6.6666666666667001e-03
2845 2847 -5.2885195773676999e-04
2846 2847 -1.8945018441720999e-04
2847 2847 8.3271386161627992e-03
2795 2848 -4.3505458108865998e-04
2796 2848 -1.4009607870163999e-04
2797 2848 -1.3842011621370001e-04
2798 2848 -4.3504402634949999e-04
2822 2848 -1.6666666666667000e-02
2844 2848 -1.6666666666667000e-02
2846 2848 -6.6666666666667001e-03
2848 2848 4.2191898625506000e-02
2849 2849 1.9390127796921001e-02
2850 2849 -1.2564074587726000e-03
4577 2849 -4.3463399025129998e-04
2849 2850 -1.2024834237642000e-03
2850 2850 1.9476156765112999e-02
2851 2850 -1.6666666666667000e-02
4577 2850 -4.3550418913130997e-04
2850 2851 -1.6666666666667000e-02
2851 2851 3.3333333333333000e-02
2852 2851 -1.6666666666667000e-02
2851 2852 -1.6666666666667000e-02
2852 2852 1.9345450640838001e-02
2853 2852 -1.1965720367168001e-03
4580 2852 -4.3485908831579999e-04
2852 2853 -1.1433687803784000e-03
2853 2853 1.9412210847018000e-02
2854 2853 -1.6666666666667000e-02
4580 2853 -4.3527954800968999e-04
2786 2854 -4.3525120253912002e-04
2787 2854 -1.4009506572436000e-04
2788 2854 -1.3842112919098000e-04
2789 2854 -4.3485541165038999e-04
2792 2854 -6.6666666666667001e-03
2794 2854 -6.6666666666667001e-03
2853 2854 -1.6666666666667000e-02
2854 2854 3.2309847777148001e-02
2855 2855 1.7814013954023999e-02
2856 2855 -5.1777946207021001e-07
2864 2855 -1.4041504295688001e-04
2855 2856 -4.9679700135508003e-08
2856 2856 1.7749224810902998e-02
2857 2856 -1.6666666666667000e-02
2864 2856 -1.4017814527299001e-04
2856 2857 -1.6666666666667000e-02
2857 2857 3.3333333333333000e-02
4559 2857 -1.6666666666667000e-02
2858 2858 8.2271771345839000e-03
2861 2858 -6.1070655194496000e-10
4560 2858 -1.6460539757901001e-04
2859 2859 1.9463636008158001e-02
2860 2859 -1.1814827221300001e-03
4560 2859 -4.3506939270214002e-04
2859 2860 -1.2564103081647000e-03
2860 2860 1.9388708393498998e-02
2864 2860 -1.6666666666667000e-02
4560 2860 -4.3506939142360003e-04
2858 2861 -4.1372546796111997e-12
2861 2861 7.5572176520795004e-03
2864 2861 -6.6666666666667001e-03
4560 2861 -1.6206256210806000e-04
2862 2862 9.2658836735293997e-03
2863 2862 -6.2288380860194004e-04
2864 2862 -4.3505078408909002e-04
2862 2863 -6.7159483353334995e-04
2863 2863 9.2171154222599003e-03
2864 2863 -4.3504760329377001e-04
4558 2863 -6.6666666666667001e-03
2855 2864 -1.3960581885935001e-04
2856 2864 -1.3891037605598999e-04
2860 2864 -1.6666666666667000e-02
2861 2864 -6.6666666666667001e-03
2862 2864 -4.3505571666963000e-04
2863 2864 -4.3504293858486002e-04
2864 2864 2.5740483205156001e-02
2865 2865 9.2658580507800001e-03
2868 2865 -6.2287254437352999e-04
4555 2865 -4.3505790680534000e-04
2866 2866 1.7814705962551001e-02
2867 2866 -1.2130650898130999e-06
4555 2866 -1.4163987829321999e-04
2866 2867 -2.3971922365769999e-08
2867 2867 1.7296439384402999e-02
2884 2867 -1.6666666666667000e-02
4555 2867 -1.3967074426720000e-04
2865 2868 -6.7154084521722996e-04
2868 2868 9.2168762981732003e-03
2884 2868 -6.6666666666667001e-03
4555 2868 -4.3504048020968000e-04
2869 2869 1.7814705962435000e-02
2870 2869 -1.2130648960574000e-06
2882 2869 -1.4163987616293999e-04
2869 2870 -2.3971918422424001e-08
2870 2870 1.7296439384432000e-02
2871 2870 -1.6666666666667000e-02
2882 2870 -1.3967074389806001e-04
2870 2871 -1.6666666666667000e-02
2871 2871 2.3854346543977001e-02
2873 2871 -6.6666666666667001e-03
2872 2872 9.2658580527285005e-03
2873 2872 -6.2287254716505004e-04
2882 2872 -4.3505790681436999e-04
2871 2873 -6.6666666666667001e-03
2872 2873 -6.7154084797130004e-04
2873 2873 9.2168762998330999e-03
2882 2873 -4.3504048020065000e-04
2874 2874 1.7814431860192000e-02
2875 2874 -9.3380131194070002e-07
2889 2874 -1.4034808739550001e-04
2874 2875 -9.3380104125018000e-07
2875 2875 1.7814431841494002e-02
2882 2875 -1.6666666666667000e-02
2889 2875 -1.4034808731878999e-04
2876 2876 1.9463636410993999e-02
2877 2876 -1.1814831144144999e-03
2884 2876 -4.3506939295167999e-04
2876 2877 -1.2564107062453000e-03
2877 2877 1.9388708779366000e-02
2882 2877 -1.6666666666667000e-02
2884 2877 -4.3506939117406000e-04
2878 2878 9.2658893877083995e-03
2879 2878 -6.2288631968485998e-04
2889 2878 -4.3504919507945998e-04
2878 2879 -6.7160687700345005e-04
2879 2879 9.2171687806706006e-03
2880 2879 -6.6666666666667001e-03
2889 2879 -4.3504919231606999e-04
2879 2880 -6.6666666666667001e-03
2880 2880 1.3333333333332999e-02
2881 2880 -6.6666666666667001e-03
2880 2881 -6.6666666666667001e-03
2881 2881 8.2271770961439006e-03
2883 2881 -6.1068904044999003e-10
2884 2881 -1.6460538236710999e-04
2869 2882 -1.4022949930782999e-04
2870 2882 -1.3828669560751001e-04
2872 2882 -4.3508493000459999e-04
2873 2882 -4.3501492443068001e-04
2875 2882 -1.6666666666667000e-02
2877 2882 -1.6666666666667000e-02
2882 2882 4.2092980443709002e-02
2883 2882 -6.6666666666667001e-03
2881 2883 -4.1371344095762997e-12
2882 2883 -6.6666666666667001e-03
2883 2883 7.5572176524379003e-03
2884 2883 -1.6206255910663001e-04
2867 2884 -1.6666666666667000e-02
2868 2884 -6.6666666666667001e-03
2876 2884 -4.3506939961519001e-04
2877 2884 -4.3506938467698000e-04
2881 2884 -1.6142417899728999e-04
2883 2884 -1.6142331337862999e-04
2884 2884 2.5577546358517000e-02
2885 2885 8.2271771300581002e-03
2888 2885 -6.0761402877113996e-10
4558 2885 -1.6460260700912999e-04
2886 2886 1.9463710783949002e-02
2887 2886 -1.1815558483952999e-03
4558 2886 -4.3506939294234002e-04
2886 2887 -1.2564850792682999e-03
2887 2887 1.9388781513692999e-02
2889 2887 -1.6666666666667000e-02
4558 2887 -4.3506939118338999e-04
2885 2888 -4.1159909312001002e-12
2888 2888 7.5572176523982003e-03
2889 2888 -6.6666666666667001e-03
4558 2888 -1.6206200181658999e-04
2874 2889 -1.3925809764787000e-04
2875 2889 -1.3925809726747000e-04
2878 2889 -4.3504919936478002e-04
2879 2889 -4.3504918826346999e-04
2887 2889 -1.6666666666667000e-02
2888 2889 -6.6666666666667001e-03
2889 2889 2.5745828784085999e-02
2890 2890 9.2658836717880999e-03
2891 2890 -6.2288380762793997e-04
4557 2890 -4.3505078408909002e-04
2890 2891 -6.7159483243841005e-04
2891 2891 9.2171154206395003e-03
4557 2891 -4.3504760329375998e-04
4558 2891 -6.6666666666667001e-03
2892 2892 9.2658653896597002e-03
2895 2892 -6.2287554911062996e-04
2920 2892 -4.3505576394666998e-04
2893 2893 1.7814706002782999e-02
2894 2893 -1.2131063840945000e-06
2920 2893 -1.4164018474927001e-04
2893 2894 -2.3972627702633999e-08
2894 2894 1.7296436451070998e-02
2920 2894 -1.3967079213554999e-04
4540 2894 -1.6666666666667000e-02
2892 2895 -6.7155668950978999e-04
2895 2895 9.2169478710350007e-03
2920 2895 -4.3504262323250002e-04
4540 2895 -6.6666666666667001e-03
2896 2896 1.7814431861715000e-02
2897 2896 -9.3380294651341997e-07
2925 2896 -1.4034809071246000e-04
2896 2897 -9.3377430084220995e-07
2897 2897 1.7814429882986999e-02
2920 2897 -1.6666666666667000e-02
2925 2897 -1.4034808259421000e-04
2898 2898 1.9463636049513001e-02
2899 2898 -1.1814831254510999e-03
2919 2898 -4.3506948596488000e-04
2898 2899 -1.2564093527047001e-03
2899 2899 1.9388705617658000e-02
2919 2899 -4.3506929816083001e-04
2920 2899 -1.6666666666667000e-02
2900 2900 9.2658893845737004e-03
2901 2900 -6.2288631641935004e-04
2925 2900 -4.3504919496570001e-04
2900 2901 -6.7160687427817996e-04
2901 2901 9.2171687810890003e-03
2902 2901 -6.6666666666667001e-03
2925 2901 -4.3504919242983001e-04
2901 2902 -6.6666666666667001e-03
2902 2902 1.3333333333332999e-02
2917 2902 -6.6666666666667001e-03
2903 2903 9.2658580599399992e-03
2915 2903 -4.3505790137183002e-04
2916 2903 -6.2287254390911003e-04
2904 2904 8.2271771293656003e-03
2912 2904 -6.0692931990413004e-10
2905 2905 8.2271771293656003e-03
2911 2905 -6.0692931976860001e-10
2906 2906 1.9463727386375002e-02
2907 2906 -1.1815720888417999e-03
2906 2907 -1.2565016710928000e-03
2907 2907 1.9388797720337001e-02
2908 2907 -1.6666666666667000e-02
2907 2908 -1.6666666666667000e-02
2908 2908 3.3333333333333000e-02
2909 2908 -1.6666666666667000e-02
2908 2909 -1.6666666666667000e-02
2909 2909 1.9463727300434001e-02
2910 2909 -1.1815720802966999e-03
2909 2910 -1.2565016447200000e-03
2910 2910 1.9388797652084001e-02
2915 2910 -1.6666666666667000e-02
2905 2911 -4.1112831436811003e-12
2911 2911 7.5572176574466004e-03
2915 2911 -6.6666666666667001e-03
2904 2912 -4.1112831436811003e-12
2912 2912 7.5572176574466004e-03
2915 2912 -6.6666666666667001e-03
2913 2913 1.7814705963273000e-02
2914 2913 -1.2130657357420000e-06
2915 2913 -1.4163988497555000e-04
2913 2914 -2.3971935162987999e-08
2914 2914 1.7296439377104001e-02
2915 2914 -1.3967074541177001e-04
2919 2914 -1.6666666666667000e-02
2903 2915 -4.3508490768174002e-04
2910 2915 -1.6666666666667000e-02
2911 2915 -6.6666666666667001e-03
2912 2915 -6.6666666666667001e-03
2913 2915 -1.4022949999144000e-04
2914 2915 -1.3828669492390000e-04
2915 2915 3.2092980123553001e-02
2916 2915 -4.3501494583752002e-04
2903 2916 -6.7154087685197003e-04
2915 2916 -4.3504048564367001e-04
2916 2916 9.2168764706585995e-03
2919 2916 -6.6666666666667001e-03
2902 2917 -6.6666666666667001e-03
2917 2917 8.2271770992493002e-03
2918 2917 -6.1068639548768000e-10
2919 2917 -1.6460538014878001e-04
2917 2918 -4.1371168278599998e-12
2918 2918 7.5572178161075997e-03
2919 2918 -1.6206255898281000e-04
2920 2918 -6.6666666666667001e-03
2898 2919 -4.3507018996165000e-04
2899 2919 -4.3506861174746002e-04
2914 2919 -1.6666666666667000e-02
2916 2919 -6.6666666666667001e-03
2917 2919 -1.6142417899539001e-04
2918 2919 -1.6142331338052000e-04
2919 2919 2.5259818718514002e-02
2892 2920 -4.3507614124208000e-04
2893 2920 -1.4022953419806999e-04
2894 2920 -1.3828666071727001e-04
2895 2920 -4.3502335249817999e-04
2897 2920 -1.6666666666667000e-02
2899 2920 -1.6666666666667000e-02
2918 2920 -6.6666666666667001e-03
2920 2920 4.2092968791643003e-02
2921 2921 8.2271771330867001e-03
2924 2921 -6.1055925631866000e-10
2989 2921 -1.6460526502238000e-04
2922 2922 1.9463639558275000e-02
2923 2922 -1.1814861956729000e-03
2989 2922 -4.3506939377107001e-04
2922 2923 -1.2564138448836000e-03
2923 2923 1.9388711832576001e-02
2925 2923 -1.6666666666667000e-02
2989 2923 -4.3506939035466000e-04
2921 2924 -4.1362419248909996e-12
2924 2924 7.5572176538859000e-03
2925 2924 -6.6666666666667001e-03
2989 2924 -1.6206253549860001e-04
2896 2925 -1.3925811758515999e-04
2897 2925 -1.3925807733018001e-04
2900 2925 -4.3504919889822001e-04
2901 2925 -4.3504918871088000e-04
2923 2925 -1.6666666666667000e-02
2924 2925 -6.6666666666667001e-03
2925 2925 2.5687101629462999e-02
2926 2926 8.2271769307042993e-03
2927 2926 -4.0440334246946000e-10
4560 2926 -1.6436042776719000e-04
2926 2927 -4.0097004273146002e-10
2927 2927 8.2269517608570004e-03
2989 2927 -6.6666666666667001e-03
4560 2927 -1.6435902190693001e-04
2928 2928 9.2658591380735001e-03
2929 2928 -6.2287302423337000e-04
4557 2928 -4.3505760504751001e-04
2928 2929 -6.7154313494247996e-04
2929 2929 9.2168864284752003e-03
2989 2929 -6.6666666666667001e-03
4557 2929 -4.3504078199341000e-04
2930 2930 8.2271771444881008e-03
2933 2930 -6.2211178407527000e-10
2983 2930 -1.6461556266613001e-04
2931 2931 1.9463363474385001e-02
2932 2931 -1.1812161934824999e-03
2983 2931 -4.3506939295567002e-04
2931 2932 -1.2561377695546000e-03
2932 2932 1.9388441858347000e-02
2983 2932 -4.3506939117006997e-04
4557 2932 -1.6666666666667000e-02
2930 2933 -4.2156894048541000e-12
2933 2933 7.5572176525232002e-03
2983 2933 -1.6206460306965000e-04
4557 2933 -6.6666666666667001e-03
2934 2934 9.2658591388065006e-03
2946 2934 -4.3505760485694001e-04
2947 2934 -6.2287302463191003e-04
2935 2935 8.2271769267610994e-03
2936 2935 -4.0191622488673998e-10
2935 2936 -3.9850399361247000e-10
2936 2936 8.2269517617976993e-03
2952 2936 -6.6666666666667001e-03
2937 2937 8.2271771293656992e-03
2940 2937 -6.0692933055868999e-10
2938 2938 1.9463727390865999e-02
2939 2938 -1.1815720893224000e-03
2938 2939 -1.2565016862774001e-03
2939 2939 1.9388797754971002e-02
2946 2939 -1.6666666666667000e-02
2937 2940 -4.1112832004152997e-12
2940 2940 7.5572176523751996e-03
2946 2940 -6.6666666666667001e-03
2941 2941 1.7814667720701002e-02
2942 2941 -1.1746439225351999e-06
2946 2941 -1.4158464057424999e-04
2941 2942 -2.3541051373771001e-08
2942 2942 1.7304137624984998e-02
2943 2942 -1.6666666666667000e-02
2946 2942 -1.3967468070910001e-04
2942 2943 -1.6666666666667000e-02
2943 2943 3.3333333333333000e-02
2944 2943 -1.6666666666667000e-02
2943 2944 -1.6666666666667000e-02
2944 2944 1.7305133916006001e-02
2945 2944 -1.0204620097376001e-06
2944 2945 -9.2756824737572003e-08
2945 2945 1.7296507754292000e-02
2952 2945 -1.6666666666667000e-02
2934 2946 -4.3508369156305997e-04
2939 2946 -1.6666666666667000e-02
2940 2946 -6.6666666666667001e-03
2941 2946 -1.4019519619305000e-04
2942 2946 -1.3832099872229000e-04
2946 2946 2.5661459029230001e-02
2947 2946 -4.3501611204972999e-04
2934 2947 -6.7154313648226996e-04
2946 2947 -4.3504078218398998e-04
2947 2947 9.2168864349209002e-03
2952 2947 -6.6666666666667001e-03
2948 2948 8.2271771329808993e-03
2951 2948 -6.1055919490767996e-10
2952 2948 -1.6460526496674000e-04
2949 2949 1.9463639563731001e-02
2950 2949 -1.1814861975607000e-03
2952 2949 -4.3506939293708001e-04
2949 2950 -1.2564138590935999e-03
2950 2950 1.9388711863053999e-02
2952 2950 -4.3506939118865997e-04
2958 2950 -1.6666666666667000e-02
2948 2951 -4.1362414709377998e-12
2951 2951 7.5572176524090996e-03
2952 2951 -1.6206253548463001e-04
2958 2951 -6.6666666666667001e-03
2936 2952 -6.6666666666667001e-03
2945 2952 -1.6666666666667000e-02
2947 2952 -6.6666666666667001e-03
2948 2952 -1.6142417890467999e-04
2949 2952 -4.3506939949115002e-04
2950 2952 -4.3506938479829002e-04
2951 2952 -1.6142331347122999e-04
2952 2952 3.1983709882380001e-02
2953 2953 9.2658267234966007e-03
2954 2953 -6.2285877350023999e-04
2958 2953 -4.3506661862516998e-04
2953 2954 -6.7147483056845996e-04
2954 2954 9.2165839756274005e-03
2955 2954 -6.6666666666667001e-03
2958 2954 -4.3503176724845000e-04
2954 2955 -6.6666666666667001e-03
2955 2955 1.3333333333332999e-02
2982 2955 -6.6666666666667001e-03
2956 2956 1.7814705781332998e-02
2957 2956 -1.2128829440874001e-06
2958 2956 -1.4163961748752001e-04
2956 2957 -2.3969823725175001e-08
2957 2957 1.7296474399380000e-02
2958 2957 -1.3967076145460000e-04
2983 2957 -1.6666666666667000e-02
2950 2958 -1.6666666666667000e-02
2951 2958 -6.6666666666667001e-03
2953 2958 -4.3512065987618001e-04
2954 2958 -4.3498066027300002e-04
2956 2958 -1.4022933671424000e-04
2957 2958 -1.3828685820110000e-04
2958 2958 2.5658224967473001e-02
2959 2959 9.2658591388065994e-03
2971 2959 -4.3505760485690000e-04
2972 2959 -6.2287302463196999e-04
2960 2960 8.2271769267610994e-03
2961 2960 -4.0191622475025999e-10
2960 2961 -3.9850399362954001e-10
2961 2961 8.2269517617988997e-03
2976 2961 -6.6666666666667001e-03
2962 2962 8.2271771293656992e-03
2965 2962 -6.0692933055867996e-10
2963 2963 1.9463727390865999e-02
2964 2963 -1.1815720893224000e-03
2963 2964 -1.2565016862773001e-03
2964 2964 1.9388797754971002e-02
2971 2964 -1.6666666666667000e-02
2962 2965 -4.1112832004152003e-12
2965 2965 7.5572176523751996e-03
2971 2965 -6.6666666666667001e-03
2966 2966 1.7814667720701002e-02
2967 2966 -1.1746439225359000e-06
2971 2966 -1.4158464057426000e-04
2966 2967 -2.3541051373676001e-08
2967 2967 1.7304137624984998e-02
2968 2967 -1.6666666666667000e-02
2971 2967 -1.3967468070910001e-04
2967 2968 -1.6666666666667000e-02
2968 2968 3.3333333333333000e-02
2969 2968 -1.6666666666667000e-02
2968 2969 -1.6666666666667000e-02
2969 2969 1.7305133916006001e-02
2970 2969 -1.0204620097382000e-06
2969 2970 -9.2756824737269996e-08
2970 2970 1.7296507754292000e-02
2976 2970 -1.6666666666667000e-02
2959 2971 -4.3508369156287002e-04
2964 2971 -1.6666666666667000e-02
2965 2971 -6.6666666666667001e-03
2966 2971 -1.4019519619305000e-04
2967 2971 -1.3832099872229000e-04
2971 2971 2.5313614949291002e-02
2972 2971 -4.3501611204991002e-04
2959 2972 -6.7154313648259999e-04
2971 2972 -4.3504078218404001e-04
2972 2972 9.2168864349223001e-03
2976 2972 -6.6666666666667001e-03
2973 2973 8.2271771329808993e-03
2976 2973 -1.6460526496671999e-04
2977 2973 -6.1055919488616996e-10
2974 2974 1.9463639563728999e-02
2975 2974 -1.1814861975609000e-03
2976 2974 -4.3506939293761003e-04
2974 2975 -1.2564138590860001e-03
2975 2975 1.9388711863036000e-02
2976 2975 -4.3506939118813002e-04
2980 2975 -1.6666666666667000e-02
2961 2976 -6.6666666666667001e-03
2970 2976 -1.6666666666667000e-02
2972 2976 -6.6666666666667001e-03
2973 2976 -1.6142417890467999e-04
2974 2976 -4.3506939949567000e-04
2975 2976 -4.3506938479387000e-04
2976 2976 3.1983709882380001e-02
2977 2976 -1.6142331347122999e-04
2973 2977 -4.1362414165831002e-12
2976 2977 -1.6206253548463001e-04
2977 2977 7.5572176524100997e-03
2980 2977 -6.6666666666667001e-03
2978 2978 1.7814705781332998e-02
2979 2978 -1.2128829442379000e-06
2980 2978 -1.4163961748916000e-04
2978 2979 -2.3969823728262999e-08
2979 2979 1.7296474399380000e-02
2980 2979 -1.3967076145487999e-04
2983 2979 -1.6666666666667000e-02
2975 2980 -1.6666666666667000e-02
2977 2980 -6.6666666666667001e-03
2978 2980 -1.4022933671437000e-04
2979 2980 -1.3828685820097000e-04
2980 2980 2.5369107810060999e-02
2981 2980 -4.3498064124366999e-04
2982 2980 -4.3512067816799002e-04
2980 2981 -4.3503175984137998e-04
2981 2981 9.2159844724271998e-03
2982 2981 -6.7135360809919998e-04
2983 2981 -6.6666666666667001e-03
2955 2982 -6.6666666666667001e-03
2980 2982 -4.3506662603080999e-04
2981 2982 -6.2280688336884004e-04
2982 2982 9.2651574121589003e-03
2930 2983 -1.6142418714351999e-04
2931 2983 -4.3506939964700999e-04
2932 2983 -4.3506938464591999e-04
2933 2983 -1.6142330523240001e-04
2957 2983 -1.6666666666667000e-02
2979 2983 -1.6666666666667000e-02
2981 2983 -6.6666666666667001e-03
2983 2983 4.1983407341008000e-02
2984 2984 1.7814667665314001e-02
2985 2984 -1.1745882791678001e-06
4557 2984 -1.4158455972912001e-04
2984 2985 -2.3540444635774000e-08
2985 2985 1.7304149237179000e-02
2986 2985 -1.6666666666667000e-02
4557 2985 -1.3967468677360999e-04
2985 2986 -1.6666666666667000e-02
2986 2986 3.3333333333333000e-02
2987 2986 -1.6666666666667000e-02
2986 2987 -1.6666666666667000e-02
2987 2987 1.7305145388002999e-02
2988 2987 -1.0203212585080000e-06
4560 2987 -1.6235154853181999e-04
2987 2988 -9.2669283136194006e-08
2988 2988 1.7296507666907001e-02
2989 2988 -1.6666666666667000e-02
4560 2988 -1.6160171588012001e-04
2921 2989 -1.6142417890472000e-04
2922 2989 -4.3506940657776999e-04
2923 2989 -4.3506937786783002e-04
2924 2989 -1.6142331347119001e-04
2927 2989 -6.6666666666667001e-03
2929 2989 -6.6666666666667001e-03
2988 2989 -1.6666666666667000e-02
2989 2989 3.2099657907442000e-02
2990 2990 1.7814668726241999e-02
2991 2990 -1.1756825888624999e-06
2999 2990 -1.4159138292915000e-04
2990 2991 -2.3557650155605001e-08
2991 2991 1.7304034009853000e-02
2992 2991 -1.6666666666667000e-02
2999 2991 -1.3967570420663999e-04
2991 2992 -1.6666666666667000e-02
2992 2992 3.3333333333333000e-02
4539 2992 -1.6666666666667000e-02
2993 2993 8.2271772554685998e-03
2996 2993 -6.0973984158169001e-10
4540 2993 -1.6460468717771000e-04
2994 2994 1.9463650195028000e-02
2995 2994 -1.1815045775160000e-03
4540 2994 -4.3507137217010998e-04
2994 2995 -1.2564035591750000e-03
2995 2995 1.9388662553761000e-02
2999 2995 -1.6666666666667000e-02
4540 2995 -4.3506741194316998e-04
2993 2996 -4.1305827905257002e-12
2996 2996 7.5572211412372001e-03
2999 2996 -6.6666666666667001e-03
4540 2996 -1.6206239364191001e-04
2997 2997 9.2171808766660993e-03
2998 2997 -6.7159611531301998e-04
2999 2997 -4.3503516824606000e-04
2997 2998 -6.2322289820310000e-04
2998 2998 9.2662527953523994e-03
2999 2998 -4.3506321816387002e-04
4538 2998 -6.6666666666667001e-03
2990 2999 -1.4019607690132999e-04
2991 2999 -1.3832011801401001e-04
2995 2999 -1.6666666666667000e-02
2996 2999 -6.6666666666667001e-03
2997 2999 -4.3499402973297001e-04
2998 2999 -4.3510671972483002e-04
2999 2999 2.5661195530914001e-02
3000 3000 8.2271772112317999e-03
3003 3000 -6.0986106165823002e-10
4535 3000 -1.6460473498064999e-04
3001 3001 1.9463656043485000e-02
3002 3001 -1.1815027411898999e-03
4535 3001 -4.3506946645511998e-04
3001 3002 -1.2564296643595000e-03
3002 3002 1.9388725789225000e-02
3019 3002 -1.6666666666667000e-02
4535 3002 -4.3506931767060001e-04
3000 3003 -4.1314181198729002e-12
3003 3003 7.5572177875263997e-03
3019 3003 -6.6666666666667001e-03
4535 3003 -1.6206240859354001e-04
3004 3004 1.9463363933778000e-02
3005 3004 -1.1812166533771999e-03
3017 3004 -4.3506939486997998e-04
3004 3005 -1.2561382110052000e-03
3005 3005 1.9388442250489999e-02
3006 3005 -1.6666666666667000e-02
3017 3005 -4.3506938925574998e-04
3005 3006 -1.6666666666667000e-02
3006 3006 2.3854346543977001e-02
3008 3006 -6.6666666666667001e-03
3007 3007 8.2271771462738997e-03
3008 3007 -6.2209190172507003e-10
3017 3007 -1.6461554509507000e-04
3006 3008 -6.6666666666667001e-03
3007 3008 -4.2155527649211000e-12
3008 3008 7.5572176560269998e-03
3017 3008 -1.6206459954626001e-04
3009 3009 1.7814706092240999e-02
3010 3009 -1.2132097507118000e-06
3024 3009 -1.4164318836796001e-04
3009 3010 -2.3976468821990001e-08
3010 3010 1.7296474344879000e-02
3017 3010 -1.6666666666667000e-02
3024 3010 -1.3967138012409001e-04
3011 3011 1.7814705801798999e-02
3012 3011 -1.2129039519970000e-06
3019 3011 -1.4163984417282999e-04
3011 3012 -2.3970248269969999e-08
3012 3012 1.7296474339413000e-02
3017 3012 -1.6666666666667000e-02
3019 3012 -1.3967080062734000e-04
3013 3013 9.2658220615561004e-03
3014 3013 -6.2285403450757003e-04
3024 3013 -4.3506656711957001e-04
3013 3014 -6.7147021480176998e-04
3014 3014 9.2165810487275998e-03
3015 3014 -6.6666666666667001e-03
3024 3014 -4.3503181876302998e-04
3014 3015 -6.6666666666667001e-03
3015 3015 1.3333333333332999e-02
3016 3015 -6.6666666666667001e-03
3015 3016 -6.6666666666667001e-03
3016 3016 9.2651590583447008e-03
3018 3016 -6.2280671999224004e-04
3019 3016 -4.3506663340960001e-04
3004 3017 -4.3506941590864000e-04
3005 3017 -4.3506936874276002e-04
3007 3017 -1.6142418712933001e-04
3008 3017 -1.6142330524658000e-04
3010 3017 -1.6666666666667000e-02
3012 3017 -1.6666666666667000e-02
3017 3017 4.1983407856819997e-02
3018 3017 -6.6666666666667001e-03
3016 3018 -6.7135359359822002e-04
3017 3018 -6.6666666666667001e-03
3018 3018 9.2159857030521992e-03
3019 3018 -4.3503175246129000e-04
3002 3019 -1.6666666666667000e-02
3003 3019 -6.6666666666667001e-03
3011 3019 -1.4022935376413999e-04
3012 3019 -1.3828684115119999e-04
3016 3019 -4.3512070841080999e-04
3018 3019 -4.3498061224694001e-04
3019 3019 2.5686827304914998e-02
3020 3020 8.2271785985046000e-03
3023 3020 -6.0073695828009002e-10
4538 3020 -1.6459825283361999e-04
3021 3021 1.9463872503312000e-02
3022 3021 -1.1817211653255000e-03
4538 3021 -4.3507054868984998e-04
3021 3022 -1.2566365453559000e-03
3022 3022 1.9388905322746001e-02
3024 3022 -1.6666666666667000e-02
4538 3022 -4.3506823543163999e-04
3020 3023 -4.0682764925838998e-12
3023 3023 7.5572197920345998e-03
3024 3023 -6.6666666666667001e-03
4538 3023 -1.6206073198598000e-04
3009 3024 -1.4022960157617000e-04
3010 3024 -1.3828659333917000e-04
3013 3024 -4.3512044785046000e-04
3014 3024 -4.3498086363793001e-04
3022 3024 -1.6666666666667000e-02
3023 3024 -6.6666666666667001e-03
3024 3024 2.5658095779650999e-02
3025 3025 8.2272295059139001e-03
3026 3025 -2.4572398376198998e-10
4537 3025 -1.6408987734568999e-04
3025 3026 -2.5303224246286002e-10
3026 3026 8.2276086748348000e-03
4537 3026 -1.6474036080953001e-04
4538 3026 -6.6666666666667001e-03
3027 3027 9.2658578173349000e-03
3030 3027 -6.2287230943474997e-04
3055 3027 -4.3505790474202000e-04
3028 3028 1.7814705978070000e-02
3029 3028 -1.2130812335889999e-06
3055 3028 -1.4164005467083999e-04
3028 3029 -2.3972250601743999e-08
3029 3029 1.7296439381906000e-02
3055 3029 -1.3967077482081999e-04
4520 3029 -1.6666666666667000e-02
3027 3030 -6.7154061330532003e-04
3030 3030 9.2168761360791000e-03
3055 3030 -4.3504048227317998e-04
4520 3030 -6.6666666666667001e-03
3031 3031 1.9463655193842001e-02
3032 3031 -1.1815018909728000e-03
3060 3031 -4.3506945078807002e-04
3031 3032 -1.2564290150682000e-03
3032 3032 1.9388725440187000e-02
3055 3032 -1.6666666666667000e-02
3060 3032 -4.3506933333765002e-04
3033 3033 1.7814432016615998e-02
3034 3033 -9.3395782428774998e-07
3054 3033 -1.4034930442781001e-04
3033 3034 -9.3393990307135996e-07
3034 3034 1.7814430778895000e-02
3054 3034 -1.4034929934409000e-04
3055 3034 -1.6666666666667000e-02
3035 3035 8.2271771707106006e-03
3036 3035 -5.4616984295188004e-10
3060 3035 -1.6458314607913001e-04
3035 3036 -3.8191824861257999e-12
3036 3036 7.5912130101923004e-03
3037 3036 -6.6666666666667001e-03
3060 3036 -1.6212738785752000e-04
3036 3037 -6.6666666666667001e-03
3037 3037 1.3333333333332999e-02
3052 3037 -6.6666666666667001e-03
3038 3038 8.2271780058801001e-03
3050 3038 -1.6475053363744000e-04
3051 3038 -7.9536533720020997e-10
3039 3039 9.2645203034299999e-03
3047 3039 -6.2228104741919002e-04
3040 3040 9.2627319129357007e-03
3046 3040 -6.2214008648722003e-04
3041 3041 1.7813593026863001e-02
3042 3041 -2.3362810265607999e-07
3041 3042 -3.8766754898210002e-06
3042 3042 1.7897699974892999e-02
3043 3042 -1.6666666666667000e-02
3042 3043 -1.6666666666667000e-02
3043 3043 3.3333333333333000e-02
3044 3043 -1.6666666666667000e-02
3043 3044 -1.6666666666667000e-02
3044 3044 1.7900499694212001e-02
3045 3044 -7.5532493879597998e-06
3044 3045 -7.7911531430819005e-08
3045 3045 1.7296994492918001e-02
3050 3045 -1.6666666666667000e-02
3040 3046 -6.6839980690940005e-04
3046 3046 9.2029193424366992e-03
3050 3046 -6.6666666666667001e-03
3039 3047 -6.6872121643062000e-04
3047 3047 9.2044840756496001e-03
3050 3047 -6.6666666666667001e-03
3048 3048 1.9459740981720000e-02
3049 3048 -1.1776777544058000e-03
3050 3048 -4.3507012327197002e-04
3048 3049 -1.2525084495736999e-03
3049 3049 1.9384877672866001e-02
3050 3049 -4.3506866085207000e-04
3054 3049 -1.6666666666667000e-02
3038 3050 -1.6142431077864001e-04
3045 3050 -1.6666666666667000e-02
3046 3050 -6.6666666666667001e-03
3047 3050 -6.6666666666667001e-03
3048 3050 -4.3507558037590997e-04
3049 3050 -4.3506334074196000e-04
3050 3050 3.1979558912993998e-02
3051 3050 -1.6142318159726999e-04
3038 3051 -5.4093467757997002e-12
3050 3051 -1.6209152333755000e-04
3051 3051 7.5572189842401001e-03
3054 3051 -6.6666666666667001e-03
3037 3052 -6.6666666666667001e-03
3052 3052 7.5912136920414002e-03
3053 3052 -6.9483619905400997e-10
3054 3052 -1.6685426615642001e-04
3052 3053 -1.2546873991466000e-11
3053 3053 7.5572177627219999e-03
3054 3053 -1.6631926956015000e-04
3055 3053 -6.6666666666667001e-03
3033 3054 -1.3925811004979999e-04
3034 3054 -1.3925808486554001e-04
3049 3054 -1.6666666666667000e-02
3051 3054 -6.6666666666667001e-03
3052 3054 -1.6142437331554999e-04
3053 3054 -1.6142311906035999e-04
3054 3054 2.4964563593332999e-02
3027 3055 -4.3508492148538000e-04
3028 3055 -1.4022951254868000e-04
3029 3055 -1.3828668236666000e-04
3030 3055 -4.3501493260115001e-04
3032 3055 -1.6666666666667000e-02
3034 3055 -1.6666666666667000e-02
3053 3055 -6.6666666666667001e-03
3055 3055 4.2092973982617000e-02
3056 3056 9.2657469522129006e-03
3059 3056 -6.2275669407447002e-04
3124 3056 -4.3505611081955001e-04
3057 3057 1.7814713501522000e-02
3058 3057 -1.2211512899117000e-06
3124 3057 -1.4172800979228001e-04
3057 3058 -2.4136310332188000e-08
3058 3058 1.7296437059152001e-02
3060 3058 -1.6666666666667000e-02
3124 3058 -1.3968600946605999e-04
3056 3059 -6.7143137363922004e-04
3059 3059 9.2168234836878006e-03
3060 3059 -6.6666666666667001e-03
3124 3059 -4.3504227633617000e-04
3031 3060 -4.3506989106917998e-04
3032 3060 -4.3506890405297998e-04
3035 3060 -1.6142413232925001e-04
3036 3060 -1.6142336004666000e-04
3058 3060 -1.6666666666667000e-02
3059 3060 -6.6666666666667001e-03
3060 3060 2.5491557019166999e-02
3061 3061 8.2271772553696998e-03
3062 3061 -6.0964057453570999e-10
4540 3061 -1.6460465627078999e-04
3061 3062 -4.1300608552129003e-12
3062 3062 7.5572675905526002e-03
3124 3062 -6.6666666666667001e-03
4540 3062 -1.6206247987447000e-04
3063 3063 8.2272296291252007e-03
3064 3063 -3.7042992724630998e-10
4537 3063 -1.6439819310545999e-04
3063 3064 -2.4812327568969002e-12
3064 3064 7.5572713918765000e-03
3124 3064 -6.6666666666667001e-03
4537 3064 -1.6200616222688001e-04
3065 3065 9.1570168792920997e-03
3068 3065 -6.0449126029587001e-04
3118 3065 -4.3424181704241000e-04
3066 3066 1.8333367348313999e-02
3067 3066 -3.4655012434577998e-05
3118 3066 -5.4466059424408003e-04
3066 3067 -4.7344569466389996e-06
3067 3067 1.7296210836540000e-02
3118 3067 -1.4116553130322999e-04
4537 3067 -1.6666666666667000e-02
3065 3068 -5.7602928960805004e-04
3068 3068 9.2198267292010992e-03
3118 3068 -4.3585333304503999e-04
4537 3068 -6.6666666666667001e-03
3069 3069 8.2268529796072996e-03
3081 3069 -1.6724053466102000e-04
3082 3069 -2.2501493209751999e-08
3070 3070 9.2186585863171001e-03
3071 3070 -6.7145424168554000e-04
3070 3071 -6.4621250808231002e-04
3071 3071 9.2946634962191004e-03
3087 3071 -6.6666666666667001e-03
3072 3072 9.2342712675433994e-03
3075 3072 -6.0775734545531995e-04
3073 3073 1.7814961333477999e-02
3074 3073 -1.1692117536616000e-06
3073 3074 -2.3405554629732999e-08
3074 3074 1.7308628105132999e-02
3081 3074 -1.6666666666667000e-02
3072 3075 -6.0681477620685997e-04
3075 3075 8.9711944233946007e-03
3081 3075 -6.6666666666667001e-03
3076 3076 1.9370279162961999e-02
3077 3076 -1.0930248813954999e-03
3081 3076 -4.3564759907252000e-04
3076 3077 -1.1581040920282000e-03
3077 3077 1.9281987100055999e-02
3078 3077 -1.6666666666667000e-02
3081 3077 -4.3449007756375001e-04
3077 3078 -1.6666666666667000e-02
3078 3078 3.3333333333333000e-02
3079 3078 -1.6666666666667000e-02
3078 3079 -1.6666666666667000e-02
3079 3079 1.7804039839584999e-02
3080 3079 -1.0430947883993999e-06
3079 3080 -2.0969522606884001e-08
3080 3080 1.7295045502319001e-02
3087 3080 -1.6666666666667000e-02
3069 3081 -1.6106897838173999e-04
3074 3081 -1.6666666666667000e-02
3075 3081 -6.6666666666667001e-03
3076 3081 -4.3952401887591001e-04
3077 3081 -4.3072154492831998e-04
3081 3081 2.5501362664455001e-02
3082 3081 -1.6177851399416999e-04
3069 3082 -9.3263214797465001e-07
3081 3082 -1.9279855039574999e-04
3082 3082 8.2574509519729999e-03
3087 3082 -6.6666666666667001e-03
3083 3083 8.2271322724422006e-03
3086 3083 -2.9169886802449998e-10
3087 3083 -1.6419196850816001e-04
3084 3084 1.9400095099431001e-02
3085 3084 -1.2672810045328000e-03
3087 3084 -4.3487045540274000e-04
3084 3085 -1.2022147182593999e-03
3085 3085 1.9480328084146001e-02
3087 3085 -4.3526820317892003e-04
3093 3085 -1.6666666666667000e-02
3083 3086 -1.9538605510657001e-12
3086 3086 7.5568574052382997e-03
3087 3086 -1.6197898211780000e-04
3093 3086 -6.6666666666667001e-03
3071 3087 -6.6666666666667001e-03
3080 3087 -1.6666666666667000e-02
3082 3087 -6.6666666666667001e-03
3083 3087 -1.6142395198885000e-04
3084 3087 -4.3339691874949002e-04
3085 3087 -4.3677913453929999e-04
3086 3087 -1.6142354038706000e-04
3087 3087 3.1996745129301001e-02
3088 3088 9.2077690986431000e-03
3089 3088 -5.9099066606578998e-04
3093 3088 -4.5468342555493000e-04
3088 3089 -5.4175512836273005e-04
3089 3089 8.7772364405693994e-03
3090 3089 -6.6666666666667001e-03
3093 3089 -4.1321378500798998e-04
3089 3090 -6.6666666666667001e-03
3090 3090 1.3333333333332999e-02
3117 3090 -6.6666666666667001e-03
3091 3091 1.7814058849745001e-02
3092 3091 -5.6778869915156000e-07
3093 3091 -1.4020654051960000e-04
3091 3092 -2.4614978157989001e-08
3092 3092 1.7617008421924998e-02
3093 3092 -1.3975472622228000e-04
3118 3092 -1.6666666666667000e-02
3085 3093 -1.6666666666667000e-02
3086 3093 -6.6666666666667001e-03
3088 3093 -5.1333444391562003e-04
3089 3093 -3.5712379038160000e-04
3091 3093 -1.3966698186216000e-04
3092 3093 -1.3884921305318000e-04
3093 3093 2.5746397400481000e-02
3094 3094 8.2271682617128996e-03
3106 3094 -1.6427086840479000e-04
3107 3094 -2.1341789156277001e-10
3095 3095 9.2197976653397001e-03
3096 3095 -6.0214323393681000e-04
3095 3096 -5.5533676939030995e-04
3096 3096 8.8158523663733994e-03
3111 3096 -6.6666666666667001e-03
3097 3097 9.2177605418912994e-03
3100 3097 -6.7154558184747001e-04
3098 3098 1.7814708854904000e-02
3099 3098 -1.2159709605754001e-06
3098 3099 -2.4005438919457000e-08
3099 3099 1.7295881858251001e-02
3106 3099 -1.6666666666667000e-02
3097 3100 -6.3260455545544004e-04
3100 3100 9.2769330562918004e-03
3106 3100 -6.6666666666667001e-03
3101 3101 1.9393311164440999e-02
3102 3101 -1.2607416922467999e-03
3106 3101 -4.3496732258766998e-04
3101 3102 -1.1909278589480000e-03
3102 3102 1.9470938972927000e-02
3103 3102 -1.6666666666667000e-02
3106 3102 -4.3517142846113000e-04
3102 3103 -1.6666666666667000e-02
3103 3103 3.3333333333333000e-02
3104 3103 -1.6666666666667000e-02
3103 3104 -1.6666666666667000e-02
3104 3104 1.7817274017329000e-02
3105 3104 -1.2367617896629999e-06
3104 3105 -2.3598447748915001e-08
3105 3105 1.7319911968198001e-02
3111 3105 -1.6666666666667000e-02
3094 3106 -1.6142389376494999e-04
3099 3106 -1.6666666666667000e-02
3100 3106 -6.6666666666667001e-03
3101 3106 -4.3421722109873002e-04
3102 3106 -4.3594068362056001e-04
3106 3106 2.5217087702088001e-02
3107 3106 -1.6142359861096001e-04
3094 3107 -2.7314061121810998e-12
3106 3107 -1.6301086891880000e-04
3107 3107 7.9540286451852005e-03
3111 3107 -6.6666666666667001e-03
3108 3108 8.7539187825871004e-03
3111 3108 -5.2943896586318004e-04
3112 3108 -4.0526634202675000e-05
3109 3109 1.9253723630786000e-02
3110 3109 -1.0054842099632001e-03
3111 3109 -4.4829128031456000e-04
3109 3110 -9.4543615737204001e-04
3110 3110 1.8919390589453002e-02
3111 3110 -4.2116944087344999e-04
3115 3110 -1.6666666666667000e-02
3096 3111 -6.6666666666667001e-03
3105 3111 -1.6666666666667000e-02
3107 3111 -6.6666666666667001e-03
3108 3111 -5.5628808922385004e-04
3109 3111 -5.2636596888539996e-04
3110 3111 -3.4495296057705002e-04
3111 3111 3.2178402980706997e-02
3112 3111 -1.3139333316514000e-04
3108 3112 -1.7694886412438999e-06
3111 3112 -1.6200421207012000e-04
3112 3112 7.5773072587416003e-03
3115 3112 -6.6666666666667001e-03
3113 3113 1.7822332671072999e-02
3114 3113 -6.8119669508536999e-06
3115 3113 -1.6509549282034999e-04
3113 3114 -2.9476582768377999e-07
3114 3114 1.7616668035562000e-02
3115 3114 -1.5045079906942000e-04
3118 3114 -1.6666666666667000e-02
3110 3115 -1.6666666666667000e-02
3112 3115 -6.6666666666667001e-03
3113 3115 -1.4394836662840000e-04
3114 3115 -1.3456782828694000e-04
3115 3115 2.5024768382941001e-02
3116 3115 3.1248911200597001e-05
3117 3115 -7.1893033358958998e-04
3115 3116 -1.6309843835749999e-04
3116 3116 7.6319286081919999e-03
3117 3116 -4.7191221875079998e-05
3118 3116 -6.6666666666667001e-03
3090 3117 -6.6666666666667001e-03
3115 3117 -5.3016577054725001e-04
3116 3117 -2.6600158037516002e-04
3117 3117 8.6180223907748998e-03
3065 3118 -4.3207149185720998e-04
3066 3118 -5.6262028699879995e-04
3067 3118 -1.1031096739014001e-04
3068 3118 -4.3816222244914002e-04
3092 3118 -1.6666666666667000e-02
3114 3118 -1.6666666666667000e-02
3116 3118 -6.6666666666667001e-03
3118 3118 4.2160070733940000e-02
3119 3119 1.9470836887673999e-02
3120 3119 -1.1887390208040001e-03
4537 3119 -4.3509938506985002e-04
3119 3120 -1.2633641689715001e-03
3120 3120 1.9394860132856000e-02
3121 3120 -1.6666666666667000e-02
4537 3120 -4.3503939620347001e-04
3120 3121 -1.6666666666667000e-02
3121 3121 3.3333333333333000e-02
3122 3121 -1.6666666666667000e-02
3121 3122 -1.6666666666667000e-02
3122 3122 1.9387633169453002e-02
3123 3122 -1.2560059917753000e-03
4540 3122 -4.3506755690834998e-04
3122 3123 -1.1813741244810999e-03
3123 3123 1.9462347062869999e-02
3124 3123 -1.6666666666667000e-02
4540 3123 -4.3507122720667999e-04
3056 3124 -4.3507755620820999e-04
3057 3124 -1.4023605390667000e-04
3058 3124 -1.3828014100867000e-04
3059 3124 -4.3502199594037000e-04
3062 3124 -6.6666666666667001e-03
3064 3124 -6.6666666666667001e-03
3123 3124 -1.6666666666667000e-02
3124 3124 3.2205782300850000e-02
3125 3125 1.7814013954122000e-02
3126 3125 -5.1777949758569999e-07
3134 3125 -1.4041504348261000e-04
3125 3126 -4.9679703357377997e-08
3126 3126 1.7749224810693000e-02
3127 3126 -1.6666666666667000e-02
3134 3126 -1.4017814569020000e-04
3126 3127 -1.6666666666667000e-02
3127 3127 3.3333333333333000e-02
4519 3127 -1.6666666666667000e-02
3128 3128 8.2271771331871007e-03
3131 3128 -6.1068899028301999e-10
4520 3128 -1.6460538179413999e-04
3129 3129 1.9463636432358999e-02
3130 3129 -1.1814831357080001e-03
4520 3129 -4.3506939303671001e-04
3129 3130 -1.2564107267556000e-03
3130 3130 1.9388708797706999e-02
3134 3130 -1.6666666666667000e-02
4520 3130 -4.3506939108902998e-04
3128 3131 -4.1371339863252000e-12
3131 3131 7.5572176525911996e-03
3134 3131 -6.6666666666667001e-03
4520 3131 -1.6206255894164000e-04
3132 3132 9.2658836711999003e-03
3133 3132 -6.2288380720866999e-04
3134 3132 -4.3505078414386001e-04
3132 3133 -6.7159483167150995e-04
3133 3133 9.2171154184283993e-03
3134 3133 -4.3504760323898999e-04
4518 3133 -6.6666666666667001e-03
3125 3134 -1.3960581888372000e-04
3126 3134 -1.3891037603162000e-04
3130 3134 -1.6666666666667000e-02
3131 3134 -6.6666666666667001e-03
3132 3134 -4.3505571689427002e-04
3133 3134 -4.3504293836944997e-04
3134 3134 2.5740483177107001e-02
3135 3135 9.2658580405494996e-03
3138 3135 -6.2287253548585998e-04
4515 3135 -4.3505790681436002e-04
3136 3136 1.7814705963221000e-02
3137 3136 -1.2130656852722000e-06
4515 3136 -1.4163988478711000e-04
3136 3137 -2.3971934473491001e-08
3137 3137 1.7296439384448001e-02
3154 3137 -1.6666666666667000e-02
4515 3137 -1.3967074539221000e-04
3135 3138 -6.7154083579351001e-04
3138 3138 9.2168762881615993e-03
3154 3138 -6.6666666666667001e-03
4515 3138 -4.3504048020065998e-04
3139 3139 1.7814705962431000e-02
3140 3139 -1.2130648916256000e-06
3152 3139 -1.4163987611457999e-04
3139 3140 -2.3971918332361000e-08
3140 3140 1.7296439384436001e-02
3141 3140 -1.6666666666667000e-02
3152 3140 -1.3967074388967999e-04
3140 3141 -1.6666666666667000e-02
3141 3141 2.3854346543977001e-02
3143 3141 -6.6666666666667001e-03
3142 3142 9.2658580527803999e-03
3143 3142 -6.2287254722603999e-04
3152 3142 -4.3505790681682999e-04
3141 3143 -6.6666666666667001e-03
3142 3143 -6.7154084801954997e-04
3143 3143 9.2168762998092006e-03
3152 3143 -4.3504048019819000e-04
3144 3144 1.7814431860190001e-02
3145 3144 -9.3380130975084997e-07
3159 3144 -1.4034808737996000e-04
3144 3145 -9.3380104379539997e-07
3145 3145 1.7814431841818999e-02
3152 3145 -1.6666666666667000e-02
3159 3145 -1.4034808730459001e-04
3146 3146 1.9463636410888000e-02
3147 3146 -1.1814831141927001e-03
3154 3146 -4.3506939293622002e-04
3146 3147 -1.2564107062584999e-03
3147 3147 1.9388708779716001e-02
3152 3147 -1.6666666666667000e-02
3154 3147 -4.3506939118952002e-04
3148 3148 9.2658893877216007e-03
3149 3148 -6.2288631971183005e-04
3159 3148 -4.3504919508621998e-04
3148 3149 -6.7160687699127999e-04
3149 3149 9.2171687804796006e-03
3150 3149 -6.6666666666667001e-03
3159 3149 -4.3504919230930998e-04
3149 3150 -6.6666666666667001e-03
3150 3150 1.3333333333332999e-02
3151 3150 -6.6666666666667001e-03
3150 3151 -6.6666666666667001e-03
3151 3151 8.2271770959283994e-03
3153 3151 -6.1068904553309999e-10
3154 3151 -1.6460538237472001e-04
3139 3152 -1.4022949930423000e-04
3140 3152 -1.3828669561111000e-04
3142 3152 -4.3508493001469999e-04
3143 3152 -4.3501492442099999e-04
3145 3152 -1.6666666666667000e-02
3147 3152 -1.6666666666667000e-02
3152 3152 4.2092980445459997e-02
3153 3152 -6.6666666666667001e-03
3151 3153 -4.1371344997260998e-12
3152 3153 -6.6666666666667001e-03
3153 3153 7.5572176524085002e-03
3154 3153 -1.6206255910838999e-04
3137 3154 -1.6666666666667000e-02
3138 3154 -6.6666666666667001e-03
3146 3154 -4.3506939948386998e-04
3147 3154 -4.3506938480540998e-04
3151 3154 -1.6142417899728999e-04
3153 3154 -1.6142331337862001e-04
3154 3154 2.5577546358248000e-02
3155 3155 8.2271771300474004e-03
3158 3155 -6.0761405422440000e-10
4518 3155 -1.6460260703228999e-04
3156 3156 1.9463710783387999e-02
3157 3156 -1.1815558477932999e-03
4518 3156 -4.3506939293331003e-04
3156 3157 -1.2564850787896999e-03
3157 3157 1.9388781513414000e-02
3159 3157 -1.6666666666667000e-02
4518 3157 -4.3506939119243002e-04
3155 3158 -4.1159911062030997e-12
3158 3158 7.5572176523815001e-03
3159 3158 -6.6666666666667001e-03
4518 3158 -1.6206200182121999e-04
3144 3159 -1.3925809764454001e-04
3145 3159 -1.3925809727079999e-04
3148 3159 -4.3504919939251001e-04
3149 3159 -4.3504918823687998e-04
3157 3159 -1.6666666666667000e-02
3158 3159 -6.6666666666667001e-03
3159 3159 2.5745828784948001e-02
3160 3160 9.2658836715619006e-03
3161 3160 -6.2288380755048001e-04
4517 3160 -4.3505078414386001e-04
3160 3161 -6.7159483202855995e-04
3161 3161 9.2171154187750994e-03
4517 3161 -4.3504760323898999e-04
4518 3161 -6.6666666666667001e-03
3162 3162 9.2658580527810001e-03
3165 3162 -6.2287254722650002e-04
3190 3162 -4.3505790681684002e-04
3163 3163 1.7814705962431000e-02
3164 3163 -1.2130648915940000e-06
3190 3163 -1.4163987611424001e-04
3163 3164 -2.3971918331720001e-08
3164 3164 1.7296439384436001e-02
3190 3164 -1.3967074388962001e-04
4500 3164 -1.6666666666667000e-02
3162 3165 -6.7154084801995004e-04
3165 3165 9.2168762998092995e-03
3190 3165 -4.3504048019817998e-04
4500 3165 -6.6666666666667001e-03
3166 3166 1.7814431860191000e-02
3167 3166 -9.3380131087091001e-07
3195 3166 -1.4034808738871000e-04
3166 3167 -9.3380104495107997e-07
3167 3167 1.7814431841822999e-02
3190 3167 -1.6666666666667000e-02
3195 3167 -1.4034808731335001e-04
3168 3168 1.9463636410802999e-02
3169 3168 -1.1814831141095999e-03
3189 3168 -4.3506939293610000e-04
3168 3169 -1.2564107061752000e-03
3169 3169 1.9388708779636998e-02
3189 3169 -4.3506939118963001e-04
3190 3169 -1.6666666666667000e-02
3170 3170 9.2658893876982999e-03
3171 3170 -6.2288631968999996e-04
3195 3170 -4.3504919508623998e-04
3170 3171 -6.7160687696834998e-04
3171 3171 9.2171687804567005e-03
3172 3171 -6.6666666666667001e-03
3195 3171 -4.3504919230928998e-04
3171 3172 -6.6666666666667001e-03
3172 3172 1.3333333333332999e-02
3187 3172 -6.6666666666667001e-03
3173 3173 9.2658580414775992e-03
3185 3173 -4.3505790682258000e-04
3186 3173 -6.2287253639690000e-04
3174 3174 8.2271771293656003e-03
3182 3174 -6.0692932074338997e-10
3175 3175 8.2271771293656003e-03
3181 3175 -6.0692932077048996e-10
3176 3176 1.9463727386966001e-02
3177 3176 -1.1815720889051000e-03
3176 3177 -1.2565016730922999e-03
3177 3177 1.9388797724897999e-02
3178 3177 -1.6666666666667000e-02
3177 3178 -1.6666666666667000e-02
3178 3178 3.3333333333333000e-02
3179 3178 -1.6666666666667000e-02
3178 3179 -1.6666666666667000e-02
3179 3179 1.9463727307094999e-02
3180 3179 -1.1815720809635001e-03
3179 3180 -1.2565016486221000e-03
3180 3180 1.9388797661555001e-02
3185 3180 -1.6666666666667000e-02
3175 3181 -4.1112831489491002e-12
3181 3181 7.5572176569757002e-03
3185 3181 -6.6666666666667001e-03
3174 3182 -4.1112831489491002e-12
3182 3182 7.5572176569757002e-03
3185 3182 -6.6666666666667001e-03
3183 3183 1.7814705963159001e-02
3184 3183 -1.2130656227427999e-06
3185 3183 -1.4163988410432999e-04
3183 3184 -2.3971933202251999e-08
3184 3184 1.7296439384458000e-02
3185 3184 -1.3967074527394000e-04
3189 3184 -1.6666666666667000e-02
3173 3185 -4.3508493003743001e-04
3180 3185 -1.6666666666667000e-02
3181 3185 -6.6666666666667001e-03
3182 3185 -6.6666666666667001e-03
3183 3185 -1.4022949989668000e-04
3184 3185 -1.3828669501865000e-04
3185 3185 3.2092980156297003e-02
3186 3185 -4.3501492439923999e-04
3173 3186 -6.7154083669399998e-04
3185 3186 -4.3504048019243999e-04
3186 3186 9.2168762888035008e-03
3189 3186 -6.6666666666667001e-03
3172 3187 -6.6666666666667001e-03
3187 3187 8.2271770959283005e-03
3188 3187 -6.1068904904982000e-10
3189 3187 -1.6460538237789000e-04
3187 3188 -4.1371344154875998e-12
3188 3188 7.5572176524083996e-03
3189 3188 -1.6206255910903000e-04
3190 3188 -6.6666666666667001e-03
3168 3189 -4.3506939948285999e-04
3169 3189 -4.3506938480638999e-04
3184 3189 -1.6666666666667000e-02
3186 3189 -6.6666666666667001e-03
3187 3189 -1.6142417899728999e-04
3188 3189 -1.6142331337862001e-04
3189 3189 2.5259818648773000e-02
3162 3190 -4.3508493001475002e-04
3163 3190 -1.4022949930421000e-04
3164 3190 -1.3828669561113000e-04
3165 3190 -4.3501492442093998e-04
3167 3190 -1.6666666666667000e-02
3169 3190 -1.6666666666667000e-02
3188 3190 -6.6666666666667001e-03
3190 3190 4.2092980445473001e-02
3191 3191 8.2271771329808993e-03
3194 3191 -6.1055897378876997e-10
3259 3191 -1.6460526476768999e-04
3192 3192 1.9463639569058999e-02
3193 3192 -1.1814862027766000e-03
3259 3192 -4.3506939293864999e-04
3192 3193 -1.2564138644040000e-03
3193 3193 1.9388711868217001e-02
3195 3193 -1.6666666666667000e-02
3259 3193 -4.3506939118709000e-04
3191 3194 -4.1362398962997001e-12
3194 3194 7.5572176524119003e-03
3195 3194 -6.6666666666667001e-03
3259 3194 -1.6206253544467000e-04
3166 3195 -1.3925809764451000e-04
3167 3195 -1.3925809727083000e-04
3170 3195 -4.3504919939259002e-04
3171 3195 -4.3504918823681000e-04
3193 3195 -1.6666666666667000e-02
3194 3195 -6.6666666666667001e-03
3195 3195 2.5687101861881001e-02
3196 3196 8.2271769293135004e-03
3197 3196 -4.0439174267763000e-10
4520 3196 -1.6436041061132999e-04
3196 3197 -4.0095884398734999e-10
3197 3197 8.2269517779985993e-03
3259 3197 -6.6666666666667001e-03
4520 3197 -1.6435900686450001e-04
3198 3198 9.2658591405500000e-03
3199 3198 -6.2287302534995003e-04
4517 3198 -4.3505760434620999e-04
3198 3199 -6.7154314025974005e-04
3199 3199 9.2168864519741999e-03
3259 3199 -6.6666666666667001e-03
4517 3199 -4.3504078269478001e-04
3200 3200 8.2271771444870998e-03
3203 3200 -6.2211178567110996e-10
3253 3200 -1.6461556266755001e-04
3201 3201 1.9463363474358002e-02
3202 3201 -1.1812161934462999e-03
3253 3201 -4.3506939295439001e-04
3201 3202 -1.2561377695375999e-03
3202 3202 1.9388441858359001e-02
3253 3202 -4.3506939117134998e-04
4517 3202 -1.6666666666667000e-02
3200 3203 -4.2156894700411999e-12
3203 3203 7.5572176525219997e-03
3253 3203 -1.6206460306994000e-04
4517 3203 -6.6666666666667001e-03
3204 3204 9.2658591388064000e-03
3216 3204 -4.3505760485696999e-04
3217 3204 -6.2287302463188000e-04
3205 3205 8.2271769267610994e-03
3206 3205 -4.0191622475175998e-10
3205 3206 -3.9850399360296999e-10
3206 3206 8.2269517617971008e-03
3222 3206 -6.6666666666667001e-03
3207 3207 8.2271771293656992e-03
3210 3207 -6.0692933055871998e-10
3208 3208 1.9463727390865999e-02
3209 3208 -1.1815720893224000e-03
3208 3209 -1.2565016862774001e-03
3209 3209 1.9388797754971002e-02
3216 3209 -1.6666666666667000e-02
3207 3210 -4.1112832004155000e-12
3210 3210 7.5572176523751996e-03
3216 3210 -6.6666666666667001e-03
3211 3211 1.7814667720701002e-02
3212 3211 -1.1746439225347999e-06
3216 3211 -1.4158464057423999e-04
3211 3212 -2.3541051373600000e-08
3212 3212 1.7304137624984998e-02
3213 3212 -1.6666666666667000e-02
3216 3212 -1.3967468070910001e-04
3212 3213 -1.6666666666667000e-02
3213 3213 3.3333333333333000e-02
3214 3213 -1.6666666666667000e-02
3213 3214 -1.6666666666667000e-02
3214 3214 1.7305133916006001e-02
3215 3214 -1.0204620097372000e-06
3214 3215 -9.2756824737853998e-08
3215 3215 1.7296507754292000e-02
3222 3215 -1.6666666666667000e-02
3204 3216 -4.3508369156315999e-04
3209 3216 -1.6666666666667000e-02
3210 3216 -6.6666666666667001e-03
3211 3216 -1.4019519619305000e-04
3212 3216 -1.3832099872229000e-04
3216 3216 2.5661459029230001e-02
3217 3216 -4.3501611204964000e-04
3204 3217 -6.7154313648208998e-04
3216 3217 -4.3504078218396997e-04
3217 3217 9.2168864349199998e-03
3222 3217 -6.6666666666667001e-03
3218 3218 8.2271771329808993e-03
3221 3218 -6.1055919491967005e-10
3222 3218 -1.6460526496675000e-04
3219 3219 1.9463639563732000e-02
3220 3219 -1.1814861975604999e-03
3222 3219 -4.3506939293680999e-04
3219 3220 -1.2564138590973001e-03
3220 3220 1.9388711863062999e-02
3222 3220 -4.3506939118893000e-04
3228 3220 -1.6666666666667000e-02
3218 3221 -4.1362414439137002e-12
3221 3221 7.5572176524086997e-03
3222 3221 -1.6206253548464001e-04
3228 3221 -6.6666666666667001e-03
3206 3222 -6.6666666666667001e-03
3215 3222 -1.6666666666667000e-02
3217 3222 -6.6666666666667001e-03
3218 3222 -1.6142417890467999e-04
3219 3222 -4.3506939948889000e-04
3220 3222 -4.3506938480050001e-04
3221 3222 -1.6142331347122999e-04
3222 3222 3.1983709882380001e-02
3223 3223 9.2658267234999002e-03
3224 3223 -6.2285877350237999e-04
3228 3223 -4.3506661862452000e-04
3223 3224 -6.7147483057448997e-04
3224 3224 9.2165839756500993e-03
3225 3224 -6.6666666666667001e-03
3228 3224 -4.3503176724909000e-04
3224 3225 -6.6666666666667001e-03
3225 3225 1.3333333333332999e-02
3252 3225 -6.6666666666667001e-03
3226 3226 1.7814705781332998e-02
3227 3226 -1.2128829439864001e-06
3228 3226 -1.4163961748664999e-04
3226 3227 -2.3969823723397999e-08
3227 3227 1.7296474399385000e-02
3228 3227 -1.3967076145446000e-04
3253 3227 -1.6666666666667000e-02
3220 3228 -1.6666666666667000e-02
3221 3228 -6.6666666666667001e-03
3223 3228 -4.3512065987353000e-04
3224 3228 -4.3498066027553999e-04
3226 3228 -1.4022933671415999e-04
3227 3228 -1.3828685820118001e-04
3228 3228 2.5658224967505000e-02
3229 3229 9.2658591388064000e-03
3241 3229 -4.3505760485696999e-04
3242 3229 -6.2287302463188000e-04
3230 3230 8.2271769267610994e-03
3231 3230 -4.0191622477886001e-10
3230 3231 -3.9850399360303001e-10
3231 3231 8.2269517617971008e-03
3246 3231 -6.6666666666667001e-03
3232 3232 8.2271771293656992e-03
3235 3232 -6.0692933055871998e-10
3233 3233 1.9463727390865999e-02
3234 3233 -1.1815720893224000e-03
3233 3234 -1.2565016862774001e-03
3234 3234 1.9388797754971002e-02
3241 3234 -1.6666666666667000e-02
3232 3235 -4.1112832004155000e-12
3235 3235 7.5572176523751996e-03
3241 3235 -6.6666666666667001e-03
3236 3236 1.7814667720701002e-02
3237 3236 -1.1746439225347999e-06
3241 3236 -1.4158464057423999e-04
3236 3237 -2.3541051373626999e-08
3237 3237 1.7304137624984998e-02
3238 3237 -1.6666666666667000e-02
3241 3237 -1.3967468070910001e-04
3237 3238 -1.6666666666667000e-02
3238 3238 3.3333333333333000e-02
3239 3238 -1.6666666666667000e-02
3238 3239 -1.6666666666667000e-02
3239 3239 1.7305133916006001e-02
3240 3239 -1.0204620097372000e-06
3239 3240 -9.2756824737853006e-08
3240 3240 1.7296507754292000e-02
3246 3240 -1.6666666666667000e-02
3229 3241 -4.3508369156315999e-04
3234 3241 -1.6666666666667000e-02
3235 3241 -6.6666666666667001e-03
3236 3241 -1.4019519619305000e-04
3237 3241 -1.3832099872229000e-04
3241 3241 2.5313614949291002e-02
3242 3241 -4.3501611204964000e-04
3229 3242 -6.7154313648208998e-04
3241 3242 -4.3504078218396997e-04
3242 3242 9.2168864349199998e-03
3246 3242 -6.6666666666667001e-03
3243 3243 8.2271771329808993e-03
3246 3243 -1.6460526496675000e-04
3247 3243 -6.1055919491963004e-10
3244 3244 1.9463639563732000e-02
3245 3244 -1.1814861975604999e-03
3246 3244 -4.3506939293680999e-04
3244 3245 -1.2564138590973001e-03
3245 3245 1.9388711863062999e-02
3246 3245 -4.3506939118893000e-04
3250 3245 -1.6666666666667000e-02
3231 3246 -6.6666666666667001e-03
3240 3246 -1.6666666666667000e-02
3242 3246 -6.6666666666667001e-03
3243 3246 -1.6142417890467999e-04
3244 3246 -4.3506939948891000e-04
3245 3246 -4.3506938480046998e-04
3246 3246 3.1983709882380001e-02
3247 3246 -1.6142331347122999e-04
3243 3247 -4.1362414168084003e-12
3246 3247 -1.6206253548464001e-04
3247 3247 7.5572176524086997e-03
3250 3247 -6.6666666666667001e-03
3248 3248 1.7814705781332998e-02
3249 3248 -1.2128829439870999e-06
3250 3248 -1.4163961748665999e-04
3248 3249 -2.3969823723384999e-08
3249 3249 1.7296474399385000e-02
3250 3249 -1.3967076145446000e-04
3253 3249 -1.6666666666667000e-02
3245 3250 -1.6666666666667000e-02
3247 3250 -6.6666666666667001e-03
3248 3250 -1.4022933671415999e-04
3249 3250 -1.3828685820118001e-04
3250 3250 2.5369107810151999e-02
3251 3250 -4.3498064122847002e-04
3252 3250 -4.3512067818383000e-04
3250 3251 -4.3503175983751003e-04
3251 3251 9.2159844723228995e-03
3252 3251 -6.7135360807784998e-04
3253 3251 -6.6666666666667001e-03
3225 3252 -6.6666666666667001e-03
3250 3252 -4.3506662603467002e-04
3251 3252 -6.2280688336796000e-04
3252 3252 9.2651574121728995e-03
3200 3253 -1.6142418714351999e-04
3201 3253 -4.3506939963609999e-04
3202 3253 -4.3506938465657998e-04
3203 3253 -1.6142330523239001e-04
3227 3253 -1.6666666666667000e-02
3249 3253 -1.6666666666667000e-02
3251 3253 -6.6666666666667001e-03
3253 3253 4.1983407340966998e-02
3254 3254 1.7814667665349001e-02
3255 3254 -1.1745883112665001e-06
4517 3254 -1.4158455976793000e-04
3254 3255 -2.3540444978295000e-08
3255 3255 1.7304149230323002e-02
3256 3255 -1.6666666666667000e-02
4517 3255 -1.3967468676843000e-04
3255 3256 -1.6666666666667000e-02
3256 3256 3.3333333333333000e-02
3257 3256 -1.6666666666667000e-02
3256 3257 -1.6666666666667000e-02
3257 3257 1.7305145390810999e-02
3258 3257 -1.0203309001805000e-06
4520 3257 -1.6235155254113999e-04
3257 3258 -9.2670197956835994e-08
3258 3258 1.7296507666964001e-02
3259 3258 -1.6666666666667000e-02
4520 3258 -1.6160172032487000e-04
3191 3259 -1.6142417890451999e-04
3192 3259 -4.3506939950450999e-04
3193 3259 -4.3506938478522002e-04
3194 3259 -1.6142331347138999e-04
3197 3259 -6.6666666666667001e-03
3199 3259 -6.6666666666667001e-03
3258 3259 -1.6666666666667000e-02
3259 3259 3.2099657914883999e-02
3260 3260 1.7814013954109000e-02
3261 3260 -5.1777948595659005e-07
3269 3260 -1.4041504330805001e-04
3260 3261 -4.9679702320380997e-08
3261 3261 1.7749224810797000e-02
3262 3261 -1.6666666666667000e-02
3269 3261 -1.4017814555171001e-04
3261 3262 -1.6666666666667000e-02
3262 3262 3.3333333333333000e-02
4499 3262 -1.6666666666667000e-02
3263 3263 8.2271771331111007e-03
3266 3263 -6.1068990484697001e-10
4500 3263 -1.6460538261811001e-04
3264 3264 1.9463636410856001e-02
3265 3264 -1.1814831141652000e-03
4500 3264 -4.3506939293695999e-04
3264 3265 -1.2564107062193999e-03
3265 3265 1.9388708779662998e-02
3269 3265 -1.6666666666667000e-02
4500 3265 -4.3506939118878000e-04
3263 3266 -4.1371401663238003e-12
3266 3266 7.5572176524099002e-03
3269 3266 -6.6666666666667001e-03
4500 3266 -1.6206255910682001e-04
3267 3267 9.2658836716303997e-03
3268 3267 -6.2288380761897004e-04
3269 3267 -4.3505078414553001e-04
3267 3268 -6.7159483209015998e-04
3268 3268 9.2171154187906997e-03
3269 3268 -4.3504760323733003e-04
4498 3268 -6.6666666666667001e-03
3260 3269 -1.3960581887572000e-04
3261 3269 -1.3891037603962000e-04
3265 3269 -1.6666666666667000e-02
3266 3269 -6.6666666666667001e-03
3267 3269 -4.3505571690108998e-04
3268 3269 -4.3504293836291001e-04
3269 3269 2.5740483186427000e-02
3270 3270 9.2658580414010008e-03
3273 3270 -6.2287253632350005e-04
4495 3270 -4.3505790682262001e-04
3271 3271 1.7814705963164000e-02
3272 3271 -1.2130656276978999e-06
4495 3271 -1.4163988415847001e-04
3271 3272 -2.3971933303057999e-08
3272 3272 1.7296439384458000e-02
3289 3272 -1.6666666666667000e-02
4495 3272 -1.3967074528332000e-04
3270 3273 -6.7154083661723999e-04
3273 3273 9.2168762887289007e-03
3289 3273 -6.6666666666667001e-03
4495 3273 -4.3504048019239001e-04
3274 3274 1.7814705962431000e-02
3275 3274 -1.2130648915927999e-06
3287 3274 -1.4163987611422001e-04
3274 3275 -2.3971918331642001e-08
3275 3275 1.7296439384436001e-02
3276 3275 -1.6666666666667000e-02
3287 3275 -1.3967074388962001e-04
3275 3276 -1.6666666666667000e-02
3276 3276 2.3854346543977001e-02
3278 3276 -6.6666666666667001e-03
3277 3277 9.2658580527810001e-03
3278 3277 -6.2287254722650999e-04
3287 3277 -4.3505790681684002e-04
3276 3278 -6.6666666666667001e-03
3277 3278 -6.7154084801996998e-04
3278 3278 9.2168762998092995e-03
3287 3278 -4.3504048019817998e-04
3279 3279 1.7814431860190001e-02
3280 3279 -9.3380130974407000e-07
3294 3279 -1.4034808737992000e-04
3279 3280 -9.3380104382582995e-07
3280 3280 1.7814431841822000e-02
3287 3280 -1.6666666666667000e-02
3294 3280 -1.4034808730456000e-04
3281 3281 1.9463636410801999e-02
3282 3281 -1.1814831141092001e-03
3289 3281 -4.3506939293610000e-04
3281 3282 -1.2564107061748999e-03
3282 3282 1.9388708779635999e-02
3287 3282 -1.6666666666667000e-02
3289 3282 -4.3506939118963998e-04
3283 3283 9.2658893877216007e-03
3284 3283 -6.2288631971184002e-04
3294 3283 -4.3504919508627999e-04
3283 3284 -6.7160687699094996e-04
3284 3284 9.2171687804778000e-03
3285 3284 -6.6666666666667001e-03
3294 3284 -4.3504919230924997e-04
3284 3285 -6.6666666666667001e-03
3285 3285 1.3333333333332999e-02
3286 3285 -6.6666666666667001e-03
3285 3286 -6.6666666666667001e-03
3286 3286 8.2271770959272007e-03
3288 3286 -6.1068904904203996e-10
3289 3286 -1.6460538237790000e-04
3274 3287 -1.4022949930421000e-04
3275 3287 -1.3828669561113000e-04
3277 3287 -4.3508493001476000e-04
3278 3287 -4.3501492442093998e-04
3280 3287 -1.6666666666667000e-02
3282 3287 -1.6666666666667000e-02
3287 3287 4.2092980445473001e-02
3288 3287 -6.6666666666667001e-03
3286 3288 -4.1371345780697004e-12
3287 3288 -6.6666666666667001e-03
3288 3288 7.5572176524083996e-03
3289 3288 -1.6206255910903000e-04
3272 3289 -1.6666666666667000e-02
3273 3289 -6.6666666666667001e-03
3281 3289 -4.3506939948281998e-04
3282 3289 -4.3506938480644003e-04
3286 3289 -1.6142417899728999e-04
3288 3289 -1.6142331337862001e-04
3289 3289 2.5577546358153999e-02
3290 3290 8.2271771300475999e-03
3293 3290 -6.0761405490248999e-10
4498 3290 -1.6460260703289999e-04
3291 3291 1.9463710783370999e-02
3292 3291 -1.1815558477772999e-03
4498 3291 -4.3506939293327999e-04
3291 3292 -1.2564850787735999e-03
3292 3292 1.9388781513397998e-02
3294 3292 -1.6666666666667000e-02
4498 3292 -4.3506939119245999e-04
3290 3293 -4.1159910024438998e-12
3293 3293 7.5572176523815001e-03
3294 3293 -6.6666666666667001e-03
4498 3293 -1.6206200182133999e-04
3279 3294 -1.3925809764451000e-04
3280 3294 -1.3925809727083000e-04
3283 3294 -4.3504919939274999e-04
3284 3294 -4.3504918823665002e-04
3292 3294 -1.6666666666667000e-02
3293 3294 -6.6666666666667001e-03
3294 3294 2.5745828784949999e-02
3295 3295 9.2658836715723003e-03
3296 3295 -6.2288380756327002e-04
4497 3295 -4.3505078414553001e-04
3295 3296 -6.7159483203208003e-04
3296 3296 9.2171154187349995e-03
4497 3296 -4.3504760323733003e-04
4498 3296 -6.6666666666667001e-03
3297 3297 8.2271771444872004e-03
3300 3297 -6.2211178576081997e-10
3325 3297 -1.6461556266762000e-04
3298 3298 1.9463363474376001e-02
3299 3298 -1.1812161934467000e-03
3325 3298 -4.3506939294998001e-04
3298 3299 -1.2561377696026000e-03
3299 3299 1.9388441858508999e-02
3325 3299 -4.3506939117575997e-04
4480 3299 -1.6666666666667000e-02
3297 3300 -4.2156894706301000e-12
3300 3300 7.5572176525140998e-03
3325 3300 -1.6206460306994000e-04
4480 3300 -6.6666666666667001e-03
3301 3301 1.7814705781332998e-02
3302 3301 -1.2128829439853999e-06
3330 3301 -1.4163961748664999e-04
3301 3302 -2.3969823723388000e-08
3302 3302 1.7296474399385000e-02
3325 3302 -1.6666666666667000e-02
3330 3302 -1.3967076145446000e-04
3303 3303 1.7814705781331999e-02
3304 3303 -1.2128829430181000e-06
3324 3303 -1.4163961747608000e-04
3303 3304 -2.3969823703686000e-08
3304 3304 1.7296474399385000e-02
3324 3304 -1.3967076145262000e-04
3325 3304 -1.6666666666667000e-02
3305 3305 9.2658267234994995e-03
3306 3305 -6.2285877350217996e-04
3330 3305 -4.3506661862465000e-04
3305 3306 -6.7147483057354996e-04
3306 3306 9.2165839756458996e-03
3307 3306 -6.6666666666667001e-03
3330 3306 -4.3503176724896998e-04
3306 3307 -6.6666666666667001e-03
3307 3307 1.3333333333332999e-02
3322 3307 -6.6666666666667001e-03
3308 3308 8.2271771300475999e-03
3320 3308 -1.6460260703276999e-04
3321 3308 -6.0761405475912997e-10
3309 3309 9.2658836754172004e-03
3317 3309 -6.2288381124961996e-04
3310 3310 9.2658836754172004e-03
3316 3310 -6.2288381124961996e-04
3311 3311 1.7814013954006998e-02
3312 3311 -5.1777938357877000e-07
3311 3312 -4.9679692708266001e-08
3312 3312 1.7749224811248999e-02
3313 3312 -1.6666666666667000e-02
3312 3313 -1.6666666666667000e-02
3313 3313 3.3333333333333000e-02
3314 3313 -1.6666666666667000e-02
3313 3314 -1.6666666666667000e-02
3314 3314 1.7749599295927999e-02
3315 3314 -4.2710629872945999e-07
3314 3315 -9.4784908677811992e-09
3315 3315 1.7296415156686000e-02
3320 3315 -1.6666666666667000e-02
3310 3316 -6.7159483587827000e-04
3316 3316 9.2171154224320005e-03
3320 3316 -6.6666666666667001e-03
3309 3317 -6.7159483587827000e-04
3317 3317 9.2171154224320005e-03
3320 3317 -6.6666666666667001e-03
3318 3318 1.9463710783374999e-02
3319 3318 -1.1815558477807000e-03
3320 3318 -4.3506939293329002e-04
3318 3319 -1.2564850787769000e-03
3319 3319 1.9388781513401000e-02
3320 3319 -4.3506939119245002e-04
3324 3319 -1.6666666666667000e-02
3308 3320 -1.6142417680448001e-04
3315 3320 -1.6666666666667000e-02
3316 3320 -6.6666666666667001e-03
3317 3320 -6.6666666666667001e-03
3318 3320 -4.3506939945951999e-04
3319 3320 -4.3506938482921001e-04
3320 3320 3.1983788136210001e-02
3321 3320 -1.6142331557142999e-04
3308 3321 -4.1159910827734996e-12
3320 3321 -1.6206200182132001e-04
3321 3321 7.5572176523815001e-03
3324 3321 -6.6666666666667001e-03
3307 3322 -6.6666666666667001e-03
3322 3322 9.2651574121829002e-03
3323 3322 -6.2280688338181003e-04
3324 3322 -4.3506662603474001e-04
3322 3323 -6.7135360809140001e-04
3323 3323 9.2159844723307006e-03
3324 3323 -4.3503175983743999e-04
3325 3323 -6.6666666666667001e-03
3303 3324 -1.4022933671337001e-04
3304 3324 -1.3828685820195999e-04
3319 3324 -1.6666666666667000e-02
3321 3324 -6.6666666666667001e-03
3322 3324 -4.3512067818410999e-04
3323 3324 -4.3498064122820000e-04
3324 3324 2.5369107810534999e-02
3297 3325 -1.6142418714351999e-04
3298 3325 -4.3506939959863999e-04
3299 3325 -4.3506938469321999e-04
3300 3325 -1.6142330523239001e-04
3302 3325 -1.6666666666667000e-02
3304 3325 -1.6666666666667000e-02
3323 3325 -6.6666666666667001e-03
3325 3325 4.1983407340964000e-02
3326 3326 8.2271771329808004e-03
3329 3326 -6.1055900543262003e-10
3394 3326 -1.6460526479617000e-04
3327 3327 1.9463639568303000e-02
3328 3327 -1.1814862020309001e-03
3394 3327 -4.3506939293680999e-04
3327 3328 -1.2564138636685001e-03
3328 3328 1.9388711867533999e-02
3330 3328 -1.6666666666667000e-02
3394 3328 -4.3506939118893000e-04
3326 3329 -4.1362401680859000e-12
3329 3329 7.5572176524086997e-03
3330 3329 -6.6666666666667001e-03
3394 3329 -1.6206253545039001e-04
3301 3330 -1.4022933671415999e-04
3302 3330 -1.3828685820118001e-04
3305 3330 -4.3512065987404001e-04
3306 3330 -4.3498066027504998e-04
3328 3330 -1.6666666666667000e-02
3329 3330 -6.6666666666667001e-03
3330 3330 2.5599498044919001e-02
3331 3331 8.2271769292370997e-03
3332 3331 -4.0439234495648998e-10
4500 3331 -1.6436041131172999e-04
3331 3332 -4.0095941273209002e-10
3332 3332 8.2269517759676995e-03
3394 3332 -6.6666666666667001e-03
4500 3332 -1.6435900764374999e-04
3333 3333 9.2658591403037994e-03
3334 3333 -6.2287302524997997e-04
4497 3333 -4.3505760441917999e-04
3333 3334 -6.7154313972275998e-04
3334 3334 9.2168864495402996e-03
3394 3334 -6.6666666666667001e-03
4497 3334 -4.3504078262179000e-04
3335 3335 8.2271771444870998e-03
3338 3335 -6.2211178577105002e-10
3388 3335 -1.6461556266763000e-04
3336 3336 1.9463363474373000e-02
3337 3336 -1.1812161934461000e-03
3388 3336 -4.3506939295066003e-04
3336 3337 -1.2561377695921000e-03
3337 3337 1.9388441858486000e-02
3388 3337 -4.3506939117508002e-04
4497 3337 -1.6666666666667000e-02
3335 3338 -4.2156894707051998e-12
3338 3338 7.5572176525154000e-03
3388 3338 -1.6206460306994000e-04
4497 3338 -6.6666666666667001e-03
3339 3339 8.2271769292429995e-03
3351 3339 -1.6436041301934001e-04
3352 3339 -4.0439868923984002e-10
3340 3340 9.2658580968531992e-03
3341 3340 -6.2287256856418001e-04
3340 3341 -6.7154093670217002e-04
3341 3341 9.2168766794410006e-03
3357 3341 -6.6666666666667001e-03
3342 3342 9.2658580565692997e-03
3345 3342 -6.2287255085605002e-04
3343 3343 1.7814705962187000e-02
3344 3343 -1.2130646465484999e-06
3343 3344 -2.3971913347808000e-08
3344 3344 1.7296439384428000e-02
3351 3344 -1.6666666666667000e-02
3342 3345 -6.7154085181586002e-04
3345 3345 9.2168763034978993e-03
3351 3345 -6.6666666666667001e-03
3346 3346 1.9463616696860000e-02
3347 3346 -1.1814810032111001e-03
3351 3346 -4.3507378916601001e-04
3346 3347 -1.2563440611379000e-03
3347 3347 1.9388556775481000e-02
3348 3347 -1.6666666666667000e-02
3351 3347 -4.3506499489832001e-04
3347 3348 -1.6666666666667000e-02
3348 3348 3.3333333333333000e-02
3349 3348 -1.6666666666667000e-02
3348 3349 -1.6666666666667000e-02
3349 3349 1.7814613193418000e-02
3350 3349 -1.2114352611041999e-06
3349 3350 -2.3943846664855000e-08
3350 3350 1.7296439340965999e-02
3357 3350 -1.6666666666667000e-02
3339 3351 -1.6142374865716000e-04
3344 3351 -1.6666666666667000e-02
3345 3351 -6.6666666666667001e-03
3346 3351 -4.3510675468133001e-04
3347 3351 -4.3503285265440001e-04
3351 3351 2.5564232022037999e-02
3352 3351 -1.6142374371875000e-04
3339 3352 -4.0084740351423999e-10
3351 3352 -1.6435896078404000e-04
3352 3352 8.2269439836471000e-03
3357 3352 -6.6666666666667001e-03
3353 3353 8.2271771331063007e-03
3356 3353 -6.1068505506398002e-10
3357 3353 -1.6460537825332001e-04
3354 3354 1.9463636527826001e-02
3355 3354 -1.1814832285578999e-03
3357 3354 -4.3506939293695999e-04
3354 3355 -1.2564108231899000e-03
3355 3355 1.9388708894056000e-02
3357 3355 -4.3506939118878000e-04
3363 3355 -1.6666666666667000e-02
3353 3356 -4.1371068728122003e-12
3356 3356 7.5572176524098004e-03
3357 3356 -1.6206255823045999e-04
3363 3356 -6.6666666666667001e-03
3341 3357 -6.6666666666667001e-03
3350 3357 -1.6666666666667000e-02
3352 3357 -6.6666666666667001e-03
3353 3357 -1.6142417899443000e-04
3354 3357 -4.3506939949013000e-04
3355 3357 -4.3506938479928998e-04
3356 3357 -1.6142331338148000e-04
3357 3357 3.1983706548548999e-02
3358 3358 9.2658267234989999e-03
3359 3358 -6.2285877350163005e-04
3363 3358 -4.3506661862460999e-04
3358 3359 -6.7147483057319001e-04
3359 3359 9.2165839756464998e-03
3360 3359 -6.6666666666667001e-03
3363 3359 -4.3503176724900001e-04
3359 3360 -6.6666666666667001e-03
3360 3360 1.3333333333332999e-02
3387 3360 -6.6666666666667001e-03
3361 3361 1.7814705781332998e-02
3362 3361 -1.2128829440258000e-06
3363 3361 -1.4163961748708999e-04
3361 3362 -2.3969823724157000e-08
3362 3362 1.7296474399385000e-02
3363 3362 -1.3967076145453001e-04
3388 3362 -1.6666666666667000e-02
3355 3363 -1.6666666666667000e-02
3356 3363 -6.6666666666667001e-03
3358 3363 -4.3512065987389001e-04
3359 3363 -4.3498066027519000e-04
3361 3363 -1.4022933671418999e-04
3362 3363 -1.3828685820115001e-04
3363 3363 2.5658224967488999e-02
3364 3364 8.2271769292429995e-03
3376 3364 -1.6436041301934001e-04
3377 3364 -4.0439868923984002e-10
3365 3365 9.2658580968531992e-03
3366 3365 -6.2287256856418001e-04
3365 3366 -6.7154093670217002e-04
3366 3366 9.2168766794410006e-03
3381 3366 -6.6666666666667001e-03
3367 3367 9.2658580565692997e-03
3370 3367 -6.2287255085605002e-04
3368 3368 1.7814705962187000e-02
3369 3368 -1.2130646465484999e-06
3368 3369 -2.3971913347808000e-08
3369 3369 1.7296439384428000e-02
3376 3369 -1.6666666666667000e-02
3367 3370 -6.7154085181586002e-04
3370 3370 9.2168763034978993e-03
3376 3370 -6.6666666666667001e-03
3371 3371 1.9463616696860000e-02
3372 3371 -1.1814810032111001e-03
3376 3371 -4.3507378916601001e-04
3371 3372 -1.2563440611379000e-03
3372 3372 1.9388556775481000e-02
3373 3372 -1.6666666666667000e-02
3376 3372 -4.3506499489832001e-04
3372 3373 -1.6666666666667000e-02
3373 3373 3.3333333333333000e-02
3374 3373 -1.6666666666667000e-02
3373 3374 -1.6666666666667000e-02
3374 3374 1.7814613193418000e-02
3375 3374 -1.2114352611041999e-06
3374 3375 -2.3943846664855000e-08
3375 3375 1.7296439340965999e-02
3381 3375 -1.6666666666667000e-02
3364 3376 -1.6142374865716000e-04
3369 3376 -1.6666666666667000e-02
3370 3376 -6.6666666666667001e-03
3371 3376 -4.3510675468133001e-04
3372 3376 -4.3503285265440001e-04
3376 3376 2.5216387942099999e-02
3377 3376 -1.6142374371875000e-04
3364 3377 -4.0084740351423999e-10
3376 3377 -1.6435896078404000e-04
3377 3377 8.2269439836471000e-03
3381 3377 -6.6666666666667001e-03
3378 3378 8.2271771331063007e-03
3381 3378 -1.6460537825332001e-04
3382 3378 -6.1068505506398002e-10
3379 3379 1.9463636527826001e-02
3380 3379 -1.1814832285578999e-03
3381 3379 -4.3506939293695999e-04
3379 3380 -1.2564108231899000e-03
3380 3380 1.9388708894056000e-02
3381 3380 -4.3506939118878000e-04
3385 3380 -1.6666666666667000e-02
3366 3381 -6.6666666666667001e-03
3375 3381 -1.6666666666667000e-02
3377 3381 -6.6666666666667001e-03
3378 3381 -1.6142417899443000e-04
3379 3381 -4.3506939949013000e-04
3380 3381 -4.3506938479928998e-04
3381 3381 3.1983706548548999e-02
3382 3381 -1.6142331338148000e-04
3378 3382 -4.1371068728122003e-12
3381 3382 -1.6206255823045999e-04
3382 3382 7.5572176524098004e-03
3385 3382 -6.6666666666667001e-03
3383 3383 1.7814705781332998e-02
3384 3383 -1.2128829440258000e-06
3385 3383 -1.4163961748708999e-04
3383 3384 -2.3969823724183999e-08
3384 3384 1.7296474399385000e-02
3385 3384 -1.3967076145453001e-04
3388 3384 -1.6666666666667000e-02
3380 3385 -1.6666666666667000e-02
3382 3385 -6.6666666666667001e-03
3383 3385 -1.4022933671418999e-04
3384 3385 -1.3828685820115001e-04
3385 3385 2.5369107810137001e-02
3386 3385 -4.3498064122803000e-04
3387 3385 -4.3512067818429002e-04
3385 3386 -4.3503175983739998e-04
3386 3386 9.2159844723154992e-03
3387 3386 -6.7135360807575996e-04
3388 3386 -6.6666666666667001e-03
3360 3387 -6.6666666666667001e-03
3385 3387 -4.3506662603478002e-04
3386 3387 -6.2280688336693001e-04
3387 3387 9.2651574121685003e-03
3335 3388 -1.6142418714351999e-04
3336 3388 -4.3506939960441001e-04
3337 3388 -4.3506938468757000e-04
3338 3388 -1.6142330523239001e-04
3362 3388 -1.6666666666667000e-02
3384 3388 -1.6666666666667000e-02
3386 3388 -6.6666666666667001e-03
3388 3388 4.1983407340964000e-02
3389 3389 1.7814667665346000e-02
3390 3389 -1.1745883085999000e-06
4497 3389 -1.4158455975434001e-04
3389 3390 -2.3540444939474001e-08
3390 3390 1.7304149230668999e-02
3391 3390 -1.6666666666667000e-02
4497 3390 -1.3967468676660000e-04
3390 3391 -1.6666666666667000e-02
3391 3391 3.3333333333333000e-02
3392 3391 -1.6666666666667000e-02
3391 3392 -1.6666666666667000e-02
3392 3392 1.7305145390652001e-02
3393 3392 -1.0203303939097001e-06
4500 3392 -1.6235155233041001e-04
3392 3393 -9.2670150361734006e-08
3393 3393 1.7296507667016001e-02
3394 3393 -1.6666666666667000e-02
4500 3393 -1.6160172009754999e-04
3326 3394 -1.6142417890454999e-04
3327 3394 -4.3506939948889000e-04
3328 3394 -4.3506938480050001e-04
3329 3394 -1.6142331347137001e-04
3332 3394 -6.6666666666667001e-03
3334 3394 -6.6666666666667001e-03
3393 3394 -1.6666666666667000e-02
3394 3394 3.2099657914046002e-02
3395 3395 1.9463636406936002e-02
3396 3395 -1.1814831137459000e-03
3404 3395 -4.3506939381109003e-04
3395 3396 -1.2564106929670001e-03
3396 3396 1.9388708749436000e-02
3397 3396 -1.6666666666667000e-02
3404 3396 -4.3506939031465002e-04
3396 3397 -1.6666666666667000e-02
3397 3397 3.3333333333333000e-02
4479 3397 -1.6666666666667000e-02
3398 3398 9.2658580527235999e-03
3401 3398 -6.2287254716980004e-04
4480 3398 -4.3505790681685000e-04
3399 3399 1.7814705962435000e-02
3400 3399 -1.2130648954313000e-06
4480 3399 -1.4163987615619999e-04
3399 3400 -2.3971918409717001e-08
3400 3400 1.7296439384436001e-02
3404 3400 -1.6666666666667000e-02
4480 3400 -1.3967074389689999e-04
3398 3401 -6.7154084796096000e-04
3401 3401 9.2168762997538994e-03
3404 3401 -6.6666666666667001e-03
4480 3401 -4.3504048019817000e-04
3402 3402 8.2271771331111996e-03
3403 3402 -6.1068989494194002e-10
3404 3402 -1.6460538261503000e-04
3402 3403 -4.1371400871255000e-12
3403 3403 7.5572176570338004e-03
3404 3403 -1.6206255911541001e-04
4478 3403 -6.6666666666667001e-03
3395 3404 -4.3506940691772001e-04
3396 3404 -4.3506937753537000e-04
3400 3404 -1.6666666666667000e-02
3401 3404 -6.6666666666667001e-03
3402 3404 -1.6142417899788001e-04
3403 3404 -1.6142331337802999e-04
3404 3404 2.5548935806917000e-02
3405 3405 8.2271771300477005e-03
3408 3405 -6.0761405488156997e-10
4475 3405 -1.6460260703288001e-04
3406 3406 1.9463710783372001e-02
3407 3406 -1.1815558477777999e-03
4475 3406 -4.3506939293329002e-04
3406 3407 -1.2564850787740000e-03
3407 3407 1.9388781513397998e-02
3424 3407 -1.6666666666667000e-02
4475 3407 -4.3506939119245002e-04
3405 3408 -4.1159910294049996e-12
3408 3408 7.5572176523815001e-03
3424 3408 -6.6666666666667001e-03
4475 3408 -1.6206200182133999e-04
3409 3409 1.7814705962491999e-02
3410 3409 -1.2130649529435000e-06
3422 3409 -1.4163987678467000e-04
3409 3410 -2.3971919579484000e-08
3410 3410 1.7296439384437000e-02
3411 3410 -1.6666666666667000e-02
3422 3410 -1.3967074400577999e-04
3410 3411 -1.6666666666667000e-02
3411 3411 2.3854346543977001e-02
3413 3411 -6.6666666666667001e-03
3412 3412 9.2658580518325002e-03
3413 3412 -6.2287254631780004e-04
3422 3412 -4.3505790681732000e-04
3411 3413 -6.6666666666667001e-03
3412 3413 -6.7154084706960997e-04
3413 3413 9.2168762988858004e-03
3422 3413 -4.3504048019770000e-04
3414 3414 1.9463636409821999e-02
3415 3414 -1.1814831140043000e-03
3429 3414 -4.3506939315471999e-04
3414 3415 -1.2564107028603000e-03
3415 3415 1.9388708772076001e-02
3422 3415 -1.6666666666667000e-02
3429 3415 -4.3506939097101002e-04
3416 3416 1.7814431860192999e-02
3417 3416 -9.3380131316604001e-07
3424 3416 -1.4034808738446001e-04
3416 3417 -9.3380098067089998e-07
3417 3417 1.7814431837225999e-02
3422 3417 -1.6666666666667000e-02
3424 3417 -1.4034808729024000e-04
3418 3418 8.2271770695571001e-03
3419 3418 -5.4687817587065000e-10
3429 3418 -1.6458372685593001e-04
3418 3419 -3.8242392979954004e-12
3419 3419 7.5912124995573997e-03
3420 3419 -6.6666666666667001e-03
3429 3419 -1.6212754631187001e-04
3419 3420 -6.6666666666667001e-03
3420 3420 1.3333333333332999e-02
3421 3420 -6.6666666666667001e-03
3420 3421 -6.6666666666667001e-03
3421 3421 7.5912131903394997e-03
3423 3421 -6.9507027424147005e-10
3424 3421 -1.6685427719695999e-04
3409 3422 -1.4022949935391999e-04
3410 3422 -1.3828669556142001e-04
3412 3422 -4.3508493001666001e-04
3413 3422 -4.3501492441911998e-04
3415 3422 -1.6666666666667000e-02
3417 3422 -1.6666666666667000e-02
3422 3422 4.2092980421208001e-02
3423 3422 -6.6666666666667001e-03
3421 3423 -1.2551138385457999e-11
3422 3423 -6.6666666666667001e-03
3423 3423 7.5572176612623996e-03
3424 3423 -1.6631928530728000e-04
3407 3424 -1.6666666666667000e-02
3408 3424 -6.6666666666667001e-03
3416 3424 -1.3925809769128999e-04
3417 3424 -1.3925809722405001e-04
3421 3424 -1.6142437352693000e-04
3423 3424 -1.6142311884899001e-04
3424 3424 2.5282357964237001e-02
3425 3425 9.2658580414010008e-03
3428 3425 -6.2287253632350005e-04
4478 3425 -4.3505790682262001e-04
3426 3426 1.7814705963164000e-02
3427 3426 -1.2130656276982999e-06
4478 3426 -1.4163988415848001e-04
3426 3427 -2.3971933303039999e-08
3427 3427 1.7296439384458000e-02
3429 3427 -1.6666666666667000e-02
4478 3427 -1.3967074528332000e-04
3425 3428 -6.7154083661727002e-04
3428 3428 9.2168762887291002e-03
3429 3428 -6.6666666666667001e-03
4478 3428 -4.3504048019239999e-04
3414 3429 -4.3506940134052001e-04
3415 3429 -4.3506938298968001e-04
3418 3429 -1.6142413283599000e-04
3419 3429 -1.6142335953992000e-04
3427 3429 -1.6666666666667000e-02
3428 3429 -6.6666666666667001e-03
3429 3429 2.5550262695425000e-02
3430 3430 8.2271771331113002e-03
3431 3430 -6.1068989541006004e-10
4477 3430 -1.6460538261535001e-04
3430 3431 -4.1371401438083002e-12
3431 3431 7.5572176570338004e-03
4477 3431 -1.6206255911546999e-04
4478 3431 -6.6666666666667001e-03
3432 3432 8.2271771456691994e-03
3435 3432 -6.2212969058730999e-10
3460 3432 -1.6461557735649999e-04
3433 3433 1.9388443066615999e-02
3434 3433 -1.2561372407530001e-03
3460 3433 -4.3506889781913999e-04
3433 3434 -1.1812411014764000e-03
3434 3434 1.9463377287251001e-02
3460 3434 -4.3506988630581997e-04
4460 3434 -1.6666666666667000e-02
3432 3435 -4.2158094794423998e-12
3435 3435 7.5572167799659003e-03
3460 3435 -1.6206460427519001e-04
4460 3435 -6.6666666666667001e-03
3436 3436 1.7814705780815000e-02
3437 3436 -1.2128824517221001e-06
3465 3436 -1.4163961451512999e-04
3436 3437 -2.3969815944093000e-08
3437 3437 1.7296474448031000e-02
3460 3437 -1.6666666666667000e-02
3465 3437 -1.3967076102626999e-04
3438 3438 1.7814705780457001e-02
3439 3438 -1.2128821615425001e-06
3459 3438 -1.4163961135682000e-04
3438 3439 -2.3969810045613999e-08
3439 3439 1.7296474448021001e-02
3459 3439 -1.3967076047909999e-04
3460 3439 -1.6666666666667000e-02
3440 3440 9.2658266777345000e-03
3441 3440 -6.2285875523156002e-04
3465 3440 -4.3506663242620999e-04
3440 3441 -6.7147472971567995e-04
3441 3441 9.2165835163507993e-03
3442 3441 -6.6666666666667001e-03
3465 3441 -4.3503175344500002e-04
3441 3442 -6.6666666666667001e-03
3442 3442 1.3333333333332999e-02
3457 3442 -6.6666666666667001e-03
3443 3443 8.2271771330147993e-03
3455 3443 -1.6460526499501000e-04
3456 3443 -6.1055923167131997e-10
3444 3444 8.2271769267610994e-03
3452 3444 -4.0191622653407999e-10
3445 3445 9.2658591422875997e-03
3451 3445 -6.2287302811661995e-04
3446 3446 1.7814667720471002e-02
3447 3446 -1.1746436912735001e-06
3446 3447 -2.3541046554401001e-08
3447 3447 1.7304137623957001e-02
3448 3447 -1.6666666666667000e-02
3447 3448 -1.6666666666667000e-02
3448 3448 3.3333333333333000e-02
3449 3448 -1.6666666666667000e-02
3448 3449 -1.6666666666667000e-02
3449 3449 1.7305133914786001e-02
3450 3449 -1.0204618126909999e-06
3449 3450 -9.2756814033676999e-08
3450 3450 1.7296507754373001e-02
3455 3450 -1.6666666666667000e-02
3445 3451 -6.7154313963823005e-04
3451 3451 9.2168864358291008e-03
3455 3451 -6.6666666666667001e-03
3444 3452 -3.9850396367447998e-10
3452 3452 8.2269517597020995e-03
3455 3452 -6.6666666666667001e-03
3453 3453 1.9388711895867002e-02
3454 3453 -1.2564138712733001e-03
3455 3453 -4.3506939100114000e-04
3453 3454 -1.1814862515636001e-03
3454 3454 1.9463639597410001e-02
3455 3454 -4.3506939312459999e-04
3459 3454 -1.6666666666667000e-02
3443 3455 -1.6142417890470999e-04
3450 3455 -1.6666666666667000e-02
3451 3455 -6.6666666666667001e-03
3452 3455 -6.6666666666667001e-03
3453 3455 -4.3506938323996998e-04
3454 3455 -4.3506940108458000e-04
3455 3455 3.1983709881481998e-02
3456 3455 -1.6142331347121001e-04
3443 3456 -4.1362416574305003e-12
3455 3456 -1.6206253548342001e-04
3456 3456 7.5572176489676996e-03
3459 3456 -6.6666666666667001e-03
3442 3457 -6.6666666666667001e-03
3457 3457 9.2651568096476997e-03
3458 3457 -6.2280681389939997e-04
3459 3457 -4.3506664893287002e-04
3457 3458 -6.7135334708335996e-04
3458 3458 9.2159832397722009e-03
3459 3458 -4.3503173693530998e-04
3460 3458 -6.6666666666667001e-03
3438 3459 -1.4022933605917001e-04
3439 3459 -1.3828685885616999e-04
3454 3459 -1.6666666666667000e-02
3456 3459 -6.6666666666667001e-03
3457 3459 -4.3512077207096000e-04
3458 3459 -4.3498055118821000e-04
3459 3459 2.5369108040001000e-02
3432 3460 -1.6142418715631000e-04
3433 3460 -4.3506528613421999e-04
3434 3460 -4.3507359054423999e-04
3435 3460 -1.6142330521961001e-04
3437 3460 -1.6666666666667000e-02
3439 3460 -1.6666666666667000e-02
3458 3460 -6.6666666666667001e-03
3460 3460 4.1983406891948002e-02
3461 3461 8.2271771331164992e-03
3464 3461 -6.1068507529799995e-10
3529 3461 -1.6460537826944001e-04
3462 3462 1.9463636531261999e-02
3463 3462 -1.1814832285750000e-03
3529 3462 -4.3506939206976999e-04
3462 3463 -1.2564108359189999e-03
3463 3463 1.9388708923608999e-02
3465 3463 -1.6666666666667000e-02
3529 3463 -4.3506939205596002e-04
3461 3464 -4.1371069252539002e-12
3464 3464 7.5572176508728996e-03
3465 3464 -6.6666666666667001e-03
3529 3464 -1.6206255823061999e-04
3436 3465 -1.4022933629424000e-04
3437 3465 -1.3828685862110000e-04
3440 3465 -4.3512071647828999e-04
3441 3465 -4.3498060599196002e-04
3463 3465 -1.6666666666667000e-02
3464 3465 -6.6666666666667001e-03
3465 3465 2.5599498160482001e-02
3466 3466 9.2658580928608996e-03
3467 3466 -6.2287256481300996e-04
4480 3466 -4.3505789565723000e-04
3466 3467 -6.7154093253579997e-04
3467 3467 9.2168766743176995e-03
3529 3467 -6.6666666666667001e-03
4480 3467 -4.3504049135877001e-04
3468 3468 8.2271769292432007e-03
3469 3468 -4.0439869091601001e-10
4477 3468 -1.6436041302058001e-04
3468 3469 -4.0084738808325002e-10
3469 3469 8.2269439825159007e-03
3529 3469 -6.6666666666667001e-03
4477 3469 -1.6435896077823001e-04
3470 3470 9.2658580518309996e-03
3473 3470 -6.2287254631704998e-04
3523 3470 -4.3505790681776002e-04
3471 3471 1.7814705962491999e-02
3472 3471 -1.2130649529456001e-06
3523 3471 -1.4163987678472001e-04
3471 3472 -2.3971919579523000e-08
3472 3472 1.7296439384437999e-02
3523 3472 -1.3967074400579000e-04
4477 3472 -1.6666666666667000e-02
3470 3473 -6.7154084706626000e-04
3473 3473 9.2168762988712998e-03
3523 3473 -4.3504048019725998e-04
4477 3473 -6.6666666666667001e-03
3474 3474 8.2271771331111007e-03
3486 3474 -1.6460538261432999e-04
3487 3474 -6.1068989418467995e-10
3475 3475 8.2271771293656003e-03
3476 3475 -6.0692932087288995e-10
3475 3476 -4.1112831487748001e-12
3476 3476 7.5572176569912997e-03
3492 3476 -6.6666666666667001e-03
3477 3477 9.2658580565692997e-03
3480 3477 -6.2287255085605002e-04
3478 3478 1.7814705962187000e-02
3479 3478 -1.2130646465484999e-06
3478 3479 -2.3971913347808000e-08
3479 3479 1.7296439384428000e-02
3486 3479 -1.6666666666667000e-02
3477 3480 -6.7154085181586002e-04
3480 3480 9.2168763034978993e-03
3486 3480 -6.6666666666667001e-03
3481 3481 1.9463636406974998e-02
3482 3481 -1.1814831137666000e-03
3486 3481 -4.3506939380671001e-04
3481 3482 -1.2564106930524001e-03
3482 3482 1.9388708749606000e-02
3483 3482 -1.6666666666667000e-02
3486 3482 -4.3506939031902998e-04
3482 3483 -1.6666666666667000e-02
3483 3483 3.3333333333333000e-02
3484 3483 -1.6666666666667000e-02
3483 3484 -1.6666666666667000e-02
3484 3484 1.9463727306869998e-02
3485 3484 -1.1815720809410001e-03
3484 3485 -1.2565016484932000e-03
3485 3485 1.9388797661240999e-02
3492 3485 -1.6666666666667000e-02
3474 3486 -1.6142417899788001e-04
3479 3486 -1.6666666666667000e-02
3480 3486 -6.6666666666667001e-03
3481 3486 -4.3506940688054001e-04
3482 3486 -4.3506937757173999e-04
3486 3486 2.5548935806938001e-02
3487 3486 -1.6142331337802999e-04
3474 3487 -4.1371400547599001e-12
3486 3487 -1.6206255911524001e-04
3487 3487 7.5572176570182000e-03
3492 3487 -6.6666666666667001e-03
3488 3488 9.2658580414393000e-03
3491 3488 -6.2287253636019997e-04
3492 3488 -4.3505790682260001e-04
3489 3489 1.7814705963162002e-02
3490 3489 -1.2130656252204001e-06
3492 3489 -1.4163988413140000e-04
3489 3490 -2.3971933252641999e-08
3490 3490 1.7296439384458000e-02
3492 3490 -1.3967074527863001e-04
3498 3490 -1.6666666666667000e-02
3488 3491 -6.7154083665562996e-04
3491 3491 9.2168762887662996e-03
3492 3491 -4.3504048019241999e-04
3498 3491 -6.6666666666667001e-03
3476 3492 -6.6666666666667001e-03
3485 3492 -1.6666666666667000e-02
3487 3492 -6.6666666666667001e-03
3488 3492 -4.3508493003750000e-04
3489 3492 -1.4022949989869000e-04
3490 3492 -1.3828669501665000e-04
3491 3492 -4.3501492439917001e-04
3492 3492 3.2092980155317002e-02
3493 3493 8.2271770695571001e-03
3494 3493 -5.4687817586387002e-10
3498 3493 -1.6458372685592001e-04
3493 3494 -3.8242393521572999e-12
3494 3494 7.5912124995573997e-03
3495 3494 -6.6666666666667001e-03
3498 3494 -1.6212754631187001e-04
3494 3495 -6.6666666666667001e-03
3495 3495 1.3333333333332999e-02
3522 3495 -6.6666666666667001e-03
3496 3496 1.9463636409821999e-02
3497 3496 -1.1814831140044999e-03
3498 3496 -4.3506939315474000e-04
3496 3497 -1.2564107028603000e-03
3497 3497 1.9388708772076001e-02
3498 3497 -4.3506939097099999e-04
3523 3497 -1.6666666666667000e-02
3490 3498 -1.6666666666667000e-02
3491 3498 -6.6666666666667001e-03
3493 3498 -1.6142413283599000e-04
3494 3498 -1.6142335953992000e-04
3496 3498 -4.3506940134063001e-04
3497 3498 -4.3506938298955999e-04
3498 3498 2.5550262695425000e-02
3499 3499 9.2658836716497002e-03
3511 3499 -4.3505078414548002e-04
3512 3499 -6.2288380763737003e-04
3500 3500 9.2658836754161006e-03
3501 3500 -6.2288381124916004e-04
3500 3501 -6.7159483587607004e-04
3501 3501 9.2171154224222999e-03
3516 3501 -6.6666666666667001e-03
3502 3502 8.2271771293656992e-03
3505 3502 -6.0692933055871998e-10
3503 3503 1.9463727390865999e-02
3504 3503 -1.1815720893224000e-03
3503 3504 -1.2565016862774001e-03
3504 3504 1.9388797754971002e-02
3511 3504 -1.6666666666667000e-02
3502 3505 -4.1112832004155000e-12
3505 3505 7.5572176523751996e-03
3511 3505 -6.6666666666667001e-03
3506 3506 1.7814013954110999e-02
3507 3506 -5.1777948731568999e-07
3511 3506 -1.4041504328856001e-04
3506 3507 -4.9679713659662003e-08
3507 3507 1.7749224821536000e-02
3508 3507 -1.6666666666667000e-02
3511 3507 -1.4017814556936000e-04
3507 3508 -1.6666666666667000e-02
3508 3508 3.3333333333333000e-02
3509 3508 -1.6666666666667000e-02
3508 3509 -1.6666666666667000e-02
3509 3509 1.7749599306271999e-02
3510 3509 -4.2710637728498000e-07
3509 3510 -9.4784924419197999e-09
3510 3510 1.7296415156687998e-02
3516 3510 -1.6666666666667000e-02
3499 3511 -4.3505571690091998e-04
3504 3511 -1.6666666666667000e-02
3505 3511 -6.6666666666667001e-03
3506 3511 -1.3960581886770000e-04
3507 3511 -1.3891037604764000e-04
3511 3511 2.5392639107828002e-02
3512 3511 -4.3504293836306999e-04
3499 3512 -6.7159483210958997e-04
3511 3512 -4.3504760323736998e-04
3512 3512 9.2171154188103992e-03
3516 3512 -6.6666666666667001e-03
3513 3513 8.2271771300475999e-03
3516 3513 -1.6460260703288001e-04
3517 3513 -6.0761405488446004e-10
3514 3514 1.9463710783372001e-02
3515 3514 -1.1815558477777999e-03
3516 3514 -4.3506939293327999e-04
3514 3515 -1.2564850787740000e-03
3515 3515 1.9388781513399001e-02
3516 3515 -4.3506939119245999e-04
3520 3515 -1.6666666666667000e-02
3501 3516 -6.6666666666667001e-03
3510 3516 -1.6666666666667000e-02
3512 3516 -6.6666666666667001e-03
3513 3516 -1.6142417680448001e-04
3514 3516 -4.3506939945943998e-04
3515 3516 -4.3506938482927999e-04
3516 3516 3.1983788136205997e-02
3517 3516 -1.6142331557142999e-04
3513 3517 -4.1159911107401999e-12
3516 3517 -1.6206200182133999e-04
3517 3517 7.5572176523815001e-03
3520 3517 -6.6666666666667001e-03
3518 3518 1.7814431860192999e-02
3519 3518 -9.3380131316423996e-07
3520 3518 -1.4034808738445001e-04
3518 3519 -9.3380098066457995e-07
3519 3519 1.7814431837225999e-02
3520 3519 -1.4034808729021999e-04
3523 3519 -1.6666666666667000e-02
3515 3520 -1.6666666666667000e-02
3517 3520 -6.6666666666667001e-03
3518 3520 -1.3925809769130000e-04
3519 3520 -1.3925809722404000e-04
3520 3520 2.4964630254857002e-02
3521 3520 -1.6142311884899001e-04
3522 3520 -1.6142437352693000e-04
3520 3521 -1.6631928530728000e-04
3521 3521 7.5572176612623996e-03
3522 3521 -1.2551138358324000e-11
3523 3521 -6.6666666666667001e-03
3495 3522 -6.6666666666667001e-03
3520 3522 -1.6685427719695999e-04
3521 3522 -6.9507027423968003e-10
3522 3522 7.5912131903393999e-03
3470 3523 -4.3508493001844000e-04
3471 3523 -1.4022949935391999e-04
3472 3523 -1.3828669556142001e-04
3473 3523 -4.3501492441742001e-04
3497 3523 -1.6666666666667000e-02
3519 3523 -1.6666666666667000e-02
3521 3523 -6.6666666666667001e-03
3523 3523 4.2092980421207002e-02
3524 3524 1.9463616696826998e-02
3525 3524 -1.1814810031835999e-03
4477 3524 -4.3507378916699999e-04
3524 3525 -1.2563440610951001e-03
3525 3525 1.9388556775420000e-02
3526 3525 -1.6666666666667000e-02
4477 3525 -4.3506499489732997e-04
3525 3526 -1.6666666666667000e-02
3526 3526 3.3333333333333000e-02
3527 3526 -1.6666666666667000e-02
3526 3527 -1.6666666666667000e-02
3527 3527 1.7814613193644000e-02
3528 3527 -1.2114355090303999e-06
4480 3527 -1.4163927773167001e-04
3527 3528 -2.3943851711648999e-08
3528 3528 1.7296439341024001e-02
3529 3528 -1.6666666666667000e-02
4480 3528 -1.3967078380049000e-04
3461 3529 -1.6142417899445000e-04
3462 3529 -4.3506939212154000e-04
3463 3529 -4.3506939200548998e-04
3464 3529 -1.6142331338146000e-04
3467 3529 -6.6666666666667001e-03
3469 3529 -6.6666666666667001e-03
3528 3529 -1.6666666666667000e-02
3529 3529 3.2099654574690002e-02
3530 3530 1.9463616366255002e-02
3531 3530 -1.1814807138240001e-03
3539 3530 -4.3507379689280003e-04
3530 3531 -1.2563436510446000e-03
3531 3531 1.9388556219746000e-02
3532 3531 -1.6666666666667000e-02
3539 3531 -4.3506498717131998e-04
3531 3532 -1.6666666666667000e-02
3532 3532 3.3333333333333000e-02
4459 3532 -1.6666666666667000e-02
3533 3533 9.2658600837384007e-03
3536 3533 -6.2287455597753001e-04
4460 3533 -4.3505793535864002e-04
3534 3534 1.7814705823379001e-02
3535 3534 -1.2129258592225001e-06
4460 3534 -1.4163835873047000e-04
3534 3535 -2.3969092429298999e-08
3535 3535 1.7296439419100001e-02
3539 3535 -1.6666666666667000e-02
4460 3535 -1.3967048106757000e-04
3533 3536 -6.7154277238540001e-04
3536 3536 9.2168773871383006e-03
3539 3536 -6.6666666666667001e-03
4460 3536 -4.3504045165389000e-04
3537 3537 8.2271769308443002e-03
3538 3537 -4.0440618476725998e-10
3539 3537 -1.6436042562355000e-04
3537 3538 -4.0086447138289999e-10
3538 3538 8.2269446218037993e-03
3539 3538 -1.6435897507052999e-04
4458 3538 -6.6666666666667001e-03
3530 3539 -4.3510682032499000e-04
3531 3539 -4.3503278845706002e-04
3535 3539 -1.6666666666667000e-02
3536 3539 -6.6666666666667001e-03
3537 3539 -1.6142374865048999e-04
3538 3539 -1.6142374372542001e-04
3539 3539 2.5564231696726999e-02
3540 3540 8.2271771341737004e-03
3543 3540 -6.1069568535223003e-10
4455 3540 -1.6460538780331999e-04
3541 3541 1.9388708672301001e-02
3542 3541 -1.2564105797854999e-03
4455 3541 -4.3506939194692999e-04
3541 3542 -1.1814829816664001e-03
3542 3542 1.9463636277477998e-02
3559 3542 -1.6666666666667000e-02
4455 3542 -4.3506939217880999e-04
3540 3543 -4.1371799297502998e-12
3543 3543 7.5572176507273997e-03
3559 3543 -6.6666666666667001e-03
4455 3543 -1.6206256014312999e-04
3544 3544 1.9463363475619999e-02
3545 3544 -1.1812161946594001e-03
3557 3544 -4.3506939293918001e-04
3544 3545 -1.2561377709921001e-03
3545 3545 1.9388441860060002e-02
3546 3545 -1.6666666666667000e-02
3557 3545 -4.3506939118655998e-04
3545 3546 -1.6666666666667000e-02
3546 3546 2.3854346543977001e-02
3548 3546 -6.6666666666667001e-03
3547 3547 8.2271771445041001e-03
3548 3547 -6.2211173386220005e-10
3557 3547 -1.6461556262155000e-04
3546 3548 -6.6666666666667001e-03
3547 3548 -4.2156891677284997e-12
3548 3548 7.5572176524958999e-03
3557 3548 -1.6206460306063001e-04
3549 3549 1.7814705782515001e-02
3550 3549 -1.2128841259503000e-06
3564 3549 -1.4163963039509999e-04
3549 3550 -2.3969847756466001e-08
3550 3550 1.7296474399251999e-02
3557 3550 -1.6666666666667000e-02
3564 3550 -1.3967076369091999e-04
3551 3551 1.7814705780988000e-02
3552 3551 -1.2128826782507001e-06
3559 3551 -1.4163961458979999e-04
3551 3552 -2.3969818315514999e-08
3552 3552 1.7296474399216999e-02
3557 3552 -1.6666666666667000e-02
3559 3552 -1.3967076095233001e-04
3553 3553 9.2658267049734004e-03
3554 3553 -6.2285875595961999e-04
3564 3553 -4.3506661865428000e-04
3553 3554 -6.7147481208947003e-04
3554 3554 9.2165839570220003e-03
3555 3554 -6.6666666666667001e-03
3564 3554 -4.3503176721933001e-04
3554 3555 -6.6666666666667001e-03
3555 3555 1.3333333333332999e-02
3556 3555 -6.6666666666667001e-03
3555 3556 -6.6666666666667001e-03
3556 3556 9.2651574165752999e-03
3558 3556 -6.2280688749990999e-04
3559 3556 -4.3506662589402000e-04
3544 3557 -4.3506939950688998e-04
3545 3557 -4.3506938478294997e-04
3547 3557 -1.6142418714348001e-04
3548 3557 -1.6142330523242999e-04
3550 3557 -1.6666666666667000e-02
3552 3557 -1.6666666666667000e-02
3557 3557 4.1983407342319000e-02
3558 3557 -6.6666666666667001e-03
3556 3558 -6.7135361319922997e-04
3557 3558 -6.6666666666667001e-03
3558 3558 9.2159844807802004e-03
3559 3558 -4.3503175997818997e-04
3542 3559 -1.6666666666667000e-02
3543 3559 -6.6666666666667001e-03
3551 3559 -1.4022933649897001e-04
3552 3559 -1.3828685841636999e-04
3556 3559 -4.3512067760771998e-04
3558 3559 -4.3498064178095001e-04
3559 3559 2.5686835624325999e-02
3560 3560 8.2271771367395993e-03
3563 3560 -6.1067430777793003e-10
4458 3560 -1.6460537011256000e-04
3561 3561 1.9463636763351999e-02
3562 3561 -1.1814834821088000e-03
4458 3561 -4.3506939714947997e-04
3561 3562 -1.2564110190794000e-03
3562 3562 1.9388708998620000e-02
3564 3562 -1.6666666666667000e-02
4458 3562 -4.3506938697626001e-04
3560 3563 -4.1370325923233997e-12
3563 3563 7.5572176601125998e-03
3564 3563 -6.6666666666667001e-03
4458 3563 -1.6206255628076999e-04
3549 3564 -1.4022933767200000e-04
3550 3564 -1.3828685724333000e-04
3553 3564 -4.3512065999268002e-04
3554 3564 -4.3498066016140001e-04
3562 3564 -1.6666666666667000e-02
3563 3564 -6.6666666666667001e-03
3564 3564 2.5658224500268001e-02
3565 3565 9.2658638991317006e-03
3566 3565 -6.2287792021504000e-04
4457 3565 -4.3505787198141002e-04
3565 3566 -6.7154667615115999e-04
3566 3566 9.2168829399095001e-03
4457 3566 -4.3504051503664997e-04
4458 3566 -6.6666666666667001e-03
3567 3567 8.2279291035207008e-03
3570 3567 -1.9025832899309001e-06
3595 3567 -1.6836200961554000e-04
3568 3568 1.9276480743556999e-02
3569 3568 -1.1382680128802999e-03
3595 3568 -4.3450721400584001e-04
3568 3569 -1.0907790578713000e-03
3569 3569 1.9359944019577000e-02
3595 3569 -4.3563052189863000e-04
4440 3569 -1.6666666666667000e-02
3567 3570 -1.4526731075507000e-08
3570 3570 7.5562972993427997e-03
3595 3570 -1.6281616049176000e-04
4440 3570 -6.6666666666667001e-03
3571 3571 1.7814566888751000e-02
3572 3571 -1.0683708421696000e-06
3600 3571 -1.4076152019830001e-04
3571 3572 -2.1719909164913999e-08
3572 3572 1.7312664936899001e-02
3595 3572 -1.6666666666667000e-02
3600 3572 -1.3953667004798999e-04
3573 3573 1.8734210988772999e-02
3574 3573 -4.5381246842584997e-04
3594 3573 -5.5973913719132998e-04
3573 3574 -5.7057154379714998e-05
3574 3574 1.7366239482682001e-02
3594 3574 -1.4443786721328000e-04
3595 3574 -1.6666666666667000e-02
3575 3575 9.2667448064790003e-03
3576 3575 -6.2387121004786996e-04
3600 3575 -4.3511807644191000e-04
3575 3576 -6.7222054075024998e-04
3576 3576 9.2159158211204007e-03
3577 3576 -6.6666666666667001e-03
3600 3576 -4.3498028716391001e-04
3576 3577 -6.6666666666667001e-03
3577 3577 1.3333333333332999e-02
3592 3577 -6.6666666666667001e-03
3578 3578 8.9574123845884996e-03
3590 3578 -5.0646626975346003e-04
3591 3578 -3.1528508140262000e-04
3579 3579 8.2272152463551008e-03
3587 3579 -5.6409213079122001e-10
3580 3580 8.2272152463551008e-03
3586 3580 -5.6409213073701001e-10
3581 3581 1.9433530014120001e-02
3582 3581 -1.1754793193110001e-03
3581 3582 -1.1611231402053001e-03
3582 3582 1.9181033668903998e-02
3583 3582 -1.6666666666667000e-02
3582 3583 -1.6666666666667000e-02
3583 3583 3.3333333333333000e-02
3584 3583 -1.6666666666667000e-02
3583 3584 -1.6666666666667000e-02
3584 3584 1.9200205871706000e-02
3585 3584 -1.1191014843129001e-03
3584 3585 -1.0981231946391001e-03
3585 3585 1.9043522488180999e-02
3590 3585 -1.6666666666667000e-02
3580 3586 -3.8903633615691002e-12
3586 3586 7.5805013403287000e-03
3590 3586 -6.6666666666667001e-03
3579 3587 -3.8903633344641000e-12
3587 3587 7.5805013403287000e-03
3590 3587 -6.6666666666667001e-03
3588 3588 1.8334360741354999e-02
3589 3588 -1.5557669091852999e-05
3590 3588 -5.4326925610384004e-04
3588 3589 -6.1297718772035002e-06
3589 3589 1.7390272629699999e-02
3590 3589 -1.4155448027325000e-04
3594 3589 -1.6666666666667000e-02
3578 3590 -6.2737231561001995e-04
3585 3590 -1.6666666666667000e-02
3586 3590 -6.6666666666667001e-03
3587 3590 -6.6666666666667001e-03
3588 3590 -5.4576015662873001e-04
3589 3590 -1.2717109776021001e-04
3590 3590 3.2126837200441002e-02
3591 3590 -2.0000126769148001e-04
3578 3591 -1.6300001751902999e-04
3590 3591 -3.1799485327887002e-04
3591 3591 8.0740213625417005e-03
3594 3591 -6.6666666666667001e-03
3577 3592 -6.6666666666667001e-03
3592 3592 8.9392264867137992e-03
3593 3592 -2.9002356886218000e-04
3594 3592 -4.7034593472197002e-04
3592 3593 -2.7037737042881000e-04
3593 3593 8.5759236472417004e-03
3594 3593 -3.9166310919998000e-04
3595 3593 -6.6666666666667001e-03
3573 3594 -9.0841243591644003e-04
3574 3594 2.3548118152750001e-04
3589 3594 -1.6666666666667000e-02
3591 3594 -6.6666666666667001e-03
3592 3594 -4.9202635150818997e-04
3593 3594 -3.7364462381260001e-04
3594 3594 2.5410127917275999e-02
3567 3595 -1.6284376234429999e-04
3568 3595 -4.3098036386846999e-04
3569 3595 -4.3926603508924998e-04
3570 3595 -1.6000373003161001e-04
3572 3595 -1.6666666666667000e-02
3574 3595 -1.6666666666667000e-02
3593 3595 -6.6666666666667001e-03
3595 3595 4.1913453155494003e-02
3596 3596 8.2271766981548006e-03
3599 3596 -6.1451663457520002e-10
3664 3596 -1.6460824308376000e-04
3597 3597 1.9389444602413000e-02
3598 3597 -1.2562610485270999e-03
3664 3597 -4.3480833287794002e-04
3597 3598 -1.1942607026782001e-03
3598 3598 1.9471020558537999e-02
3600 3598 -1.6666666666667000e-02
3664 3598 -4.3533023420851998e-04
3596 3599 -4.1618634482071997e-12
3599 3599 7.5567593089307999e-03
3600 3599 -6.6666666666667001e-03
3664 3599 -1.6206222123702000e-04
3571 3600 -1.4010632993365001e-04
3572 3600 -1.3840986498168999e-04
3575 3600 -4.3533239168055997e-04
3576 3600 -4.3477756208955000e-04
3598 3600 -1.6666666666667000e-02
3599 3600 -6.6666666666667001e-03
3600 3600 2.5639267434304999e-02
3601 3601 9.2658372068584998e-03
3602 3601 -6.2286453586330001e-04
4460 3601 -4.3506426807836000e-04
3601 3602 -6.7149476356276002e-04
3602 3602 9.2166647848941005e-03
3664 3602 -6.6666666666667001e-03
4460 3602 -4.3503411817818999e-04
3603 3603 9.2658407940808991e-03
3604 3603 -6.2286780007440000e-04
4457 3603 -4.3506426794255999e-04
3603 3604 -6.7149818761295997e-04
3604 3604 9.2166682128559003e-03
3664 3604 -6.6666666666667001e-03
4457 3604 -4.3503411831399998e-04
3605 3605 8.2271770566459002e-03
3608 3605 -6.3470755811942996e-10
3658 3605 -1.6462656265496000e-04
3606 3606 1.9388157485100001e-02
3607 3606 -1.2558422908285000e-03
3658 3606 -4.3506810647612999e-04
3606 3607 -1.1809934686450000e-03
3607 3607 1.9463105323519001e-02
3658 3607 -4.3507067764436003e-04
4457 3607 -1.6666666666667000e-02
3605 3608 -4.3023288717000002e-12
3608 3608 7.5572153735454003e-03
3658 3608 -1.6206680723145000e-04
4457 3608 -6.6666666666667001e-03
3609 3609 9.2517311151247006e-03
3621 3609 -4.3824588211865002e-04
3622 3609 -6.1476119152230997e-04
3610 3610 8.2269983576996001e-03
3611 3610 -2.2976914638995001e-10
3610 3611 -5.5250388183481001e-12
3611 3611 8.1527741025796997e-03
3627 3611 -6.6666666666667001e-03
3612 3612 8.2272583518046005e-03
3615 3612 -6.0951716148153998e-10
3613 3613 1.9459558086095001e-02
3614 3613 -1.1810882965700000e-03
3613 3614 -1.2453679486263999e-03
3614 3614 1.9363410690334999e-02
3621 3614 -1.6666666666667000e-02
3612 3615 -4.1090723702492999e-12
3615 3615 7.5585352883414001e-03
3621 3615 -6.6666666666667001e-03
3616 3616 1.7814728386922000e-02
3617 3616 -1.2334970112362999e-06
3621 3616 -1.4347006535201000e-04
3616 3617 -2.6460545228872000e-08
3617 3617 1.7335937863412001e-02
3618 3617 -1.6666666666667000e-02
3621 3617 -1.4011759827399999e-04
3617 3618 -1.6666666666667000e-02
3618 3618 3.3333333333333000e-02
3619 3618 -1.6666666666667000e-02
3618 3619 -1.6666666666667000e-02
3619 3619 1.7869221918574998e-02
3620 3619 -1.3825936397603001e-04
3619 3620 -2.5386527737877999e-05
3620 3620 1.7311291079118000e-02
3627 3620 -1.6666666666667000e-02
3609 3621 -4.4799862421618998e-04
3614 3621 -1.6666666666667000e-02
3615 3621 -6.6666666666667001e-03
3616 3621 -1.4023004418649000e-04
3617 3621 -1.3828615072885000e-04
3621 3621 2.5612453441180998e-02
3622 3621 -4.2256358013197001e-04
3609 3622 -6.4510777582169998e-04
3621 3622 -4.3180007673947001e-04
3622 3622 9.1168325097120001e-03
3627 3622 -6.6666666666667001e-03
3623 3623 8.2272513392431992e-03
3626 3623 -5.4963780875643997e-09
3627 3623 -1.6582980599246999e-04
3624 3624 1.9430721584042000e-02
3625 3624 -1.1498543753192000e-03
3627 3624 -4.3518614150393000e-04
3624 3625 -1.2223799804770999e-03
3625 3625 1.9353152559222001e-02
3627 3625 -4.3495259875102999e-04
3633 3625 -1.6666666666667000e-02
3623 3626 -3.8288060487328000e-11
3626 3626 7.5574212369094000e-03
3627 3626 -1.6229277729544001e-04
3633 3626 -6.6666666666667001e-03
3611 3627 -6.6666666666667001e-03
3620 3627 -1.6666666666667000e-02
3622 3627 -6.6666666666667001e-03
3623 3627 -1.6142767535055999e-04
3624 3627 -4.3602835147716999e-04
3625 3627 -4.3413227768411002e-04
3626 3627 -1.6141981702535001e-04
3627 3627 3.1955237666977998e-02
3628 3628 9.2652529716292006e-03
3629 3628 -6.2236140761671999e-04
3633 3628 -4.3508719556313000e-04
3628 3629 -6.7083282185185003e-04
3629 3629 9.2154171862120007e-03
3630 3629 -6.6666666666667001e-03
3633 3629 -4.3501118459219999e-04
3629 3630 -6.6666666666667001e-03
3630 3630 1.3333333333332999e-02
3657 3630 -6.6666666666667001e-03
3631 3631 1.7814738436837001e-02
3632 3631 -1.2444300170734001e-06
3633 3631 -1.4198271545624999e-04
3631 3632 -2.4613432179411000e-08
3632 3632 1.7296512999565000e-02
3633 3632 -1.3973028799306000e-04
3658 3632 -1.6666666666667000e-02
3625 3633 -1.6666666666667000e-02
3626 3633 -6.6666666666667001e-03
3628 3633 -4.3520488141259001e-04
3629 3633 -4.3489989638744001e-04
3631 3633 -1.4025488617257001e-04
3632 3633 -1.3826130874276999e-04
3633 3633 2.5646448708968001e-02
3634 3634 9.2527344942523009e-03
3646 3634 -4.3797470590079002e-04
3647 3634 -6.1529457495845005e-04
3635 3635 8.2269940868582008e-03
3636 3635 -2.2842557139282000e-10
3635 3636 -5.6926198809257001e-12
3636 3636 8.1584178777175005e-03
3651 3636 -6.6666666666667001e-03
3637 3637 8.2272585623787003e-03
3640 3637 -6.0961802353767000e-10
3638 3638 1.9459660274664999e-02
3639 3638 -1.1811017777326000e-03
3638 3639 -1.2457077506377000e-03
3639 3639 1.9364179819138998e-02
3646 3639 -1.6666666666667000e-02
3637 3640 -4.1095565278497997e-12
3640 3640 7.5584943623348997e-03
3646 3640 -6.6666666666667001e-03
3641 3641 1.7814722076039000e-02
3642 3641 -1.2276781785353000e-06
3646 3641 -1.4340588270970000e-04
3641 3642 -2.6322788202906999e-08
3642 3642 1.7335779245471000e-02
3643 3642 -1.6666666666667000e-02
3646 3642 -1.4010396829879001e-04
3642 3643 -1.6666666666667000e-02
3643 3643 3.3333333333333000e-02
3644 3643 -1.6666666666667000e-02
3643 3644 -1.6666666666667000e-02
3644 3644 1.7868405123619001e-02
3645 3644 -1.3763574608290999e-04
3644 3645 -2.5248622948823002e-05
3645 3645 1.7310811059478001e-02
3651 3645 -1.6666666666667000e-02
3634 3646 -4.4690816470540999e-04
3639 3646 -1.6666666666667000e-02
3640 3646 -6.6666666666667001e-03
3641 3646 -1.4022546179955000e-04
3642 3646 -1.3829073311579000e-04
3646 3646 2.5266055535280999e-02
3647 3646 -4.2362051808385000e-04
3634 3647 -6.4713425348185004e-04
3646 3647 -4.3207985377801002e-04
3647 3647 9.1245275998185996e-03
3651 3647 -6.6666666666667001e-03
3648 3648 8.2272428126709991e-03
3651 3648 -1.6573095002173999e-04
3652 3648 -4.5784764858729002e-09
3649 3649 1.9433519847517001e-02
3650 3649 -1.1524907834153000e-03
3651 3649 -4.3516386860475000e-04
3649 3650 -1.2253918199000000e-03
3650 3650 1.9356523821036000e-02
3651 3650 -4.3497488683290000e-04
3655 3650 -1.6666666666667000e-02
3636 3651 -6.6666666666667001e-03
3645 3651 -1.6666666666667000e-02
3647 3651 -6.6666666666667001e-03
3648 3651 -1.6142701726283001e-04
3649 3651 -4.3584764262790998e-04
3650 3651 -4.3430883016314000e-04
3651 3651 3.1957178657569002e-02
3652 3651 -1.6142047511308999e-04
3648 3652 -3.1824133898865998e-11
3651 3652 -1.6227443170327001e-04
3652 3652 7.5573830803675997e-03
3655 3652 -6.6666666666667001e-03
3653 3653 1.7814732183183000e-02
3654 3653 -1.2383975883605000e-06
3655 3653 -1.4191800186825001e-04
3653 3654 -2.4490657457542999e-08
3654 3654 1.7296512860552001e-02
3655 3654 -1.3971907314730999e-04
3658 3654 -1.6666666666667000e-02
3650 3655 -1.6666666666667000e-02
3652 3655 -6.6666666666667001e-03
3653 3655 -1.4024999687602000e-04
3654 3655 -1.3826619803932000e-04
3655 3655 2.5359462235706998e-02
3656 3655 -4.3495033180363998e-04
3657 3655 -4.3515228378192001e-04
3655 3656 -4.3502402358194998e-04
3656 3656 9.2146331092358008e-03
3657 3656 -6.7075757352447998e-04
3658 3656 -6.6666666666667001e-03
3630 3657 -6.6666666666667001e-03
3655 3657 -4.3507436063787002e-04
3656 3657 -6.2235587360844004e-04
3657 3657 9.2639365862257992e-03
3605 3658 -1.6142419612748000e-04
3606 3658 -4.3505871536849003e-04
3607 3658 -4.3508030950995002e-04
3608 3658 -1.6142329624843001e-04
3632 3658 -1.6666666666667000e-02
3654 3658 -1.6666666666667000e-02
3656 3658 -6.6666666666667001e-03
3658 3658 4.1983085215600999e-02
3659 3659 1.7814013789826000e-02
3660 3659 -5.1763002128877998e-07
4457 3659 -1.4041279877687000e-04
3659 3660 -4.9666868374254998e-08
3660 3660 1.7749226608184999e-02
3661 3660 -1.6666666666667000e-02
4457 3660 -1.4017636624910000e-04
3660 3661 -1.6666666666667000e-02
3661 3661 3.3333333333333000e-02
3662 3661 -1.6666666666667000e-02
3661 3662 -1.6666666666667000e-02
3662 3662 1.7749601045374000e-02
3663 3662 -4.2703378448771998e-07
4460 3662 -1.4128609343699999e-04
3662 3663 -9.4771867074950995e-09
3663 3663 1.7296433462860999e-02
3664 3663 -1.6666666666667000e-02
4460 3663 -1.3969993087285999e-04
3596 3664 -1.6142418173727000e-04
3597 3664 -4.3289957454683002e-04
3598 3664 -4.3728821010684997e-04
3599 3664 -1.6142331063865001e-04
3602 3664 -6.6666666666667001e-03
3604 3664 -6.6666666666667001e-03
3663 3664 -1.6666666666667000e-02
3664 3664 3.2099560224959002e-02
3665 3665 1.9463175170547999e-02
3666 3665 -1.1811207854405001e-03
3674 3665 -4.3509307216945000e-04
3665 3666 -1.2556940252635000e-03
3666 3666 1.9387542679506001e-02
3667 3666 -1.6666666666667000e-02
3674 3666 -4.3504571017424001e-04
3666 3667 -1.6666666666667000e-02
3667 3667 3.3333333333333000e-02
4439 3667 -1.6666666666667000e-02
3668 3668 9.2677252909595005e-03
3671 3668 -6.2485704691057995e-04
4440 3668 -4.3509103753993001e-04
3669 3669 1.7814587120294000e-02
3670 3669 -1.0824233273161000e-06
4440 3669 -1.4023021492901000e-04
3669 3670 -2.1316158477831000e-08
3670 3670 1.7296483272732002e-02
3674 3670 -1.6666666666667000e-02
4440 3670 -1.3941987984210000e-04
3668 3671 -6.7339751011987001e-04
3671 3671 9.2176742350163002e-03
3674 3671 -6.6666666666667001e-03
4440 3671 -4.3500734107949001e-04
3672 3672 8.2271747919785993e-03
3673 3672 -6.2558479405924995e-10
3674 3672 -1.6461872586402999e-04
3672 3673 -4.2397967872826001e-12
3673 3673 7.5572758294084998e-03
3674 3673 -1.6206535768645001e-04
4438 3673 -6.6666666666667001e-03
3665 3674 -4.3527052534247002e-04
3666 3674 -4.3487268853190000e-04
3670 3674 -1.6666666666667000e-02
3671 3674 -6.6666666666667001e-03
3672 3674 -1.6142418961989001e-04
3673 3674 -1.6142330275601999e-04
3674 3674 2.5548544737706000e-02
3675 3675 8.2271757352046001e-03
3678 3675 -6.1721285180613001e-10
4435 3675 -1.6461123764731001e-04
3676 3676 1.9388562693229999e-02
3677 3676 -1.2562548374507000e-03
4435 3676 -4.3506813539283002e-04
3676 3677 -1.1813970330965999e-03
3677 3677 1.9463517325671999e-02
3694 3677 -1.6666666666667000e-02
4435 3677 -4.3507064872789000e-04
3675 3678 -4.1819954447978001e-12
3678 3678 7.5572153383474004e-03
3694 3678 -6.6666666666667001e-03
4435 3678 -1.6206373198067000e-04
3679 3679 1.7814705978151001e-02
3680 3679 -1.2130820060516000e-06
3692 3679 -1.4164006306559000e-04
3679 3680 -2.3972266186878001e-08
3680 3680 1.7296439378354001e-02
3681 3680 -1.6666666666667000e-02
3692 3680 -1.3967077626995001e-04
3680 3681 -1.6666666666667000e-02
3681 3681 2.3854346543977001e-02
3683 3681 -6.6666666666667001e-03
3682 3682 9.2658578224982992e-03
3683 3682 -6.2287230268217003e-04
3692 3682 -4.3505790223012999e-04
3681 3683 -6.6666666666667001e-03
3682 3683 -6.7154062195841997e-04
3683 3683 9.2168762161813998e-03
3692 3683 -4.3504048478529002e-04
3684 3684 1.9463660586737000e-02
3685 3684 -1.1815072698289999e-03
3699 3684 -4.3506945313432000e-04
3684 3685 -1.2564344584179001e-03
3685 3685 1.9388730663515000e-02
3692 3685 -1.6666666666667000e-02
3699 3685 -4.3506933099141001e-04
3686 3686 1.7814431599414999e-02
3687 3686 -9.3353249793183003e-07
3694 3686 -1.4034602743006000e-04
3686 3687 -9.3351368838679001e-07
3687 3687 1.7814430309871000e-02
3692 3687 -1.6666666666667000e-02
3694 3687 -1.4034597383911999e-04
3688 3688 8.2271772238015992e-03
3689 3688 -5.4596930588063999e-10
3699 3688 -1.6458301363205999e-04
3688 3689 -3.8177420680272001e-12
3689 3689 7.5912127522918997e-03
3690 3689 -6.6666666666667001e-03
3699 3689 -1.6212734168440999e-04
3689 3690 -6.6666666666667001e-03
3690 3690 1.3333333333332999e-02
3691 3690 -6.6666666666667001e-03
3690 3691 -6.6666666666667001e-03
3691 3691 7.5912134278406001e-03
3693 3691 -6.9576637213938998e-10
3694 3691 -1.6685431397136000e-04
3679 3692 -1.4022951317684999e-04
3680 3692 -1.3828668173849001e-04
3682 3692 -4.3508491118231002e-04
3683 3692 -4.3501494248146002e-04
3685 3692 -1.6666666666667000e-02
3687 3692 -1.6666666666667000e-02
3692 3692 4.2092973677958001e-02
3693 3692 -6.6666666666667001e-03
3691 3693 -1.2563720324805000e-11
3692 3693 -6.6666666666667001e-03
3693 3693 7.5572177645015001e-03
3694 3693 -1.6631931656964000e-04
3677 3694 -1.6666666666667000e-02
3678 3694 -6.6666666666667001e-03
3686 3694 -1.3925811056961999e-04
3687 3694 -1.3925808434571001e-04
3691 3694 -1.6142437415535000e-04
3693 3694 -1.6142311822057000e-04
3694 3694 2.5282473487380001e-02
3695 3695 9.2657301327986000e-03
3698 3695 -6.2273722138640004e-04
4438 3695 -4.3505560676164001e-04
3696 3696 1.7814714680907000e-02
3697 3696 -1.2225452180319999e-06
4438 3696 -1.4174316841596000e-04
3696 3697 -2.4164644729616999e-08
3697 3697 1.7296436372546999e-02
3699 3697 -1.6666666666667000e-02
4438 3697 -1.3968863471972999e-04
3695 3698 -6.7141433050356999e-04
3698 3698 9.2168223706126998e-03
3699 3698 -6.6666666666667001e-03
4438 3698 -4.3504278042775997e-04
3684 3699 -4.3506991100889002e-04
3685 3699 -4.3506888455259999e-04
3688 3699 -1.6142413218509001e-04
3689 3699 -1.6142336019081999e-04
3697 3699 -1.6666666666667000e-02
3698 3699 -6.6666666666667001e-03
3699 3699 2.5550290012265001e-02
3700 3700 8.2272091201534992e-03
3701 3700 -4.7814145160300004e-10
4437 3700 -1.6451243717842000e-04
3700 3701 -3.2198710865819001e-12
3701 3701 7.5572783221764996e-03
4437 3701 -1.6203513271225001e-04
4438 3701 -6.6666666666667001e-03
3702 3702 8.9528951203713004e-03
3705 3702 -2.7130640228428999e-04
3730 3702 -5.3141109320966999e-04
3703 3703 1.8832469510804001e-02
3704 3703 -6.7691476313885997e-04
3730 3703 -4.3502198460030001e-04
3703 3704 -6.2568827083301997e-04
3704 3704 1.8885213151290998e-02
3730 3704 -4.3511679082997999e-04
4420 3704 -1.6666666666667000e-02
3702 3705 -2.7729739085883001e-05
3705 3705 7.5848799877958999e-03
3730 3705 -1.6251983209068999e-04
4420 3705 -6.6666666666667001e-03
3706 3706 1.7814263017626002e-02
3707 3706 -7.6575808228196999e-07
3735 3706 -1.3996326154086999e-04
3706 3707 -1.9029215399573000e-08
3707 3707 1.7406261854068000e-02
3730 3707 -1.6666666666667000e-02
3735 3707 -1.3944545110979999e-04
3708 3708 1.8765787696959000e-02
3709 3708 -5.1285650515803000e-04
3729 3708 -5.3289888582850004e-04
3708 3709 -1.8387431166702999e-04
3709 3709 1.7733072202273999e-02
3729 3709 -2.7456739704045003e-04
3730 3709 -1.6666666666667000e-02
3710 3710 9.2192716055509005e-03
3711 3710 -6.7364602817806998e-04
3735 3710 -4.3495360427515999e-04
3710 3711 -6.2719515045273999e-04
3711 3711 9.2704938140924006e-03
3712 3711 -6.6666666666667001e-03
3735 3711 -4.3514473742483999e-04
3711 3712 -6.6666666666667001e-03
3712 3712 1.3333333333332999e-02
3727 3712 -6.6666666666667001e-03
3713 3713 9.1787682120027005e-03
3725 3713 -4.5995548648616001e-04
3726 3713 -5.6145553510208003e-04
3714 3714 8.2272401922454004e-03
3722 3714 -5.8623600013245002e-10
3715 3715 8.2271771048130996e-03
3721 3715 -5.8227644078183999e-10
3716 3716 1.9447786340054000e-02
3717 3716 -1.1789831823848000e-03
3716 3717 -1.2039239224715000e-03
3717 3717 1.9271550418801998e-02
3718 3717 -1.6666666666667000e-02
3717 3718 -1.6666666666667000e-02
3718 3718 3.3333333333333000e-02
3719 3718 -1.6666666666667000e-02
3718 3719 -1.6666666666667000e-02
3719 3719 1.9307500928245999e-02
3720 3719 -1.1526155095092001e-03
3719 3720 -1.1671593329290999e-03
3720 3720 1.9183785713509999e-02
3725 3720 -1.6666666666667000e-02
3715 3721 -3.9849021417191996e-12
3721 3721 7.5693878359985997e-03
3725 3721 -6.6666666666667001e-03
3714 3722 -3.9939315895794002e-12
3722 3722 7.5694227572561997e-03
3725 3722 -6.6666666666667001e-03
3723 3723 1.7818914247359999e-02
3724 3723 -5.0592828217075997e-06
3725 3723 -1.5861161429256001e-04
3723 3724 -1.0994005236278000e-07
3724 3724 1.7327998951883000e-02
3725 3724 -1.4293440698900001e-04
3729 3724 -1.6666666666667000e-02
3713 3725 -5.3467435690456001e-04
3720 3725 -1.6666666666667000e-02
3721 3725 -6.6666666666667001e-03
3722 3725 -6.6666666666667001e-03
3723 3725 -1.4327966012837000e-04
3724 3725 -1.3523653478696000e-04
3725 3725 3.1895147954644001e-02
3726 3725 -3.3480161493777000e-04
3713 3726 -4.8744586124093998e-04
3725 3726 -4.0646935227300001e-04
3726 3726 8.6884537651612994e-03
3729 3726 -6.6666666666667001e-03
3712 3727 -6.6666666666667001e-03
3727 3727 8.7840169389202007e-03
3728 3727 -6.7068342223506006e-05
3729 3727 -5.3009382328307001e-04
3727 3728 -3.4137429919290001e-06
3728 3728 7.7046946520886997e-03
3729 3728 -1.6236583233159000e-04
3730 3728 -6.6666666666667001e-03
3708 3729 -8.0740280356767001e-04
3709 3729 1.1319874354748000e-05
3724 3729 -1.6666666666667000e-02
3726 3729 -6.6666666666667001e-03
3727 3729 -5.7602122945612003e-04
3728 3729 -1.1166019293287000e-04
3729 3729 2.5381140804840000e-02
3702 3730 -7.2740069054349999e-04
3703 3730 -4.3491298830170997e-04
3704 3730 -4.3523507459380001e-04
3705 3730 3.9719268154503001e-05
3707 3730 -1.6666666666667000e-02
3709 3730 -1.6666666666667000e-02
3728 3730 -6.6666666666667001e-03
3730 3730 4.2162868136720003e-02
3731 3731 8.2271755945963997e-03
3734 3731 -6.3037262213412004e-10
3799 3731 -1.6462177668013001e-04
3732 3732 1.9389715777598002e-02
3733 3732 -1.2558415987769000e-03
3799 3732 -4.3459635393658001e-04
3732 3733 -1.2036275662123000e-03
3733 3733 1.9476661031395000e-02
3735 3733 -1.6666666666667000e-02
3799 3733 -4.3554171594986001e-04
3731 3734 -4.2695566516378002e-12
3734 3734 7.5563850891553000e-03
3735 3734 -6.6666666666667001e-03
3799 3734 -1.6206418832046999e-04
3706 3735 -1.3984338918512999e-04
3707 3735 -1.3867280573021001e-04
3710 3735 -4.3467136031415999e-04
3711 3735 -4.3544311074661000e-04
3733 3735 -1.6666666666667000e-02
3734 3735 -6.6666666666667001e-03
3735 3735 2.5697388294925998e-02
3736 3736 9.2677014616282995e-03
3737 3736 -6.2484656602304004e-04
4440 3736 -4.3509766593520998e-04
3736 3737 -6.7334712402998998e-04
3737 3737 9.2174513751070008e-03
3799 3737 -6.6666666666667001e-03
4440 3737 -4.3500070968297997e-04
3738 3738 8.2272089611324008e-03
3739 3738 -3.1726764659712000e-10
4437 3738 -1.6427646359780000e-04
3738 3739 -3.0154051538011001e-10
3739 3739 8.2259030743679993e-03
3799 3739 -6.6666666666667001e-03
4437 3739 -1.6422143709869999e-04
3740 3740 9.1904969781914994e-03
3743 3740 -6.4134162712335999e-04
3793 3740 -4.3469712689187001e-04
3741 3741 1.7818957982474001e-02
3742 3741 -5.6748245400028002e-06
3793 3741 -1.5858736904515001e-04
3741 3742 -1.1722451774802000e-07
3742 3742 1.7296057237290999e-02
3793 3742 -1.4260272861114001e-04
4437 3742 -1.6666666666667000e-02
3740 3743 -6.0267568181297001e-04
3743 3743 9.2456948716293005e-03
3793 3743 -4.3540064202879998e-04
4437 3743 -6.6666666666667001e-03
3744 3744 9.2604376160510000e-03
3756 3744 -4.3645459416452999e-04
3757 3744 -6.2019275994149004e-04
3745 3745 8.2271187744355993e-03
3746 3745 -2.2206953473863999e-10
3745 3746 -7.7416980670329996e-12
3746 3746 8.1916818627231006e-03
3762 3746 -6.6666666666667001e-03
3747 3747 8.2271771289531993e-03
3750 3747 -6.0651517066825004e-10
3748 3748 1.9463232892843001e-02
3749 3748 -1.1815182736807000e-03
3748 3749 -1.2548313256595001e-03
3749 3749 1.9384989813705001e-02
3756 3749 -1.6666666666667000e-02
3747 3750 -4.1091064419498003e-12
3750 3750 7.5574124685062003e-03
3756 3750 -6.6666666666667001e-03
3751 3751 1.7814568241886000e-02
3752 3751 -1.0745112657111999e-06
3756 3751 -1.4170707401660001e-04
3751 3752 -2.2898883575383000e-08
3752 3752 1.7334868098895999e-02
3753 3752 -1.6666666666667000e-02
3756 3752 -1.3975572113413001e-04
3752 3753 -1.6666666666667000e-02
3753 3753 3.3333333333333000e-02
3754 3753 -1.6666666666667000e-02
3753 3754 -1.6666666666667000e-02
3754 3754 1.7863589134397999e-02
3755 3754 -1.3392269893449001e-04
3754 3755 -2.4489577368918001e-05
3755 3755 1.7308148035804001e-02
3762 3755 -1.6666666666667000e-02
3744 3756 -4.4079339987408998e-04
3749 3756 -1.6666666666667000e-02
3750 3756 -6.6666666666667001e-03
3751 3756 -1.4010366936597000e-04
3752 3756 -1.3841252554937000e-04
3756 3756 2.5661473113815999e-02
3757 3756 -4.2952730076695000e-04
3744 3757 -6.6063521142009001e-04
3756 3757 -4.3363378974190002e-04
3757 3757 9.1715107130020002e-03
3762 3757 -6.6666666666667001e-03
3758 3758 8.2271657711199004e-03
3761 3758 -1.6404963552711999e-09
3762 3758 -1.6513529790030001e-04
3759 3759 1.9375472411164000e-02
3760 3759 -1.2417853121018999e-03
3762 3759 -4.3475025839794998e-04
3759 3760 -1.1826349749055999e-03
3760 3760 1.9458079095092000e-02
3762 3760 -4.3538819975357998e-04
3768 3760 -1.6666666666667000e-02
3758 3761 -1.1274128380400999e-11
3761 3761 7.5566632753143997e-03
3762 3761 -1.6216768905895999e-04
3768 3761 -6.6666666666667001e-03
3746 3762 -6.6666666666667001e-03
3755 3762 -1.6666666666667000e-02
3757 3762 -6.6666666666667001e-03
3758 3762 -1.6142491605693001e-04
3759 3762 -4.3245717833489999e-04
3760 3762 -4.3774165179514001e-04
3761 3762 -1.6142257631897999e-04
3762 3762 3.1969324485459000e-02
3763 3763 9.2178046469003991e-03
3764 3763 -5.9786563433027000e-04
3768 3763 -4.5092678065811003e-04
3763 3764 -5.6519669959338996e-04
3764 3764 8.8411902220059003e-03
3765 3764 -6.6666666666667001e-03
3768 3764 -4.1776680214706998e-04
3764 3765 -6.6666666666667001e-03
3765 3765 1.3333333333332999e-02
3792 3765 -6.6666666666667001e-03
3766 3766 1.7813994444250001e-02
3767 3766 -4.9937540690094996e-07
3768 3766 -1.3993285251417999e-04
3766 3767 -3.0650412616197999e-08
3767 3767 1.7703679431449001e-02
3768 3767 -1.3972058088421001e-04
3793 3767 -1.6666666666667000e-02
3760 3768 -1.6666666666667000e-02
3761 3768 -6.6666666666667001e-03
3763 3768 -4.9873375280218995e-04
3764 3768 -3.7213527569589000e-04
3766 3768 -1.3960748171353999e-04
3767 3768 -1.3890871320179000e-04
3768 3768 2.5768296274294999e-02
3769 3769 9.2028920964922992e-03
3781 3769 -4.5883792707147999e-04
3782 3769 -5.8808506025529003e-04
3770 3770 8.2271768268474006e-03
3771 3770 -3.0318728552863000e-10
3770 3771 -3.4930142702102998e-12
3771 3771 7.9004460936018001e-03
3786 3771 -6.6666666666667001e-03
3772 3772 8.2272577421730001e-03
3775 3772 -6.0778904457670998e-10
3773 3773 1.9457579410893999e-02
3774 3773 -1.1808127160936000e-03
3773 3774 -1.2388003143074999e-03
3774 3774 1.9348587839923000e-02
3781 3774 -1.6666666666667000e-02
3772 3775 -4.1002168575126004e-12
3775 3775 7.5593330679765000e-03
3781 3775 -6.6666666666667001e-03
3776 3776 1.7814816977168000e-02
3777 3776 -1.3222312141667001e-06
3781 3776 -1.4463978982467000e-04
3776 3777 -2.9071239092659002e-08
3777 3777 1.7346097140194999e-02
3778 3777 -1.6666666666667000e-02
3781 3777 -1.4040121222971000e-04
3777 3778 -1.6666666666667000e-02
3778 3778 3.3333333333333000e-02
3779 3778 -1.6666666666667000e-02
3778 3779 -1.6666666666667000e-02
3779 3779 1.7947510293064999e-02
3780 3779 -2.4514397955008001e-04
3779 3780 -1.9396809731693000e-04
3780 3780 1.7702916214270000e-02
3786 3780 -1.6666666666667000e-02
3769 3781 -5.3601366381939995e-04
3774 3781 -1.6666666666667000e-02
3775 3781 -6.6666666666667001e-03
3776 3781 -1.4029687535504001e-04
3777 3781 -1.3821931956029999e-04
3781 3781 2.5239253873908001e-02
3782 3781 -3.3370207478392998e-04
3769 3782 -5.1229546980152999e-04
3781 3782 -4.0793848021888999e-04
3782 3782 8.7108485884661007e-03
3786 3782 -6.6666666666667001e-03
3783 3783 8.7977679204175006e-03
3786 3783 -5.2981374940510001e-04
3787 3783 -8.3825682428141006e-05
3784 3784 1.9158607538382999e-02
3785 3784 -9.2537980064358999e-04
3786 3784 -4.6564667966470002e-04
3784 3785 -7.5038038043699000e-04
3785 3785 1.8607923514751001e-02
3786 3785 -4.0041371040386000e-04
3790 3785 -1.6666666666667000e-02
3771 3786 -6.6666666666667001e-03
3780 3786 -1.6666666666667000e-02
3782 3786 -6.6666666666667001e-03
3783 3786 -5.8948576531996999e-04
3784 3786 -6.2641976905845995e-04
3785 3786 -2.4242252113926001e-04
3786 3786 3.2170708759077002e-02
3787 3786 -9.8195657069016998e-05
3783 3787 -3.2093075828265001e-06
3786 3787 -1.6214434530445999e-04
3787 3787 7.6009233173983002e-03
3790 3787 -6.6666666666667001e-03
3788 3788 1.8442102456166998e-02
3789 3788 -8.9416539499506998e-05
3790 3788 -5.4616077892573995e-04
3788 3789 -2.4024621021888000e-05
3789 3789 1.7713773658895999e-02
3790 3789 -1.4744284839754001e-04
3793 3789 -1.6666666666667000e-02
3785 3790 -1.6666666666667000e-02
3787 3790 -6.6666666666667001e-03
3788 3790 -5.9771312520205005e-04
3789 3790 -7.5218129186892002e-05
3790 3790 2.5283374015407999e-02
3791 3790 3.7815945741929997e-05
3792 3790 -7.2549736813092003e-04
3790 3791 -1.6292768029012999e-04
3791 3791 7.6108336928183001e-03
3792 3791 -4.1635063385281999e-05
3793 3791 -6.6666666666667001e-03
3765 3792 -6.6666666666667001e-03
3790 3792 -5.3023064566409003e-04
3791 3792 -2.6982734727644999e-04
3792 3792 8.6600913674281001e-03
3740 3793 -4.3362401633919000e-04
3741 3793 -1.4388937544547001e-04
3742 3793 -1.3462681946986999e-04
3743 3793 -4.3653366425552002e-04
3767 3793 -1.6666666666667000e-02
3789 3793 -1.6666666666667000e-02
3791 3793 -6.6666666666667001e-03
3793 3793 4.1889682869410999e-02
3794 3794 1.9467152414490999e-02
3795 3794 -1.1850409573901000e-03
4437 3794 -4.3508501045939001e-04
3794 3795 -1.2598051752079999e-03
3795 3795 1.9391686682981000e-02
3796 3795 -1.6666666666667000e-02
4437 3795 -4.3505377289223998e-04
3795 3796 -1.6666666666667000e-02
3796 3796 3.3333333333333000e-02
3797 3796 -1.6666666666667000e-02
3796 3797 -1.6666666666667000e-02
3797 3797 1.7814255889942000e-02
3798 3797 -1.0769676843927000e-06
4440 3797 -1.4019096495955001e-04
3797 3798 -2.1226524196217001e-08
3798 3798 1.7296491675699001e-02
3799 3798 -1.6666666666667000e-02
4440 3798 -1.3941995033018000e-04
3731 3799 -1.6142419305501001e-04
3732 3799 -4.3113819549232000e-04
3733 3799 -4.3908951860333002e-04
3734 3799 -1.6142329932089999e-04
3737 3799 -6.6666666666667001e-03
3739 3799 -6.6666666666667001e-03
3798 3799 -1.6666666666667000e-02
3799 3799 3.2099154363067997e-02
3800 3800 1.9464054066284001e-02
3801 3800 -1.1819688121921001e-03
3809 3800 -4.3508121218197000e-04
3800 3801 -1.2567266856880999e-03
3801 3801 1.9388766859245999e-02
3802 3801 -1.6666666666667000e-02
3809 3801 -4.3505757150000003e-04
3801 3802 -1.6666666666667000e-02
3802 3802 3.3333333333333000e-02
4419 3802 -1.6666666666667000e-02
3803 3803 9.2178449029689004e-03
3806 3803 -6.7176122354316997e-04
4420 3803 -4.3501679046238000e-04
3804 3804 1.7814660126675000e-02
3805 3804 -1.2168386341454001e-06
4420 3804 -1.4168715702833000e-04
3804 3805 -2.4048384519934000e-08
3805 3805 1.7296372963530999e-02
3809 3805 -1.6666666666667000e-02
4420 3805 -1.3967889429085999e-04
3803 3806 -6.2406047611167999e-04
3806 3806 9.2671572386475998e-03
3809 3806 -6.6666666666667001e-03
4420 3806 -4.3508159167533999e-04
3807 3807 8.2271935981426993e-03
3808 3807 -3.9128501282163001e-10
3809 3807 -1.6436648575764000e-04
3807 3808 -3.8827609799836997e-10
3808 3808 8.2270072131423993e-03
3809 3808 -1.6434119232129000e-04
4418 3808 -6.6666666666667001e-03
3800 3809 -4.3516987970912001e-04
3801 3809 -4.3497111634802001e-04
3805 3809 -1.6666666666667000e-02
3806 3809 -6.6666666666667001e-03
3807 3809 -1.6142374809989001e-04
3808 3809 -1.6142374427603000e-04
3809 3809 2.5564815287191001e-02
3810 3810 8.2271906674588006e-03
3813 3810 -5.9671395973636995e-10
4415 3810 -1.6461017231555000e-04
3811 3811 1.9463944148445000e-02
3812 3811 -1.1818317366495000e-03
4415 3811 -4.3507509703625001e-04
3811 3812 -1.2566775724627999e-03
3812 3812 1.9388842821391999e-02
3829 3812 -1.6666666666667000e-02
4415 3812 -4.3506368698613000e-04
3810 3813 -4.0370632067582999e-12
3813 3813 7.5572286034311003e-03
3829 3813 -6.6666666666667001e-03
4415 3813 -1.6205986325651999e-04
3814 3814 1.9463369494163000e-02
3815 3814 -1.1812225646630999e-03
3827 3814 -4.3506946357305999e-04
3814 3815 -1.2561432001075999e-03
3815 3815 1.9388445657591000e-02
3816 3815 -1.6666666666667000e-02
3827 3815 -4.3506932055266000e-04
3815 3816 -1.6666666666667000e-02
3816 3816 2.3854346543977001e-02
3818 3816 -6.6666666666667001e-03
3817 3817 8.2271772563222000e-03
3818 3817 -6.2184141482808001e-10
3827 3817 -1.6461546530504000e-04
3816 3818 -6.6666666666667001e-03
3817 3818 -4.2137961729916999e-12
3818 3818 7.5572177842540000e-03
3827 3818 -1.6206455410360001e-04
3819 3819 1.7814705844376999e-02
3820 3819 -1.2129569463554000e-06
3834 3819 -1.4164038697457999e-04
3819 3820 -2.3971291188383000e-08
3820 3820 1.7296473565909000e-02
3827 3820 -1.6666666666667000e-02
3834 3820 -1.3967089331896001e-04
3821 3821 1.7814707105239001e-02
3822 3821 -1.2145347934095001e-06
3829 3821 -1.4165767970116000e-04
3821 3822 -2.4003400820130001e-08
3822 3822 1.7296473579871002e-02
3827 3822 -1.6666666666667000e-02
3829 3822 -1.3967389022069001e-04
3823 3823 9.2658276061211992e-03
3824 3823 -6.2285854750306004e-04
3834 3823 -4.3506611498378000e-04
3823 3824 -6.7147759598467000e-04
3824 3824 9.2165999723657997e-03
3825 3824 -6.6666666666667001e-03
3834 3824 -4.3503227097654997e-04
3824 3825 -6.6666666666667001e-03
3825 3825 1.3333333333332999e-02
3826 3825 -6.6666666666667001e-03
3825 3826 -6.6666666666667001e-03
3826 3826 9.2651555635641005e-03
3828 3826 -6.2278436570660999e-04
3829 3826 -4.3506655040988999e-04
3814 3827 -4.3506999952865999e-04
3815 3827 -4.3506879798804000e-04
3817 3827 -1.6142418694718000e-04
3818 3827 -1.6142330542873000e-04
3820 3827 -1.6666666666667000e-02
3822 3827 -1.6666666666667000e-02
3827 3827 4.1983414536347997e-02
3828 3827 -6.6666666666667001e-03
3826 3828 -6.7133292193958995e-04
3827 3828 -6.6666666666667001e-03
3828 3828 9.2159835172068993e-03
3829 3828 -4.3503183547549001e-04
3812 3829 -1.6666666666667000e-02
3813 3829 -6.6666666666667001e-03
3821 3829 -1.4023067594547001e-04
3822 3829 -1.3828551896986999e-04
3826 3829 -4.3512036450053001e-04
3828 3829 -4.3498094227525003e-04
3829 3829 2.5686183387167001e-02
3830 3830 8.2271775458064005e-03
3833 3830 -6.0989409576211995e-10
4418 3830 -1.6460519676257001e-04
3831 3831 1.9463654289856001e-02
3832 3831 -1.1815023184409000e-03
4418 3831 -4.3506963586544000e-04
3831 3832 -1.2564265998350999e-03
3832 3832 1.9388719091683999e-02
3834 3832 -1.6666666666667000e-02
4418 3832 -4.3506914826010998e-04
3830 3833 -4.1315445373880000e-12
3833 3833 7.5572181075305002e-03
3834 3833 -6.6666666666667001e-03
4418 3833 -1.6206241124092999e-04
3819 3834 -1.4022939705194001e-04
3820 3834 -1.3828679786339999e-04
3823 3834 -4.3511859415183002e-04
3824 3834 -4.3498264129322001e-04
3832 3834 -1.6666666666667000e-02
3833 3834 -6.6666666666667001e-03
3834 3834 2.5658196978015999e-02
3835 3835 9.2658589136567007e-03
3836 3835 -6.2286789421365000e-04
4417 3835 -4.3505618818204001e-04
3835 3836 -6.7154644635137998e-04
3836 3836 9.2169287268968995e-03
4417 3836 -4.3504219896828002e-04
4418 3836 -6.6666666666667001e-03
3837 3837 8.2279289208056997e-03
3840 3837 -1.9023727105834000e-06
3865 3837 -1.6836196500756001e-04
3838 3838 1.9276482262993999e-02
3839 3838 -1.1382696344831001e-03
3865 3838 -4.3450722422908999e-04
3838 3839 -1.0907802605731000e-03
3839 3839 1.9359945405349001e-02
3865 3839 -4.3563051171411000e-04
4400 3839 -1.6666666666667000e-02
3837 3840 -1.4525099528119000e-08
3840 3840 7.5562973133494003e-03
3865 3840 -1.6281615152511001e-04
4400 3840 -6.6666666666667001e-03
3841 3841 1.7814567878785999e-02
3842 3841 -1.0696174789552001e-06
3870 3841 -1.4077457465788999e-04
3841 3842 -2.1746192490281999e-08
3842 3842 1.7312664707867000e-02
3865 3842 -1.6666666666667000e-02
3870 3842 -1.3953934898716999e-04
3843 3843 1.8734211312252998e-02
3844 3843 -4.5381290574348000e-04
3864 3843 -5.5973915162185999e-04
3843 3844 -5.7057250891691997e-05
3844 3844 1.7366239344960000e-02
3864 3844 -1.4443786584783001e-04
3865 3844 -1.6666666666667000e-02
3845 3845 9.2667271921027996e-03
3846 3845 -6.2385086568921000e-04
3870 3845 -4.3511771723667999e-04
3845 3846 -6.7220179612961003e-04
3846 3846 9.2159096184367007e-03
3847 3846 -6.6666666666667001e-03
3870 3846 -4.3498064661662002e-04
3846 3847 -6.6666666666667001e-03
3847 3847 1.3333333333332999e-02
3862 3847 -6.6666666666667001e-03
3848 3848 8.9574124016344996e-03
3860 3848 -5.0646618271189998e-04
3861 3848 -3.1528514883964000e-04
3849 3849 8.2272152463556004e-03
3857 3849 -5.6409211595415002e-10
3850 3850 8.2272152463556004e-03
3856 3850 -5.6409211579152000e-10
3851 3851 1.9433530008257999e-02
3852 3851 -1.1754793176124000e-03
3851 3852 -1.1611231217644000e-03
3852 3852 1.9181033630951999e-02
3853 3852 -1.6666666666667000e-02
3852 3853 -1.6666666666667000e-02
3853 3853 3.3333333333333000e-02
3854 3853 -1.6666666666667000e-02
3853 3854 -1.6666666666667000e-02
3854 3854 1.9200205822565000e-02
3855 3854 -1.1191014650059001e-03
3854 3855 -1.0981231431190001e-03
3855 3855 1.9043522390049999e-02
3860 3855 -1.6666666666667000e-02
3850 3856 -3.8903633177771004e-12
3856 3856 7.5805013487573996e-03
3860 3856 -6.6666666666667001e-03
3849 3857 -3.8903632635669998e-12
3857 3857 7.5805013487573996e-03
3860 3857 -6.6666666666667001e-03
3858 3858 1.8334360737135999e-02
3859 3858 -1.5557691098674999e-05
3860 3858 -5.4326925869061004e-04
3858 3859 -6.1297688506348999e-06
3859 3859 1.7390272463126001e-02
3860 3859 -1.4155447970953000e-04
3864 3859 -1.6666666666667000e-02
3848 3860 -6.2737216115880999e-04
3855 3860 -1.6666666666667000e-02
3856 3860 -6.6666666666667001e-03
3857 3860 -6.6666666666667001e-03
3858 3860 -5.4576017503909005e-04
3859 3860 -1.2717107934984999e-04
3860 3860 3.2126837334543003e-02
3861 3860 -2.0000159511030999e-04
3848 3861 -1.6300019162727999e-04
3860 3861 -3.1799510234352000e-04
3861 3861 8.0740220958603996e-03
3864 3861 -6.6666666666667001e-03
3847 3862 -6.6666666666667001e-03
3862 3862 8.9392398522174007e-03
3863 3862 -2.9002488106432003e-04
3864 3862 -4.7034629600901999e-04
3862 3863 -2.7037785252532998e-04
3863 3863 8.5759260826468002e-03
3864 3863 -3.9166256819567002e-04
3865 3863 -6.6666666666667001e-03
3843 3864 -9.0841279114694000e-04
3844 3864 2.3548153675800000e-04
3859 3864 -1.6666666666667000e-02
3861 3864 -6.6666666666667001e-03
3862 3864 -4.9202745006167003e-04
3863 3864 -3.7364345313678000e-04
3864 3864 2.5410127738841999e-02
3837 3865 -1.6284360413613001e-04
3838 3865 -4.3098043021664998e-04
3839 3865 -4.3926596675219001e-04
3840 3865 -1.6000388823977999e-04
3842 3865 -1.6666666666667000e-02
3844 3865 -1.6666666666667000e-02
3863 3865 -6.6666666666667001e-03
3865 3865 4.1913453698146003e-02
3866 3866 8.2271879131805004e-03
3869 3866 -5.9867212476188998e-10
3934 3866 -1.6460782725229999e-04
3867 3867 1.9389792984003000e-02
3868 3867 -1.2566505031340999e-03
3934 3867 -4.3481339297999001e-04
3867 3868 -1.1943935471517000e-03
3868 3868 1.9471265410841002e-02
3870 3868 -1.6666666666667000e-02
3934 3868 -4.3532518248282998e-04
3866 3869 -4.0497779106963001e-12
3869 3869 7.5567687587960999e-03
3870 3869 -6.6666666666667001e-03
3934 3869 -1.6205923023456000e-04
3841 3870 -1.4010733886164999e-04
3842 3870 -1.3840885605369001e-04
3845 3870 -4.3533090161585001e-04
3846 3870 -4.3477899207086001e-04
3868 3870 -1.6666666666667000e-02
3869 3870 -6.6666666666667001e-03
3870 3870 2.5638543048933000e-02
3871 3871 9.2178254413955007e-03
3872 3871 -6.7176359629010000e-04
4420 3871 -4.3503072737592998e-04
3871 3872 -6.2372066151595998e-04
3872 3872 9.2667872136811998e-03
3934 3872 -6.6666666666667001e-03
4420 3872 -4.3506765831150001e-04
3873 3873 9.2171906242629002e-03
3874 3873 -6.7159703195337995e-04
4417 3873 -4.3503072034801002e-04
3873 3874 -6.2333443779403000e-04
3874 3874 9.2663733656651003e-03
3934 3874 -6.6666666666667001e-03
4417 3874 -4.3506766533783000e-04
3875 3875 8.2271771149482007e-03
3878 3875 -6.3455333578180998e-10
3928 3875 -1.6462643507737001e-04
3876 3876 1.9463063810139999e-02
3877 3876 -1.1809299536337001e-03
3928 3876 -4.3507110421881000e-04
3876 3877 -1.2558199553296999e-03
3877 3877 1.9388097190614000e-02
3928 3877 -4.3506767989762000e-04
4417 3877 -1.6666666666667000e-02
3875 3878 -4.3012863340145998e-12
3878 3878 7.5572205976023000e-03
3928 3878 -1.6206679200420001e-04
4417 3878 -6.6666666666667001e-03
3879 3879 9.2517311180626005e-03
3891 3879 -4.3824588118485997e-04
3892 3879 -6.1476119282243002e-04
3880 3880 8.2269983577002992e-03
3881 3880 -2.2976914162712999e-10
3880 3881 -5.5250393654130002e-12
3881 3881 8.1527741222207004e-03
3897 3881 -6.6666666666667001e-03
3882 3882 8.2272583518046005e-03
3885 3882 -6.0951716129116002e-10
3883 3883 1.9459558085866999e-02
3884 3883 -1.1810882965398999e-03
3883 3884 -1.2453679478730000e-03
3884 3884 1.9363410688630001e-02
3891 3884 -1.6666666666667000e-02
3882 3885 -4.1090722879431003e-12
3885 3885 7.5585352884312996e-03
3891 3885 -6.6666666666667001e-03
3886 3886 1.7814728386935000e-02
3887 3886 -1.2334970261849000e-06
3891 3886 -1.4347006550173000e-04
3886 3887 -2.6460545556729000e-08
3887 3887 1.7335937863364001e-02
3888 3887 -1.6666666666667000e-02
3891 3887 -1.4011759830439999e-04
3887 3888 -1.6666666666667000e-02
3888 3888 3.3333333333333000e-02
3889 3888 -1.6666666666667000e-02
3888 3889 -1.6666666666667000e-02
3889 3889 1.7869221919337000e-02
3890 3889 -1.3825936486973000e-04
3889 3890 -2.5386527561966999e-05
3890 3890 1.7311291077701001e-02
3897 3890 -1.6666666666667000e-02
3879 3891 -4.4799862044770999e-04
3884 3891 -1.6666666666667000e-02
3885 3891 -6.6666666666667001e-03
3886 3891 -1.4023004419844000e-04
3887 3891 -1.3828615071690000e-04
3891 3891 2.5612453437815999e-02
3892 3891 -4.2256358378694000e-04
3879 3892 -6.4510778225185001e-04
3891 3892 -4.3180007770421999e-04
3892 3892 9.1168325356274001e-03
3897 3892 -6.6666666666667001e-03
3893 3893 8.2272513393728992e-03
3896 3893 -5.4963740152314004e-09
3897 3893 -1.6582980579678001e-04
3894 3894 1.9430721540540000e-02
3895 3894 -1.1498543786829000e-03
3897 3894 -4.3518615385437998e-04
3894 3895 -1.2223798099559001e-03
3895 3895 1.9353152157679000e-02
3897 3895 -4.3495258639127999e-04
3903 3895 -1.6666666666667000e-02
3893 3896 -3.8288031992393001e-11
3896 3896 7.5574212577119004e-03
3897 3896 -1.6229277728051000e-04
3903 3896 -6.6666666666667001e-03
3881 3897 -6.6666666666667001e-03
3890 3897 -1.6666666666667000e-02
3892 3897 -6.6666666666667001e-03
3893 3897 -1.6142767534759001e-04
3894 3897 -4.3602845291734001e-04
3895 3897 -4.3413217854288002e-04
3896 3897 -1.6141981702832999e-04
3897 3897 3.1955237674889003e-02
3898 3898 9.2652531262508008e-03
3899 3898 -6.2236144514719004e-04
3903 3898 -4.3508714029670000e-04
3898 3899 -6.7083318894969001e-04
3899 3899 9.2154189933336995e-03
3900 3899 -6.6666666666667001e-03
3903 3899 -4.3501123987967999e-04
3899 3900 -6.6666666666667001e-03
3900 3900 1.3333333333332999e-02
3927 3900 -6.6666666666667001e-03
3901 3901 1.7814738442049002e-02
3902 3901 -1.2444357737988001e-06
3903 3901 -1.4198275643737999e-04
3901 3902 -2.4613529397714000e-08
3902 3902 1.7296512575446000e-02
3903 3902 -1.3973029423168000e-04
3928 3902 -1.6666666666667000e-02
3895 3903 -1.6666666666667000e-02
3896 3903 -6.6666666666667001e-03
3898 3903 -4.3520465499178999e-04
3899 3903 -4.3490011352998001e-04
3901 3903 -1.4025489102745999e-04
3902 3903 -1.3826130388788001e-04
3903 3903 2.5646447299887999e-02
3904 3904 9.2527345023952993e-03
3916 3904 -4.3797470332466998e-04
3917 3904 -6.1529457852597003e-04
3905 3905 8.2269940868596007e-03
3906 3905 -2.2842555875617999e-10
3905 3906 -5.6926216484542997e-12
3906 3906 8.1584179329612008e-03
3921 3906 -6.6666666666667001e-03
3907 3907 8.2272585623787003e-03
3910 3907 -6.0961802300179003e-10
3908 3908 1.9459660274022999e-02
3909 3908 -1.1811017776483001e-03
3908 3909 -1.2457077485165001e-03
3909 3909 1.9364179814336000e-02
3916 3909 -1.6666666666667000e-02
3907 3910 -4.1095565250604998e-12
3910 3910 7.5584943625876004e-03
3916 3910 -6.6666666666667001e-03
3911 3911 1.7814722076074999e-02
3912 3911 -1.2276782204063999e-06
3916 3911 -1.4340588313145001e-04
3911 3912 -2.6322789120889001e-08
3912 3912 1.7335779245336001e-02
3913 3912 -1.6666666666667000e-02
3916 3912 -1.4010396838435999e-04
3912 3913 -1.6666666666667000e-02
3913 3913 3.3333333333333000e-02
3914 3913 -1.6666666666667000e-02
3913 3914 -1.6666666666667000e-02
3914 3914 1.7868405125685001e-02
3915 3914 -1.3763574851630999e-04
3914 3915 -2.5248622472555999e-05
3915 3915 1.7310811055582000e-02
3921 3915 -1.6666666666667000e-02
3904 3916 -4.4690815429835999e-04
3909 3916 -1.6666666666667000e-02
3910 3916 -6.6666666666667001e-03
3911 3916 -1.4022546183300999e-04
3912 3916 -1.3829073308233001e-04
3916 3916 2.5266055525669000e-02
3917 3916 -4.2362052816742000e-04
3904 3917 -6.4713427129031004e-04
3916 3917 -4.3207985643211000e-04
3917 3917 9.1245276723042994e-03
3921 3917 -6.6666666666667001e-03
3918 3918 8.2272428130269002e-03
3921 3918 -1.6573094947205000e-04
3922 3918 -4.5784670896834999e-09
3919 3919 1.9433519723920000e-02
3920 3919 -1.1524907925422000e-03
3921 3919 -4.3516390337048998e-04
3919 3920 -1.2253913375211000e-03
3920 3920 1.9356522685727000e-02
3921 3920 -4.3497485204601000e-04
3925 3920 -1.6666666666667000e-02
3906 3921 -6.6666666666667001e-03
3915 3921 -1.6666666666667000e-02
3917 3921 -6.6666666666667001e-03
3918 3921 -1.6142701725598000e-04
3919 3921 -4.3584792900059997e-04
3920 3921 -4.3430855027230001e-04
3921 3921 3.1957178680133001e-02
3922 3921 -1.6142047511994001e-04
3918 3922 -3.1824068340324001e-11
3921 3922 -1.6227443166052000e-04
3922 3922 7.5573831391225997e-03
3925 3922 -6.6666666666667001e-03
3923 3923 1.7814732193773001e-02
3924 3923 -1.2384096564641001e-06
3925 3923 -1.4191811112618000e-04
3923 3924 -2.4490883267350002e-08
3924 3924 1.7296512436509998e-02
3925 3924 -1.3971909124070001e-04
3928 3924 -1.6666666666667000e-02
3920 3925 -1.6666666666667000e-02
3922 3925 -6.6666666666667001e-03
3923 3925 -1.4025000684615000e-04
3924 3925 -1.3826618806919000e-04
3925 3925 2.5359458532083001e-02
3926 3925 -4.3495127297629997e-04
3927 3925 -4.3515130240866999e-04
3925 3926 -4.3502426323627002e-04
3926 3926 9.2146428870467992e-03
3927 3926 -6.7075962475824996e-04
3928 3926 -6.6666666666667001e-03
3900 3927 -6.6666666666667001e-03
3925 3927 -4.3507412104374000e-04
3926 3927 -6.2235627767636998e-04
3927 3927 9.2639394356853998e-03
3875 3928 -1.6142419601733999e-04
3876 3928 -4.3508393201387998e-04
3877 3928 -4.3505517271958999e-04
3878 3928 -1.6142329635858001e-04
3902 3928 -1.6666666666667000e-02
3924 3928 -1.6666666666667000e-02
3926 3928 -6.6666666666667001e-03
3928 3928 4.1983089066579000e-02
3929 3929 1.7814013971207000e-02
3930 3929 -5.1799610155156001e-07
4417 3929 -1.4041821686221000e-04
3929 3930 -4.9728165505226000e-08
3930 3930 1.7749250591298001e-02
3931 3930 -1.6666666666667000e-02
4417 3930 -1.4018074973254000e-04
3930 3931 -1.6666666666667000e-02
3931 3931 3.3333333333333000e-02
3932 3931 -1.6666666666667000e-02
3931 3932 -1.6666666666667000e-02
3932 3932 1.7749587905547998e-02
3933 3932 -4.2862039817646999e-07
4420 3932 -1.4132695214099999e-04
3932 3933 -9.5122987776688006e-09
3933 3933 1.7296379908042000e-02
3934 3933 -1.6666666666667000e-02
4420 3933 -1.3970875066018001e-04
3866 3934 -1.6142417010644999e-04
3867 3934 -4.3294074643998999e-04
3868 3934 -4.3724608249237997e-04
3869 3934 -1.6142332226946001e-04
3872 3934 -6.6666666666667001e-03
3874 3934 -6.6666666666667001e-03
3933 3934 -1.6666666666667000e-02
3934 3934 3.2100002944372000e-02
3935 3935 1.9463175177372002e-02
3936 3935 -1.1811207924395000e-03
3944 3935 -4.3509307220926000e-04
3935 3936 -1.2556940317952001e-03
3936 3936 1.9387542685011000e-02
3937 3936 -1.6666666666667000e-02
3944 3936 -4.3504571013443000e-04
3936 3937 -1.6666666666667000e-02
3937 3937 3.3333333333333000e-02
4399 3937 -1.6666666666667000e-02
3938 3938 9.2677252627584999e-03
3941 3938 -6.2485701491788999e-04
4400 3938 -4.3509103689805999e-04
3939 3939 1.7814587121951001e-02
3940 3939 -1.0824253254490999e-06
4400 3939 -1.4023023443382999e-04
3939 3940 -2.1316199180485001e-08
3940 3940 1.7296483271838001e-02
3944 3940 -1.6666666666667000e-02
4400 3940 -1.3941988358755000e-04
3938 3941 -6.7339748103139002e-04
3941 3941 9.2176742271591998e-03
3944 3941 -6.6666666666667001e-03
4400 3941 -4.3500734172163000e-04
3942 3942 8.2271747920698995e-03
3943 3942 -6.2558449045396000e-10
3944 3942 -1.6461872559638999e-04
3942 3943 -4.2397946985418001e-12
3943 3943 7.5572758294716004e-03
3944 3943 -1.6206535763270001e-04
4398 3943 -6.6666666666667001e-03
3935 3944 -4.3527052568207000e-04
3936 3944 -4.3487268819973000e-04
3940 3944 -1.6666666666667000e-02
3941 3944 -6.6666666666667001e-03
3942 3944 -1.6142418961967000e-04
3943 3944 -1.6142330275624000e-04
3944 3944 2.5548544745567999e-02
3945 3945 8.2271757352637004e-03
3948 3945 -6.1721265548374000e-10
4395 3945 -1.6461123747181001e-04
3946 3946 1.9388562697577001e-02
3947 3946 -1.2562548421019999e-03
4395 3946 -4.3506813542571002e-04
3946 3947 -1.1813970358794000e-03
3947 3947 1.9463517329356000e-02
3964 3947 -1.6666666666667000e-02
4395 3947 -4.3507064869501000e-04
3945 3948 -4.1819940945600002e-12
3948 3948 7.5572153384092997e-03
3964 3948 -6.6666666666667001e-03
4395 3948 -1.6206373194548000e-04
3949 3949 1.7814705978151001e-02
3950 3949 -1.2130820063495000e-06
3962 3949 -1.4164006306885001e-04
3949 3950 -2.3972266192932000e-08
3950 3950 1.7296439378354001e-02
3951 3950 -1.6666666666667000e-02
3962 3950 -1.3967077627051000e-04
3950 3951 -1.6666666666667000e-02
3951 3951 2.3854346543977001e-02
3953 3951 -6.6666666666667001e-03
3952 3952 9.2658578224945002e-03
3953 3952 -6.2287230267794999e-04
3962 3952 -4.3505790223004001e-04
3951 3953 -6.6666666666667001e-03
3952 3953 -6.7154062195460998e-04
3953 3953 9.2168762161804994e-03
3962 3953 -4.3504048478538001e-04
3954 3954 1.9463660586759999e-02
3955 3954 -1.1815072698559000e-03
3969 3954 -4.3506945313536002e-04
3954 3955 -1.2564344584300000e-03
3955 3955 1.9388730663506000e-02
3962 3955 -1.6666666666667000e-02
3969 3955 -4.3506933099036999e-04
3956 3956 1.7814431599421001e-02
3957 3956 -9.3353250508307001e-07
3964 3956 -1.4034602747897999e-04
3956 3957 -9.3351369524149996e-07
3957 3957 1.7814430309854998e-02
3962 3957 -1.6666666666667000e-02
3964 3957 -1.4034597389509001e-04
3958 3958 8.2271772238018993e-03
3959 3958 -5.4596930484888003e-10
3969 3958 -1.6458301363144999e-04
3958 3959 -3.8177420606363001e-12
3959 3959 7.5912127522985004e-03
3960 3959 -6.6666666666667001e-03
3969 3959 -1.6212734168418000e-04
3959 3960 -6.6666666666667001e-03
3960 3960 1.3333333333332999e-02
3961 3960 -6.6666666666667001e-03
3960 3961 -6.6666666666667001e-03
3961 3961 7.5912134278474999e-03
3963 3961 -6.9576635707568005e-10
3964 3961 -1.6685431397059000e-04
3949 3962 -1.4022951317709000e-04
3950 3962 -1.3828668173825000e-04
3952 3962 -4.3508491118193001e-04
3953 3962 -4.3501494248182002e-04
3955 3962 -1.6666666666667000e-02
3957 3962 -1.6666666666667000e-02
3962 3962 4.2092973677839998e-02
3963 3962 -6.6666666666667001e-03
3961 3963 -1.2563720024876000e-11
3962 3963 -6.6666666666667001e-03
3963 3963 7.5572177645036997e-03
3964 3963 -1.6631931656888000e-04
3947 3964 -1.6666666666667000e-02
3948 3964 -6.6666666666667001e-03
3956 3964 -1.3925811056985000e-04
3957 3964 -1.3925808434549000e-04
3961 3964 -1.6142437415533000e-04
3963 3964 -1.6142311822058000e-04
3964 3964 2.5282473484304999e-02
3965 3965 9.2657301326800005e-03
3968 3965 -6.2273722125502000e-04
4398 3965 -4.3505560675909002e-04
3966 3966 1.7814714680915000e-02
3967 3966 -1.2225452273288000e-06
4398 3966 -1.4174316851703000e-04
3966 3967 -2.4164644918606001e-08
3967 3967 1.7296436372544001e-02
3969 3967 -1.6666666666667000e-02
4398 3967 -1.3968863473723999e-04
3965 3968 -6.7141433038315004e-04
3968 3968 9.2168223705749001e-03
3969 3968 -6.6666666666667001e-03
4398 3968 -4.3504278043031002e-04
3954 3969 -4.3506991101771001e-04
3955 3969 -4.3506888454395999e-04
3958 3969 -1.6142413218509001e-04
3959 3969 -1.6142336019081999e-04
3967 3969 -1.6666666666667000e-02
3968 3969 -6.6666666666667001e-03
3969 3969 2.5550290012296001e-02
3970 3970 8.2272091201569999e-03
3971 3970 -4.7814144590110997e-10
4397 3970 -1.6451243717659000e-04
3970 3971 -3.2198710474923001e-12
3971 3971 7.5572783222331002e-03
4397 3971 -1.6203513271102001e-04
4398 3971 -6.6666666666667001e-03
3972 3972 8.9529055530630994e-03
3975 3972 -2.7131885174961002e-04
4000 3972 -5.3141113048536998e-04
3973 3973 1.8832454238933000e-02
3974 3973 -6.7688899040260005e-04
4000 3973 -4.3499932820440998e-04
3973 3974 -6.2611991402592001e-04
3974 3974 1.8885463474344999e-02
4000 3974 -4.3513943693383999e-04
4380 3974 -1.6666666666667000e-02
3972 3975 -2.7731298254654998e-05
3975 3975 7.5848665408571004e-03
4000 3975 -1.6251979174903999e-04
4380 3975 -6.6666666666667001e-03
3976 3976 1.7814263011063002e-02
3977 3976 -7.6575151846487999e-07
4005 3976 -1.3996323652922001e-04
3976 3977 -1.9029166030923999e-08
3977 3977 1.7406264463239000e-02
4000 3977 -1.6666666666667000e-02
4005 3977 -1.3944544619988000e-04
3978 3978 1.8765788025425001e-02
3979 3978 -5.1285777462341004e-04
3999 3978 -5.3289713710883996e-04
3978 3979 -1.8387762376756000e-04
3979 3979 1.7733083743094000e-02
3999 3979 -2.7457225296394000e-04
4000 3979 -1.6666666666667000e-02
3980 3980 9.2192716314694993e-03
3981 3980 -6.7364607333900996e-04
4005 3980 -4.3495361561777000e-04
3980 3981 -6.2719491741626999e-04
3981 3981 9.2704935541925004e-03
3982 3981 -6.6666666666667001e-03
4005 3981 -4.3514472609306002e-04
3981 3982 -6.6666666666667001e-03
3982 3982 1.3333333333332999e-02
3997 3982 -6.6666666666667001e-03
3983 3983 9.1787680676175005e-03
3995 3983 -4.5995557293725001e-04
3996 3983 -5.6145543698496003e-04
3984 3984 8.2272401922449997e-03
3992 3984 -5.8623601799428004e-10
3985 3985 8.2271771048132002e-03
3991 3985 -5.8227645852703000e-10
3986 3986 1.9447786348072000e-02
3987 3986 -1.1789831840942999e-03
3986 3987 -1.2039239481581000e-03
3987 3987 1.9271550474514999e-02
3988 3987 -1.6666666666667000e-02
3987 3988 -1.6666666666667000e-02
3988 3988 3.3333333333333000e-02
3989 3988 -1.6666666666667000e-02
3988 3989 -1.6666666666667000e-02
3989 3989 1.9307501002901000e-02
3990 3989 -1.1526155302887000e-03
3989 3990 -1.1671593959467000e-03
3990 3990 1.9183785846244000e-02
3995 3990 -1.6666666666667000e-02
3985 3991 -3.9849021760785997e-12
3991 3991 7.5693878267977001e-03
3995 3991 -6.6666666666667001e-03
3984 3992 -3.9939316782730998e-12
3992 3992 7.5694227480535003e-03
3995 3992 -6.6666666666667001e-03
3993 3993 1.7818914239606000e-02
3994 3993 -5.0592746661366004e-06
3995 3993 -1.5861160279850999e-04
3993 3994 -1.0993989804071000e-07
3994 3994 1.7327999075957001e-02
3995 3994 -1.4293440631403000e-04
3999 3994 -1.6666666666667000e-02
3983 3995 -5.3467469455100998e-04
3990 3995 -1.6666666666667000e-02
3991 3995 -6.6666666666667001e-03
3992 3995 -6.6666666666667001e-03
3993 3995 -1.4327965331403000e-04
3994 3995 -1.3523654160131000e-04
3995 3995 3.1895148012404999e-02
3996 3995 -3.3480125661166000e-04
3983 3996 -4.8744539750760000e-04
3995 3996 -4.0646923819015002e-04
3996 3996 8.6884525358005994e-03
3999 3996 -6.6666666666667001e-03
3982 3997 -6.6666666666667001e-03
3997 3997 8.7840172436530993e-03
3998 3997 -6.7068887727815007e-05
3999 3997 -5.3009373643685001e-04
3997 3998 -3.4137440407727000e-06
3998 3998 7.7046912601000002e-03
3999 3998 -1.6236582587095000e-04
4000 3998 -6.6666666666667001e-03
3978 3999 -8.0739925652818995e-04
3979 3999 1.1312319878852000e-05
3994 3999 -1.6666666666667000e-02
3996 3999 -6.6666666666667001e-03
3997 3999 -5.7602177252282004e-04
3998 3999 -1.1165964986618000e-04
3999 3999 2.5381144274961000e-02
3972 4000 -7.2740983715302002e-04
3973 4000 -4.3483823414606999e-04
3974 4000 -4.3531426035675998e-04
3975 4000 3.9728414764030002e-05
3977 4000 -1.6666666666667000e-02
3979 4000 -1.6666666666667000e-02
3998 4000 -6.6666666666667001e-03
4000 4000 4.2162867854767000e-02
4001 4001 8.2271755947033991e-03
4004 4001 -6.3037261773685996e-10
4069 4001 -1.6462177665266001e-04
4002 4002 1.9389715806857000e-02
4003 4002 -1.2558415968325000e-03
4069 4002 -4.3459634399215002e-04
4002 4003 -1.2036280092975000e-03
4003 4003 1.9476661313117000e-02
4005 4003 -1.6666666666667000e-02
4069 4003 -4.3554172586418002e-04
4001 4004 -4.2695565588352004e-12
4004 4004 7.5563850716486997e-03
4005 4004 -6.6666666666667001e-03
4069 4004 -1.6206418827985000e-04
3976 4005 -1.3984338362398000e-04
3977 4005 -1.3867281129136000e-04
3980 4005 -4.3467140512180999e-04
3981 4005 -4.3544306403221999e-04
4003 4005 -1.6666666666667000e-02
4004 4005 -6.6666666666667001e-03
4005 4005 2.5697390445108999e-02
4006 4006 9.2677014312938007e-03
4007 4006 -6.2484653309508996e-04
4400 4006 -4.3509766588443002e-04
4006 4007 -6.7334709044946999e-04
4007 4007 9.2174513473776993e-03
4069 4007 -6.6666666666667001e-03
4400 4007 -4.3500070973379002e-04
4008 4008 8.2272089611358998e-03
4009 4008 -3.1726764260259002e-10
4397 4008 -1.6427646359626000e-04
4008 4009 -3.0154053100217001e-10
4009 4009 8.2259030760757999e-03
4069 4009 -6.6666666666667001e-03
4397 4009 -1.6422143710212000e-04
4010 4010 9.1904969782098007e-03
4013 4010 -6.4134162711916001e-04
4063 4010 -4.3469712687542000e-04
4011 4011 1.7818957982476999e-02
4012 4011 -5.6748245433061000e-06
4063 4011 -1.5858736904994001e-04
4011 4012 -1.1722451781305000e-07
4012 4012 1.7296057237268000e-02
4063 4012 -1.4260272861164999e-04
4397 4012 -1.6666666666667000e-02
4010 4013 -6.0267568216861001e-04
4013 4013 9.2456948720529997e-03
4063 4013 -4.3540064204518998e-04
4397 4013 -6.6666666666667001e-03
4014 4014 9.2604376160510000e-03
4026 4014 -4.3645459416452999e-04
4027 4014 -6.2019275994149004e-04
4015 4015 8.2271187744355993e-03
4016 4015 -2.2206953479283999e-10
4015 4016 -7.7416980670430000e-12
4016 4016 8.1916818627231994e-03
4032 4016 -6.6666666666667001e-03
4017 4017 8.2271771289531993e-03
4020 4017 -6.0651517066825004e-10
4018 4018 1.9463232892843001e-02
4019 4018 -1.1815182736807000e-03
4018 4019 -1.2548313256595001e-03
4019 4019 1.9384989813705001e-02
4026 4019 -1.6666666666667000e-02
4017 4020 -4.1091064419498003e-12
4020 4020 7.5574124685062003e-03
4026 4020 -6.6666666666667001e-03
4021 4021 1.7814568241886000e-02
4022 4021 -1.0745112657111999e-06
4026 4021 -1.4170707401660001e-04
4021 4022 -2.2898883575384000e-08
4022 4022 1.7334868098895999e-02
4023 4022 -1.6666666666667000e-02
4026 4022 -1.3975572113413001e-04
4022 4023 -1.6666666666667000e-02
4023 4023 3.3333333333333000e-02
4024 4023 -1.6666666666667000e-02
4023 4024 -1.6666666666667000e-02
4024 4024 1.7863589134397999e-02
4025 4024 -1.3392269893450001e-04
4024 4025 -2.4489577368918001e-05
4025 4025 1.7308148035804001e-02
4032 4025 -1.6666666666667000e-02
4014 4026 -4.4079339987406998e-04
4019 4026 -1.6666666666667000e-02
4020 4026 -6.6666666666667001e-03
4021 4026 -1.4010366936597000e-04
4022 4026 -1.3841252554937000e-04
4026 4026 2.5661473113815999e-02
4027 4026 -4.2952730076697000e-04
4014 4027 -6.6063521142012004e-04
4026 4027 -4.3363378974190002e-04
4027 4027 9.1715107130021008e-03
4032 4027 -6.6666666666667001e-03
4028 4028 8.2271657711199004e-03
4031 4028 -1.6404963552667999e-09
4032 4028 -1.6513529790030001e-04
4029 4029 1.9375472411164000e-02
4030 4029 -1.2417853121018999e-03
4032 4029 -4.3475025839800001e-04
4029 4030 -1.1826349749035001e-03
4030 4030 1.9458079095090001e-02
4032 4030 -4.3538819975353000e-04
4038 4030 -1.6666666666667000e-02
4028 4031 -1.1274128488791000e-11
4031 4031 7.5566632753145003e-03
4032 4031 -1.6216768905895999e-04
4038 4031 -6.6666666666667001e-03
4016 4032 -6.6666666666667001e-03
4025 4032 -1.6666666666667000e-02
4027 4032 -6.6666666666667001e-03
4028 4032 -1.6142491605693001e-04
4029 4032 -4.3245717833527002e-04
4030 4032 -4.3774165179477002e-04
4031 4032 -1.6142257631897999e-04
4032 4032 3.1969324485459000e-02
4033 4033 9.2178046469003991e-03
4034 4033 -5.9786563433021005e-04
4038 4033 -4.5092678065803999e-04
4033 4034 -5.6519669959368996e-04
4034 4034 8.8411902220071996e-03
4035 4034 -6.6666666666667001e-03
4038 4034 -4.1776680214716003e-04
4034 4035 -6.6666666666667001e-03
4035 4035 1.3333333333332999e-02
4062 4035 -6.6666666666667001e-03
4036 4036 1.7813994444250001e-02
4037 4036 -4.9937540692081002e-07
4038 4036 -1.3993285251427001e-04
4036 4037 -3.0650412612685002e-08
4037 4037 1.7703679431421000e-02
4038 4037 -1.3972058088423001e-04
4063 4037 -1.6666666666667000e-02
4030 4038 -1.6666666666667000e-02
4031 4038 -6.6666666666667001e-03
4033 4038 -4.9873375280188995e-04
4034 4038 -3.7213527569619997e-04
4036 4038 -1.3960748171356000e-04
4037 4038 -1.3890871320178000e-04
4038 4038 2.5768296274288002e-02
4039 4039 9.2028920964922992e-03
4051 4039 -4.5883792707147002e-04
4052 4039 -5.8808506025530001e-04
4040 4040 8.2271768268474006e-03
4041 4040 -3.0318728555568998e-10
4040 4041 -3.4930142702105999e-12
4041 4041 7.9004460936019007e-03
4056 4041 -6.6666666666667001e-03
4042 4042 8.2272577421730001e-03
4045 4042 -6.0778904457672001e-10
4043 4043 1.9457579410893999e-02
4044 4043 -1.1808127160936000e-03
4043 4044 -1.2388003143074999e-03
4044 4044 1.9348587839923000e-02
4051 4044 -1.6666666666667000e-02
4042 4045 -4.1002167490924001e-12
4045 4045 7.5593330679765000e-03
4051 4045 -6.6666666666667001e-03
4046 4046 1.7814816977168000e-02
4047 4046 -1.3222312141669999e-06
4051 4046 -1.4463978982467000e-04
4046 4047 -2.9071239092583999e-08
4047 4047 1.7346097140194999e-02
4048 4047 -1.6666666666667000e-02
4051 4047 -1.4040121222971000e-04
4047 4048 -1.6666666666667000e-02
4048 4048 3.3333333333333000e-02
4049 4048 -1.6666666666667000e-02
4048 4049 -1.6666666666667000e-02
4049 4049 1.7947510293064999e-02
4050 4049 -2.4514397954989001e-04
4049 4050 -1.9396809731664000e-04
4050 4050 1.7702916214269001e-02
4056 4050 -1.6666666666667000e-02
4039 4051 -5.3601366381934000e-04
4044 4051 -1.6666666666667000e-02
4045 4051 -6.6666666666667001e-03
4046 4051 -1.4029687535504001e-04
4047 4051 -1.3821931956029999e-04
4051 4051 2.5239253873908001e-02
4052 4051 -3.3370207478400002e-04
4039 4052 -5.1229546980161998e-04
4051 4052 -4.0793848021890999e-04
4052 4052 8.7108485884663002e-03
4056 4052 -6.6666666666667001e-03
4053 4053 8.7977679204172994e-03
4056 4053 -5.2981374940510001e-04
4057 4053 -8.3825682427956000e-05
4054 4054 1.9158607538382999e-02
4055 4054 -9.2537980064324001e-04
4056 4054 -4.6564667966500001e-04
4054 4055 -7.5038038043468997e-04
4055 4055 1.8607923514747000e-02
4056 4055 -4.0041371040347001e-04
4060 4055 -1.6666666666667000e-02
4041 4056 -6.6666666666667001e-03
4050 4056 -1.6666666666667000e-02
4052 4056 -6.6666666666667001e-03
4053 4056 -5.8948576531983002e-04
4054 4056 -6.2641976906029995e-04
4055 4056 -2.4242252113732999e-04
4056 4056 3.2170708759077002e-02
4057 4056 -9.8195657069164002e-05
4053 4057 -3.2093075828224001e-06
4056 4057 -1.6214434530445999e-04
4057 4057 7.6009233173987001e-03
4060 4057 -6.6666666666667001e-03
4058 4058 1.8442102456169000e-02
4059 4058 -8.9416539504129006e-05
4060 4058 -5.4616077892580002e-04
4058 4059 -2.4024621017596999e-05
4059 4059 1.7713773658864999e-02
4060 4059 -1.4744284839693001e-04
4063 4059 -1.6666666666667000e-02
4055 4060 -1.6666666666667000e-02
4057 4060 -6.6666666666667001e-03
4058 4060 -5.9771312520847004e-04
4059 4060 -7.5218129180471994e-05
4060 4060 2.5283374015406999e-02
4061 4060 3.7815945740061998e-05
4062 4060 -7.2549736812905000e-04
4060 4061 -1.6292768029014000e-04
4061 4061 7.6108336928217999e-03
4062 4061 -4.1635063385050000e-05
4063 4061 -6.6666666666667001e-03
4035 4062 -6.6666666666667001e-03
4060 4062 -5.3023064566409003e-04
4061 4062 -2.6982734727409998e-04
4062 4062 8.6600913674268996e-03
4010 4063 -4.3362401627255001e-04
4011 4063 -1.4388937544824001e-04
4012 4063 -1.3462681946709999e-04
4013 4063 -4.3653366432492002e-04
4037 4063 -1.6666666666667000e-02
4059 4063 -1.6666666666667000e-02
4061 4063 -6.6666666666667001e-03
4063 4063 4.1889682869384000e-02
4064 4064 1.9467152413839998e-02
4065 4064 -1.1850409574740001e-03
4397 4064 -4.3508501063927000e-04
4064 4065 -1.2598051726437000e-03
4065 4065 1.9391686676903001e-02
4066 4065 -1.6666666666667000e-02
4397 4065 -4.3505377271235002e-04
4065 4066 -1.6666666666667000e-02
4066 4066 3.3333333333333000e-02
4067 4066 -1.6666666666667000e-02
4066 4067 -1.6666666666667000e-02
4067 4067 1.7814255887774001e-02
4068 4067 -1.0769696201375001e-06
4400 4067 -1.4019098654585000e-04
4067 4068 -2.1226563658541000e-08
4068 4068 1.7296491675591000e-02
4069 4068 -1.6666666666667000e-02
4400 4068 -1.3941995407784001e-04
4001 4069 -1.6142419305501001e-04
4002 4069 -4.3113811279698997e-04
4003 4069 -4.3908960317390002e-04
4004 4069 -1.6142329932089999e-04
4007 4069 -6.6666666666667001e-03
4009 4069 -6.6666666666667001e-03
4068 4069 -1.6666666666667000e-02
4069 4069 3.2099154363481999e-02
4070 4070 1.9389915474859000e-02
4071 4070 -1.2564677310640999e-03
4079 4070 -4.3471960219716000e-04
4070 4071 -1.1986213520802000e-03
4071 4071 1.9473769740799000e-02
4072 4071 -1.6666666666667000e-02
4079 4071 -4.3541879196652998e-04
4071 4072 -1.6666666666667000e-02
4072 4072 3.3333333333333000e-02
4379 4072 -1.6666666666667000e-02
4073 4073 9.2178384963548000e-03
4076 4073 -6.7180385740682003e-04
4380 4073 -4.3504707619006000e-04
4074 4074 1.7814657643019000e-02
4075 4074 -1.2141913513990999e-06
4380 4074 -1.4166028080623999e-04
4074 4075 -2.3996432244407000e-08
4075 4075 1.7296414279597001e-02
4079 4075 -1.6666666666667000e-02
4380 4075 -1.3967431247257001e-04
4073 4076 -6.2335675156907004e-04
4076 4076 9.2663910279418005e-03
4079 4076 -6.6666666666667001e-03
4380 4076 -4.3505131118301002e-04
4077 4077 8.2271922948855998e-03
4078 4077 -6.0597898925860004e-10
4079 4077 -1.6461962180674999e-04
4077 4078 -4.0972550358077999e-12
4078 4078 7.5563644520953996e-03
4079 4078 -1.6205961033995001e-04
4378 4078 -6.6666666666667001e-03
4070 4079 -4.3216102393134001e-04
4071 4079 -4.3804345587543998e-04
4075 4079 -1.6666666666667000e-02
4076 4079 -6.6666666666667001e-03
4077 4079 -1.6142417518568000e-04
4078 4079 -1.6142331719023000e-04
4079 4079 2.5549101469307001e-02
4080 4080 8.2271879552943995e-03
4083 4080 -5.9657717189327004e-10
4375 4080 -1.6460653852682001e-04
4081 4081 1.9463953754617999e-02
4082 4081 -1.1818319568459999e-03
4375 4081 -4.3507404281519001e-04
4081 4082 -1.2566944419815001e-03
4082 4082 1.9388882982957000e-02
4099 4082 -1.6666666666667000e-02
4375 4082 -4.3506474124186003e-04
4080 4083 -4.0369229810852000e-12
4083 4083 7.5572265609077996e-03
4099 4083 -6.6666666666667001e-03
4375 4083 -1.6205986619822999e-04
4084 4084 1.7814705631271001e-02
4085 4084 -1.2127358081553000e-06
4097 4084 -1.4163628466858999e-04
4084 4085 -2.3965229620695000e-08
4085 4085 1.7296439465326999e-02
4086 4085 -1.6666666666667000e-02
4097 4085 -1.3967012182577001e-04
4085 4086 -1.6666666666667000e-02
4086 4086 2.3854346543977001e-02
4088 4086 -6.6666666666667001e-03
4087 4087 9.2658629113294994e-03
4088 4087 -6.2287730433650997e-04
4097 4087 -4.3505797546745999e-04
4086 4088 -6.6666666666667001e-03
4087 4088 -6.7154540456725996e-04
4088 4088 9.2168788862866998e-03
4097 4088 -4.3504041154153998e-04
4089 4089 1.9388342751357000e-02
4090 4089 -1.2560293537225999e-03
4104 4089 -4.3506821953820000e-04
4089 4090 -1.1811729084052001e-03
4090 4090 1.9463289521080000e-02
4097 4090 -1.6666666666667000e-02
4104 4090 -4.3507056458317000e-04
4091 4091 1.7814432634013999e-02
4092 4091 -9.3484435195036999e-07
4099 4091 -1.4035610302907001e-04
4091 4092 -9.3564569083605003e-07
4092 4092 1.7814457721627999e-02
4097 4092 -1.6666666666667000e-02
4099 4092 -1.4050037395454000e-04
4093 4093 8.2271750731787007e-03
4094 4093 -5.6125361055261998e-10
4104 4093 -1.6459796765374001e-04
4093 4094 -3.9263407119618003e-12
4094 4094 7.5912058564331997e-03
4095 4094 -6.6666666666667001e-03
4104 4094 -1.6213070704962999e-04
4094 4095 -6.6666666666667001e-03
4095 4095 1.3333333333332999e-02
4096 4095 -6.6666666666667001e-03
4095 4096 -6.6666666666667001e-03
4096 4096 7.5912067948044996e-03
4098 4096 -6.9100075097032000e-10
4099 4096 -1.6685404999561000e-04
4084 4097 -1.4022923259948000e-04
4085 4097 -1.3828696231586000e-04
4087 4097 -4.3508521197950999e-04
4088 4097 -4.3501465401018000e-04
4090 4097 -1.6666666666667000e-02
4092 4097 -1.6666666666667000e-02
4097 4097 4.2093110515083999e-02
4098 4097 -6.6666666666667001e-03
4096 4098 -1.2477847458689001e-11
4097 4098 -6.6666666666667001e-03
4098 4098 7.5572156573171000e-03
4099 4098 -1.6631914340978999e-04
4082 4099 -1.6666666666667000e-02
4083 4099 -6.6666666666667001e-03
4091 4099 -1.3925784641580000e-04
4092 4099 -1.3925834849954000e-04
4096 4099 -1.6142436985362000e-04
4098 4099 -1.6142312252229001e-04
4099 4099 2.5281920401789001e-02
4100 4100 9.2677312314999993e-03
4103 4100 -6.2485506485845000e-04
4378 4100 -4.3509348987444001e-04
4101 4101 1.7814585943582002e-02
4102 4101 -1.0823080736725001e-06
4378 4101 -1.4022352269179000e-04
4101 4102 -2.1314702398907000e-08
4102 4102 1.7296486333870001e-02
4104 4102 -1.6666666666667000e-02
4378 4102 -1.3941978813655000e-04
4100 4103 -6.7338223586211005e-04
4103 4103 9.2176050141369002e-03
4104 4103 -6.6666666666667001e-03
4378 4103 -4.3500488768598999e-04
4089 4104 -4.3505965243866002e-04
4090 4104 -4.3507935126163003e-04
4093 4104 -1.6142414306439000e-04
4094 4104 -1.6142334931152001e-04
4102 4104 -1.6666666666667000e-02
4103 4104 -6.6666666666667001e-03
4104 4104 2.5549840972241000e-02
4105 4105 8.2267401683368008e-03
4106 4105 -1.7603666998898999e-08
4377 4105 -1.6632018939360000e-04
4105 4106 -1.2535696399006000e-10
4106 4106 7.5563307958490004e-03
4377 4106 -1.6240509068895999e-04
4378 4106 -6.6666666666667001e-03
4107 4107 8.2271766642891993e-03
4110 4107 -6.2086104826969996e-10
4135 4107 -1.6461446327199999e-04
4108 4108 1.9388473311477999e-02
4109 4108 -1.2561676217868001e-03
4135 4108 -4.3506893789951000e-04
4108 4109 -1.1812693211513999e-03
4109 4109 1.9463406606333999e-02
4135 4109 -4.3506984622558001e-04
4360 4109 -1.6666666666667000e-02
4107 4110 -4.2070864734746999e-12
4110 4110 7.5572168164235003e-03
4135 4110 -1.6206438131446000e-04
4360 4110 -6.6666666666667001e-03
4111 4111 1.7814705361063998e-02
4112 4111 -1.2127118025668000e-06
4140 4111 -1.4163760526681999e-04
4111 4112 -2.3966181236839001e-08
4112 4112 1.7296470568871000e-02
4135 4112 -1.6666666666667000e-02
4140 4112 -1.3967040636316000e-04
4113 4113 1.7814746753871999e-02
4114 4113 -1.2530344949367999e-06
4134 4113 -1.4207263091655999e-04
4113 4114 -2.4786638094675999e-08
4114 4114 1.7296471473600999e-02
4134 4114 -1.3974578356011001e-04
4135 4114 -1.6666666666667000e-02
4115 4115 9.2658368263990997e-03
4116 4115 -6.2286360713534003e-04
4140 4115 -4.3506545700595998e-04
4115 4116 -6.7148706271863000e-04
4116 4116 9.2166284302433992e-03
4117 4116 -6.6666666666667001e-03
4140 4116 -4.3503292906381998e-04
4116 4117 -6.6666666666667001e-03
4117 4117 1.3333333333332999e-02
4132 4117 -6.6666666666667001e-03
4118 4118 8.2272969288020008e-03
4130 4118 -1.6645330656473001e-04
4131 4118 -1.8776201046321999e-08
4119 4119 8.2270111286854002e-03
4127 4119 -2.3816506644731001e-10
4120 4120 9.2471209523427994e-03
4126 4120 -6.1471134201491996e-04
4121 4121 1.7814808610407001e-02
4122 4121 -1.0490028632910000e-06
4121 4122 -2.2289378419311001e-08
4122 4122 1.7338103067369999e-02
4123 4122 -1.6666666666667000e-02
4122 4123 -1.6666666666667000e-02
4123 4123 3.3333333333333000e-02
4124 4123 -1.6666666666667000e-02
4123 4124 -1.6666666666667000e-02
4124 4124 1.7881970950490000e-02
4125 4124 -1.4852620730956999e-04
4124 4125 -2.7060926260433000e-05
4125 4125 1.7315347775521000e-02
4130 4125 -1.6666666666667000e-02
4120 4126 -6.3528934311457997e-04
4126 4126 9.0703066046193999e-03
4130 4126 -6.6666666666667001e-03
4119 4127 -4.8187228569239003e-12
4127 4127 8.1174348547293999e-03
4130 4127 -6.6666666666667001e-03
4128 4128 1.9412457534840999e-02
4129 4128 -1.1321748093837999e-03
4130 4128 -4.3521944691072998e-04
4128 4129 -1.2038424998252000e-03
4129 4129 1.9334433482114000e-02
4130 4129 -4.3491926426245998e-04
4134 4129 -1.6666666666667000e-02
4118 4130 -1.6143724041325000e-04
4125 4130 -1.6666666666667000e-02
4126 4130 -6.6666666666667001e-03
4127 4130 -6.6666666666667001e-03
4128 4130 -4.3627819399319999e-04
4129 4130 -4.3388869512713999e-04
4130 4130 3.1943579532902999e-02
4131 4130 -1.6141025196266001e-04
4118 4131 -1.3289228847487999e-10
4130 4131 -1.6241224829824000e-04
4131 4131 7.5574746519510997e-03
4134 4131 -6.6666666666667001e-03
4117 4132 -6.6666666666667001e-03
4132 4132 9.2645863613466002e-03
4133 4132 -6.2222810113428005e-04
4134 4132 -4.3506478014406001e-04
4132 4133 -6.7076425470372005e-04
4133 4133 9.2154910030789999e-03
4134 4133 -4.3503360603358999e-04
4135 4133 -6.6666666666667001e-03
4113 4134 -1.4026187984176000e-04
4114 4134 -1.3825431507358000e-04
4129 4134 -1.6666666666667000e-02
4131 4134 -6.6666666666667001e-03
4132 4134 -4.3511302367872000e-04
4133 4134 -4.3498798565635999e-04
4134 4134 2.5354428534042000e-02
4107 4135 -1.6142418625166000e-04
4108 4135 -4.3506561898295002e-04
4109 4135 -4.3507325018971997e-04
4110 4135 -1.6142330612425000e-04
4112 4135 -1.6666666666667000e-02
4114 4135 -1.6666666666667000e-02
4133 4135 -6.6666666666667001e-03
4135 4135 4.1983439475825002e-02
4136 4136 8.2271831325524993e-03
4139 4136 -6.3906722249171995e-10
4204 4136 -1.6463798912954000e-04
4137 4137 1.9388055111754000e-02
4138 4137 -1.2557464891405001e-03
4204 4137 -4.3506858644794998e-04
4137 4138 -1.1808639889664000e-03
4138 4138 1.9462990952672000e-02
4140 4138 -1.6666666666667000e-02
4204 4138 -4.3507019767572000e-04
4136 4139 -4.3304234487849000e-12
4139 4139 7.5572166001007003e-03
4140 4139 -6.6666666666667001e-03
4204 4139 -1.6206749134624001e-04
4111 4140 -1.4022919992815001e-04
4112 4140 -1.3828699498718999e-04
4115 4140 -4.3511589624791998e-04
4116 4140 -4.3498522853709001e-04
4138 4140 -1.6666666666667000e-02
4139 4140 -6.6666666666667001e-03
4140 4140 2.5599570172417999e-02
4141 4141 9.2661091290346994e-03
4142 4141 -6.2306481073977002e-04
4380 4141 -4.3512362944164002e-04
4141 4142 -6.7112533917080999e-04
4142 4142 9.2151963781675998e-03
4204 4142 -6.6666666666667001e-03
4380 4142 -4.3497473017616001e-04
4143 4143 8.2267340175186995e-03
4144 4143 -1.1402357490516000e-08
4377 4143 -1.6602005488616000e-04
4143 4144 -1.0596304120004000e-08
4144 4144 8.2247596125498996e-03
4204 4144 -6.6666666666667001e-03
4377 4144 -1.6600083740831001e-04
4145 4145 9.0213170779092008e-03
4148 4145 -3.8598333488720001e-04
4198 4145 -4.4511581554226002e-04
4146 4146 1.8700756388076001e-02
4147 4146 -4.1425192942722000e-04
4198 4146 -5.5682489340751001e-04
4146 4147 -3.9423470944603002e-05
4147 4147 1.7338740434621001e-02
4198 4147 -1.4357444357191999e-04
4377 4147 -1.6666666666667000e-02
4145 4148 -3.9695725627279002e-04
4148 4148 8.8428686444458997e-03
4198 4148 -4.2442912957597998e-04
4377 4148 -6.6666666666667001e-03
4149 4149 8.2277926479370003e-03
4161 4149 -1.6796356007056000e-04
4162 4149 -3.9002826149207998e-07
4150 4150 8.2270732592084998e-03
4151 4150 -4.3933474840791998e-10
4150 4151 -3.4085040472948001e-12
4151 4151 7.6721806748343002e-03
4167 4151 -6.6666666666667001e-03
4152 4152 9.2312617318365004e-03
4155 4152 -6.0605226106610996e-04
4153 4153 1.7814954396551001e-02
4154 4153 -1.1627442032691001e-06
4153 4154 -2.3338219235291000e-08
4154 4154 1.7310031975605999e-02
4161 4154 -1.6666666666667000e-02
4152 4155 -6.0012209786224004e-04
4155 4155 8.9494669902420998e-03
4161 4155 -6.6666666666667001e-03
4156 4156 1.9272413670817001e-02
4157 4156 -1.0454701546797000e-03
4161 4156 -4.6381139197215998e-04
4156 4157 -8.5187527276923004e-04
4157 4157 1.8695134955809999e-02
4158 4157 -1.6666666666667000e-02
4161 4157 -4.0282794380241000e-04
4157 4158 -1.6666666666667000e-02
4158 4158 3.3333333333333000e-02
4159 4158 -1.6666666666667000e-02
4158 4159 -1.6666666666667000e-02
4159 4159 1.8671580451336000e-02
4160 4159 -7.7661970992007996e-04
4159 4160 -5.6246292160251003e-04
4160 4160 1.8253626240205000e-02
4167 4160 -1.6666666666667000e-02
4149 4161 -1.6170536801280000e-04
4154 4161 -1.6666666666667000e-02
4155 4161 -6.6666666666667001e-03
4156 4161 -6.4392773889481001e-04
4157 4161 -2.2528162580960000e-04
4161 4161 2.5484480439142001e-02
4162 4161 -1.6114212436311000e-04
4149 4162 -3.3282115174046999e-09
4161 4162 -1.6319727761130999e-04
4162 4162 7.6718513657579998e-03
4167 4162 -6.6666666666667001e-03
4163 4163 8.9612357480832999e-03
4166 4163 -2.8559819707834998e-04
4167 4163 -5.3176398783733004e-04
4164 4164 1.8778435316986000e-02
4165 4164 -5.1865513822293996e-04
4167 4164 -4.5262360133953999e-04
4164 4165 -5.0329450575678004e-04
4165 4165 1.8554955117071000e-02
4167 4165 -4.1614825002757999e-04
4173 4165 -1.6666666666667000e-02
4163 4166 -3.5026422186024997e-05
4166 4166 7.6016878436142004e-03
4167 4166 -1.6264332027207001e-04
4173 4166 -6.6666666666667001e-03
4151 4167 -6.6666666666667001e-03
4160 4167 -1.6666666666667000e-02
4162 4167 -6.6666666666667001e-03
4163 4167 -7.3410720026830998e-04
4164 4167 -4.8330131368479000e-04
4165 4167 -3.8802561461370998e-04
4166 4167 4.6425777879315002e-05
4167 4167 3.2159984297662002e-02
4168 4168 9.1890724452597002e-03
4169 4168 -5.7034619298518003e-04
4173 4168 -4.5897029028003997e-04
4168 4169 -4.9857199004108000e-04
4169 4169 8.7051521745862993e-03
4170 4169 -6.6666666666667001e-03
4173 4169 -4.0776361126330002e-04
4169 4170 -6.6666666666667001e-03
4170 4170 1.3333333333332999e-02
4197 4170 -6.6666666666667001e-03
4171 4171 1.7815932093047000e-02
4172 4171 -2.5905335175313001e-06
4173 4171 -1.5307474428479000e-04
4171 4172 -7.0733609432150996e-08
4172 4172 1.7428163438926999e-02
4173 4172 -1.4322294665275001e-04
4198 4172 -1.6666666666667000e-02
4165 4173 -1.6666666666667000e-02
4166 4173 -6.6666666666667001e-03
4168 4173 -5.3257875627637998e-04
4169 4173 -3.3712612611129999e-04
4171 4173 -1.4125749308237999e-04
4172 4173 -1.3725870183295999e-04
4173 4173 2.5502043237456001e-02
4174 4174 9.2599782623968997e-03
4186 4174 -4.3600208994992002e-04
4187 4174 -6.1895532884597001e-04
4175 4175 9.2607285733989006e-03
4176 4175 -6.2124034852950995e-04
4175 4176 -6.6418700021739002e-04
4176 4176 9.1847877883981001e-03
4191 4176 -6.6666666666667001e-03
4177 4177 8.2272584330032993e-03
4180 4177 -6.1005794255115000e-10
4178 4178 1.9460189432966998e-02
4179 4178 -1.1811704174043999e-03
4178 4179 -1.2474713502952999e-03
4179 4179 1.9368174878787999e-02
4186 4179 -1.6666666666667000e-02
4177 4180 -4.1118705049447999e-12
4180 4180 7.5582833070181000e-03
4186 4180 -6.6666666666667001e-03
4181 4181 1.7814091840018999e-02
4182 4181 -5.9360110500384998e-07
4186 4181 -1.4154381782251999e-04
4181 4182 -4.6510934984898999e-08
4182 4182 1.7735214783327000e-02
4183 4182 -1.6666666666667000e-02
4186 4182 -1.4099230733384999e-04
4182 4183 -1.6666666666667000e-02
4183 4183 3.3333333333333000e-02
4184 4183 -1.6666666666667000e-02
4183 4184 -1.6666666666667000e-02
4184 4184 1.7735587146110000e-02
4185 4184 -3.2891933568309002e-07
4184 4185 -7.4971601395718000e-09
4185 4185 1.7297666372630000e-02
4191 4185 -1.6666666666667000e-02
4174 4186 -4.3892937785158001e-04
4179 4186 -1.6666666666667000e-02
4180 4186 -6.6666666666667001e-03
4181 4186 -1.3966608562153001e-04
4182 4186 -1.3885010929380999e-04
4186 4186 2.5344978392996001e-02
4187 4186 -4.3132291294946000e-04
4174 4187 -6.6196511151391001e-04
4186 4187 -4.3409171291296998e-04
4187 4187 9.1838183562377995e-03
4191 4187 -6.6666666666667001e-03
4188 4188 8.2272146788435006e-03
4191 4188 -1.6500312061418001e-04
4192 4188 -1.1669972270105999e-09
4189 4189 1.9449815775856999e-02
4190 4189 -1.1715982709875001e-03
4191 4189 -4.3602264806157998e-04
4189 4190 -1.2327767990975001e-03
4190 4190 1.9347414547829001e-02
4191 4190 -4.3411317660757001e-04
4195 4190 -1.6666666666667000e-02
4176 4191 -6.6666666666667001e-03
4185 4191 -1.6666666666667000e-02
4187 4191 -6.6666666666667001e-03
4188 4191 -1.6142457430054000e-04
4189 4191 -4.4307992081601998e-04
4190 4191 -4.2723008258112999e-04
4191 4191 3.1973984753521000e-02
4192 4191 -1.6142291807537000e-04
4188 4192 -7.9723944655936004e-12
4191 4192 -1.6213650288223001e-04
4192 4192 7.5588608499840004e-03
4195 4192 -6.6666666666667001e-03
4193 4193 1.7813986585673000e-02
4194 4193 -9.9597319935826990e-07
4195 4193 -1.4334323594571000e-04
4193 4194 -2.6366800178976999e-08
4194 4194 1.7428141314093998e-02
4195 4194 -1.4043203698410999e-04
4198 4194 -1.6666666666667000e-02
4190 4195 -1.6666666666667000e-02
4192 4195 -6.6666666666667001e-03
4193 4195 -1.4001735610008999e-04
4194 4195 -1.3849883881525001e-04
4195 4195 2.5296448967131999e-02
4196 4195 -2.1356792548443999e-04
4197 4195 -6.1411594782984004e-04
4195 4196 -3.2207156630372001e-04
4196 4196 8.0106445932359993e-03
4197 4196 -1.5197425225483999e-04
4198 4196 -6.6666666666667001e-03
4170 4197 -6.6666666666667001e-03
4195 4197 -5.0426824828713000e-04
4196 4197 -2.8004758910646002e-04
4197 4197 8.5827536659944005e-03
4145 4198 -4.5707485831993002e-04
4146 4198 -8.8436535382355999e-04
4147 4198 2.1143409943462000e-04
4148 4198 -4.1394315114472001e-04
4172 4198 -1.6666666666667000e-02
4194 4198 -1.6666666666667000e-02
4196 4198 -6.6666666666667001e-03
4198 4198 4.2142703988623000e-02
4199 4199 1.9342043017115000e-02
4200 4199 -1.2071061539026999e-03
4377 4199 -4.3478697253402000e-04
4199 4200 -1.1470156468045001e-03
4200 4200 1.9422165953460000e-02
4201 4200 -1.6666666666667000e-02
4377 4200 -4.3535155330271999e-04
4200 4201 -1.6666666666667000e-02
4201 4201 3.3333333333333000e-02
4202 4201 -1.6666666666667000e-02
4201 4202 -1.6666666666667000e-02
4202 4202 1.7820564213942000e-02
4203 4202 -1.5281605094548999e-06
4380 4202 -1.6675163745268000e-04
4202 4203 -2.5847954306050000e-08
4203 4203 1.7296523450634000e-02
4204 4203 -1.6666666666667000e-02
4380 4203 -1.3967691410985000e-04
4136 4204 -1.6142419904108000e-04
4137 4204 -4.3506270215136998e-04
4138 4204 -4.3507623284113001e-04
4139 4204 -1.6142329333483001e-04
4142 4204 -6.6666666666667001e-03
4144 4204 -6.6666666666667001e-03
4203 4204 -1.6666666666667000e-02
4204 4204 3.2098934146607000e-02
4205 4205 1.9463636154264000e-02
4206 4205 -1.1814828700522000e-03
4214 4205 -4.3506939413191000e-04
4205 4206 -1.2564104385727000e-03
4206 4206 1.9388708493099000e-02
4207 4206 -1.6666666666667000e-02
4214 4206 -4.3506938999382999e-04
4206 4207 -1.6666666666667000e-02
4207 4207 3.3333333333333000e-02
4359 4207 -1.6666666666667000e-02
4208 4208 9.2658599266316009e-03
4211 4208 -6.2287439884648995e-04
4360 4208 -4.3505793112420002e-04
4209 4209 1.7814705835733999e-02
4210 4209 -1.2129369713339000e-06
4360 4209 -1.4163847965420001e-04
4209 4210 -2.3969318105182000e-08
4210 4210 1.7296439413849000e-02
4214 4210 -1.6666666666667000e-02
4360 4210 -1.3967050200607001e-04
4208 4211 -6.7154263349304005e-04
4211 4211 9.2168773642069008e-03
4214 4211 -6.6666666666667001e-03
4360 4211 -4.3504045588869998e-04
4212 4212 8.2271771343097998e-03
4213 4212 -6.1070023697085002e-10
4214 4212 -1.6460539190593000e-04
4212 4213 -4.1372111946701003e-12
4213 4213 7.5572176571603996e-03
4214 4213 -1.6206256097949000e-04
4358 4213 -6.6666666666667001e-03
4205 4214 -4.3506940964380001e-04
4206 4214 -4.3506937486938001e-04
4210 4214 -1.6666666666667000e-02
4211 4214 -6.6666666666667001e-03
4212 4214 -1.6142417900525999e-04
4213 4214 -1.6142331337064999e-04
4214 4214 2.5548935533756000e-02
4215 4215 8.2271771308290009e-03
4218 4215 -6.0761883665748000e-10
4355 4215 -1.6460261134932001e-04
4216 4216 1.9463710664143999e-02
4217 4216 -1.1815557344138001e-03
4355 4216 -4.3506939340155000e-04
4216 4217 -1.2564849556575999e-03
4217 4217 1.9388781382953999e-02
4234 4217 -1.6666666666667000e-02
4355 4217 -4.3506939072418999e-04
4215 4218 -4.1160239603475996e-12
4218 4218 7.5572176532585997e-03
4234 4218 -6.6666666666667001e-03
4355 4218 -1.6206200268868999e-04
4219 4219 1.7814705962498002e-02
4220 4219 -1.2130649587290000e-06
4232 4219 -1.4163987684786999e-04
4219 4220 -2.3971919697153000e-08
4220 4220 1.7296439384436001e-02
4221 4220 -1.6666666666667000e-02
4232 4220 -1.3967074401673000e-04
4220 4221 -1.6666666666667000e-02
4221 4221 2.3854346543977001e-02
4223 4221 -6.6666666666667001e-03
4222 4222 9.2658580517503003e-03
4223 4222 -6.2287254623412999e-04
4232 4222 -4.3505790681629001e-04
4221 4223 -6.6666666666667001e-03
4222 4223 -6.7154084698884005e-04
4223 4223 9.2168762988381007e-03
4232 4223 -4.3504048019872999e-04
4224 4224 1.9463636410511999e-02
4225 4224 -1.1814831147670000e-03
4239 4224 -4.3506939317519000e-04
4224 4225 -1.2564107033380999e-03
4225 4225 1.9388708772134999e-02
4232 4225 -1.6666666666667000e-02
4239 4225 -4.3506939095054001e-04
4226 4226 1.7814431860281001e-02
4227 4226 -9.3380141516844998e-07
4234 4226 -1.4034808818087999e-04
4226 4227 -9.3380107642689004e-07
4227 4227 1.7814431836882999e-02
4232 4227 -1.6666666666667000e-02
4234 4227 -1.4034808808488001e-04
4228 4228 8.2271770695612999e-03
4229 4228 -5.4687814645884001e-10
4239 4228 -1.6458372682648999e-04
4228 4229 -3.8242391166181996e-12
4229 4229 7.5912124996589002e-03
4230 4229 -6.6666666666667001e-03
4239 4229 -1.6212754630552000e-04
4229 4230 -6.6666666666667001e-03
4230 4230 1.3333333333332999e-02
4231 4230 -6.6666666666667001e-03
4230 4231 -6.6666666666667001e-03
4231 4231 7.5912131904444999e-03
4233 4231 -6.9507006242521003e-10
4234 4231 -1.6685427718617001e-04
4219 4232 -1.4022949935861001e-04
4220 4232 -1.3828669555672999e-04
4222 4232 -4.3508493001240001e-04
4223 4232 -4.3501492442321002e-04
4225 4232 -1.6666666666667000e-02
4227 4232 -1.6666666666667000e-02
4232 4232 4.2092980418920997e-02
4233 4232 -6.6666666666667001e-03
4231 4233 -1.2551134549491000e-11
4232 4233 -6.6666666666667001e-03
4233 4233 7.5572176613018004e-03
4234 4233 -1.6631928529661999e-04
4217 4234 -1.6666666666667000e-02
4218 4234 -6.6666666666667001e-03
4226 4234 -1.3925809769568001e-04
4227 4234 -1.3925809721965999e-04
4231 4234 -1.6142437352673999e-04
4233 4234 -1.6142311884918001e-04
4234 4234 2.5282357920601999e-02
4235 4235 9.2658580417680006e-03
4238 4235 -6.2287253630105002e-04
4358 4235 -4.3505790674875999e-04
4236 4236 1.7814705963155000e-02
4237 4236 -1.2130656386763001e-06
4358 4236 -1.4163988427722999e-04
4236 4237 -2.3971933522778001e-08
4237 4237 1.7296439384355999e-02
4239 4237 -1.6666666666667000e-02
4358 4237 -1.3967074530374000e-04
4235 4238 -6.7154083705878002e-04
4238 4238 9.2168762912885997e-03
4239 4238 -6.6666666666667001e-03
4358 4238 -4.3504048026626999e-04
4224 4239 -4.3506940151445998e-04
4225 4239 -4.3506938281956002e-04
4228 4239 -1.6142413283597000e-04
4229 4239 -1.6142335953995001e-04
4237 4239 -1.6666666666667000e-02
4238 4239 -6.6666666666667001e-03
4239 4239 2.5550262696301000e-02
4240 4240 8.2271771331526005e-03
4241 4240 -6.1068987846407002e-10
4357 4240 -1.6460538259973999e-04
4240 4241 -4.1371400285313002e-12
4241 4241 7.5572176570771997e-03
4357 4241 -1.6206255911236999e-04
4358 4241 -6.6666666666667001e-03
4242 4242 1.7814013954196999e-02
4243 4242 -5.1777958642454996e-07
4251 4242 -1.4041504312260999e-04
4242 4243 -4.9680188086480998e-08
4243 4243 1.7749225266877000e-02
4244 4243 -1.6666666666667000e-02
4251 4243 -1.4017814681223999e-04
4243 4244 -1.6666666666667000e-02
4244 4244 3.3333333333333000e-02
4354 4244 -1.6666666666667000e-02
4245 4245 8.2271771331526005e-03
4248 4245 -6.1068988789955000e-10
4357 4245 -1.6460538260263999e-04
4246 4246 1.9463636410406000e-02
4247 4246 -1.1814831144806000e-03
4357 4246 -4.3506939310711999e-04
4246 4247 -1.2564107040247000e-03
4247 4247 1.9388708774105000e-02
4251 4247 -1.6666666666667000e-02
4357 4247 -4.3506939101861999e-04
4245 4248 -4.1371401048236003e-12
4248 4248 7.5572176527078996e-03
4251 4248 -6.6666666666667001e-03
4357 4248 -1.6206255910425999e-04
4249 4249 9.2658836301457003e-03
4250 4249 -6.2288378886960003e-04
4251 4249 -4.3505079555341002e-04
4249 4250 -6.7159474490788003e-04
4250 4250 9.2171150352740993e-03
4251 4250 -4.3504759182926001e-04
4355 4250 -6.6666666666667001e-03
4242 4251 -1.3960581856450999e-04
4243 4251 -1.3891037635083001e-04
4247 4251 -1.6666666666667000e-02
4248 4251 -6.6666666666667001e-03
4249 4251 -4.3505576369026999e-04
4250 4251 -4.3504289349495002e-04
4251 4251 2.5854925417162000e-02
4252 4252 9.2658580517995994e-03
4255 4252 -6.2287254623403002e-04
4305 4252 -4.3505790679545999e-04
4253 4253 1.7814705962500000e-02
4254 4253 -1.2130649612648000e-06
4305 4253 -1.4163987687317001e-04
4253 4254 -2.3971919746416000e-08
4254 4254 1.7296439384387002e-02
4305 4254 -1.3967074402102000e-04
4357 4254 -1.6666666666667000e-02
4252 4255 -6.7154084711323002e-04
4255 4255 9.2168762995120997e-03
4305 4255 -4.3504048021956998e-04
4357 4255 -6.6666666666667001e-03
4256 4256 8.2271771331111007e-03
4268 4256 -1.6460538261432999e-04
4269 4256 -6.1068989418460003e-10
4257 4257 8.2271771293656003e-03
4258 4257 -6.0692932076428000e-10
4257 4258 -4.1112831487739003e-12
4258 4258 7.5572176569914003e-03
4274 4258 -6.6666666666667001e-03
4259 4259 9.2658580565692997e-03
4262 4259 -6.2287255085605002e-04
4260 4260 1.7814705962187000e-02
4261 4260 -1.2130646465484999e-06
4260 4261 -2.3971913347916000e-08
4261 4261 1.7296439384428000e-02
4268 4261 -1.6666666666667000e-02
4259 4262 -6.7154085181586002e-04
4262 4262 9.2168763034978993e-03
4268 4262 -6.6666666666667001e-03
4263 4263 1.9463636406974998e-02
4264 4263 -1.1814831137666000e-03
4268 4263 -4.3506939380673001e-04
4263 4264 -1.2564106930521000e-03
4264 4264 1.9388708749605001e-02
4265 4264 -1.6666666666667000e-02
4268 4264 -4.3506939031900997e-04
4264 4265 -1.6666666666667000e-02
4265 4265 3.3333333333333000e-02
4266 4265 -1.6666666666667000e-02
4265 4266 -1.6666666666667000e-02
4266 4266 1.9463727306868000e-02
4267 4266 -1.1815720809408999e-03
4266 4267 -1.2565016484923999e-03
4267 4267 1.9388797661240000e-02
4274 4267 -1.6666666666667000e-02
4256 4268 -1.6142417899788001e-04
4261 4268 -1.6666666666667000e-02
4262 4268 -6.6666666666667001e-03
4263 4268 -4.3506940688071998e-04
4264 4268 -4.3506937757156999e-04
4268 4268 2.5548935806938001e-02
4269 4268 -1.6142331337802999e-04
4256 4269 -4.1371401089697001e-12
4268 4269 -1.6206255911524001e-04
4269 4269 7.5572176570182998e-03
4274 4269 -6.6666666666667001e-03
4270 4270 9.2658580414442006e-03
4273 4270 -6.2287253636224000e-04
4274 4270 -4.3505790682117997e-04
4271 4271 1.7814705963162002e-02
4272 4271 -1.2130656252449001e-06
4274 4271 -1.4163988413157000e-04
4271 4272 -2.3971933253051999e-08
4272 4272 1.7296439384455999e-02
4274 4272 -1.3967074527865999e-04
4280 4272 -1.6666666666667000e-02
4270 4273 -6.7154083666619996e-04
4273 4273 9.2168762888139005e-03
4274 4273 -4.3504048019384002e-04
4280 4273 -6.6666666666667001e-03
4258 4274 -6.6666666666667001e-03
4267 4274 -1.6666666666667000e-02
4269 4274 -6.6666666666667001e-03
4270 4274 -4.3508493003166000e-04
4271 4274 -1.4022949989871001e-04
4272 4274 -1.3828669501662999e-04
4273 4274 -4.3501492440477002e-04
4274 4274 3.2092980155310001e-02
4275 4275 8.2271770695572007e-03
4276 4275 -5.4687817530529005e-10
4280 4275 -1.6458372685536999e-04
4275 4276 -3.8242394024016001e-12
4276 4276 7.5912124995577996e-03
4277 4276 -6.6666666666667001e-03
4280 4276 -1.6212754631174999e-04
4276 4277 -6.6666666666667001e-03
4277 4277 1.3333333333332999e-02
4304 4277 -6.6666666666667001e-03
4278 4278 1.9463636409708999e-02
4279 4278 -1.1814831140055000e-03
4280 4278 -4.3506939318323001e-04
4278 4279 -1.2564107024432001e-03
4279 4279 1.9388708771105000e-02
4280 4279 -4.3506939094250998e-04
4305 4279 -1.6666666666667000e-02
4272 4280 -1.6666666666667000e-02
4273 4280 -6.6666666666667001e-03
4275 4280 -1.6142413283599000e-04
4276 4280 -1.6142335953992000e-04
4278 4280 -4.3506940158273002e-04
4279 4280 -4.3506938275280000e-04
4280 4280 2.5550262695442000e-02
4281 4281 9.2658836716497002e-03
4293 4281 -4.3505078414547000e-04
4294 4281 -6.2288380763738998e-04
4282 4282 9.2658836754161995e-03
4283 4282 -6.2288381124918997e-04
4282 4283 -6.7159483587621001e-04
4283 4283 9.2171154224229002e-03
4298 4283 -6.6666666666667001e-03
4284 4284 8.2271771293656992e-03
4287 4284 -6.0692933055868999e-10
4285 4285 1.9463727390865999e-02
4286 4285 -1.1815720893224000e-03
4285 4286 -1.2565016862773001e-03
4286 4286 1.9388797754971002e-02
4293 4286 -1.6666666666667000e-02
4284 4287 -4.1112832004152997e-12
4287 4287 7.5572176523751996e-03
4293 4287 -6.6666666666667001e-03
4288 4288 1.7814013954110999e-02
4289 4288 -5.1777948731590005e-07
4293 4288 -1.4041504328856001e-04
4288 4289 -4.9679713659652997e-08
4289 4289 1.7749224821536000e-02
4290 4289 -1.6666666666667000e-02
4293 4289 -1.4017814556936000e-04
4289 4290 -1.6666666666667000e-02
4290 4290 3.3333333333333000e-02
4291 4290 -1.6666666666667000e-02
4290 4291 -1.6666666666667000e-02
4291 4291 1.7749599306271999e-02
4292 4291 -4.2710637728501002e-07
4291 4292 -9.4784924418117006e-09
4292 4292 1.7296415156687998e-02
4298 4292 -1.6666666666667000e-02
4281 4293 -4.3505571690084002e-04
4286 4293 -1.6666666666667000e-02
4287 4293 -6.6666666666667001e-03
4288 4293 -1.3960581886770000e-04
4289 4293 -1.3891037604764000e-04
4293 4293 2.5392639107826999e-02
4294 4293 -4.3504293836315000e-04
4281 4294 -6.7159483210973005e-04
4293 4294 -4.3504760323738998e-04
4294 4294 9.2171154188109995e-03
4298 4294 -6.6666666666667001e-03
4295 4295 8.2271771300475999e-03
4298 4295 -1.6460260703288001e-04
4299 4295 -6.0761405487411997e-10
4296 4296 1.9463710783369000e-02
4297 4296 -1.1815558477776000e-03
4298 4296 -4.3506939293392997e-04
4296 4297 -1.2564850787644001e-03
4297 4297 1.9388781513375999e-02
4298 4297 -4.3506939119181002e-04
4302 4297 -1.6666666666667000e-02
4283 4298 -6.6666666666667001e-03
4292 4298 -1.6666666666667000e-02
4294 4298 -6.6666666666667001e-03
4295 4298 -1.6142417680448001e-04
4296 4298 -4.3506939946495000e-04
4297 4298 -4.3506938482388999e-04
4298 4298 3.1983788136207003e-02
4299 4298 -1.6142331557142999e-04
4295 4299 -4.1159909751476997e-12
4298 4299 -1.6206200182133999e-04
4299 4299 7.5572176523826000e-03
4302 4299 -6.6666666666667001e-03
4300 4300 1.7814431860194001e-02
4301 4300 -9.3380131375017003e-07
4302 4300 -1.4034808738613001e-04
4300 4301 -9.3380097255296999e-07
4301 4301 1.7814431836625001e-02
4302 4301 -1.4034808728942999e-04
4305 4301 -1.6666666666667000e-02
4297 4302 -1.6666666666667000e-02
4299 4302 -6.6666666666667001e-03
4300 4302 -1.3925809769740999e-04
4301 4302 -1.3925809721793001e-04
4302 4302 2.4964630254750000e-02
4303 4302 -1.6142311884899001e-04
4304 4302 -1.6142437352693000e-04
4302 4303 -1.6631928530802000e-04
4303 4303 7.5572176613125002e-03
4304 4303 -1.2551138489624001e-11
4305 4303 -6.6666666666667001e-03
4277 4304 -6.6666666666667001e-03
4302 4304 -1.6685427719693001e-04
4303 4304 -6.9507027373987000e-10
4304 4304 7.5912131903399004e-03
4252 4305 -4.3508492992696000e-04
4253 4305 -1.4022949936068999e-04
4254 4305 -1.3828669555465001e-04
4255 4305 -4.3501492450513998e-04
4279 4305 -1.6666666666667000e-02
4301 4305 -1.6666666666667000e-02
4303 4305 -6.6666666666667001e-03
4305 4305 4.2092980417997000e-02
4306 4306 9.2658855920025995e-03
4307 4306 -6.2288567965295999e-04
4360 4306 -4.3505079554513999e-04
4306 4307 -6.7159671558665005e-04
4307 4307 9.2171169172797999e-03
4355 4307 -6.6666666666667001e-03
4360 4307 -4.3504759183752998e-04
4308 4308 1.7296415170633000e-02
4354 4308 -9.4775296501495993e-09
4355 4308 -1.6666666666667000e-02
4360 4308 -1.3969994393932001e-04
4309 4309 1.9463616707004000e-02
4310 4309 -1.1814810046455000e-03
4357 4309 -4.3507378695178001e-04
4309 4310 -1.2563440950433000e-03
4310 4310 1.9388556852277000e-02
4311 4310 -1.6666666666667000e-02
4357 4310 -4.3506499711261999e-04
4310 4311 -1.6666666666667000e-02
4311 4311 3.3333333333333000e-02
4352 4311 -1.6666666666667000e-02
4312 4312 8.2271771340299994e-03
4315 4312 -6.1069543774242995e-10
4351 4312 -1.6460538758561000e-04
4313 4313 1.9463636274172001e-02
4314 4313 -1.1814829837372000e-03
4351 4313 -4.3506939333790999e-04
4313 4314 -1.2564105665793001e-03
4314 4314 1.9388708634238000e-02
4346 4314 -1.6666666666667000e-02
4351 4314 -4.3506939078783000e-04
4312 4315 -4.1371782905697001e-12
4315 4315 7.5572176531760000e-03
4346 4315 -6.6666666666667001e-03
4351 4315 -1.6206256010449000e-04
4316 4316 1.9463363474734999e-02
4317 4316 -1.1812161938153001e-03
4343 4316 -4.3506939295311000e-04
4316 4317 -1.2561377699325000e-03
4317 4317 1.9388441858767001e-02
4318 4317 -1.6666666666667000e-02
4343 4317 -4.3506939117262999e-04
4317 4318 -1.6666666666667000e-02
4318 4318 2.4084736778742000e-02
4320 4318 -6.6666666666667001e-03
4319 4319 8.2271771444898997e-03
4320 4319 -6.2211176980618999e-10
4343 4319 -1.6461556265350000e-04
4318 4320 -6.6666666666667001e-03
4319 4320 -4.2156892795849997e-12
4320 4320 7.5572176525198998e-03
4343 4320 -1.6206460306710999e-04
4321 4321 1.7814705781427999e-02
4322 4321 -1.2128830597008000e-06
4346 4321 -1.4163961875266999e-04
4321 4322 -2.3969826075872000e-08
4322 4322 1.7296474399337999e-02
4343 4322 -1.6666666666667000e-02
4346 4322 -1.3967076167377000e-04
4323 4323 1.7814705781335000e-02
4324 4323 -1.2128829454119000e-06
4345 4323 -1.4163961749985999e-04
4323 4324 -2.3969823750154999e-08
4324 4324 1.7296474399337000e-02
4343 4324 -1.6666666666667000e-02
4345 4324 -1.3967076145666001e-04
4325 4325 9.2658267221680003e-03
4326 4325 -6.2285877188959001e-04
4346 4325 -4.3506661857365000e-04
4325 4326 -6.7147482922203005e-04
4326 4326 9.2165839758887001e-03
4327 4326 -6.6666666666667001e-03
4346 4326 -4.3503176729996998e-04
4326 4327 -6.6666666666667001e-03
4327 4327 1.3333333333332999e-02
4342 4327 -6.6666666666667001e-03
4328 4328 8.2271771329808993e-03
4340 4328 -1.6460526496601000e-04
4341 4328 -6.1055919409008999e-10
4329 4329 8.2271769267610994e-03
4337 4329 -4.0191622468384002e-10
4330 4330 9.2658591425794998e-03
4336 4330 -6.2287302824674004e-04
4331 4331 1.7814667720471002e-02
4332 4331 -1.1746436912741000e-06
4331 4332 -2.3541046554355000e-08
4332 4332 1.7304137623957001e-02
4333 4332 -1.6666666666667000e-02
4332 4333 -1.6666666666667000e-02
4333 4333 3.3333333333333000e-02
4334 4333 -1.6666666666667000e-02
4333 4334 -1.6666666666667000e-02
4334 4334 1.7305133914787000e-02
4335 4334 -1.0204618137642000e-06
4334 4335 -9.2756813485607004e-08
4335 4335 1.7296507754278000e-02
4340 4335 -1.6666666666667000e-02
4330 4336 -6.7154314026289996e-04
4336 4336 9.2168864385952006e-03
4340 4336 -6.6666666666667001e-03
4329 4337 -3.9850399432110002e-10
4337 4337 8.2269517618474008e-03
4340 4337 -6.6666666666667001e-03
4338 4338 1.9463639563732999e-02
4339 4338 -1.1814861975776999e-03
4340 4338 -4.3506939294098000e-04
4338 4339 -1.2564138590537999e-03
4339 4339 1.9388711862937998e-02
4340 4339 -4.3506939118475999e-04
4345 4339 -1.6666666666667000e-02
4328 4340 -1.6142417890467999e-04
4335 4340 -1.6666666666667000e-02
4336 4340 -6.6666666666667001e-03
4337 4340 -6.6666666666667001e-03
4338 4340 -4.3506939952431002e-04
4339 4340 -4.3506938476584999e-04
4340 4340 3.1983709882400999e-02
4341 4340 -1.6142331347122999e-04
4328 4341 -4.1362414653398001e-12
4340 4341 -1.6206253548450001e-04
4341 4341 7.5572176524160003e-03
4345 4341 -6.6666666666667001e-03
4327 4342 -6.6666666666667001e-03
4342 4342 9.2651574140532999e-03
4344 4342 -6.2280688347710999e-04
4345 4342 -4.3506662605070998e-04
4316 4343 -4.3506939962526003e-04
4317 4343 -4.3506938466718998e-04
4319 4343 -1.6142418714350999e-04
4320 4343 -1.6142330523240999e-04
4322 4343 -1.6666666666667000e-02
4324 4343 -1.6666666666667000e-02
4343 4343 4.1983407341379002e-02
4344 4343 -6.6666666666667001e-03
4342 4344 -6.7135360829251995e-04
4343 4344 -6.6666666666667001e-03
4344 4344 9.2159844735196002e-03
4345 4344 -4.3503175982147001e-04
4323 4345 -1.4022933671534001e-04
4324 4345 -1.3828685819999999e-04
4339 4345 -1.6666666666667000e-02
4341 4345 -6.6666666666667001e-03
4342 4345 -4.3512067824963999e-04
4344 4345 -4.3498064116536002e-04
4345 4345 2.5369107809666998e-02
4314 4346 -1.6666666666667000e-02
4315 4346 -6.6666666666667001e-03
4321 4346 -1.4022933680797001e-04
4322 4346 -1.3828685810736999e-04
4325 4346 -4.3512065966460999e-04
4326 4346 -4.3498066047590998e-04
4346 4346 2.5599497999078999e-02
4347 4347 9.2658599669104003e-03
4348 4347 -6.2287441657000997e-04
4360 4347 -4.3505791991132000e-04
4347 4348 -6.7154271846266004e-04
4348 4348 9.2168777405139991e-03
4351 4348 -6.6666666666667001e-03
4360 4348 -4.3504046710256001e-04
4349 4349 8.2271769292850006e-03
4350 4349 -4.0439920669884999e-10
4357 4349 -1.6436041318730000e-04
4349 4350 -4.0083805866577998e-10
4350 4350 8.2269433342954008e-03
4351 4350 -6.6666666666667001e-03
4357 4350 -1.6435895686496999e-04
4312 4351 -1.6142417900184001e-04
4313 4351 -4.3506940289706001e-04
4314 4351 -4.3506938146743002e-04
4315 4351 -1.6142331337408000e-04
4348 4351 -6.6666666666667001e-03
4350 4351 -6.6666666666667001e-03
4351 4351 3.2099654300772003e-02
4353 4351 -1.6666666666667000e-02
4311 4352 -1.6666666666667000e-02
4352 4352 1.7814613113574001e-02
4353 4352 -1.2113085687143000e-06
4360 4352 -1.4163788191877999e-04
4351 4353 -1.6666666666667000e-02
4352 4353 -2.3941268474974002e-08
4353 4353 1.7296439370529999e-02
4360 4353 -1.3967054187314000e-04
4244 4354 -1.6666666666667000e-02
4308 4354 -4.2706421943023002e-07
4354 4354 1.7749599709657001e-02
4360 4354 -1.4128630426207001e-04
4215 4355 -1.6142417680788999e-04
4216 4355 -4.3506940343867998e-04
4217 4355 -4.3506938093772999e-04
4218 4355 -1.6142331556801999e-04
4250 4355 -6.6666666666667001e-03
4307 4355 -6.6666666666667001e-03
4308 4355 -1.6666666666667000e-02
4355 4355 3.2099736035894000e-02
4356 4356 1.9388708684564999e-02
4357 4356 -4.3506939060857002e-04
4358 4356 -1.6666666666667000e-02
4359 4356 -1.2564106686951001e-03
4240 4357 -1.6142417899787001e-04
4241 4357 -1.6142331337803999e-04
4245 4357 -1.6142417899788001e-04
4246 4357 -4.3506940093600001e-04
4247 4357 -4.3506938338526999e-04
4248 4357 -1.6142331337802999e-04
4254 4357 -1.6666666666667000e-02
4255 4357 -6.6666666666667001e-03
4309 4357 -4.3510673586686000e-04
4310 4357 -4.3503287105440999e-04
4349 4357 -1.6142374866402000e-04
4350 4357 -1.6142374371189001e-04
4356 4357 -4.3506937997779001e-04
4357 4357 2.9242527697390001e-02
4359 4357 -4.3506940442027001e-04
4213 4358 -6.6666666666667001e-03
4235 4358 -4.3508492973461999e-04
4236 4358 -1.4022949990965999e-04
4237 4358 -1.3828669500568001e-04
4238 4358 -4.3501492468962002e-04
4241 4358 -6.6666666666667001e-03
4356 4358 -1.6666666666667000e-02
4358 4358 3.2208928176661003e-02
4207 4359 -1.6666666666667000e-02
4356 4359 -1.1814831048352001e-03
4357 4359 -4.3506939351717003e-04
4359 4359 1.9463636313543000e-02
4109 4360 -1.6666666666667000e-02
4110 4360 -6.6666666666667001e-03
4208 4360 -4.3508502986397001e-04
4209 4360 -1.4022939563042999e-04
4210 4360 -1.3828679928491001e-04
4211 4360 -4.3501482866265001e-04
4306 4360 -4.3505576368487001e-04
4307 4360 -4.3504289349893002e-04
4308 4360 -1.3890030023018001e-04
4347 4360 -4.3508498387555001e-04
4348 4360 -4.3501487276385002e-04
4352 4360 -1.4022816329553001e-04
4353 4360 -1.3828803161980999e-04
4354 4360 -1.3961589468515999e-04
4360 4360 3.2088714963335999e-02
4361 4361 1.7813983189901999e-02
4362 4361 -4.8144184384705001e-07
4370 4361 -1.3991011533134000e-04
4361 4362 -4.6454437853977999e-08
4362 4362 1.7749592716655001e-02
4363 4362 -1.6666666666667000e-02
4370 4362 -1.3975846245260000e-04
4362 4363 -1.6666666666667000e-02
4363 4363 3.3333333333333000e-02
4374 4363 -1.6666666666667000e-02
4364 4364 8.2267401496978008e-03
4367 4364 -1.7584978317537999e-08
4377 4364 -1.6631995256891999e-04
4365 4365 1.9342192446684999e-02
4366 4365 -1.2070864051908999e-03
4377 4365 -4.3473044565111002e-04
4365 4366 -1.1495091163688000e-03
4366 4366 1.9423684772155999e-02
4370 4366 -1.6666666666667000e-02
4377 4366 -4.3540796629608998e-04
4364 4367 -1.2525486680255000e-10
4367 4367 7.5566236799089002e-03
4370 4367 -6.6666666666667001e-03
4377 4367 -1.6240594004483000e-04
4368 4368 9.2184639689806003e-03
4369 4368 -6.7297958800164996e-04
4370 4368 -4.3502813722024001e-04
4368 4369 -6.2469466819270003e-04
4369 4369 9.2677930408599993e-03
4370 4369 -4.3507024795443001e-04
4375 4369 -6.6666666666667001e-03
4361 4370 -1.3958074802711000e-04
4362 4370 -1.3893544688822000e-04
4366 4370 -1.6666666666667000e-02
4367 4370 -6.6666666666667001e-03
4368 4370 -4.3496610709529998e-04
4369 4370 -4.3513582566865000e-04
4370 4370 2.5888698190309999e-02
4371 4371 9.2178625490899006e-03
4372 4371 -6.7179980513130001e-04
4380 4371 -4.3502807352539000e-04
4371 4372 -6.2381980388037997e-04
4372 4372 9.2668934386077994e-03
4375 4372 -6.6666666666667001e-03
4380 4372 -4.3507031163594000e-04
4373 4373 1.7296376350895998e-02
4374 4373 -9.5452109250266007e-09
4375 4373 -1.6666666666667000e-02
4380 4373 -1.3970375369215001e-04
4363 4374 -1.6666666666667000e-02
4373 4374 -4.3037916531404001e-07
4374 4374 1.7749930818831999e-02
4380 4374 -1.4130639016794001e-04
4080 4375 -1.6142416860249001e-04
4081 4375 -4.3510892452249997e-04
4082 4375 -4.3503073022060999e-04
4083 4375 -1.6142332377342000e-04
4369 4375 -6.6666666666667001e-03
4372 4375 -6.6666666666667001e-03
4373 4375 -1.6666666666667000e-02
4375 4375 3.2100052870465003e-02
4376 4376 1.9429691593311000e-02
4377 4376 -4.3521436989232999e-04
4378 4376 -1.6666666666667000e-02
4379 4376 -1.1581991828074000e-03
4105 4377 -1.6143649186994001e-04
4106 4377 -1.6141100050598000e-04
4143 4377 -1.6142432001710000e-04
4144 4377 -1.6142317235881001e-04
4147 4377 -1.6666666666667000e-02
4148 4377 -6.6666666666667001e-03
4199 4377 -4.3284469707764001e-04
4200 4377 -4.3734751789340003e-04
4364 4377 -1.6143647807418001e-04
4365 4377 -4.3239923865005000e-04
4366 4377 -4.3780369377986999e-04
4367 4377 -1.6141101430173000e-04
4376 4377 -4.3624157186341001e-04
4377 4377 2.9121050453232000e-02
4379 4377 -4.3392516484682000e-04
4078 4378 -6.6666666666667001e-03
4100 4378 -4.3523170974550998e-04
4101 4378 -1.4012343763222999e-04
4102 4378 -1.3839275728311001e-04
4103 4378 -4.3487412234570998e-04
4106 4378 -6.6666666666667001e-03
4376 4378 -1.6666666666667000e-02
4378 4378 3.2280170671638998e-02
4072 4379 -1.6666666666667000e-02
4376 4379 -1.2163154594545999e-03
4377 4379 -4.3492434470707999e-04
4379 4379 1.9361815673587000e-02
3974 4380 -1.6666666666667000e-02
3975 4380 -6.6666666666667001e-03
4073 4380 -4.3504086500417000e-04
4074 4380 -1.4023047045089000e-04
4075 4380 -1.3828572446445000e-04
4076 4380 -4.3505787926905999e-04
4141 4380 -4.3535447989022000e-04
4142 4380 -4.3475641251302001e-04
4202 4380 -1.4031449758419000e-04
4203 4380 -1.3820169733115000e-04
4371 4380 -4.3496611857062002e-04
4372 4380 -4.3513582769098000e-04
4373 4380 -1.3889758540201001e-04
4374 4380 -1.3961860951332999e-04
4380 4380 3.2086171307259999e-02
4381 4381 1.7814016092734000e-02
4382 4381 -5.2032448415791003e-07
4390 4381 -1.4045125206558001e-04
4381 4382 -5.0460029203274999e-08
4382 4382 1.7749718304330000e-02
4383 4382 -1.6666666666667000e-02
4390 4382 -1.4020851382162000e-04
4382 4383 -1.6666666666667000e-02
4383 4383 3.3333333333333000e-02
4394 4383 -1.6666666666667000e-02
4384 4384 8.2272091201938992e-03
4387 4384 -4.7817841774138002e-10
4397 4384 -1.6451245138737001e-04
4385 4385 1.9467130023572001e-02
4386 4385 -1.1850385698622000e-03
4397 4385 -4.3508993290955001e-04
4385 4386 -1.2597302696470000e-03
4386 4386 1.9391515839694000e-02
4390 4386 -1.6666666666667000e-02
4397 4386 -4.3504884987706998e-04
4384 4387 -3.2200645337586000e-12
4387 4387 7.5572562086500998e-03
4390 4387 -6.6666666666667001e-03
4397 4387 -1.6203509347846999e-04
4388 4388 9.2657208673989997e-03
4389 4388 -6.2276351876549001e-04
4390 4388 -4.3507233638424999e-04
4388 4389 -6.7134213355058000e-04
4389 4389 9.2163102273515006e-03
4390 4389 -4.3502604832656002e-04
4395 4389 -6.6666666666667001e-03
4381 4390 -1.3960712999422999e-04
4382 4390 -1.3890906492111001e-04
4386 4390 -1.6666666666667000e-02
4387 4390 -6.6666666666667001e-03
4388 4390 -4.3514409084637002e-04
4389 4390 -4.3495819072460000e-04
4390 4390 2.5853025940772999e-02
4391 4391 9.2677935841443994e-03
4392 4391 -6.2488683525760999e-04
4400 4391 -4.3507220481899000e-04
4391 4392 -6.7354078103591002e-04
4392 4392 9.2183084414567996e-03
4395 4392 -6.6666666666667001e-03
4400 4392 -4.3502617992284001e-04
4393 4393 1.7296444416971000e-02
4394 4393 -8.4910939334716996e-09
4395 4393 -1.6666666666667000e-02
4400 4393 -1.3943437888457001e-04
4383 4394 -1.6666666666667000e-02
4393 4394 -3.8381176234274000e-07
4394 4394 1.7750057957462002e-02
4400 4394 -1.4006854059141999e-04
3945 4395 -1.6142418365000001e-04
3946 4395 -4.3505895126203002e-04
3947 4395 -4.3508006818197999e-04
3948 4395 -1.6142330872590999e-04
4389 4395 -6.6666666666667001e-03
4392 4395 -6.6666666666667001e-03
4393 4395 -1.6666666666667000e-02
4395 4395 3.2099481977475003e-02
4396 4396 1.9391036972353001e-02
4397 4396 -4.3505987030474999e-04
4398 4396 -1.6666666666667000e-02
4399 4396 -1.2595650872086999e-03
3970 4397 -1.6142408375822000e-04
3971 4397 -1.6142340861769001e-04
4008 4397 -1.6142375682632999e-04
4009 4397 -1.6142373554958999e-04
4012 4397 -1.6666666666667000e-02
4013 4397 -6.6666666666667001e-03
4064 4397 -4.3520260040085998e-04
4065 4397 -4.3493910455597999e-04
4384 4397 -1.6142408378488001e-04
4385 4397 -4.3524458061482000e-04
4386 4397 -4.3489804401162998e-04
4387 4397 -1.6142340859103999e-04
4396 4397 -4.3498997455121001e-04
4397 4397 2.9255079015439001e-02
4399 4397 -4.3515058823885002e-04
3943 4398 -6.6666666666667001e-03
3965 4398 -4.3507548819512001e-04
3966 4398 -1.4023718408813000e-04
3967 4398 -1.3827901082721000e-04
3968 4398 -4.3502397910419999e-04
3971 4398 -6.6666666666667001e-03
4396 4398 -1.6666666666667000e-02
4398 4398 3.2205249781057002e-02
3937 4399 -1.6666666666667000e-02
4396 4399 -1.1849353173983999e-03
4397 4399 -4.3507891353303002e-04
4399 4399 1.9466093859406002e-02
3839 4400 -1.6666666666667000e-02
3840 4400 -6.6666666666667001e-03
3938 4400 -4.3522160240270998e-04
3939 4400 -1.4012350473969999e-04
3940 4400 -1.3839269017563001e-04
3941 4400 -4.3488381807546003e-04
4006 4400 -4.3524891386346001e-04
4007 4400 -4.3485761848589003e-04
4067 4400 -1.4011954251272999e-04
4068 4400 -1.3839665240261001e-04
4391 4400 -4.3514401072180999e-04
4392 4400 -4.3495824758522998e-04
4393 4400 -1.3893689554696001e-04
4394 4400 -1.3957929936837999e-04
4400 4400 3.2303311739575999e-02
4401 4401 1.9463560090961000e-02
4402 4401 -1.1815084100767000e-03
4410 4401 -4.3509412378718999e-04
4401 4402 -1.2560731965783000e-03
4402 4402 1.9387888619134999e-02
4403 4402 -1.6666666666667000e-02
4410 4402 -4.3504465839490000e-04
4402 4403 -1.6666666666667000e-02
4403 4403 3.3333333333333000e-02
4414 4403 -1.6666666666667000e-02
4404 4404 9.2658648573949991e-03
4407 4404 -6.2287048734279002e-04
4417 4404 -4.3505455055434998e-04
4405 4405 1.7814706294686001e-02
4406 4405 -1.2135982936812000e-06
4417 4405 -1.4164550044445999e-04
4405 4406 -2.3982553901735999e-08
4406 4406 1.7296434513082999e-02
4410 4406 -1.6666666666667000e-02
4417 4406 -1.3967170991322999e-04
4404 4407 -6.7155886752356996e-04
4407 4407 9.2169837484928994e-03
4410 4407 -6.6666666666667001e-03
4417 4407 -4.3504383669736003e-04
4408 4408 8.2271776677321998e-03
4409 4408 -4.0361655860812001e-10
4410 4408 -1.6435886520469001e-04
4408 4409 -4.2161218386250001e-10
4409 4409 8.2277427554864994e-03
4410 4409 -1.6517632315318000e-04
4415 4409 -6.6666666666667001e-03
4401 4410 -4.3527954303053000e-04
4402 4410 -4.3486386704050001e-04
4406 4410 -1.6666666666667000e-02
4407 4410 -6.6666666666667001e-03
4408 4410 -1.6142374005991000e-04
4409 4410 -1.6142375231600000e-04
4410 4410 2.5678728992605999e-02
4411 4411 9.2178285682871005e-03
4412 4411 -6.7176364625237998e-04
4420 4411 -4.3502917890902000e-04
4411 4412 -6.2375908005905996e-04
4412 4412 9.2668289693429006e-03
4415 4412 -6.6666666666667001e-03
4420 4412 -4.3506920648001002e-04
4413 4413 1.7296390986318001e-02
4414 4413 -2.3887903902534001e-08
4415 4413 -1.6666666666667000e-02
4420 4413 -1.3967913330066001e-04
4403 4414 -1.6666666666667000e-02
4413 4414 -1.2074974355492001e-06
4414 4414 1.7814133883676000e-02
4420 4414 -1.4168355673116999e-04
3810 4415 -1.6142416861690000e-04
3811 4415 -4.3511788558883003e-04
3812 4415 -4.3502196644566000e-04
3813 4415 -1.6142332375901000e-04
4409 4415 -6.6666666666667001e-03
4412 4415 -6.6666666666667001e-03
4413 4415 -1.6666666666667000e-02
4415 4415 3.2100053963076997e-02
4416 4416 1.7296436794390999e-02
4417 4416 -1.3967181917371000e-04
4418 4416 -1.6666666666667000e-02
4419 4416 -2.3906565368159999e-08
3835 4417 -4.3507788074598002e-04
3836 4417 -4.3502168441196998e-04
3873 4417 -4.3497653454797002e-04
3874 4417 -4.3512496386702998e-04
3877 4417 -1.6666666666667000e-02
3878 4417 -6.6666666666667001e-03
3929 4417 -1.3960594487165000e-04
3930 4417 -1.3891025004369000e-04
4404 4417 -4.3507116427279999e-04
4405 4417 -1.4022993384860000e-04
4406 4417 -1.3828626106674000e-04
4407 4417 -4.3502812519807002e-04
4416 4417 -1.3828960402678000e-04
4417 4417 2.9636714418396000e-02
4419 4417 -1.4022659088856000e-04
3808 4418 -6.6666666666667001e-03
3830 4418 -1.6142417841749000e-04
3831 4418 -4.3507146372972002e-04
3832 4418 -4.3506736604812999e-04
3833 4418 -1.6142331395842000e-04
3836 4418 -6.6666666666667001e-03
4416 4418 -1.6666666666667000e-02
4418 4418 3.2099676266986003e-02
3802 4419 -1.6666666666667000e-02
4416 4419 -1.2091836572423000e-06
4417 4419 -1.4164386165833000e-04
4419 4419 1.7814455519698999e-02
3704 4420 -1.6666666666667000e-02
3705 4420 -6.6666666666667001e-03
3803 4420 -4.3492174434436003e-04
3804 4420 -1.4023263393315999e-04
3805 4420 -1.3828356098218001e-04
3806 4420 -4.3518210260620001e-04
3871 4420 -4.3497656410340998e-04
3872 4420 -4.3512493506358998e-04
3932 4420 -1.3961721595554999e-04
3933 4420 -1.3889897895979001e-04
4411 4420 -4.3497047351819001e-04
4412 4420 -4.3513128653454002e-04
4413 4420 -1.3829064620093001e-04
4414 4420 -1.4022554871440999e-04
4420 4420 3.2083331693633997e-02
4421 4421 1.7814016092733000e-02
4422 4421 -5.2032448214977003e-07
4430 4421 -1.4045125199815001e-04
4421 4422 -5.0460038118125000e-08
4422 4422 1.7749718312639998e-02
4423 4422 -1.6666666666667000e-02
4430 4422 -1.4020851379442000e-04
4422 4423 -1.6666666666667000e-02
4423 4423 3.3333333333333000e-02
4434 4423 -1.6666666666667000e-02
4424 4424 8.2272091201904003e-03
4427 4424 -4.7817842336236004e-10
4437 4424 -1.6451245138920001e-04
4425 4425 1.9467130023548999e-02
4426 4425 -1.1850385697066001e-03
4437 4425 -4.3508993287748001e-04
4425 4426 -1.2597302699613999e-03
4426 4426 1.9391515840640000e-02
4430 4426 -1.6666666666667000e-02
4437 4426 -4.3504884990913997e-04
4424 4427 -3.2200645457453001e-12
4427 4427 7.5572562085934004e-03
4430 4427 -6.6666666666667001e-03
4437 4427 -1.6203509347969999e-04
4428 4428 9.2657208659870007e-03
4429 4428 -6.2276351822715002e-04
4430 4428 -4.3507233680986000e-04
4428 4429 -6.7134213046445999e-04
4429 4429 9.2163102131962004e-03
4430 4429 -4.3502604790084999e-04
4435 4429 -6.6666666666667001e-03
4421 4430 -1.3960712998559001e-04
4422 4430 -1.3890906492973999e-04
4426 4430 -1.6666666666667000e-02
4427 4430 -6.6666666666667001e-03
4428 4430 -4.3514409259156001e-04
4429 4430 -4.3495818905095999e-04
4430 4430 2.5853025944535001e-02
4431 4431 9.2677936131556008e-03
4432 4431 -6.2488686760066997e-04
4440 4431 -4.3507220524019002e-04
4431 4432 -6.7354081181248999e-04
4432 4432 9.2183084567727998e-03
4435 4432 -6.6666666666667001e-03
4440 4432 -4.3502617950155000e-04
4433 4433 1.7296444417575000e-02
4434 4433 -8.4910787820579000e-09
4435 4433 -1.6666666666667000e-02
4440 4433 -1.3943437486974001e-04
4423 4434 -1.6666666666667000e-02
4433 4434 -3.8381109720730999e-07
4434 4434 1.7750057965360000e-02
4440 4434 -1.4006852215465000e-04
3675 4435 -1.6142418365014001e-04
3676 4435 -4.3505895098891001e-04
3677 4435 -4.3508006846126001e-04
3678 4435 -1.6142330872576999e-04
4429 4435 -6.6666666666667001e-03
4432 4435 -6.6666666666667001e-03
4433 4435 -1.6666666666667000e-02
4435 4435 3.2099481972306998e-02
4436 4436 1.9391036973374000e-02
4437 4436 -4.3505987029702001e-04
4438 4436 -1.6666666666667000e-02
4439 4436 -1.2595650874799001e-03
3700 4437 -1.6142408375823000e-04
3701 4437 -1.6142340861768001e-04
3738 4437 -1.6142375682633999e-04
3739 4437 -1.6142373554957001e-04
3742 4437 -1.6666666666667000e-02
3743 4437 -6.6666666666667001e-03
3794 4437 -4.3520259886675999e-04
3795 4437 -4.3493910605646999e-04
4424 4437 -1.6142408378488001e-04
4425 4437 -4.3524458034126002e-04
4426 4437 -4.3489804427920001e-04
4427 4437 -1.6142340859102999e-04
4436 4437 -4.3498997448676000e-04
4437 4437 2.9255079014788000e-02
4439 4437 -4.3515058830475000e-04
3673 4438 -6.6666666666667001e-03
3695 4438 -4.3507548820558001e-04
3696 4438 -1.4023718408059000e-04
3697 4438 -1.3827901083475000e-04
3698 4438 -4.3502397909418001e-04
3701 4438 -6.6666666666667001e-03
4436 4438 -1.6666666666667000e-02
4438 4438 3.2205249784599002e-02
3667 4439 -1.6666666666667000e-02
4436 4439 -1.1849353174077000e-03
4437 4439 -4.3507891354076000e-04
4439 4439 1.9466093861036000e-02
3569 4440 -1.6666666666667000e-02
3570 4440 -6.6666666666667001e-03
3668 4440 -4.3522160506023001e-04
3669 4440 -1.4012350311347999e-04
3670 4440 -1.3839269180186001e-04
3671 4440 -4.3488381552558999e-04
3736 4440 -4.3524891408770001e-04
3737 4440 -4.3485761827011000e-04
3797 4440 -1.4011954094237999e-04
3798 4440 -1.3839665397296001e-04
4431 4440 -4.3514401246438997e-04
4432 4440 -4.3495824591341002e-04
4433 4440 -1.3893689610953999e-04
4434 4440 -1.3957929880580001e-04
4440 4440 3.2303316336818003e-02
4441 4441 1.9463617149706000e-02
4442 4441 -1.1814814425612000e-03
4450 4441 -4.3507378642324999e-04
4441 4442 -1.2563445489126000e-03
4442 4442 1.9388557302600001e-02
4443 4442 -1.6666666666667000e-02
4450 4442 -4.3506499764115998e-04
4442 4443 -1.6666666666667000e-02
4443 4443 3.3333333333333000e-02
4454 4443 -1.6666666666667000e-02
4444 4444 9.2658639231750998e-03
4447 4444 -6.2287793079238997e-04
4457 4444 -4.3505786528987001e-04
4445 4445 1.7814705590326999e-02
4446 4445 -1.2127066187892000e-06
4457 4445 -1.4163596067441001e-04
4445 4446 -2.3964629942858000e-08
4446 4446 1.7296439318875999e-02
4450 4446 -1.6666666666667000e-02
4457 4446 -1.3967006545241001e-04
4444 4447 -6.7154672686014995e-04
4447 4447 9.2168831644870008e-03
4450 4447 -6.6666666666667001e-03
4457 4447 -4.3504052172876000e-04
4448 4448 8.2271769328488998e-03
4449 4448 -4.0438709238644000e-10
4450 4448 -1.6436040230303001e-04
4448 4449 -4.0082574832632999e-10
4449 4449 8.2269433216949992e-03
4450 4449 -1.6435894072668999e-04
4455 4449 -6.6666666666667001e-03
4441 4450 -4.3510673139309999e-04
4442 4450 -4.3503287542916998e-04
4446 4450 -1.6666666666667000e-02
4447 4450 -6.6666666666667001e-03
4448 4450 -1.6142374866412001e-04
4449 4450 -1.6142374371179999e-04
4450 4450 2.5678674735196999e-02
4451 4451 9.2658601371602995e-03
4452 4451 -6.2287457948541000e-04
4460 4451 -4.3505792048611000e-04
4451 4452 -6.7154288508680996e-04
4452 4452 9.2168778862616995e-03
4455 4452 -6.6666666666667001e-03
4460 4452 -4.3504046652771997e-04
4453 4453 1.7296439370994999e-02
4454 4453 -2.3941046431851000e-08
4455 4453 -1.6666666666667000e-02
4460 4453 -1.3967052092642000e-04
4443 4454 -1.6666666666667000e-02
4453 4454 -1.2112976751446000e-06
4454 4454 1.7814613111459002e-02
4460 4454 -1.4163776112992001e-04
3540 4455 -1.6142417900201001e-04
3541 4455 -4.3506939109946001e-04
3542 4455 -4.3506939304798999e-04
3543 4455 -1.6142331337389999e-04
4449 4455 -6.6666666666667001e-03
4452 4455 -6.6666666666667001e-03
4453 4455 -1.6666666666667000e-02
4455 4455 3.2099654294343000e-02
4456 4456 1.7296439299307000e-02
4457 4456 -1.3967010539194999e-04
4458 4456 -1.6666666666667000e-02
4459 4456 -2.3936520687219000e-08
3565 4457 -4.3508478757698998e-04
3566 4457 -4.3501506099540000e-04
3603 4457 -4.3511101984979999e-04
3604 4457 -4.3498990491834999e-04
3607 4457 -1.6666666666667000e-02
3608 4457 -6.6666666666667001e-03
3659 4457 -1.3960571558443001e-04
3660 4457 -1.3891047933089999e-04
4444 4457 -4.3508476013217001e-04
4445 4457 -1.4022920902063000e-04
4446 4457 -1.3828698589471000e-04
4447 4457 -4.3501508731398002e-04
4456 4457 -1.3828822090234999e-04
4457 4457 2.9637716896670999e-02
4459 4457 -1.4022797401299001e-04
3538 4458 -6.6666666666667001e-03
3560 4458 -1.6142417898673000e-04
3561 4458 -4.3506943528455997e-04
3562 4458 -4.3506934979366003e-04
3563 4458 -1.6142331338918001e-04
3566 4458 -6.6666666666667001e-03
4456 4458 -1.6666666666667000e-02
4458 4458 3.2099654863392002e-02
3532 4459 -1.6666666666667000e-02
4456 4459 -1.2110747013499999e-06
4457 4459 -1.4163536211139001e-04
4459 4459 1.7814612657825999e-02
3434 4460 -1.6666666666667000e-02
3435 4460 -6.6666666666667001e-03
3533 4460 -4.3508504724457998e-04
3534 4460 -1.4022938662468001e-04
3535 4460 -1.3828680829065999e-04
3536 4460 -4.3501481199472000e-04
3601 4460 -4.3511101994212999e-04
3602 4460 -4.3498990484888998e-04
3662 4460 -1.3961586605298001e-04
3663 4460 -1.3890032886235999e-04
4451 4460 -4.3508498624646999e-04
4452 4460 -4.3501487048966999e-04
4453 4460 -1.3828804045655000e-04
4454 4460 -1.4022815445879000e-04
4460 4460 3.2088736634824998e-02
4461 4461 1.7814013954109000e-02
4462 4461 -5.1777948596091002e-07
4470 4461 -1.4041504330810999e-04
4461 4462 -4.9679702321580998e-08
4462 4462 1.7749224810797000e-02
4463 4462 -1.6666666666667000e-02
4470 4462 -1.4017814555175999e-04
4462 4463 -1.6666666666667000e-02
4463 4463 3.3333333333333000e-02
4474 4463 -1.6666666666667000e-02
4464 4464 8.2271771331113002e-03
4467 4464 -6.1068990520093001e-10
4477 4464 -1.6460538261843001e-04
4465 4465 1.9463636410847002e-02
4466 4465 -1.1814831141569000e-03
4477 4465 -4.3506939293700000e-04
4465 4466 -1.2564107062104000e-03
4466 4466 1.9388708779652999e-02
4470 4466 -1.6666666666667000e-02
4477 4466 -4.3506939118873999e-04
4464 4467 -4.1371402229670001e-12
4467 4467 7.5572176524099999e-03
4470 4467 -6.6666666666667001e-03
4477 4467 -1.6206255910689000e-04
4468 4468 9.2658836716305003e-03
4469 4468 -6.2288380761886997e-04
4470 4468 -4.3505078414549000e-04
4468 4469 -6.7159483209026005e-04
4469 4469 9.2171154187917007e-03
4470 4469 -4.3504760323736000e-04
4475 4469 -6.6666666666667001e-03
4461 4470 -1.3960581887572000e-04
4462 4470 -1.3891037603962000e-04
4466 4470 -1.6666666666667000e-02
4467 4470 -6.6666666666667001e-03
4468 4470 -4.3505571690095998e-04
4469 4470 -4.3504293836304001e-04
4470 4470 2.5854925394542001e-02
4471 4471 9.2658836715769008e-03
4472 4471 -6.2288380756592003e-04
4480 4471 -4.3505078414549000e-04
4471 4472 -6.7159483203521999e-04
4472 4472 9.2171154187403008e-03
4475 4472 -6.6666666666667001e-03
4480 4472 -4.3504760323736000e-04
4473 4473 1.7296415156687998e-02
4474 4473 -9.4784928085863999e-09
4475 4473 -1.6666666666667000e-02
4480 4473 -1.3970019804744000e-04
4463 4474 -1.6666666666667000e-02
4473 4474 -4.2710638406870001e-07
4474 4474 1.7749599295551002e-02
4480 4474 -1.4128746771437001e-04
3405 4475 -1.6142417680448001e-04
3406 4475 -4.3506939945951999e-04
3407 4475 -4.3506938482921001e-04
3408 4475 -1.6142331557142999e-04
4469 4475 -6.6666666666667001e-03
4472 4475 -6.6666666666667001e-03
4473 4475 -1.6666666666667000e-02
4475 4475 3.2099736162852999e-02
4476 4476 1.9388708685762999e-02
4477 4476 -4.3506939031470997e-04
4478 4476 -1.6666666666667000e-02
4479 4476 -1.2564106683642000e-03
3430 4477 -1.6142417899788999e-04
3431 4477 -1.6142331337802999e-04
3468 4477 -1.6142374865717001e-04
3469 4477 -1.6142374371874000e-04
3472 4477 -1.6666666666667000e-02
3473 4477 -6.6666666666667001e-03
3524 4477 -4.3510675468976000e-04
3525 4477 -4.3503285264614999e-04
4464 4477 -1.6142417899788999e-04
4465 4477 -4.3506939949045000e-04
4466 4477 -4.3506938479896998e-04
4467 4477 -1.6142331337801999e-04
4476 4477 -4.3506937753586998e-04
4477 4477 2.9242527705014999e-02
4479 4477 -4.3506940691721998e-04
3403 4478 -6.6666666666667001e-03
3425 4478 -4.3508493003756998e-04
3426 4478 -1.4022949990070001e-04
3427 4478 -1.3828669501463999e-04
3428 4478 -4.3501492439910002e-04
3431 4478 -6.6666666666667001e-03
4476 4478 -1.6666666666667000e-02
4478 4478 3.2208928180982997e-02
3397 4479 -1.6666666666667000e-02
4476 4479 -1.1814831057551001e-03
4477 4479 -4.3506939381103001e-04
4479 4479 1.9463636326648999e-02
3299 4480 -1.6666666666667000e-02
3300 4480 -6.6666666666667001e-03
3398 4480 -4.3508493001480000e-04
3399 4480 -1.4022949930732001e-04
3400 4480 -1.3828669560801999e-04
3401 4480 -4.3501492442090002e-04
3466 4480 -4.3508488424498000e-04
3467 4480 -4.3501496831246998e-04
3527 4480 -1.4022826622549000e-04
3528 4480 -1.3828792868985000e-04
4471 4480 -4.3505571690095998e-04
4472 4480 -4.3504293836304001e-04
4473 4480 -1.3890026454056999e-04
4474 4480 -1.3961593037477001e-04
4480 4480 3.2088562953730998e-02
4481 4481 1.9463636406936002e-02
4482 4481 -1.1814831137455001e-03
4490 4481 -4.3506939381105999e-04
4481 4482 -1.2564106929670001e-03
4482 4482 1.9388708749436000e-02
4483 4482 -1.6666666666667000e-02
4490 4482 -4.3506939031468000e-04
4482 4483 -1.6666666666667000e-02
4483 4483 3.3333333333333000e-02
4494 4483 -1.6666666666667000e-02
4484 4484 9.2658580527191000e-03
4487 4484 -6.2287254716716998e-04
4497 4484 -4.3505790681687000e-04
4485 4485 1.7814705962435000e-02
4486 4485 -1.2130648955990000e-06
4497 4485 -1.4163987615800001e-04
4485 4486 -2.3971918413123000e-08
4486 4486 1.7296439384436001e-02
4490 4486 -1.6666666666667000e-02
4497 4486 -1.3967074389721000e-04
4484 4487 -6.7154084795791004e-04
4487 4487 9.2168762997490005e-03
4490 4487 -6.6666666666667001e-03
4497 4487 -4.3504048019815000e-04
4488 4488 8.2271771331111007e-03
4489 4488 -6.1068989496066005e-10
4490 4488 -1.6460538261505001e-04
4488 4489 -4.1371401414646997e-12
4489 4489 7.5572176570338004e-03
4490 4489 -1.6206255911541001e-04
4495 4489 -6.6666666666667001e-03
4481 4490 -4.3506940691748002e-04
4482 4490 -4.3506937753560998e-04
4486 4490 -1.6666666666667000e-02
4487 4490 -6.6666666666667001e-03
4488 4490 -1.6142417899788001e-04
4489 4490 -1.6142331337802999e-04
4490 4490 2.5663378015035002e-02
4491 4491 8.2271771331111007e-03
4492 4491 -6.1068989492046000e-10
4500 4491 -1.6460538261503000e-04
4491 4492 -4.1371401413747001e-12
4492 4492 7.5572176570338004e-03
4495 4492 -6.6666666666667001e-03
4500 4492 -1.6206255911541001e-04
4493 4493 1.9388708685771999e-02
4494 4493 -1.2564106683727000e-03
4495 4493 -1.6666666666667000e-02
4500 4493 -4.3506939031468000e-04
4483 4494 -1.6666666666667000e-02
4493 4494 -1.1814831057635001e-03
4494 4494 1.9463636326659001e-02
4500 4494 -4.3506939381105999e-04
3270 4495 -4.3508493003758999e-04
3271 4495 -1.4022949990070001e-04
3272 4495 -1.3828669501463999e-04
3273 4495 -4.3501492439909000e-04
4489 4495 -6.6666666666667001e-03
4492 4495 -6.6666666666667001e-03
4493 4495 -1.6666666666667000e-02
4495 4495 3.2208928180982997e-02
4496 4496 1.7296415156687998e-02
4497 4496 -1.3970019804777000e-04
4498 4496 -1.6666666666667000e-02
4499 4496 -9.4784928098337999e-09
3295 4497 -4.3505571690108998e-04
3296 4497 -4.3504293836291001e-04
3333 4497 -4.3508368976761001e-04
3334 4497 -4.3501611377148999e-04
3337 4497 -1.6666666666667000e-02
3338 4497 -6.6666666666667001e-03
3389 4497 -1.4019514658414000e-04
3390 4497 -1.3832104833120000e-04
4484 4497 -4.3508493001488002e-04
4485 4497 -1.4022949930745000e-04
4486 4497 -1.3828669560789000e-04
4487 4497 -4.3501492442082001e-04
4496 4497 -1.3890026454052001e-04
4497 4497 2.9548502926623001e-02
4499 4497 -1.3961593037481999e-04
3268 4498 -6.6666666666667001e-03
3290 4498 -1.6142417680448001e-04
3291 4498 -4.3506939945941997e-04
3292 4498 -4.3506938482930000e-04
3293 4498 -1.6142331557142999e-04
3296 4498 -6.6666666666667001e-03
4496 4498 -1.6666666666667000e-02
4498 4498 3.2099736162851999e-02
3262 4499 -1.6666666666667000e-02
4496 4499 -4.2710638412324999e-07
4497 4499 -1.4128746771588000e-04
4499 4499 1.7749599295551002e-02
3164 4500 -1.6666666666667000e-02
3165 4500 -6.6666666666667001e-03
3263 4500 -1.6142417899788999e-04
3264 4500 -4.3506939949017001e-04
3265 4500 -4.3506938479924000e-04
3266 4500 -1.6142331337801999e-04
3331 4500 -1.6142374857487001e-04
3332 4500 -1.6142374380104000e-04
3392 4500 -1.4023150022044999e-04
3393 4500 -1.3828469469489001e-04
4491 4500 -1.6142417899788999e-04
4492 4500 -1.6142331337802999e-04
4493 4500 -4.3506937753560998e-04
4494 4500 -4.3506940691748002e-04
4500 4500 3.1215736406875999e-02
4501 4501 1.9463636406398001e-02
4502 4501 -1.1814831137464000e-03
4510 4501 -4.3506939394630001e-04
4501 4502 -1.2564106909842001e-03
4502 4502 1.9388708744827000e-02
4503 4502 -1.6666666666667000e-02
4510 4502 -4.3506939017943998e-04
4502 4503 -1.6666666666667000e-02
4503 4503 3.3333333333333000e-02
4514 4503 -1.6666666666667000e-02
4504 4504 9.2658580527263997e-03
4507 4504 -6.2287254716221995e-04
4517 4504 -4.3505790681025002e-04
4505 4505 1.7814705962435999e-02
4506 4505 -1.2130648966850000e-06
4517 4505 -1.4163987616944000e-04
4505 4506 -2.3971918434865999e-08
4506 4506 1.7296439384427001e-02
4510 4506 -1.6666666666667000e-02
4517 4506 -1.3967074389916999e-04
4504 4507 -6.7154084799197003e-04
4507 4507 9.2168762999555003e-03
4510 4507 -6.6666666666667001e-03
4517 4507 -4.3504048020476997e-04
4508 4508 8.2271771331105994e-03
4509 4508 -6.1068989139369998e-10
4510 4508 -1.6460538261230001e-04
4508 4509 -4.1371401181905999e-12
4509 4509 7.5572176573947998e-03
4510 4509 -1.6206255911557999e-04
4515 4509 -6.6666666666667001e-03
4501 4510 -4.3506940806663002e-04
4502 4510 -4.3506937641178998e-04
4506 4510 -1.6666666666667000e-02
4507 4510 -6.6666666666667001e-03
4508 4510 -1.6142417899788001e-04
4509 4510 -1.6142331337802999e-04
4510 4510 2.5663378015123001e-02
4511 4511 8.2271771331871007e-03
4512 4511 -6.1068898001466001e-10
4520 4511 -1.6460538179094000e-04
4511 4512 -4.1371338508731000e-12
4512 4512 7.5572176574001003e-03
4515 4512 -6.6666666666667001e-03
4520 4512 -1.6206255895057000e-04
4513 4513 1.9388708699931999e-02
4514 4513 -1.2564106874627000e-03
4515 4513 -1.6666666666667000e-02
4520 4513 -4.3506939024506999e-04
4503 4514 -1.6666666666667000e-02
4513 4514 -1.1814831267030999e-03
4514 4514 1.9463636342086001e-02
4520 4514 -4.3506939388067000e-04
3135 4515 -4.3508493000359998e-04
3136 4515 -1.4022949994736000e-04
3137 4515 -1.3828669496798000e-04
3138 4515 -4.3501492443167997e-04
4509 4515 -6.6666666666667001e-03
4512 4515 -6.6666666666667001e-03
4513 4515 -1.6666666666667000e-02
4515 4515 3.2208928158230003e-02
4516 4516 1.7296415156686000e-02
4517 4516 -1.3970019804989000e-04
4518 4516 -1.6666666666667000e-02
4519 4516 -9.4784928021921995e-09
3160 4517 -4.3505571689427002e-04
3161 4517 -4.3504293836944997e-04
3198 4517 -4.3508368946830998e-04
3199 4517 -4.3501611405851999e-04
3202 4517 -1.6666666666667000e-02
3203 4517 -6.6666666666667001e-03
3254 4517 -1.4019514658643000e-04
3255 4517 -1.3832104832891000e-04
4504 4517 -4.3508492998772000e-04
4505 4517 -1.4022949930834000e-04
4506 4517 -1.3828669560700000e-04
4507 4517 -4.3501492444687003e-04
4516 4517 -1.3890026454085999e-04
4517 4517 2.9548502925223999e-02
4519 4517 -1.3961593037448001e-04
3133 4518 -6.6666666666667001e-03
3155 4518 -1.6142417680448001e-04
3156 4518 -4.3506939945966002e-04
3157 4518 -4.3506938482906998e-04
3158 4518 -1.6142331557142999e-04
3161 4518 -6.6666666666667001e-03
4516 4518 -1.6666666666667000e-02
4518 4518 3.2099736162869999e-02
3127 4519 -1.6666666666667000e-02
4516 4519 -4.2710638369539999e-07
4517 4519 -1.4128746772489999e-04
4519 4519 1.7749599295445000e-02
3029 4520 -1.6666666666667000e-02
3030 4520 -6.6666666666667001e-03
3128 4520 -1.6142417899724001e-04
3129 4520 -4.3506940033772001e-04
3130 4520 -4.3506938397038002e-04
3131 4520 -1.6142331337866999e-04
3196 4520 -1.6142374857484000e-04
3197 4520 -1.6142374380107000e-04
3257 4520 -1.4023150070201001e-04
3258 4520 -1.3828469421332999e-04
4511 4520 -1.6142417899723001e-04
4512 4520 -1.6142331337868000e-04
4513 4520 -4.3506937695713001e-04
4514 4520 -4.3506940750900002e-04
4520 4520 3.1215736480519000e-02
4521 4521 1.7814677600224999e-02
4522 4521 -1.1851734323353000e-06
4530 4521 -1.4170162614645000e-04
4521 4522 -2.3758653262540998e-08
4522 4522 1.7304143836883001e-02
4523 4522 -1.6666666666667000e-02
4530 4522 -1.3969563998795999e-04
4522 4523 -1.6666666666667000e-02
4523 4523 3.3333333333333000e-02
4534 4523 -1.6666666666667000e-02
4524 4524 8.2272296291026007e-03
4527 4524 -3.7040720868647001e-10
4537 4524 -1.6439818217990000e-04
4525 4525 1.9470800108418000e-02
4526 4525 -1.1887351138997000e-03
4537 4525 -4.3510747013200999e-04
4525 4526 -1.2632408146896000e-03
4526 4526 1.9394578839841001e-02
4530 4526 -1.6666666666667000e-02
4537 4526 -4.3503130939526001e-04
4524 4527 -2.4811143325906998e-12
4527 4527 7.5572889765076999e-03
4530 4527 -6.6666666666667001e-03
4537 4527 -1.6200619189360999e-04
4528 4528 9.2657050658614005e-03
4529 4528 -6.2271523812893002e-04
4530 4528 -4.3505601789996001e-04
4528 4529 -6.7138882384805995e-04
4529 4529 9.2167860558973001e-03
4530 4529 -4.3504236926215998e-04
4535 4529 -6.6666666666667001e-03
4521 4530 -1.4020369605814999e-04
4522 4530 -1.3831249885719001e-04
4526 4530 -1.6666666666667000e-02
4527 4530 -6.6666666666667001e-03
4528 4530 -4.3507717253828002e-04
4529 4530 -4.3502236397303999e-04
4530 4530 2.5771686361013998e-02
4531 4531 8.2271770518859994e-03
4532 4531 -4.0373488904053002e-10
4540 4531 -1.6435975808632000e-04
4531 4532 -4.0095360269175000e-10
4532 4532 8.2269946157702001e-03
4535 4532 -6.6666666666667001e-03
4540 4532 -1.6435844302781000e-04
4533 4533 1.7296505474880000e-02
4534 4533 -9.2650267942343994e-08
4535 4533 -1.6666666666667000e-02
4540 4533 -1.6160180193361000e-04
4523 4534 -1.6666666666667000e-02
4533 4534 -1.0198813844259000e-06
4534 4534 1.7305139362953002e-02
4540 4534 -1.6235130645496999e-04
3000 4535 -1.6142417840443000e-04
3001 4535 -4.3507002419751001e-04
3002 4535 -4.3506877385832002e-04
3003 4535 -1.6142331397148000e-04
4529 4535 -6.6666666666667001e-03
4532 4535 -6.6666666666667001e-03
4533 4535 -1.6666666666667000e-02
4535 4535 3.2099676552451002e-02
4536 4536 1.7296493530139002e-02
4537 4536 -1.6167833789132999e-04
4538 4536 -1.6666666666667000e-02
4539 4536 -1.1021415336459999e-07
3025 4537 -1.6142374370195999e-04
3026 4537 -1.6142374867395001e-04
3063 4537 -1.6142400691421000e-04
3064 4537 -1.6142348546170000e-04
3067 4537 -1.6666666666667000e-02
3068 4537 -6.6666666666667001e-03
3119 4537 -4.3532618627336000e-04
3120 4537 -4.3481819991589000e-04
4524 4537 -1.6142400689787999e-04
4525 4537 -4.3539540579909001e-04
4526 4537 -4.3475048793831001e-04
4527 4537 -1.6142348547803001e-04
4536 4537 -1.3810793968327000e-04
4537 4537 2.8698746772289001e-02
4539 4537 -1.4040825523207000e-04
2998 4538 -6.6666666666667001e-03
3020 4538 -1.6142417185509999e-04
3021 4538 -4.3507922254064000e-04
3022 4538 -4.3505977814758999e-04
3023 4538 -1.6142332052081001e-04
3026 4538 -6.6666666666667001e-03
4536 4538 -1.6666666666667000e-02
4538 4538 3.2099923319318997e-02
2992 4539 -1.6666666666667000e-02
4536 4539 -1.2062218741453999e-06
4537 4539 -1.6242247031108000e-04
4539 4539 1.7305215006705999e-02
2894 4540 -1.6666666666667000e-02
2895 4540 -6.6666666666667001e-03
2993 4540 -1.6142417831651999e-04
2994 4540 -4.3508621767450998e-04
2995 4540 -4.3505293719840998e-04
2996 4540 -1.6142331405938999e-04
3061 4540 -1.6142417824470000e-04
3062 4540 -1.6142331413121001e-04
3122 4540 -4.3505414396066000e-04
3123 4540 -4.3508498320854997e-04
4531 4540 -1.6142374812037999e-04
4532 4540 -1.6142374425553001e-04
4533 4540 -1.3828514331577001e-04
4534 4540 -1.4023105159956999e-04
4540 4540 3.1215815051308000e-02
4541 4541 1.9463636411535000e-02
4542 4541 -1.1814831147354001e-03
4550 4541 -4.3506939288416000e-04
4541 4542 -1.2564107075508999e-03
4542 4542 1.9388708781944999e-02
4543 4542 -1.6666666666667000e-02
4550 4542 -4.3506939124157999e-04
4542 4543 -1.6666666666667000e-02
4543 4543 3.3333333333333000e-02
4554 4543 -1.6666666666667000e-02
4544 4544 9.2658580528898991e-03
4547 4544 -6.2287254721114002e-04
4557 4544 -4.3505790677367002e-04
4545 4545 1.7814705962435000e-02
4546 4545 -1.2130648977941001e-06
4557 4545 -1.4163987617902001e-04
4545 4546 -2.3971918454627999e-08
4546 4546 1.7296439384363999e-02
4550 4546 -1.6666666666667000e-02
4557 4546 -1.3967074390072999e-04
4544 4547 -6.7154084826439003e-04
4547 4547 9.2168763012109994e-03
4550 4547 -6.6666666666667001e-03
4557 4547 -4.3504048024134998e-04
4548 4548 8.2271771331365994e-03
4549 4548 -6.1068987934044999e-10
4550 4548 -1.6460538259624000e-04
4548 4549 -4.1371399676773996e-12
4549 4549 7.5572176535572003e-03
4550 4549 -1.6206255910467999e-04
4555 4549 -6.6666666666667001e-03
4541 4550 -4.3506939904149001e-04
4542 4550 -4.3506938523803999e-04
4546 4550 -1.6666666666667000e-02
4547 4550 -6.6666666666667001e-03
4548 4550 -1.6142417899787001e-04
4549 4550 -1.6142331337803999e-04
4550 4550 2.5663378015519999e-02
4551 4551 8.2271771345839000e-03
4552 4551 -6.1070654861263002e-10
4560 4551 -1.6460539757795999e-04
4551 4552 -4.1372546346986998e-12
4552 4552 7.5572176536613002e-03
4555 4552 -6.6666666666667001e-03
4560 4552 -1.6206256211100001e-04
4553 4553 1.9388708360842999e-02
4554 4553 -1.2564102954073001e-03
4555 4553 -1.6666666666667000e-02
4560 4553 -4.3506939134471998e-04
4543 4554 -1.6666666666667000e-02
4553 4554 -1.1814827183398999e-03
4554 4554 1.9463635970066999e-02
4560 4554 -4.3506939278102001e-04
2865 4555 -4.3508492996737001e-04
2866 4555 -1.4022949946491999e-04
2867 4555 -1.3828669545041999e-04
2868 4555 -4.3501492446639998e-04
4549 4555 -6.6666666666667001e-03
4552 4555 -6.6666666666667001e-03
4553 4555 -1.6666666666667000e-02
4555 4555 3.2208928393221002e-02
4556 4556 1.7296415156607001e-02
4557 4556 -1.3970019805137999e-04
4558 4556 -1.6666666666667000e-02
4559 4556 -9.4784928507183002e-09
2890 4557 -4.3505571666963998e-04
2891 4557 -4.3504293858486002e-04
2928 4557 -4.3508369234464001e-04
2929 4557 -4.3501611130022000e-04
2932 4557 -1.6666666666667000e-02
2933 4557 -6.6666666666667001e-03
2984 4557 -1.4019514655774001e-04
2985 4557 -1.3832104835759999e-04
4544 4557 -4.3508492983770002e-04
4545 4557 -1.4022949930927000e-04
4546 4557 -1.3828669560607000e-04
4547 4557 -4.3501492459072999e-04
4556 4557 -1.3890026453884999e-04
4557 4557 2.9548502927033000e-02
4559 4557 -1.3961593037649001e-04
2863 4558 -6.6666666666667001e-03
2885 4558 -1.6142417680446001e-04
2886 4558 -4.3506939953646002e-04
2887 4558 -4.3506938475395998e-04
2888 4558 -1.6142331557145000e-04
2891 4558 -6.6666666666667001e-03
4556 4558 -1.6666666666667000e-02
4558 4558 3.2099736163555000e-02
2857 4559 -1.6666666666667000e-02
4556 4559 -4.2710638613951002e-07
4557 4559 -1.4128746773422001e-04
4559 4559 1.7749599295706998e-02
2759 4560 -1.6666666666667000e-02
2760 4560 -6.6666666666667001e-03
2858 4560 -1.6142417900976000e-04
2859 4560 -4.3506939749483002e-04
2860 4560 -4.3506938675061998e-04
2861 4560 -1.6142331336615001e-04
2926 4560 -1.6142374857511000e-04
2927 4560 -1.6142374380080001e-04
2987 4560 -1.4023149153964001e-04
2988 4560 -1.3828470337569999e-04
4551 4560 -1.6142417900976000e-04
4552 4560 -1.6142331336615001e-04
4553 4560 -4.3506938609512002e-04
4554 4560 -4.3506939816508999e-04
4560 4560 3.1215735071840001e-02
4561 4561 1.7814659340437002e-02
4562 4561 -1.1663764586383000e-06
4570 4561 -1.4154330830825999e-04
4561 4562 -2.3421543903882999e-08
4562 4562 1.7305237021857000e-02
4563 4562 -1.6666666666667000e-02
4570 4562 -1.3966919262124001e-04
4562 4563 -1.6666666666667000e-02
4563 4563 3.3333333333333000e-02
4574 4563 -1.6666666666667000e-02
4564 4564 8.2271929046797993e-03
4567 4564 -6.0558224575569997e-10
4577 4564 -1.6462110534592000e-04
4565 4565 1.9388850467265000e-02
4566 4565 -1.2565384716606001e-03
4577 4565 -4.3505810402510000e-04
4565 4566 -1.1821680317368000e-03
4566 4566 1.9464087579539002e-02
4570 4566 -1.6666666666667000e-02
4577 4566 -4.3508067969598002e-04
4564 4567 -4.0971934984282997e-12
4567 4567 7.5571988411173002e-03
4570 4567 -6.6666666666667001e-03
4577 4567 -1.6206139901726001e-04
4568 4568 9.2650928916587008e-03
4569 4568 -6.2256039762559996e-04
4570 4568 -4.3528451451041000e-04
4568 4569 -6.6987578188149001e-04
4569 4569 9.2093688860645992e-03
4570 4569 -4.3481359485874000e-04
4575 4569 -6.6666666666667001e-03
4561 4570 -1.4018807977848999e-04
4562 4570 -1.3832811513684001e-04
4566 4570 -1.6666666666667000e-02
4567 4570 -6.6666666666667001e-03
4568 4570 -4.3601407133194998e-04
4569 4570 -4.3412354860968000e-04
4570 4570 2.5777599185446001e-02
4571 4571 8.2267389279375002e-03
4572 4571 -4.8760762565444003e-08
4580 4571 -1.6668622403382999e-04
4571 4572 -3.8546517524929997e-08
4572 4572 8.2204688921309003e-03
4575 4572 -6.6666666666667001e-03
4580 4572 -1.6661677853118000e-04
4573 4573 1.7296751693682999e-02
4574 4573 -1.7596343172107001e-08
4575 4573 -1.6666666666667000e-02
4580 4573 -1.6085223968198000e-04
4563 4574 -1.6666666666667000e-02
4573 4574 -2.0340155330952000e-07
4574 4574 1.7305425780215000e-02
4580 4574 -1.6165017261674999e-04
2730 4575 -1.6142425675860000e-04
2731 4575 -4.3497317072562999e-04
2732 4575 -4.3516778823285998e-04
2733 4575 -1.6142323561731001e-04
4569 4575 -6.6666666666667001e-03
4572 4575 -6.6666666666667001e-03
4573 4575 -1.6666666666667000e-02
4575 4575 3.2097039851695000e-02
4576 4576 1.7296525860398999e-02
4577 4576 -1.6160453078063999e-04
4578 4576 -1.6666666666667000e-02
4579 4576 -9.3709238080377006e-08
2755 4577 -1.6142375218732000e-04
2756 4577 -1.6142374018859000e-04
2793 4577 -1.6142417653713999e-04
2794 4577 -1.6142331583877999e-04
2797 4577 -1.6666666666667000e-02
2798 4577 -6.6666666666667001e-03
2849 4577 -4.3144895311629999e-04
2850 4577 -4.3877165552787999e-04
4564 4577 -1.6142417486562000e-04
4565 4577 -4.3497557406025001e-04
4566 4577 -4.3516532389365002e-04
4567 4577 -1.6142331751029001e-04
4576 4577 -1.3827124156371999e-04
4577 4577 2.8672864583472998e-02
4579 4577 -1.4024495335162001e-04
2728 4578 -6.6666666666667001e-03
2750 4578 -1.6142418293988001e-04
2751 4578 -4.3506714730364002e-04
2752 4578 -4.3507168741310000e-04
2753 4578 -1.6142330943603000e-04
2756 4578 -6.6666666666667001e-03
4576 4578 -1.6666666666667000e-02
4578 4578 3.2099508973535001e-02
2722 4579 -1.6666666666667000e-02
4576 4579 -1.0342029244146000e-06
4577 4579 -1.6235791789698001e-04
4579 4579 1.7305211991955002e-02
2624 4580 -1.6666666666667000e-02
2625 4580 -6.6666666666667001e-03
2723 4580 -1.6148029124321000e-04
2724 4580 -4.3178652459849000e-04
2725 4580 -4.3843335406257002e-04
2726 4580 -1.6136720113270000e-04
2791 4580 -1.6148037935660999e-04
2792 4580 -1.6136711301929999e-04
2852 4580 -4.3344974992008000e-04
2853 4580 -4.3672988833304998e-04
4571 4580 -1.6143109743567999e-04
4572 4580 -1.6141639494023999e-04
4573 4580 -1.3906330363952000e-04
4574 4580 -1.3945289127582000e-04
4580 4580 3.1059565975470001e-02
4581 4581 1.9463616221264000e-02
4582 4581 -1.1814805045710999e-03
4590 4581 -4.3507378123844000e-04
4581 4582 -1.2563436681649999e-03
4582 4582 1.9388556549202001e-02
4583 4582 -1.6666666666667000e-02
4590 4582 -4.3506500282611998e-04
4582 4583 -1.6666666666667000e-02
4583 4583 3.3333333333333000e-02
4594 4583 -1.6666666666667000e-02
4584 4584 9.2658594549274997e-03
4587 4584 -6.2287410737927999e-04
4597 4584 -4.3505795537216000e-04
4585 4585 1.7814705862228001e-02
4586 4585 -1.2129533921817000e-06
4597 4585 -1.4163865889190000e-04
4585 4586 -2.3969653087421001e-08
4586 4586 1.7296439448610999e-02
4590 4586 -1.6666666666667000e-02
4597 4586 -1.3967053310468000e-04
4584 4587 -6.7154217263163004e-04
4587 4587 9.2168761900644006e-03
4590 4587 -6.6666666666667001e-03
4597 4587 -4.3504043163860001e-04
4588 4588 8.2271769278180994e-03
4589 4588 -4.0441331148543002e-10
4590 4588 -1.6436043160141000e-04
4588 4589 -4.0085049410511998e-10
4589 4589 8.2269432309381996e-03
4590 4589 -1.6435897467447999e-04
4595 4589 -6.6666666666667001e-03
4581 4590 -4.3510668730059002e-04
4582 4590 -4.3503291855131999e-04
4586 4590 -1.6666666666667000e-02
4587 4590 -6.6666666666667001e-03
4588 4590 -1.6142374866518001e-04
4589 4590 -1.6142374371072999e-04
4590 4590 2.5678673630505001e-02
4591 4591 9.2658584026077007e-03
4592 4591 -6.2287299539437999e-04
4600 4591 -4.3505792360685000e-04
4591 4592 -6.7154120649753999e-04
4592 4592 9.2168761351689998e-03
4595 4592 -6.6666666666667001e-03
4600 4592 -4.3504046340671001e-04
4593 4593 1.7296439378764000e-02
4594 4593 -2.3943240682561001e-08
4595 4593 -1.6666666666667000e-02
4600 4593 -1.3967072208936001e-04
4583 4594 -1.6666666666667000e-02
4593 4594 -1.2114058528608999e-06
4594 4594 1.7814613335581000e-02
4600 4594 -1.4163892282718999e-04
2595 4595 -1.6142417900319000e-04
2596 4595 -4.3506938384136999e-04
2597 4595 -4.3506940046963001e-04
2598 4595 -1.6142331337272000e-04
4589 4595 -6.6666666666667001e-03
4592 4595 -6.6666666666667001e-03
4593 4595 -1.6666666666667000e-02
4595 4595 3.2099654249257002e-02
4596 4596 1.7296439393572002e-02
4597 4596 -1.3967057289231000e-04
4598 4596 -1.6666666666667000e-02
4599 4596 -2.3941656973079999e-08
2620 4597 -4.3508504752366999e-04
2621 4597 -4.3501481172835002e-04
2658 4597 -4.3502854128740000e-04
2659 4597 -4.3507073049494998e-04
2662 4597 -1.6666666666667000e-02
2663 4597 -6.6666666666667001e-03
2714 4597 -1.3960578689444999e-04
2715 4597 -1.3891040802089001e-04
4584 4597 -4.3508512929317001e-04
4585 4597 -1.4022940891231001e-04
4586 4597 -1.3828678600302999e-04
4587 4597 -4.3501473331439001e-04
4596 4597 -1.3828801596269999e-04
4597 4597 2.9637438863842000e-02
4599 4597 -1.4022817895263000e-04
2593 4598 -6.6666666666667001e-03
2615 4598 -1.6142417900693001e-04
2616 4598 -4.3506937905530001e-04
2617 4598 -4.3506940536355002e-04
2618 4598 -1.6142331336897999e-04
2621 4598 -6.6666666666667001e-03
4596 4598 -1.6666666666667000e-02
4598 4598 3.2099654110156001e-02
2587 4599 -1.6666666666667000e-02
4596 4599 -1.2113281172624999e-06
4597 4599 -1.4163806232743000e-04
4599 4599 1.7814613316035000e-02
2489 4600 -1.6666666666667000e-02
2490 4600 -6.6666666666667001e-03
2588 4600 -4.3508507783336002e-04
2589 4600 -1.4022947278974999e-04
2590 4600 -1.3828672212559001e-04
2591 4600 -4.3501478266657999e-04
2656 4600 -4.3502854127886001e-04
2657 4600 -4.3507073050643997e-04
2717 4600 -1.3961594020556000e-04
2718 4600 -1.3890025470978000e-04
4591 4600 -4.3508499891568999e-04
4592 4600 -4.3501485834571997e-04
4593 4600 -1.3828795290374000e-04
4594 4600 -1.4022824201160000e-04
4600 4600 3.2088597764623000e-02
4601 4601 1.9463824468529001e-02
4602 4601 -1.1816976160206999e-03
4610 4601 -4.3507289617253001e-04
4601 4602 -1.2565747031437001e-03
4602 4602 1.9388790463710000e-02
4603 4602 -1.6666666666667000e-02
4610 4602 -4.3506588791422001e-04
4602 4603 -1.6666666666667000e-02
4603 4603 3.3333333333333000e-02
4614 4603 -1.6666666666667000e-02
4604 4604 9.2187997303418995e-03
4607 4604 -6.7302370180268001e-04
4617 4604 -4.3504066151835001e-04
4605 4605 1.7814598760288999e-02
4606 4605 -1.1316546482391999e-06
4617 4605 -1.4073956618121001e-04
4605 4606 -2.2317943903709000e-08
4606 4606 1.7296408284771001e-02
4610 4606 -1.6666666666667000e-02
4617 4606 -1.3951475660939000e-04
4604 4607 -6.2458070738500996e-04
4607 4607 9.2676688603960007e-03
4610 4607 -6.6666666666667001e-03
4617 4607 -4.3505772551249002e-04
4608 4608 8.2271863549629003e-03
4609 4608 -6.0211018354100002e-10
4610 4608 -1.6460952709114999e-04
4608 4609 -4.0753945349086999e-12
4609 4609 7.5572220960374000e-03
4610 4609 -1.6206089542152000e-04
4615 4609 -6.6666666666667001e-03
4601 4610 -4.3509917361612000e-04
4602 4610 -4.3504026652595000e-04
4606 4610 -1.6666666666667000e-02
4607 4610 -6.6666666666667001e-03
4608 4610 -1.6142417259432001e-04
4609 4610 -1.6142331978158999e-04
4610 4610 2.5663623644646999e-02
4611 4611 8.2271775085829002e-03
4612 4611 -6.1018979718409002e-10
4620 4611 -1.6460541898274001e-04
4611 4612 -4.1336007292404999e-12
4612 4612 7.5572214517923000e-03
4615 4612 -6.6666666666667001e-03
4620 4612 -1.6206247269136999e-04
4613 4613 1.9463542412947999e-02
4614 4613 -1.1814846735533999e-03
4615 4613 -1.6666666666667000e-02
4620 4613 -4.3507073067372001e-04
4603 4614 -1.6666666666667000e-02
4613 4614 -1.2563721158955999e-03
4614 4614 1.9388595041687998e-02
4620 4614 -4.3506805344632000e-04
2460 4615 -4.3508384078305002e-04
2461 4615 -1.4023000899607001e-04
2462 4615 -1.3828618591926999e-04
2463 4615 -4.3501596898654001e-04
4609 4615 -6.6666666666667001e-03
4612 4615 -6.6666666666667001e-03
4613 4615 -1.6666666666667000e-02
4615 4615 3.2208679840471002e-02
4616 4616 1.7296386764537999e-02
4617 4616 -1.3953552961707999e-04
4618 4616 -1.6666666666667000e-02
4619 4616 -8.8710609780638005e-09
2485 4617 -4.3498771351824998e-04
2486 4617 -4.3511329897787001e-04
2523 4617 -4.3505725121622001e-04
2524 4617 -4.3504146616621001e-04
2527 4617 -1.6666666666667000e-02
2528 4617 -6.6666666666667001e-03
2579 4617 -1.4013136646911001e-04
2580 4617 -1.3838482844622999e-04
4604 4617 -4.3501553332246000e-04
4605 4617 -1.4016359184499999e-04
4606 4617 -1.3835260307034001e-04
4607 4617 -4.3508429144046001e-04
4616 4617 -1.3892274097041001e-04
4617 4617 2.9664378871364999e-02
4619 4617 -1.3959345394492999e-04
2458 4618 -6.6666666666667001e-03
2480 4618 -1.6142417081032001e-04
2481 4618 -4.3509631233841999e-04
2482 4618 -4.3504306474819002e-04
2483 4618 -1.6142332156559000e-04
2486 4618 -6.6666666666667001e-03
4616 4618 -1.6666666666667000e-02
4618 4618 3.2099965787834001e-02
2452 4619 -1.6666666666667000e-02
4616 4619 -4.0054689629888001e-07
4617 4619 -1.4053314443232000e-04
4619 4619 1.7749899711782001e-02
2354 4620 -1.6666666666667000e-02
2355 4620 -6.6666666666667001e-03
2453 4620 -1.6142417862757000e-04
2454 4620 -4.3509366750877000e-04
2455 4620 -4.3504565150475998e-04
2456 4620 -1.6142331374835000e-04
2521 4620 -1.6142374661530000e-04
2522 4620 -1.6142374576061001e-04
2582 4620 -1.4023790046295001e-04
2583 4620 -1.3827829445238999e-04
4611 4620 -1.6142417862945001e-04
4612 4620 -1.6142331374645999e-04
4613 4620 -4.3508076640920001e-04
4614 4620 -4.3505826832849001e-04
4620 4620 3.1215782469173999e-02
4621 4621 1.9463636405840000e-02
4622 4621 -1.1814831138944001e-03
4630 4621 -4.3506939411824000e-04
4621 4622 -1.2564106886080000e-03
4622 4622 1.9388708739093999e-02
4623 4622 -1.6666666666667000e-02
4630 4622 -4.3506939000749999e-04
4622 4623 -1.6666666666667000e-02
4623 4623 3.3333333333333000e-02
4634 4623 -1.6666666666667000e-02
4624 4624 9.2658580527364993e-03
4627 4624 -6.2287254712535003e-04
4637 4624 -4.3505790678929001e-04
4625 4625 1.7814705962440999e-02
4626 4625 -1.2130649016053000e-06
4637 4625 -1.4163987622182000e-04
4625 4626 -2.3971918533661999e-08
4626 4626 1.7296439384397001e-02
4630 4626 -1.6666666666667000e-02
4637 4626 -1.3967074390820001e-04
4624 4627 -6.7154084807863996e-04
4627 4627 9.2168763005958006e-03
4630 4627 -6.6666666666667001e-03
4637 4627 -4.3504048022572999e-04
4628 4628 8.2271771331148998e-03
4629 4628 -6.1068988089193001e-10
4630 4628 -1.6460538260321001e-04
4628 4629 -4.1371400742268001e-12
4629 4629 7.5572176577309996e-03
4630 4629 -1.6206255911442000e-04
4635 4629 -6.6666666666667001e-03
4621 4630 -4.3506940952767003e-04
4622 4630 -4.3506937498295002e-04
4626 4630 -1.6666666666667000e-02
4627 4630 -6.6666666666667001e-03
4628 4630 -1.6142417899787001e-04
4629 4630 -1.6142331337803999e-04
4630 4630 2.5663378015398999e-02
4631 4631 8.2271771336513994e-03
4632 4631 -6.1068824390703005e-10
4640 4631 -1.6460538112226001e-04
4631 4632 -4.1371287880500003e-12
4632 4632 7.5572176577705001e-03
4635 4632 -6.6666666666667001e-03
4640 4632 -1.6206255881642001e-04
4633 4633 1.9388708709728999e-02
4634 4633 -1.2564107024049000e-03
4635 4633 -1.6666666666667000e-02
4640 4633 -4.3506939022373999e-04
4623 4634 -1.6666666666667000e-02
4633 4634 -1.1814831434050000e-03
4634 4634 1.9463636351077999e-02
4640 4634 -4.3506939390200000e-04
2325 4635 -4.3508492991472999e-04
2326 4635 -1.4022949999317001e-04
2327 4635 -1.3828669492216999e-04
2328 4635 -4.3501492451690997e-04
4629 4635 -6.6666666666667001e-03
4632 4635 -6.6666666666667001e-03
4633 4635 -1.6666666666667000e-02
4635 4635 3.2208928135830997e-02
4636 4636 1.7296415156673000e-02
4637 4636 -1.3970019805947001e-04
4638 4636 -1.6666666666667000e-02
4639 4636 -9.4784928092482999e-09
2350 4637 -4.3505571685660999e-04
2351 4637 -4.3504293840555998e-04
2388 4637 -4.3508368826502999e-04
2389 4637 -4.3501611521241999e-04
2392 4637 -1.6666666666667000e-02
2393 4637 -6.6666666666667001e-03
2444 4637 -1.4019514659126999e-04
2445 4637 -1.3832104832407001e-04
4624 4637 -4.3508492990176000e-04
4625 4637 -1.4022949931234000e-04
4626 4637 -1.3828669560300000e-04
4627 4637 -4.3501492452930002e-04
4636 4637 -1.3890026454068001e-04
4637 4637 2.9548502919393999e-02
4639 4637 -1.3961593037465999e-04
2323 4638 -6.6666666666667001e-03
2345 4638 -1.6142417680448001e-04
2346 4638 -4.3506939946623998e-04
2347 4638 -4.3506938482262998e-04
2348 4638 -1.6142331557143999e-04
2351 4638 -6.6666666666667001e-03
4636 4638 -1.6666666666667000e-02
4638 4638 3.2099736162983998e-02
2317 4639 -1.6666666666667000e-02
4636 4639 -4.2710638383801001e-07
4637 4639 -1.4128746776756999e-04
4639 4639 1.7749599295237999e-02
2219 4640 -1.6666666666667000e-02
2220 4640 -6.6666666666667001e-03
2318 4640 -1.6142417899671000e-04
2319 4640 -4.3506940187143002e-04
2320 4640 -4.3506938247047001e-04
2321 4640 -1.6142331337920001e-04
2386 4640 -1.6142374857475999e-04
2387 4640 -1.6142374380114999e-04
2447 4640 -1.4023150110289000e-04
2448 4640 -1.3828469381244000e-04
4631 4640 -1.6142417899671000e-04
4632 4640 -1.6142331337920001e-04
4633 4640 -4.3506937677989001e-04
4634 4640 -4.3506940769023000e-04
4640 4640 3.1215736540599000e-02
4641 4641 1.9463564752962001e-02
4642 4641 -1.1815061922976001e-03
4650 4641 -4.3509241691363999e-04
4641 4642 -1.2560959668434001e-03
4642 4642 1.9387944626233999e-02
4643 4642 -1.6666666666667000e-02
4650 4642 -4.3504636552752998e-04
4642 4643 -1.6666666666667000e-02
4643 4643 3.3333333333333000e-02
4654 4643 -1.6666666666667000e-02
4644 4644 9.2658590353360999e-03
4647 4644 -6.2286570336133002e-04
4657 4644 -4.3505483497131999e-04
4645 4645 1.7814706607137999e-02
4646 4645 -1.2138881071574999e-06
4657 4645 -1.4164868144259999e-04
4645 4646 -2.3988465218800001e-08
4646 4646 1.7296434918580000e-02
4650 4646 -1.6666666666667000e-02
4657 4646 -1.3967226169297000e-04
4644 4647 -6.7155216184008003e-04
4647 4647 9.2169696193090001e-03
4650 4647 -6.6666666666667001e-03
4657 4647 -4.3504355226471001e-04
4648 4648 8.2271776338341002e-03
4649 4648 -4.0361220434023001e-10
4650 4648 -1.6435900042247999e-04
4648 4649 -4.1737582871823002e-10
4649 4649 8.2276116477715006e-03
4650 4649 -1.6498754721047001e-04
4655 4649 -6.6666666666667001e-03
4641 4650 -4.3526503912215999e-04
4642 4650 -4.3487805201691999e-04
4646 4650 -1.6666666666667000e-02
4647 4650 -6.6666666666667001e-03
4648 4650 -1.6142374150378001e-04
4649 4650 -1.6142375087212999e-04
4650 4650 2.5678723770760001e-02
4651 4651 9.2180733588639006e-03
4652 4651 -6.7205780083371997e-04
4660 4651 -4.3503401950356000e-04
4651 4652 -6.2390822392995005e-04
4652 4652 9.2669786010670992e-03
4655 4652 -6.6666666666667001e-03
4660 4652 -4.3506436673856999e-04
4653 4653 1.7296397600494999e-02
4654 4653 -2.3498803535272999e-08
4655 4653 -1.6666666666667000e-02
4660 4653 -1.3964145557672999e-04
4643 4654 -1.6666666666667000e-02
4653 4654 -1.1884683155055000e-06
4654 4654 1.7814153516570001e-02
4660 4654 -1.4146676570982999e-04
2190 4655 -1.6142417015848999e-04
2191 4655 -4.3511455082760001e-04
2192 4655 -4.3502522785087002e-04
2193 4655 -1.6142332221742999e-04
4649 4655 -6.6666666666667001e-03
4652 4655 -6.6666666666667001e-03
4653 4655 -1.6666666666667000e-02
4655 4655 3.2099994684637999e-02
4656 4656 1.7296437034944000e-02
4657 4656 -1.3967236685980000e-04
4658 4656 -1.6666666666667000e-02
4659 4656 -2.3915349614180002e-08
2215 4657 -4.3507855248202002e-04
2216 4657 -4.3502104025822000e-04
2253 4657 -4.3493955441893997e-04
2254 4657 -4.3516352686341999e-04
2257 4657 -1.6666666666667000e-02
2258 4657 -6.6666666666667001e-03
2309 4657 -1.3960597652239000e-04
2310 4657 -1.3891021839295000e-04
4644 4657 -4.3507233053621000e-04
4645 4657 -1.4023016850323001e-04
4646 4657 -1.3828602641210999e-04
4647 4657 -4.3502700681773002e-04
4656 4657 -1.3828924282738999e-04
4657 4657 2.9636395191599999e-02
4659 4657 -1.4022695208795001e-04
2188 4658 -6.6666666666667001e-03
2210 4658 -1.6142417847059000e-04
2211 4658 -4.3507132277338000e-04
2212 4658 -4.3506750389843001e-04
2213 4658 -1.6142331390532001e-04
2216 4658 -6.6666666666667001e-03
4656 4658 -1.6666666666667000e-02
4658 4658 3.2099674279154000e-02
2182 4659 -1.6666666666667000e-02
4656 4659 -1.2096405026557001e-06
4657 4659 -1.4164710317381000e-04
4659 4659 1.7814465366800002e-02
2084 4660 -1.6666666666667000e-02
2085 4660 -6.6666666666667001e-03
2183 4660 -4.3494498684736998e-04
2184 4660 -1.4021657467681999e-04
2185 4660 -1.3829962023852001e-04
2186 4660 -4.3515786140683002e-04
2251 4660 -4.3493960106589998e-04
2252 4660 -4.3516347765463001e-04
2312 4660 -1.3961172033563000e-04
2313 4660 -1.3890447457971000e-04
4651 4660 -4.3498947102522999e-04
4652 4660 -4.3511147331840001e-04
4653 4660 -1.3830611115367000e-04
4654 4660 -1.4021008376167000e-04
4660 4660 3.2107479992476998e-02
4661 4661 1.7814014086809001e-02
4662 4661 -5.1826804162756002e-07
4670 4661 -1.4042232279494999e-04
4661 4662 -4.9752025234783999e-08
4662 4662 1.7749247641711000e-02
4663 4662 -1.6666666666667000e-02
4670 4662 -1.4018400651870001e-04
4662 4663 -1.6666666666667000e-02
4663 4663 3.3333333333333000e-02
4674 4663 -1.6666666666667000e-02
4664 4664 8.2271802312794007e-03
4667 4664 -6.3955635927795997e-10
4677 4664 -1.6463468882337999e-04
4665 4665 1.9462935821477002e-02
4666 4665 -1.1808196934885000e-03
4677 4665 -4.3507335189259998e-04
4665 4666 -1.2556728366754000e-03
4666 4666 1.9387905510733001e-02
4670 4666 -1.6666666666667000e-02
4677 4666 -4.3506543218333003e-04
4664 4667 -4.3347441621001003e-12
4667 4667 7.5572247367979000e-03
4670 4667 -6.6666666666667001e-03
4677 4667 -1.6206762899651999e-04
4668 4668 9.2171998771407998e-03
4669 4668 -6.7158469335371995e-04
4670 4668 -4.3501724515646002e-04
4668 4669 -6.2365448072859004e-04
4669 4669 9.2667207040722007e-03
4670 4669 -4.3508113712683000e-04
4675 4669 -6.6666666666667001e-03
4661 4670 -1.3960613249973001e-04
4662 4670 -1.3891006241559999e-04
4666 4670 -1.6666666666667000e-02
4667 4670 -6.6666666666667001e-03
4668 4670 -4.3492353253351998e-04
4669 4670 -4.3518023448996002e-04
4670 4670 2.5854538204344000e-02
4671 4671 9.2178406793035003e-03
4672 4671 -6.7175893579548998e-04
4680 4671 -4.3501725652858998e-04
4671 4672 -6.2404623702720001e-04
4672 4672 9.2671418076029997e-03
4675 4672 -6.6666666666667001e-03
4680 4672 -4.3508112575922999e-04
4673 4673 1.7296361635628001e-02
4674 4673 -9.5132436771589001e-09
4675 4673 -1.6666666666667000e-02
4680 4673 -1.3970896771325000e-04
4663 4674 -1.6666666666667000e-02
4673 4674 -4.2867615039884998e-07
4674 4674 1.7749585101714000e-02
4680 4674 -1.4132809200971999e-04
2055 4675 -1.6142416531098001e-04
2056 4675 -4.3511387620082998e-04
2057 4675 -4.3502588743545001e-04
2058 4675 -1.6142332706492999e-04
4669 4675 -6.6666666666667001e-03
4672 4675 -6.6666666666667001e-03
4673 4675 -1.6666666666667000e-02
4675 4675 3.2100179635557002e-02
4676 4676 1.9462902841942999e-02
4677 4676 -4.3507304810967999e-04
4678 4676 -1.6666666666667000e-02
4679 4676 -1.1808164219004999e-03
2080 4677 -1.6142419949423999e-04
2081 4677 -1.6142329288168001e-04
2118 4677 -1.6142374510750001e-04
2119 4677 -1.6142374726841000e-04
2122 4677 -1.6666666666667000e-02
2123 4677 -6.6666666666667001e-03
2174 4677 -4.3528100276778999e-04
2175 4677 -4.3486244326887999e-04
4664 4677 -1.6142419948505000e-04
4665 4677 -4.3510301572197998e-04
4666 4677 -4.3503650982793998e-04
4667 4677 -1.6142329289087001e-04
4676 4677 -4.3510043611573999e-04
4677 4677 2.9240286150846000e-02
4679 4677 -4.3503903253463999e-04
2053 4678 -6.6666666666667001e-03
2075 4678 -4.3508317801583998e-04
2076 4678 -1.4022971343410001e-04
2077 4678 -1.3828648148123999e-04
2078 4678 -4.3501660453972003e-04
2081 4678 -6.6666666666667001e-03
4676 4678 -1.6666666666667000e-02
4678 4678 3.2208822783302997e-02
2047 4679 -1.6666666666667000e-02
4676 4679 -1.2556669183020001e-03
4677 4679 -4.3506573597359001e-04
4679 4679 1.9387888775738001e-02
1949 4680 -1.6666666666667000e-02
1950 4680 -6.6666666666667001e-03
2048 4680 -4.3492071359550998e-04
2049 4680 -1.4023272789843999e-04
2050 4680 -1.3828346701690001e-04
2051 4680 -4.3518317751489998e-04
2116 4680 -4.3503928200080001e-04
2117 4680 -4.3505953014083001e-04
2177 4680 -1.4022547962062000e-04
2178 4680 -1.3829071529472000e-04
4671 4680 -4.3492357818830001e-04
4672 4680 -4.3518019025144997e-04
4673 4680 -1.3889892856555001e-04
4674 4680 -1.3961726634978999e-04
4680 4680 3.2083199353483999e-02
4681 4681 1.7814016137830999e-02
4682 4681 -5.2038571986452005e-07
4690 4681 -1.4045428891770999e-04
4681 4682 -4.9912560591135999e-08
4682 4682 1.7749201641045001e-02
4683 4682 -1.6666666666667000e-02
4690 4682 -1.4020928194163001e-04
4682 4683 -1.6666666666667000e-02
4683 4683 3.3333333333333000e-02
4694 4683 -1.6666666666667000e-02
4684 4684 8.2272091639074008e-03
4687 4684 -4.7785463465489997e-10
4697 4684 -1.6451213807307000e-04
4685 4685 1.9467133643792999e-02
4686 4685 -1.1850476009415999e-03
4697 4685 -4.3509130800149001e-04
4685 4686 -1.2597192511992000e-03
4686 4686 1.9391477782256000e-02
4690 4686 -1.6666666666667000e-02
4697 4686 -4.3504747459979001e-04
4684 4687 -3.2178476882390002e-12
4687 4687 7.5572586423569002e-03
4690 4687 -6.6666666666667001e-03
4697 4687 -1.6203502253044999e-04
4688 4688 9.2657946193550004e-03
4689 4688 -6.2279509203071995e-04
4690 4688 -4.3505006735922999e-04
4688 4689 -6.7150492725552005e-04
4689 4689 9.2170520069479994e-03
4690 4689 -4.3504832003248001e-04
4695 4689 -6.6666666666667001e-03
4681 4690 -1.3960761320095999e-04
4682 4690 -1.3890858171438001e-04
4686 4690 -1.6666666666667000e-02
4687 4690 -6.6666666666667001e-03
4688 4690 -4.3505277625906002e-04
4689 4690 -4.3504575828768000e-04
4690 4690 2.5852852627857002e-02
4691 4691 9.2658844810871999e-03
4692 4691 -6.2288311137936002e-04
4700 4691 -4.3505006714433000e-04
4691 4692 -6.7159837388244999e-04
4692 4692 9.2171377891875003e-03
4695 4692 -6.6666666666667001e-03
4700 4692 -4.3504832024737002e-04
4693 4693 1.7296414175070999e-02
4694 4693 -9.4759820081248997e-09
4695 4693 -1.6666666666667000e-02
4700 4693 -1.3970045592320000e-04
4683 4694 -1.6666666666667000e-02
4693 4694 -4.2697607843495998e-07
4694 4694 1.7749576071599001e-02
4700 4694 -1.4128850252082001e-04
1920 4695 -1.6142417657994001e-04
1921 4695 -4.3506974823900001e-04
1922 4695 -4.3506904373508999e-04
1923 4695 -1.6142331579597000e-04
4689 4695 -6.6666666666667001e-03
4692 4695 -6.6666666666667001e-03
4693 4695 -1.6666666666667000e-02
4695 4695 3.2099744577057998e-02
4696 4696 1.9390988708348999e-02
4697 4696 -4.3505991651492001e-04
4698 4696 -1.6666666666667000e-02
4699 4696 -1.2595526812931000e-03
1945 4697 -1.6142408352668000e-04
1946 4697 -1.6142340884923000e-04
1983 4697 -1.6142375037929001e-04
1984 4697 -1.6142374199661999e-04
1987 4697 -1.6666666666667000e-02
1988 4697 -6.6666666666667001e-03
2039 4697 -4.3527302334519000e-04
2040 4697 -4.3487022410747999e-04
4684 4697 -1.6142408355376001e-04
4685 4697 -4.3525631007347001e-04
4686 4697 -4.3488657139476001e-04
4687 4697 -1.6142340882215999e-04
4696 4697 -4.3499035976334998e-04
4697 4697 2.9255125626085999e-02
4699 4697 -4.3515019422887000e-04
1918 4698 -6.6666666666667001e-03
1940 4698 -4.3507504526577002e-04
1941 4698 -1.4023755218459000e-04
1942 4698 -1.3827864273075000e-04
1943 4698 -4.3502440386437001e-04
1946 4698 -6.6666666666667001e-03
4696 4698 -1.6666666666667000e-02
4698 4698 3.2205077116680997e-02
1912 4699 -1.6666666666667000e-02
4696 4699 -1.1849374934641999e-03
4697 4699 -4.3507886732562997e-04
4699 4699 1.9466028902740001e-02
1814 4700 -1.6666666666667000e-02
1815 4700 -6.6666666666667001e-03
1913 4700 -4.3507637363145998e-04
1914 4700 -1.4022961331251001e-04
1915 4700 -1.3828658160281999e-04
1916 4700 -4.3502312965097999e-04
1981 4700 -4.3512730654850001e-04
1982 4700 -4.3497428615853000e-04
2042 4700 -1.4022281664760001e-04
2043 4700 -1.3829337826773999e-04
4691 4700 -4.3505277611832001e-04
4692 4700 -4.3504575839057002e-04
4693 4700 -1.3890036823346999e-04
4694 4700 -1.3961582668187001e-04
4700 4700 3.2088355450687001e-02
4701 4701 1.9463795441378998e-02
4702 4701 -1.1816904139952001e-03
4710 4701 -4.3507837954282001e-04
4701 4702 -1.2564869602208000e-03
4702 4702 1.9388596488910000e-02
4703 4702 -1.6666666666667000e-02
4710 4702 -4.3506040432634999e-04
4702 4703 -1.6666666666667000e-02
4703 4703 3.3333333333333000e-02
4714 4703 -1.6666666666667000e-02
4704 4704 9.2188027629803004e-03
4707 4704 -6.7302986998199997e-04
4717 4704 -4.3504106779571999e-04
4705 4705 1.7814598558143001e-02
4706 4705 -1.1312224403760000e-06
4717 4705 -1.4073472843972000e-04
4705 4706 -2.2309185379564001e-08
4706 4706 1.7296408883971000e-02
4710 4706 -1.6666666666667000e-02
4717 4706 -1.3951391893468000e-04
4704 4707 -6.2457549887925002e-04
4707 4707 9.2676629918954992e-03
4710 4707 -6.6666666666667001e-03
4717 4707 -4.3505731926902000e-04
4708 4708 8.2271860587455007e-03
4709 4708 -3.9874200663749000e-10
4710 4708 -1.6436583107116000e-04
4708 4709 -3.9551254413140998e-10
4709 4709 8.2269808637370004e-03
4710 4709 -1.6435135624055000e-04
4715 4709 -6.6666666666667001e-03
4701 4710 -4.3514577610733000e-04
4702 4710 -4.3499469018602998e-04
4706 4710 -1.6666666666667000e-02
4707 4710 -6.6666666666667001e-03
4708 4710 -1.6142374833286001e-04
4709 4710 -1.6142374404306000e-04
4710 4710 2.5678925473760002e-02
4711 4711 9.2658563525316994e-03
4712 4711 -6.2286804497436001e-04
4720 4711 -4.3505687631547002e-04
4711 4712 -6.7154237233788005e-04
4712 4712 9.2169056398108996e-03
4715 4712 -6.6666666666667001e-03
4720 4712 -4.3504151078423999e-04
4713 4713 1.7296437838265000e-02
4714 4713 -2.3922980335092999e-08
4715 4713 -1.6666666666667000e-02
4720 4713 -1.3967162020362000e-04
4703 4714 -1.6666666666667000e-02
4713 4714 -1.2101509175133001e-06
4714 4714 1.7814516091528999e-02
4720 4714 -1.4164324630374999e-04
1785 4715 -1.6142417865327999e-04
1786 4715 -4.3507068752371002e-04
1787 4715 -4.3506812514974001e-04
1788 4715 -1.6142331372263999e-04
4709 4715 -6.6666666666667001e-03
4712 4715 -6.6666666666667001e-03
4713 4715 -1.6666666666667000e-02
4715 4715 3.2099667380368999e-02
4716 4716 1.7296418949300001e-02
4717 4716 -1.3951402192598000e-04
4718 4716 -1.6666666666667000e-02
4719 4716 -2.2214715822633001e-08
1810 4717 -4.3504458289275998e-04
1811 4717 -4.3505400140735002e-04
1848 4717 -4.3500700472781997e-04
1849 4717 -4.3509318413876002e-04
1852 4717 -1.6666666666667000e-02
1853 4717 -6.6666666666667001e-03
1904 4717 -1.3958230148923000e-04
1905 4717 -1.3893389342611000e-04
4704 4717 -4.3501713565477002e-04
4705 4717 -1.4016324143908000e-04
4706 4717 -1.3835295347625000e-04
4707 4717 -4.3508262066560002e-04
4716 4717 -1.3835712875820999e-04
4717 4717 2.9746008303418999e-02
4719 4717 -1.4015906615712001e-04
1783 4718 -6.6666666666667001e-03
1805 4718 -1.6142417504404999e-04
1806 4718 -4.3510023628700001e-04
1807 4718 -4.3503922732961999e-04
1808 4718 -1.6142331733187001e-04
1811 4718 -6.6666666666667001e-03
4716 4718 -1.6666666666667000e-02
4718 4718 3.2099806661850999e-02
1777 4719 -1.6666666666667000e-02
4716 4719 -1.1257081618546001e-06
4717 4719 -1.4073341070895999e-04
4719 4719 1.7814265218685999e-02
1679 4720 -1.6666666666667000e-02
1680 4720 -6.6666666666667001e-03
1778 4720 -4.3507627150272000e-04
1779 4720 -1.4022985263098000e-04
1780 4720 -1.3828634228436000e-04
1781 4720 -4.3502322760018998e-04
1846 4720 -4.3500697881778002e-04
1847 4720 -4.3509321623802001e-04
1907 4720 -1.3961788563846000e-04
1908 4720 -1.3889830927688000e-04
4711 4720 -4.3508070309223001e-04
4712 4720 -4.3501897789609999e-04
4713 4720 -1.3828887746892001e-04
4714 4720 -1.4022731744641999e-04
4720 4720 3.2088085212003001e-02
4721 4721 1.9389695661659000e-02
4722 4721 -1.2559204811951000e-03
4730 4721 -4.3462739823391003e-04
4721 4722 -1.2023110310015999e-03
4722 4722 1.9475855038246000e-02
4723 4722 -1.6666666666667000e-02
4730 4722 -4.3551076253112999e-04
4722 4723 -1.6666666666667000e-02
4723 4723 3.3333333333333000e-02
4734 4723 -1.6666666666667000e-02
4724 4724 9.2658057269992995e-03
4727 4724 -6.2288725962410002e-04
4737 4724 -4.3509145700838998e-04
4725 4725 1.7814701342161000e-02
4726 4725 -1.2082484873220999e-06
4737 4725 -1.4158939272957999e-04
4725 4726 -2.3876038566003000e-08
4726 4726 1.7296484849326998e-02
4730 4726 -1.6666666666667000e-02
4737 4726 -1.3966207671516000e-04
4724 4727 -6.7135703792947003e-04
4727 4727 9.2158168557676997e-03
4730 4727 -6.6666666666667001e-03
4737 4727 -4.3500692143235998e-04
4728 4728 8.2271759920547992e-03
4729 4728 -6.2804105786892001e-10
4730 4728 -1.6461938392985001e-04
4728 4729 -4.2525438235485999e-12
4729 4729 7.5561060987391999e-03
4730 4729 -1.6206315180847001e-04
4735 4729 -6.6666666666667001e-03
4721 4730 -4.3139605915884998e-04
4722 4730 -4.3882580096789000e-04
4726 4730 -1.6666666666667000e-02
4727 4730 -6.6666666666667001e-03
4728 4730 -1.6142419139822999e-04
4729 4730 -1.6142330097768001e-04
4730 4730 2.5662942299679001e-02
4731 4731 8.2267673980192992e-03
4732 4731 -7.7511614216227000e-08
4740 4731 -1.6700225665779999e-04
4731 4732 -5.6410582871706000e-10
4732 4732 7.5560718433771001e-03
4735 4732 -6.6666666666667001e-03
4740 4732 -1.6254096354947000e-04
4733 4733 1.9412340955637000e-02
4734 4733 -1.1435530965894999e-03
4735 4733 -1.6666666666667000e-02
4740 4733 -4.3527696990017998e-04
4723 4734 -1.6666666666667000e-02
4733 4734 -1.1967231145585001e-03
4734 4734 1.9345791780721999e-02
4740 4734 -4.3486166998460001e-04
1650 4735 -4.3525125181380001e-04
1651 4735 -1.4009426335884000e-04
1652 4735 -1.3842193155650000e-04
1653 4735 -4.3485536403164998e-04
4729 4735 -6.6666666666667001e-03
4732 4735 -6.6666666666667001e-03
4733 4735 -1.6666666666667000e-02
4735 4735 3.2310797018268000e-02
4736 4736 1.7296430228019001e-02
4737 4736 -1.3969088502478001e-04
4738 4736 -1.6666666666667000e-02
4739 4736 -9.5050535938717004e-09
1675 4737 -4.3510140284433002e-04
1676 4737 -4.3499912712535000e-04
1713 4737 -4.3601559315758999e-04
1714 4737 -4.3412208594986002e-04
1717 4737 -1.6666666666667000e-02
1718 4737 -6.6666666666667001e-03
1769 4737 -1.4018695871412999e-04
1770 4737 -1.3832923620121001e-04
4724 4737 -4.3522255091483998e-04
4725 4737 -1.4022557665103999e-04
4726 4737 -1.3829061826430001e-04
4727 4737 -4.3488294203304000e-04
4736 4737 -1.3889908856167999e-04
4737 4737 2.9554536809592000e-02
4739 4737 -1.3961710635366001e-04
1648 4738 -6.6666666666667001e-03
1670 4738 -1.6142418026751000e-04
1671 4738 -4.3506619325992001e-04
1672 4738 -4.3507266295088998e-04
1673 4738 -1.6142331210841000e-04
1676 4738 -6.6666666666667001e-03
4736 4738 -1.6666666666667000e-02
4738 4738 3.2099607256133998e-02
1642 4739 -1.6666666666667000e-02
4736 4739 -4.2863413477442000e-07
4737 4739 -1.4124737987670000e-04
4739 4739 1.7750018639097000e-02
1544 4740 -1.6666666666667000e-02
1545 4740 -6.6666666666667001e-03
1643 4740 -1.6148030961488999e-04
1644 4740 -4.3180219337701000e-04
1645 4740 -4.3841729813281003e-04
1646 4740 -1.6136718276102001e-04
1711 4740 -1.6143111015488000e-04
1712 4740 -1.6141638222104000e-04
1772 4740 -1.3945289694748000e-04
1773 4740 -1.3906329796785000e-04
4731 4740 -1.6148039992595000e-04
4732 4740 -1.6136709244996000e-04
4733 4740 -4.3670955442663001e-04
4734 4740 -4.3346959547634002e-04
4740 4740 3.1059558621910999e-02
4741 4741 1.9463559149727000e-02
4742 4741 -1.1815074595206000e-03
4750 4741 -4.3509411832315002e-04
4741 4742 -1.2560723070373001e-03
4742 4742 1.9387887862280000e-02
4743 4742 -1.6666666666667000e-02
4750 4742 -4.3504466385978999e-04
4742 4743 -1.6666666666667000e-02
4743 4743 3.3333333333333000e-02
4754 4743 -1.6666666666667000e-02
4744 4744 9.2658604279448002e-03
4747 4744 -6.2286671713142003e-04
4757 4744 -4.3505464169351000e-04
4745 4745 1.7814706564366001e-02
4746 4745 -1.2138414715824001e-06
4757 4745 -1.4164815786830000e-04
4745 4746 -2.3987503986771000e-08
4746 4746 1.7296434644441999e-02
4750 4746 -1.6666666666667000e-02
4757 4746 -1.3967217049026999e-04
4744 4747 -6.7155436068417999e-04
4747 4747 9.2169767789835998e-03
4750 4747 -6.6666666666667001e-03
4757 4747 -4.3504374555326000e-04
4748 4748 8.2271776623767997e-03
4749 4748 -4.0364292618600000e-10
4750 4748 -1.6435890025977000e-04
4748 4749 -4.2163743276120998e-10
4749 4749 8.2277426793974998e-03
4750 4749 -1.6517624442706001e-04
4755 4749 -6.6666666666667001e-03
4741 4750 -4.3527949639214999e-04
4742 4750 -4.3486391265867998e-04
4746 4750 -1.6666666666667000e-02
4747 4750 -6.6666666666667001e-03
4748 4750 -1.6142374006029999e-04
4749 4750 -1.6142375231561999e-04
4750 4750 2.5678727872840000e-02
4751 4751 9.2178266754600006e-03
4752 4751 -6.7176172396205003e-04
4760 4751 -4.3502918135146002e-04
4751 4752 -6.2375715295501005e-04
4752 4752 9.2668269557768003e-03
4755 4752 -6.6666666666667001e-03
4760 4752 -4.3506920403806000e-04
4753 4753 1.7296390993304000e-02
4754 4753 -2.3890437463485002e-08
4755 4753 -1.6666666666667000e-02
4760 4753 -1.3967936682263000e-04
4743 4754 -1.6666666666667000e-02
4753 4754 -1.2076221998700001e-06
4754 4754 1.7814134127246001e-02
4760 4754 -1.4168490303299001e-04
1515 4755 -1.6142416861783000e-04
1516 4755 -4.3511787663668002e-04
1517 4755 -4.3502197520077003e-04
1518 4755 -1.6142332375808000e-04
4749 4755 -6.6666666666667001e-03
4752 4755 -6.6666666666667001e-03
4753 4755 -1.6666666666667000e-02
4755 4755 3.2100053926560998e-02
4756 4756 1.7296436890000998e-02
4757 4756 -1.3967227964873001e-04
4758 4756 -1.6666666666667000e-02
4759 4756 -2.3911622144032002e-08
1540 4757 -4.3507814433343001e-04
1541 4757 -4.3502143165286998e-04
1578 4757 -4.3489778085648001e-04
1579 4757 -4.3520708797917999e-04
1582 4757 -1.6666666666667000e-02
1583 4757 -6.6666666666667001e-03
1634 4757 -1.3960601519035000e-04
1635 4757 -1.3891017972499000e-04
4744 4757 -4.3507153788004002e-04
4745 4757 -1.4023013082679000e-04
4746 4757 -1.3828606408855000e-04
4747 4757 -4.3502776693461000e-04
4756 4757 -1.3828940227600999e-04
4757 4757 2.9636441342586001e-02
4759 4757 -1.4022679263933001e-04
1513 4758 -6.6666666666667001e-03
1535 4758 -1.6142417843797001e-04
1536 4758 -4.3507140616055997e-04
1537 4758 -4.3506742234871999e-04
1538 4758 -1.6142331393793999e-04
1541 4758 -6.6666666666667001e-03
4756 4758 -1.6666666666667000e-02
4758 4758 3.2099675501758997e-02
1507 4759 -1.6666666666667000e-02
4756 4759 -1.2094331225596000e-06
4757 4759 -1.4164651989778001e-04
4759 4759 1.7814456186193001e-02
1409 4760 -1.6666666666667000e-02
1410 4760 -6.6666666666667001e-03
1508 4760 -4.3492177346981999e-04
1509 4760 -1.4023273411578000e-04
1510 4760 -1.3828346079956000e-04
1511 4760 -4.3518207225782998e-04
1576 4760 -4.3489782923299001e-04
1577 4760 -4.3520704170161998e-04
1637 4760 -1.3961729438928999e-04
1638 4760 -1.3889890052605001e-04
4751 4760 -4.3497048347017998e-04
4752 4760 -4.3513127617126002e-04
4753 4760 -1.3829054516762001e-04
4754 4760 -1.4022564974771999e-04
4760 4760 3.2083174990057001e-02
4761 4761 1.7814016092733000e-02
4762 4761 -5.2032448216204005e-07
4770 4761 -1.4045125199832999e-04
4761 4762 -5.0460038119317000e-08
4762 4762 1.7749718312639998e-02
4763 4762 -1.6666666666667000e-02
4770 4762 -1.4020851379457000e-04
4762 4763 -1.6666666666667000e-02
4763 4763 3.3333333333333000e-02
4774 4763 -1.6666666666667000e-02
4764 4764 8.2272091201904003e-03
4767 4764 -4.7817842350033997e-10
4777 4764 -1.6451245138937999e-04
4765 4765 1.9467130023544998e-02
4766 4765 -1.1850385697024001e-03
4777 4765 -4.3508993287757997e-04
4765 4766 -1.2597302699555999e-03
4766 4766 1.9391515840632999e-02
4770 4766 -1.6666666666667000e-02
4777 4766 -4.3504884990904001e-04
4764 4767 -3.2200645195800001e-12
4767 4767 7.5572562085935999e-03
4770 4767 -6.6666666666667001e-03
4777 4767 -1.6203509347973000e-04
4768 4768 9.2657208659870996e-03
4769 4768 -6.2276351822698999e-04
4770 4768 -4.3507233680969000e-04
4768 4769 -6.7134213046535999e-04
4769 4769 9.2163102132016995e-03
4770 4769 -4.3502604790101999e-04
4775 4769 -6.6666666666667001e-03
4761 4770 -1.3960712998560001e-04
4762 4770 -1.3890906492973999e-04
4766 4770 -1.6666666666667000e-02
4767 4770 -6.6666666666667001e-03
4768 4770 -4.3514409259081999e-04
4769 4770 -4.3495818905166001e-04
4770 4770 2.5853025944525002e-02
4771 4771 9.2677936131561993e-03
4772 4771 -6.2488686760147998e-04
4780 4771 -4.3507220524000999e-04
4771 4772 -6.7354081181433996e-04
4772 4772 9.2183084567788991e-03
4775 4772 -6.6666666666667001e-03
4780 4772 -4.3502617950172000e-04
4773 4773 1.7296444417575000e-02
4774 4773 -8.4910787817437004e-09
4775 4773 -1.6666666666667000e-02
4780 4773 -1.3943437486966999e-04
4763 4774 -1.6666666666667000e-02
4773 4774 -3.8381109719605001e-07
4774 4774 1.7750057965360000e-02
4780 4774 -1.4006852215433000e-04
1380 4775 -1.6142418365014001e-04
1381 4775 -4.3505895098910999e-04
1382 4775 -4.3508006846105000e-04
1383 4775 -1.6142330872576999e-04
4769 4775 -6.6666666666667001e-03
4772 4775 -6.6666666666667001e-03
4773 4775 -1.6666666666667000e-02
4775 4775 3.2099481972309003e-02
4776 4776 1.9391036973368001e-02
4777 4776 -4.3505987029702998e-04
4778 4776 -1.6666666666667000e-02
4779 4776 -1.2595650874749999e-03
1405 4777 -1.6142408375823000e-04
1406 4777 -1.6142340861768001e-04
1443 4777 -1.6142375682634999e-04
1444 4777 -1.6142373554956001e-04
1447 4777 -1.6666666666667000e-02
1448 4777 -6.6666666666667001e-03
1499 4777 -4.3520259886816999e-04
1500 4777 -4.3493910605510000e-04
4764 4777 -1.6142408378488001e-04
4765 4777 -4.3524458034216999e-04
4766 4777 -4.3489804427830999e-04
4767 4777 -1.6142340859102999e-04
4776 4777 -4.3498997448682001e-04
4777 4777 2.9255079014757001e-02
4779 4777 -4.3515058830468999e-04
1378 4778 -6.6666666666667001e-03
1400 4778 -4.3507548820551003e-04
1401 4778 -1.4023718408061000e-04
1402 4778 -1.3827901083473000e-04
1403 4778 -4.3502397909424002e-04
1406 4778 -6.6666666666667001e-03
4776 4778 -1.6666666666667000e-02
4778 4778 3.2205249784593000e-02
1372 4779 -1.6666666666667000e-02
4776 4779 -1.1849353174033001e-03
4777 4779 -4.3507891354074998e-04
4779 4779 1.9466093861028998e-02
1274 4780 -1.6666666666667000e-02
1275 4780 -6.6666666666667001e-03
1373 4780 -4.3522160505933999e-04
1374 4780 -1.4012350311344999e-04
1375 4780 -1.3839269180189001e-04
1376 4780 -4.3488381552644000e-04
1441 4780 -4.3524891425951998e-04
1442 4780 -4.3485761810527999e-04
1502 4780 -1.4011954094207999e-04
1503 4780 -1.3839665397326001e-04
4771 4780 -4.3514401246365998e-04
4772 4780 -4.3495824591410998e-04
4773 4780 -1.3893689610954999e-04
4774 4780 -1.3957929880579001e-04
4780 4780 3.2303316336917000e-02
4781 4781 1.9463617146866001e-02
4782 4781 -1.1814814443387000e-03
4790 4781 -4.3507378768573002e-04
4781 4782 -1.2563445323007000e-03
4782 4782 1.9388557261633001e-02
4783 4782 -1.6666666666667000e-02
4790 4782 -4.3506499637864000e-04
4782 4783 -1.6666666666667000e-02
4783 4783 3.3333333333333000e-02
4794 4783 -1.6666666666667000e-02
4784 4784 9.2658639228802003e-03
4787 4784 -6.2287793019290001e-04
4797 4784 -4.3505786502451998e-04
4785 4785 1.7814705590416001e-02
4786 4785 -1.2127066885436001e-06
4797 4785 -1.4163596141765001e-04
4785 4786 -2.3964631346068001e-08
4786 4786 1.7296439318562999e-02
4790 4786 -1.6666666666667000e-02
4797 4786 -1.3967006558059000e-04
4784 4787 -6.7154672778828002e-04
4787 4787 9.2168831722089003e-03
4790 4787 -6.6666666666667001e-03
4797 4787 -4.3504052199414001e-04
4788 4788 8.2271769327628991e-03
4789 4788 -4.0438693268077998e-10
4790 4788 -1.6436040206805000e-04
4788 4789 -4.0082730523424001e-10
4789 4789 8.2269434345195007e-03
4790 4789 -1.6435894131939000e-04
4795 4789 -6.6666666666667001e-03
4781 4790 -4.3510674212061999e-04
4782 4790 -4.3503286493797001e-04
4786 4790 -1.6666666666667000e-02
4787 4790 -6.6666666666667001e-03
4788 4790 -1.6142374866291999e-04
4789 4790 -1.6142374371299001e-04
4790 4790 2.5678674739516998e-02
4791 4791 9.2658600186861992e-03
4792 4791 -6.2287447177092998e-04
4800 4791 -4.3505791625049001e-04
4791 4792 -6.7154279631969997e-04
4792 4792 9.2168779012674999e-03
4795 4792 -6.6666666666667001e-03
4800 4792 -4.3504047076371001e-04
4793 4793 1.7296439365835001e-02
4794 4793 -2.3941194913660001e-08
4795 4793 -1.6666666666667000e-02
4800 4793 -1.3967053541642999e-04
4783 4794 -1.6666666666667000e-02
4793 4794 -1.2113049225692000e-06
4794 4794 1.7814613095249999e-02
4800 4794 -1.4163784457801000e-04
1245 4795 -1.6142417900076001e-04
1246 4795 -4.3506939463154999e-04
1247 4795 -4.3506938955079001e-04
1248 4795 -1.6142331337515000e-04
4789 4795 -6.6666666666667001e-03
4792 4795 -6.6666666666667001e-03
4793 4795 -1.6666666666667000e-02
4795 4795 3.2099654340433000e-02
4796 4796 1.7296439299083002e-02
4797 4796 -1.3967010552337001e-04
4798 4796 -1.6666666666667000e-02
4799 4796 -2.3936519840622000e-08
1270 4797 -4.3508478684982002e-04
1271 4797 -4.3501506169272999e-04
1308 4797 -4.3511100393886000e-04
1309 4797 -4.3498992017670999e-04
1312 4797 -1.6666666666667000e-02
1313 4797 -6.6666666666667001e-03
1364 4797 -1.3960571562431000e-04
1365 4797 -1.3891047929103000e-04
4784 4797 -4.3508475904376997e-04
4785 4797 -1.4022920907728000e-04
4786 4797 -1.3828698583806000e-04
4787 4797 -4.3501508835771998e-04
4796 4797 -1.3828822094472999e-04
4797 4797 2.9637716816536000e-02
4799 4797 -1.4022797397061001e-04
1243 4798 -6.6666666666667001e-03
1265 4798 -1.6142417898667999e-04
1266 4798 -4.3506943537996998e-04
1267 4798 -4.3506934970035998e-04
1268 4798 -1.6142331338922999e-04
1271 4798 -6.6666666666667001e-03
4796 4798 -1.6666666666667000e-02
4798 4798 3.2099654865285002e-02
1237 4799 -1.6666666666667000e-02
4796 4799 -1.2110746403515001e-06
4797 4799 -1.4163536280599001e-04
4799 4799 1.7814612650496001e-02
1139 4800 -1.6666666666667000e-02
1140 4800 -6.6666666666667001e-03
1238 4800 -4.3508502417231003e-04
1239 4800 -1.4022939288421999e-04
1240 4800 -1.3828680203112001e-04
1241 4800 -4.3501483412054998e-04
1306 4800 -4.3511100403405002e-04
1307 4800 -4.3498992010514999e-04
1367 4800 -1.3961586819801001e-04
1368 4800 -1.3890032671732999e-04
4791 4800 -4.3508496886505998e-04
4792 4800 -4.3501488715817001e-04
4793 4800 -1.3828803455856001e-04
4794 4800 -1.4022816035677999e-04
4800 4800 3.2088727524548999e-02
4801 4801 1.9389878486190001e-02
4802 4801 -1.2561319904192999e-03
4810 4801 -4.3463095419968002e-04
4801 4802 -1.2023529597498001e-03
4802 4802 1.9475965982898000e-02
4803 4802 -1.6666666666667000e-02
4810 4802 -4.3550721663491998e-04
4802 4803 -1.6666666666667000e-02
4803 4803 3.3333333333333000e-02
4814 4803 -1.6666666666667000e-02
4804 4804 9.2674443461044000e-03
4807 4804 -6.2436517755623999e-04
4817 4804 -4.3507419373218001e-04
4805 4805 1.7814593945722001e-02
4806 4805 -1.1265315142204999e-06
4817 4805 -1.4068456779364001e-04
4805 4806 -2.2215890248332001e-08
4806 4806 1.7296453895154999e-02
4810 4806 -1.6666666666667000e-02
4817 4806 -1.3950527681808999e-04
4804 4807 -6.7285347166808995e-04
4807 4807 9.2179432813355999e-03
4810 4807 -6.6666666666667001e-03
4817 4807 -4.3502419053131002e-04
4808 4808 8.2271851876597000e-03
4809 4808 -6.1921651764218005e-10
4810 4808 -1.6462196728991000e-04
4808 4809 -4.1894289078021998e-12
4809 4809 7.5561103529844997e-03
4810 4809 -1.6206150458195000e-04
4815 4809 -6.6666666666667001e-03
4801 4810 -4.3142478129087002e-04
4802 4810 -4.3879640423705001e-04
4806 4810 -1.6666666666667000e-02
4807 4810 -6.6666666666667001e-03
4808 4810 -1.6142418484777000e-04
4809 4810 -1.6142330752814000e-04
4810 4810 2.5663185200165001e-02
4811 4811 8.2267677378374000e-03
4812 4811 -7.7450515595872006e-08
4820 4811 -1.6700190450669999e-04
4811 4812 -5.6365625557849999e-10
4812 4812 7.5560754600053999e-03
4815 4812 -6.6666666666667001e-03
4820 4812 -1.6254090468230999e-04
4813 4813 1.9412281337817999e-02
4814 4813 -1.1434649257772999e-03
4815 4813 -1.6666666666667000e-02
4820 4813 -4.3527847072001000e-04
4803 4814 -1.6666666666667000e-02
4813 4814 -1.1966495518034000e-03
4814 4814 1.9345614478529002e-02
4820 4814 -4.3486016709646001e-04
1110 4815 -4.3525019015169000e-04
1111 4815 -1.4009468358472000e-04
1112 4815 -1.3842151133062000e-04
1113 4815 -4.3485638272890002e-04
4809 4815 -6.6666666666667001e-03
4812 4815 -6.6666666666667001e-03
4813 4815 -1.6666666666667000e-02
4815 4815 3.2310300292418000e-02
4816 4816 1.7296401802903000e-02
4817 4816 -1.3952532249147999e-04
4818 4816 -1.6666666666667000e-02
4819 4816 -8.8911461856538992e-09
1135 4817 -4.3503145298465001e-04
1136 4817 -4.3506769186495002e-04
1173 4817 -4.3598741220450001e-04
1174 4817 -4.3414903009818999e-04
1177 4817 -1.6666666666667000e-02
1178 4817 -6.6666666666667001e-03
1229 4817 -1.4012324905204000e-04
1230 4817 -1.3839294586330000e-04
4804 4817 -4.3515204633364998e-04
4805 4817 -1.4015942513980999e-04
4806 4817 -1.3835676977553001e-04
4807 4817 -4.3495054841992999e-04
4816 4817 -1.3892181520909000e-04
4817 4817 2.9673454137975001e-02
4819 4817 -1.3959437970625000e-04
1108 4818 -6.6666666666667001e-03
1130 4818 -1.6142417421821000e-04
1131 4818 -4.3509306186525999e-04
1132 4818 -4.3504624370491998e-04
1133 4818 -1.6142331815770000e-04
1136 4818 -6.6666666666667001e-03
4816 4818 -1.6666666666667000e-02
4818 4818 3.2099836743775000e-02
1102 4819 -1.6666666666667000e-02
4816 4819 -4.0177206062375002e-07
4817 4819 -1.4048789255846999e-04
4819 4819 1.7750321781594001e-02
1004 4820 -1.6666666666667000e-02
1005 4820 -6.6666666666667001e-03
1103 4820 -1.6148026442878001e-04
1104 4820 -4.3182612138238001e-04
1105 4820 -4.3839277682646000e-04
1106 4820 -1.6136722794712999e-04
1171 4820 -1.6143090866460000e-04
1172 4820 -1.6141658371131000e-04
1232 4820 -1.3945419289705999e-04
1233 4820 -1.3906200201828001e-04
4811 4820 -1.6148035496192000e-04
4812 4820 -1.6136713741399001e-04
4813 4820 -4.3672141004198999e-04
4814 4820 -4.3345802462950000e-04
4820 4820 3.1059579667113001e-02
4821 4821 1.9388712597817999e-02
4822 4821 -1.2564080069218000e-03
4830 4821 -4.3506753327308002e-04
4821 4822 -1.1815761512943999e-03
4822 4822 1.9463687690355998e-02
4823 4822 -1.6666666666667000e-02
4830 4822 -4.3507125084169001e-04
4822 4823 -1.6666666666667000e-02
4823 4823 3.3333333333333000e-02
4834 4823 -1.6666666666667000e-02
4824 4824 9.2658585610404000e-03
4827 4824 -6.2287358697072997e-04
4837 4824 -4.3505810801878998e-04
4825 4825 1.7814705884306000e-02
4826 4825 -1.2129709604640000e-06
4837 4825 -1.4163886013468001e-04
4825 4826 -2.3970019529309001e-08
4826 4826 1.7296439653782001e-02
4830 4826 -1.6666666666667000e-02
4837 4826 -1.3967056832785000e-04
4824 4827 -6.7154071890845001e-04
4827 4827 9.2168707397889005e-03
4830 4827 -6.6666666666667001e-03
4837 4827 -4.3504027897845002e-04
4828 4828 8.2271771310954006e-03
4829 4828 -6.1078797395261997e-10
4830 4828 -1.6460546463344000e-04
4828 4829 -4.1377973225897997e-12
4829 4829 7.5572126819440002e-03
4830 4829 -1.6206256568264001e-04
4835 4829 -6.6666666666667001e-03
4821 4830 -4.3505394572950000e-04
4822 4830 -4.3508518646701000e-04
4826 4830 -1.6666666666667000e-02
4827 4830 -6.6666666666667001e-03
4828 4830 -1.6142417906793999e-04
4829 4830 -1.6142331330797001e-04
4830 4830 2.5663375495921001e-02
4831 4831 8.2271755736859006e-03
4832 4831 -6.1385906735926000e-10
4840 4831 -1.6460824295275999e-04
4831 4832 -4.1589228315972002e-12
4832 4832 7.5572125670584998e-03
4835 4832 -6.6666666666667001e-03
4840 4832 -1.6206312539817001e-04
4833 4833 1.9463649869408999e-02
4834 4833 -1.1815623760148999e-03
4835 4833 -1.6666666666667000e-02
4840 4833 -4.3507035528327998e-04
4823 4834 -1.6666666666667000e-02
4833 4834 -1.2563867348945000e-03
4834 4834 1.9388751313921999e-02
4840 4834 -4.3506842883951001e-04
975 4835 -4.3508574316085998e-04
976 4835 -1.4022885378231999e-04
977 4835 -1.3828734113302001e-04
978 4835 -4.3501414460156001e-04
4829 4835 -6.6666666666667001e-03
4832 4835 -6.6666666666667001e-03
4833 4835 -1.6666666666667000e-02
4835 4835 3.2209243702151003e-02
4836 4836 1.7296415230474000e-02
4837 4836 -1.3970001275842001e-04
4838 4836 -1.6666666666667000e-02
4839 4836 -9.4780339105011007e-09
1000 4837 -4.3505594109478999e-04
1001 4837 -4.3504272337392002e-04
1038 4837 -4.3502546727010002e-04
1039 4837 -4.3507393613998998e-04
1042 4837 -1.6666666666667000e-02
1043 4837 -6.6666666666667001e-03
1094 4837 -1.4019507294447001e-04
1095 4837 -1.3832112197086999e-04
4824 4837 -4.3508575533285002e-04
4825 4837 -1.4022942305562001e-04
4826 4837 -1.3828677185970999e-04
4827 4837 -4.3501413296599998e-04
4836 4837 -1.3890028079797999e-04
4837 4837 2.9548613745873999e-02
4839 4837 -1.3961591411736001e-04
973 4838 -6.6666666666667001e-03
995 4838 -1.6142417682131000e-04
996 4838 -4.3506941412328000e-04
997 4838 -4.3506937048857000e-04
998 4838 -1.6142331555460000e-04
1001 4838 -6.6666666666667001e-03
4836 4838 -1.6666666666667000e-02
4838 4838 3.2099735533669002e-02
967 4839 -1.6666666666667000e-02
4836 4839 -4.2708772075581998e-07
4837 4839 -1.4128662955640000e-04
4839 4839 1.7749601188149999e-02
869 4840 -1.6666666666667000e-02
870 4840 -6.6666666666667001e-03
968 4840 -1.6142418125487999e-04
969 4840 -4.3505688238839999e-04
970 4840 -4.3508218365825000e-04
971 4840 -1.6142331112103001e-04
1036 4840 -1.6142374446543001e-04
1037 4840 -1.6142374791048000e-04
1097 4840 -1.4023001697735000e-04
1098 4840 -1.3828617793799000e-04
4831 4840 -1.6142418125849001e-04
4832 4840 -1.6142331111742000e-04
4833 4840 -4.3507757615330998e-04
4834 4840 -4.3506138836283000e-04
4840 4840 3.1215483851291002e-02
4841 4841 1.7814667460071001e-02
4842 4841 -1.1744971829629999e-06
4850 4841 -1.4158357040326000e-04
4841 4842 -2.3538572445753999e-08
4842 4842 1.7304149258440999e-02
4843 4842 -1.6666666666667000e-02
4850 4842 -1.3967450984184000e-04
4842 4843 -1.6666666666667000e-02
4843 4843 3.3333333333333000e-02
4854 4843 -1.6666666666667000e-02
4844 4844 8.2271798706398998e-03
4847 4844 -6.4164031461023997e-10
4857 4844 -1.6463599597029999e-04
4845 4845 1.9387997035008001e-02
4846 4845 -1.2556846881319999e-03
4857 4845 -4.3506900003393000e-04
4845 4846 -1.1807883623126999e-03
4846 4846 1.9462919718957000e-02
4850 4846 -1.6666666666667000e-02
4857 4846 -4.3506978409131998e-04
4844 4847 -4.3491693780719002e-12
4847 4847 7.5572171245310996e-03
4850 4847 -6.6666666666667001e-03
4857 4847 -1.6206797434257001e-04
4848 4848 9.2658621808849994e-03
4849 4848 -6.2287457224760004e-04
4850 4848 -4.3505755798268998e-04
4848 4849 -6.7154517408083998e-04
4849 4849 9.2168906711602005e-03
4850 4849 -4.3504082906218998e-04
4855 4849 -6.6666666666667001e-03
4841 4850 -1.4019507310694001e-04
4842 4850 -1.3832112180838999e-04
4846 4850 -1.6666666666667000e-02
4847 4850 -6.6666666666667001e-03
4848 4850 -4.3508349943377999e-04
4849 4850 -4.3501629629141998e-04
4850 4850 2.5775942310705000e-02
4851 4851 8.2271769498794001e-03
4852 4851 -4.0445500349401000e-10
4860 4851 -1.6436052363198999e-04
4851 4852 -4.0104088860845001e-10
4852 4852 8.2269530920267998e-03
4855 4852 -6.6666666666667001e-03
4860 4852 -1.6435909831662000e-04
4853 4853 1.7296507586232000e-02
4854 4853 -9.2664681100873005e-08
4855 4853 -1.6666666666667000e-02
4860 4853 -1.6160168860644000e-04
4843 4854 -1.6666666666667000e-02
4853 4854 -1.0202785056716999e-06
4854 4854 1.7305145375368002e-02
4860 4854 -1.6235153087992000e-04
840 4855 -1.6142417888717999e-04
841 4855 -4.3506949535537998e-04
842 4855 -4.3506929104663000e-04
843 4855 -1.6142331348873001e-04
4849 4855 -6.6666666666667001e-03
4852 4855 -6.6666666666667001e-03
4853 4855 -1.6666666666667000e-02
4855 4855 3.2099658574233997e-02
4856 4856 1.7296507194353002e-02
4857 4856 -1.6159407115244999e-04
4858 4856 -1.6666666666667000e-02
4859 4856 -9.1119838949933996e-08
865 4857 -1.6142374896213000e-04
866 4857 -1.6142374341378000e-04
903 4857 -1.6142420099312001e-04
904 4857 -1.6142329138280000e-04
907 4857 -1.6666666666667000e-02
908 4857 -6.6666666666667001e-03
959 4857 -4.3505711065406000e-04
960 4857 -4.3508195045987002e-04
4844 4857 -1.6142420098341000e-04
4845 4857 -4.3506613683390999e-04
4846 4857 -4.3507272070776002e-04
4847 4857 -1.6142329139250000e-04
4856 4857 -1.3830016505967001e-04
4857 4857 2.8670010654212000e-02
4859 4857 -1.4021602985566999e-04
838 4858 -6.6666666666667001e-03
860 4858 -1.6142417916512999e-04
861 4858 -4.3506984408202000e-04
862 4858 -4.3506895000498000e-04
863 4858 -1.6142331321077999e-04
866 4858 -6.6666666666667001e-03
4856 4858 -1.6666666666667000e-02
4858 4858 3.2099648348680003e-02
832 4859 -1.6666666666667000e-02
4856 4859 -1.0040451899579000e-06
4857 4859 -1.6234473025009000e-04
4859 4859 1.7305141255360000e-02
734 4860 -1.6666666666667000e-02
735 4860 -6.6666666666667001e-03
833 4860 -1.6142417906647000e-04
834 4860 -4.3506959033417001e-04
835 4860 -4.3506919816092002e-04
836 4860 -1.6142331330944000e-04
901 4860 -1.6142417907690000e-04
902 4860 -1.6142331329901000e-04
962 4860 -4.3505014202323999e-04
963 4860 -4.3508907592310000e-04
4851 4860 -1.6142374856155999e-04
4852 4860 -1.6142374381435001e-04
4853 4860 -1.3828474343298999e-04
4854 4860 -1.4023145148235001e-04
4860 4860 3.1215728452827000e-02
4861 4861 1.9463636406541002e-02
4862 4861 -1.1814831137601999e-03
4870 4861 -4.3506939391297998e-04
4861 4862 -1.2564106914862000e-03
4862 4862 1.9388708745973000e-02
4863 4862 -1.6666666666667000e-02
4870 4862 -4.3506939021276000e-04
4862 4863 -1.6666666666667000e-02
4863 4863 3.3333333333333000e-02
4874 4863 -1.6666666666667000e-02
4864 4864 9.2658580527223994e-03
4867 4864 -6.2287254715835997e-04
4877 4864 -4.3505790681079999e-04
4865 4865 1.7814705962436998e-02
4866 4865 -1.2130648968898001e-06
4877 4865 -1.4163987617169999e-04
4865 4866 -2.3971918439047999e-08
4866 4866 1.7296439384427001e-02
4870 4866 -1.6666666666667000e-02
4877 4866 -1.3967074389957001e-04
4864 4867 -6.7154084798480996e-04
4867 4867 9.2168762999350999e-03
4870 4867 -6.6666666666667001e-03
4877 4867 -4.3504048020422001e-04
4868 4868 8.2271771331114997e-03
4869 4868 -6.1068989171687996e-10
4870 4868 -1.6460538261244001e-04
4868 4869 -4.1371400658264999e-12
4869 4869 7.5572176572875002e-03
4870 4869 -1.6206255911539001e-04
4875 4869 -6.6666666666667001e-03
4861 4870 -4.3506940778354999e-04
4862 4870 -4.3506937668863000e-04
4866 4870 -1.6666666666667000e-02
4867 4870 -6.6666666666667001e-03
4868 4870 -1.6142417899788001e-04
4869 4870 -1.6142331337802999e-04
4870 4870 2.5663378015116999e-02
4871 4871 8.2271771332232992e-03
4872 4871 -6.1068949203227005e-10
4880 4871 -1.6460538225111001e-04
4871 4872 -4.1371373710292002e-12
4872 4872 7.5572176572955996e-03
4875 4872 -6.6666666666667001e-03
4880 4872 -1.6206255904271000e-04
4873 4873 1.9388708689964000e-02
4874 4873 -1.2564106759929000e-03
4875 4873 -1.6666666666667000e-02
4880 4873 -4.3506939027227002e-04
4863 4874 -1.6666666666667000e-02
4873 4874 -1.1814831148072001e-03
4874 4874 1.9463636331326001e-02
4880 4874 -4.3506939385347002e-04
705 4875 -4.3508493000996002e-04
706 4875 -1.4022949993383000e-04
707 4875 -1.3828669498151000e-04
708 4875 -4.3501492442557998e-04
4869 4875 -6.6666666666667001e-03
4872 4875 -6.6666666666667001e-03
4873 4875 -1.6666666666667000e-02
4875 4875 3.2208928164814001e-02
4876 4876 1.7296415156685001e-02
4877 4876 -1.3970019805028999e-04
4878 4876 -1.6666666666667000e-02
4879 4876 -9.4784928064978003e-09
730 4877 -4.3505571689184998e-04
731 4877 -4.3504293837177000e-04
768 4877 -4.3508368942757000e-04
769 4877 -4.3501611409758000e-04
772 4877 -1.6666666666667000e-02
773 4877 -6.6666666666667001e-03
824 4877 -1.4019514658573001e-04
825 4877 -1.3832104832960001e-04
4864 4877 -4.3508492998996999e-04
4865 4877 -1.4022949930850000e-04
4866 4877 -1.3828669560684000e-04
4867 4877 -4.3501492444472000e-04
4876 4877 -1.3890026454068999e-04
4877 4877 2.9548502925062000e-02
4879 4877 -1.3961593037465001e-04
703 4878 -6.6666666666667001e-03
725 4878 -1.6142417680448001e-04
726 4878 -4.3506939946099001e-04
727 4878 -4.3506938482777002e-04
728 4878 -1.6142331557142999e-04
731 4878 -6.6666666666667001e-03
4876 4878 -1.6666666666667000e-02
4878 4878 3.2099736162878999e-02
697 4879 -1.6666666666667000e-02
4876 4879 -4.2710638390003998e-07
4877 4879 -1.4128746772687999e-04
4879 4879 1.7749599295462000e-02
599 4880 -1.6666666666667000e-02
600 4880 -6.6666666666667001e-03
698 4880 -1.6142417899759999e-04
699 4880 -4.3506940017470002e-04
700 4880 -4.3506938412980002e-04
701 4880 -1.6142331337831001e-04
766 4880 -1.6142374857484000e-04
767 4880 -1.6142374380107000e-04
827 4880 -1.4023150043577999e-04
828 4880 -1.3828469447956001e-04
4871 4880 -1.6142417899759999e-04
4872 4880 -1.6142331337831001e-04
4873 4880 -4.3506937718319001e-04
4874 4880 -4.3506940727783998e-04
4880 4880 3.1215736439461999e-02
4881 4881 1.7814669612275999e-02
4882 4881 -1.1768820416669000e-06
4890 4881 -1.4161002072249999e-04
4881 4882 -2.3587731647545001e-08
4882 4882 1.7304147961422999e-02
4883 4882 -1.6666666666667000e-02
4890 4882 -1.3967924415313001e-04
4882 4883 -1.6666666666667000e-02
4883 4883 3.3333333333333000e-02
4894 4883 -1.6666666666667000e-02
4884 4884 8.2271939135865006e-03
4887 4884 -5.9426193353020005e-10
4897 4884 -1.6461211838811001e-04
4885 4885 1.9463992150739001e-02
4886 4885 -1.1818940788496000e-03
4897 4885 -4.3507763488344998e-04
4885 4886 -1.2567028043630999e-03
4886 4886 1.9388814283970001e-02
4890 4886 -1.6666666666667000e-02
4897 4886 -4.3506114902648997e-04
4884 4887 -4.0192804351382997e-12
4887 4887 7.5572332972828997e-03
4890 4887 -6.6666666666667001e-03
4897 4887 -1.6205937939854000e-04
4888 4888 9.2658287461332006e-03
4889 4888 -6.2283908807245995e-04
4890 4888 -4.3505712295038997e-04
4888 4889 -6.7151105125816998e-04
4889 4889 9.2168715444582005e-03
4890 4889 -4.3504126413001002e-04
4895 4889 -6.6666666666667001e-03
4881 4890 -1.4019699935426000e-04
4882 4890 -1.3831919556108000e-04
4886 4890 -1.6666666666667000e-02
4887 4890 -6.6666666666667001e-03
4888 4890 -4.3508171249706003e-04
4889 4890 -4.3501801001220999e-04
4890 4890 2.5774974670446999e-02
4891 4891 8.2271770021315992e-03
4892 4891 -4.0423260008168999e-10
4900 4891 -1.6436031555349000e-04
4891 4892 -4.0099783117962000e-10
4892 4892 8.2269648897469998e-03
4895 4892 -6.6666666666667001e-03
4900 4892 -1.6435888783596000e-04
4893 4893 1.7296506982939001e-02
4894 4893 -9.2665012283762000e-08
4895 4893 -1.6666666666667000e-02
4900 4893 -1.6160172567797001e-04
4883 4894 -1.6666666666667000e-02
4893 4894 -1.0202334281181000e-06
4894 4894 1.7305143996564000e-02
4900 4894 -1.6235149859498000e-04
570 4895 -1.6142417874818001e-04
571 4895 -4.3506974626517997e-04
572 4895 -4.3506904566609000e-04
573 4895 -1.6142331362772999e-04
4889 4895 -6.6666666666667001e-03
4892 4895 -6.6666666666667001e-03
4893 4895 -1.6666666666667000e-02
4895 4895 3.2099663760807001e-02
4896 4896 1.7296503324753999e-02
4897 4896 -1.6160581142403999e-04
4898 4896 -1.6666666666667000e-02
4899 4896 -9.3593223815510998e-08
595 4897 -1.6142374754248999e-04
596 4897 -1.6142374483341999e-04
633 4897 -1.6142416678271000e-04
634 4897 -1.6142332559320000e-04
637 4897 -1.6666666666667000e-02
638 4897 -6.6666666666667001e-03
689 4897 -4.3512236825724000e-04
690 4897 -4.3501758236884000e-04
4884 4897 -1.6142416677124001e-04
4885 4897 -4.3513946230563000e-04
4886 4897 -4.3500086458525002e-04
4887 4897 -1.6142332560466999e-04
4896 4897 -1.3827498204859999e-04
4897 4897 2.8673841902121001e-02
4899 4897 -1.4024121286674001e-04
568 4898 -6.6666666666667001e-03
590 4898 -1.6142417775815999e-04
591 4898 -4.3507258779014999e-04
592 4898 -4.3506626675566000e-04
593 4898 -1.6142331461774999e-04
596 4898 -6.6666666666667001e-03
4896 4898 -1.6666666666667000e-02
4898 4898 3.2099700969557998e-02
562 4899 -1.6666666666667000e-02
4896 4899 -1.0305051665862000e-06
4897 4899 -1.6235578910195000e-04
4899 4899 1.7305150295135002e-02
464 4900 -1.6666666666667000e-02
465 4900 -6.6666666666667001e-03
563 4900 -1.6142417883373999e-04
564 4900 -4.3507383710824000e-04
565 4900 -4.3506504497089002e-04
566 4900 -1.6142331354217999e-04
631 4900 -1.6142417882462001e-04
632 4900 -1.6142331355129000e-04
692 4900 -4.3505000542378997e-04
693 4900 -4.3508921541733999e-04
4891 4900 -1.6142374843625999e-04
4892 4900 -1.6142374393965001e-04
4893 4900 -1.3828479066569000e-04
4894 4900 -1.4023140424965000e-04
4900 4900 3.1215755227710001e-02
4901 4901 1.7814677600224999e-02
4902 4901 -1.1851734324409999e-06
4910 4901 -1.4170162614754000e-04
4901 4902 -2.3758653264538001e-08
4902 4902 1.7304143836881000e-02
4903 4902 -1.6666666666667000e-02
4910 4902 -1.3969563998815000e-04
4902 4903 -1.6666666666667000e-02
4903 4903 3.3333333333333000e-02
4914 4903 -1.6666666666667000e-02
4904 4904 8.2272296291029997e-03
4907 4904 -3.7040720727735998e-10
4917 4904 -1.6439818217831999e-04
4905 4905 1.9470800108471999e-02
4906 4905 -1.1887351139548000e-03
4917 4905 -4.3510747013236002e-04
4905 4906 -1.2632408147406000e-03
4906 4906 1.9394578839883998e-02
4910 4906 -1.6666666666667000e-02
4917 4906 -4.3503130939490998e-04
4904 4907 -2.4811142687289000e-12
4907 4907 7.5572889765083001e-03
4910 4907 -6.6666666666667001e-03
4917 4907 -1.6200619189316999e-04
4908 4908 9.2657050658611004e-03
4909 4908 -6.2271523812796996e-04
4910 4908 -4.3505601789962998e-04
4908 4909 -6.7138882384905005e-04
4909 4909 9.2167860559070006e-03
4910 4909 -4.3504236926249001e-04
4915 4909 -6.6666666666667001e-03
4901 4910 -1.4020369605823000e-04
4902 4910 -1.3831249885711000e-04
4906 4910 -1.6666666666667000e-02
4907 4910 -6.6666666666667001e-03
4908 4910 -4.3507717253691002e-04
4909 4910 -4.3502236397434998e-04
4910 4910 2.5771686360974998e-02
4911 4911 8.2271770518865996e-03
4912 4911 -4.0373488625914002e-10
4920 4911 -1.6435975808361001e-04
4911 4912 -4.0095360005480998e-10
4912 4912 8.2269946157798000e-03
4915 4912 -6.6666666666667001e-03
4920 4912 -1.6435844302419001e-04
4913 4913 1.7296505474879001e-02
4914 4913 -9.2650268162820000e-08
4915 4913 -1.6666666666667000e-02
4920 4913 -1.6160180193465999e-04
4903 4914 -1.6666666666667000e-02
4913 4914 -1.0198813867695000e-06
4914 4914 1.7305139362954001e-02
4920 4914 -1.6235130645595000e-04
435 4915 -1.6142417840443000e-04
436 4915 -4.3507002419766998e-04
437 4915 -4.3506877385816000e-04
438 4915 -1.6142331397148000e-04
4909 4915 -6.6666666666667001e-03
4912 4915 -6.6666666666667001e-03
4913 4915 -1.6666666666667000e-02
4915 4915 3.2099676552454999e-02
4916 4916 1.7296493530139002e-02
4917 4916 -1.6167833789190999e-04
4918 4916 -1.6666666666667000e-02
4919 4916 -1.1021415350872000e-07
460 4917 -1.6142374370195999e-04
461 4917 -1.6142374867395001e-04
498 4917 -1.6142400691421000e-04
499 4917 -1.6142348546170000e-04
502 4917 -1.6666666666667000e-02
503 4917 -6.6666666666667001e-03
554 4917 -4.3532618686240000e-04
555 4917 -4.3481819933967000e-04
4904 4917 -1.6142400689787999e-04
4905 4917 -4.3539540580211000e-04
4906 4917 -4.3475048793536000e-04
4907 4917 -1.6142348547803001e-04
4916 4917 -1.3810793968183001e-04
4917 4917 2.8698746772514001e-02
4919 4917 -1.4040825523350999e-04
433 4918 -6.6666666666667001e-03
455 4918 -1.6142417185509999e-04
456 4918 -4.3507922254074001e-04
457 4918 -4.3505977814748998e-04
458 4918 -1.6142332052081001e-04
461 4918 -6.6666666666667001e-03
4916 4918 -1.6666666666667000e-02
4918 4918 3.2099923319321003e-02
427 4919 -1.6666666666667000e-02
4916 4919 -1.2062218756644999e-06
4917 4919 -1.6242247031161001e-04
4919 4919 1.7305215006706998e-02
329 4920 -1.6666666666667000e-02
330 4920 -6.6666666666667001e-03
428 4920 -1.6142417831651999e-04
429 4920 -4.3508621767955001e-04
430 4920 -4.3505293719348000e-04
431 4920 -1.6142331405939999e-04
496 4920 -1.6142417824470000e-04
497 4920 -1.6142331413122001e-04
557 4920 -4.3505414480491002e-04
558 4920 -4.3508498234530999e-04
4911 4920 -1.6142374812037999e-04
4912 4920 -1.6142374425553001e-04
4913 4920 -1.3828514331354000e-04
4914 4920 -1.4023105160180000e-04
4920 4920 3.1215815051661999e-02
4921 4921 1.9463616702063001e-02
4922 4921 -1.1814810074949000e-03
4930 4921 -4.3507378892880999e-04
4921 4922 -1.2563440689688000e-03
4922 4922 1.9388556787756001e-02
4923 4922 -1.6666666666667000e-02
4930 4922 -4.3506499513553000e-04
4922 4923 -1.6666666666667000e-02
4923 4923 3.3333333333333000e-02
4934 4923 -1.6666666666667000e-02
4924 4924 9.2658580529368009e-03
4927 4924 -6.2287254652716999e-04
4937 4924 -4.3505790642114998e-04
4925 4925 1.7814705962516001e-02
4926 4925 -1.2130649844836000e-06
4937 4925 -1.4163987710368001e-04
4925 4926 -2.3971920196126001e-08
4926 4926 1.7296439383888002e-02
4930 4926 -1.6666666666667000e-02
4937 4926 -1.3967074406008001e-04
4924 4927 -6.7154084964973998e-04
4927 4927 9.2168763118680008e-03
4930 4927 -6.6666666666667001e-03
4937 4927 -4.3504048059390000e-04
4928 4928 8.2271769292777998e-03
4929 4928 -4.0439889030464001e-10
4930 4928 -1.6436041298144999e-04
4928 4929 -4.0084167641475999e-10
4929 4929 8.2269435932764007e-03
4930 4929 -1.6435895828330999e-04
4935 4929 -6.6666666666667001e-03
4921 4930 -4.3510675266599999e-04
4922 4930 -4.3503285462533000e-04
4926 4930 -1.6666666666667000e-02
4927 4930 -6.6666666666667001e-03
4928 4930 -1.6142374866128000e-04
4929 4930 -1.6142374371463000e-04
4930 4930 2.5678674229601999e-02
4931 4931 9.2658595212200996e-03
4932 4931 -6.2287394858016995e-04
4940 4931 -4.3505791026342001e-04
4931 4932 -6.7154229027457002e-04
4932 4932 9.2168776023527996e-03
4935 4932 -6.6666666666667001e-03
4940 4932 -4.3504047675129999e-04
4933 4933 1.7296439358057001e-02
4934 4933 -2.3941922148756001e-08
4935 4933 -1.6666666666667000e-02
4940 4933 -1.3967060396357999e-04
4923 4934 -1.6666666666667000e-02
4933 4934 -1.2113406169753001e-06
4934 4934 1.7814613102835001e-02
4940 4934 -1.4163823992367999e-04
300 4935 -1.6142417899882999e-04
301 4935 -4.3506940611261999e-04
302 4935 -4.3506937832274000e-04
303 4935 -1.6142331337708001e-04
4929 4935 -6.6666666666667001e-03
4932 4935 -6.6666666666667001e-03
4933 4935 -1.6666666666667000e-02
4935 4935 3.2099654412447998e-02
4936 4936 1.7296439340660000e-02
4937 4936 -1.3967078397190001e-04
4938 4936 -1.6666666666667000e-02
4939 4936 -2.3943847776751001e-08
325 4937 -4.3508488317609001e-04
326 4937 -4.3501496933749998e-04
363 4937 -4.3505573628018000e-04
364 4937 -4.3504291977955001e-04
367 4937 -1.6666666666667000e-02
368 4937 -6.6666666666667001e-03
419 4937 -1.3960581865586001e-04
420 4937 -1.3891037625947999e-04
4924 4937 -4.3508492839177001e-04
4925 4937 -1.4022949937972999e-04
4926 4937 -1.3828669553561001e-04
4927 4937 -4.3501492597732998e-04
4936 4937 -1.3828792886916999e-04
4937 4937 2.9637313357099002e-02
4939 4937 -1.4022826604617001e-04
298 4938 -6.6666666666667001e-03
320 4938 -1.6142417899435999e-04
321 4938 -4.3506939975912999e-04
322 4938 -4.3506938453621001e-04
323 4938 -1.6142331338154999e-04
326 4938 -6.6666666666667001e-03
4936 4938 -1.6666666666667000e-02
4938 4938 3.2099654577836000e-02
292 4939 -1.6666666666667000e-02
4936 4939 -1.2114352656524001e-06
4937 4939 -1.4163927855574999e-04
4939 4939 1.7814613174851002e-02
194 4940 -1.6666666666667000e-02
195 4940 -6.6666666666667001e-03
293 4940 -4.3508498392016000e-04
294 4940 -1.4022942224463001e-04
295 4940 -1.3828677267070999e-04
296 4940 -4.3501487272278998e-04
361 4940 -4.3505573627613999e-04
362 4940 -4.3504291978254002e-04
422 4940 -1.3961590387569000e-04
423 4940 -1.3890029103965000e-04
4931 4940 -4.3508494426610001e-04
4932 4940 -4.3501491074957998e-04
4933 4940 -1.3828800560158999e-04
4934 4940 -1.4022818931375001e-04
4940 4940 3.2088675938881997e-02
4941 4941 1.7814016747455998e-02
4942 4941 -5.1912080158652002e-07
4950 4941 -1.4043502364192000e-04
4941 4942 -4.9800372103297999e-08
4942 4942 1.7749215142262999e-02
4943 4942 -1.6666666666667000e-02
4950 4942 -1.4019399872174001e-04
4942 4943 -1.6666666666667000e-02
4943 4943 3.3333333333333000e-02
4954 4943 -1.6666666666667000e-02
4944 4944 8.2271489009203003e-03
4947 4944 -3.6914482851227001e-10
4957 4944 -1.6432568960711999e-04
4945 4945 1.9471032064763999e-02
4946 4945 -1.1887514587756000e-03
4957 4945 -4.3508145606413999e-04
4945 4946 -1.2636425342544999e-03
4946 4946 1.9395572693947000e-02
4950 4946 -1.6666666666667000e-02
4957 4946 -4.3505732760038002e-04
4944 4947 -2.4820921380137002e-12
4947 4947 7.5572375006384002e-03
4950 4947 -6.6666666666667001e-03
4957 4947 -1.6200647267069999e-04
4948 4948 9.2658135750096002e-03
4949 4948 -6.2283424768629005e-04
4950 4948 -4.3505142173679001e-04
4948 4949 -6.7153749466982002e-04
4949 4949 9.2170301705268992e-03
4950 4949 -4.3504696563386000e-04
4955 4949 -6.6666666666667001e-03
4941 4950 -1.3960674073633001e-04
4942 4950 -1.3890945417900999e-04
4946 4950 -1.6666666666667000e-02
4947 4950 -6.6666666666667001e-03
4948 4950 -4.3505833093202998e-04
4949 4950 -4.3504043170092000e-04
4950 4950 2.5853865031796000e-02
4951 4951 9.2658818673731994e-03
4952 4951 -6.2288385026315000e-04
4956 4951 -4.3505142142011998e-04
4951 4952 -6.7159103049004997e-04
4952 4952 9.2170945294572006e-03
4955 4952 -6.6666666666667001e-03
4956 4952 -4.3504696595054001e-04
4953 4953 1.7296416154667000e-02
4954 4953 -9.4761956101675993e-09
4955 4953 -1.6666666666667000e-02
4956 4953 -1.3970005596810001e-04
4943 4954 -1.6666666666667000e-02
4953 4954 -4.2699443527435999e-07
4954 4954 1.7749588289410999e-02
4956 4954 -1.4128673253457999e-04
165 4955 -1.6142417703435001e-04
166 4955 -4.3506808647760003e-04
167 4955 -4.3507072706561000e-04
168 4955 -1.6142331534156000e-04
4949 4955 -6.6666666666667001e-03
4952 4955 -6.6666666666667001e-03
4953 4955 -1.6666666666667000e-02
4955 4955 3.2099727407433998e-02
3 4956 -1.6666666666667000e-02
4 4956 -6.6666666666667001e-03
158 4956 -4.3508475911716000e-04
159 4956 -1.4022943839208000e-04
160 4956 -1.3828675652326000e-04
161 4956 -4.3501508830082002e-04
226 4956 -4.3504778608017999e-04
227 4956 -4.3505066159664003e-04
287 4956 -1.4022794326906999e-04
288 4956 -1.3828825164627001e-04
4951 4956 -4.3505833068705998e-04
4952 4956 -4.3504043189822002e-04
4953 4956 -1.3890035624438001e-04
4954 4956 -1.3961583867095999e-04
4956 4956 3.2088641801588998e-02
190 4957 -1.6142400694494000e-04
191 4957 -1.6142348543097000e-04
228 4957 -1.6142374614136999e-04
229 4957 -1.6142374623455001e-04
232 4957 -1.6666666666667000e-02
233 4957 -6.6666666666667001e-03
284 4957 -4.3511847604488999e-04
285 4957 -4.3502138026155001e-04
4944 4957 -1.6142400699985999e-04
4945 4957 -4.3517268117143003e-04
4946 4957 -4.3496835855978000e-04
4947 4957 -1.6142348537606001e-04
4957 4957 2.9268758750823999e-02
4959 4957 -4.3488901780321999e-04
4960 4957 -4.3525378646005997e-04
163 4958 -6.6666666666667001e-03
185 4958 -4.3508159940314000e-04
186 4958 -1.4023975213160999e-04
187 4958 -1.3827644278373001e-04
188 4958 -4.3501811891345999e-04
191 4958 -6.6666666666667001e-03
4958 4958 3.2204061607755997e-02
4959 4958 -1.6666666666667000e-02
4957 4959 -4.3504785030951999e-04
4958 4959 -1.6666666666667000e-02
4959 4959 1.9394373753861001e-02
4960 4959 -1.2631620512668000e-03
157 4960 -1.6666666666667000e-02
4957 4960 -4.3509093234397000e-04
4959 4960 -1.1886042203977001e-03
4960 4960 1.9469901260233999e-02
