%%MatrixMarket matrix coordinate real general
430 430 2301
1 1 1
2 2 1
3 3 1
424 3 -465.116
425 3 -1
4 4 100000
8 4 -100000
425 4 -1.18e-30
5 5 1
7 5 -3635.14
6 6 8.33333
9 6 1
10 6 -8.33333
6 7 -8.33333
7 7 1
8 7 -0.00625
9 7 0
10 7 8.33958
396 7 -2e-31
6 8 1
8 8 -1
9 8 0
10 8 0
4 9 -100000
8 9 200000
9 9 -1
10 9 -0.00625
385 9 -100000
425 9 -3.33333e-05
3 10 -1
10 10 1
424 10 0
425 10 0
11 11 100000
17 11 -100000
377 11 -2e-31
12 12 1
13 12 1.2987
382 12 -1.2987
13 13 1
17 13 -1
14 14 100000
382 14 -1.18e-30
383 14 -100000
15 15 1
379 15 -3635.14
16 16 1
17 16 -1
380 16 -1705.43
11 17 -100000
12 17 -1
13 17 0
15 17 -1
17 17 100000
377 17 0
379 17 3634.14
382 17 -0.000606061
18 18 1
377 18 -1
380 18 -310.078
19 19 18.1818
33 19 1
377 19 -18.1818
20 20 100000
381 20 -100000
21 21 100000
34 21 -1.18e-30
381 21 -100000
22 22 1
378 22 -3635.14
23 23 100009
30 23 -8.89838
382 23 -100000
24 24 1
24 25 4
25 25 1
26 25 -4
24 26 -4
26 26 8
27 26 -4
26 27 -4
27 27 4.01
384 27 -0.01
28 28 0.126415
29 28 -0.115915
384 28 -0.0005
28 29 -0.115915
29 29 0.115915
30 29 -4.42388e-10
31 29 -9.38897e-12
384 29 0
23 30 -8.89838
29 30 -4.43362e-10
30 30 8.89838
31 30 -5.81108e-11
382 30 0
384 30 0
29 31 -8.41421e-12
30 31 -5.90855e-11
31 31 31.7901
32 31 -31.7901
382 31 0
384 31 0
31 32 -31.7901
32 32 100032
34 32 -100000
382 32 0
384 32 0
21 33 -1.18e-30
32 33 -100000
33 33 -1
34 33 100000
377 33 -0.0142857
381 33 -7.69231e-05
382 33 0
384 33 0
19 34 1
33 34 0
34 34 -1
377 34 0
381 34 0
382 34 0
384 34 0
35 35 1
380 35 -465.116
381 35 -1
36 36 100000
363 36 -100000
381 36 -1.18e-30
37 37 1
39 37 -3635.14
38 38 8.33333
364 38 1
365 38 -8.33333
38 39 -8.33333
39 39 1
363 39 -0.00625
364 39 0
365 39 8.33958
376 39 -2e-31
40 40 1000
41 40 -4.96256e-07
42 40 -0.00365244
60 40 -1000
40 41 -0.00365294
41 41 1000
42 41 0.00365244
43 41 -1000
60 41 0
40 42 -1.0021e-12
41 42 -1.0021e-12
42 42 1000
43 42 0
60 42 0
126 42 -1000
41 43 -1000
42 43 0
43 43 1000
60 43 -0.000133333
126 43 -0.000222222
44 44 1000.07
45 44 -1000
44 45 -1000
45 45 1000.07
46 45 -0.0352393
47 45 -0.0352393
45 46 -0.0704721
46 46 1000.04
47 46 0.0352328
60 46 -1000
45 47 -6.436e-06
46 47 -6.87607e-10
47 47 1000
48 47 -1000
60 47 0
47 48 -1000
48 48 1000.05
60 48 0
148 48 -0.0454545
49 49 1000
50 49 -1.41955e-16
52 49 -1.04479e-12
49 50 -4.48722e-14
50 50 1000
51 50 -1000
52 50 -9.55328e-13
50 51 -1000
51 51 2000.01
52 51 0
53 51 -1000
49 52 -1.00006e-12
50 52 -1.00006e-12
51 52 0
52 52 1000
53 52 0
127 52 -1000
51 53 -1000
52 53 0
53 53 1000
58 53 -1.01839e-12
59 53 -1.38368e-16
127 53 0
54 54 2000
55 54 -1000
59 54 -1000
54 55 -1000
55 55 1000
56 55 -0.00170852
57 55 -2.32135e-07
59 55 0
55 56 -0.00503972
56 56 1000.01
57 56 -0.00503972
59 56 0
60 56 -1000
55 57 0.00333097
56 57 -0.00837092
57 57 1000.01
59 57 0
60 57 0
127 57 -1000
53 58 -0.0245335
58 58 1000.05
59 58 -0.0245335
60 58 -1000
127 58 0
53 59 0.0245335
54 59 -1000
55 59 0
56 59 0
57 59 0
58 59 -0.0490669
59 59 1000.02
60 59 0
127 59 0
40 60 -1000
41 60 0
42 60 0
43 60 -0.000133333
46 60 -1000
47 60 0
48 60 0
56 60 -1000
57 60 0
58 60 -1000
59 60 0
60 60 4000
126 60 0
127 60 0
148 60 0
61 61 1000
62 61 -1.40235e-16
63 61 -1.03213e-12
148 61 -1000
61 62 -3.07766e-14
62 62 1000
63 62 -9.70857e-13
68 62 -1000
148 62 0
61 63 -1.00149e-12
62 63 -1.00149e-12
63 63 1000
68 63 0
126 63 -1000
148 63 0
64 64 1000.07
65 64 -1000
361 64 -0.0666667
64 65 -1000
65 65 1000
66 65 -1.00005e-12
67 65 -1.00005e-12
361 65 0
65 66 7.09078e-05
66 66 1000
67 66 -7.09175e-05
126 66 -1000
361 66 0
65 67 -7.09078e-05
66 67 -9.63422e-09
67 67 1000
68 67 -1000
126 67 0
361 67 0
62 68 -1000
63 68 0
67 68 -1000
68 68 2000.04
126 68 0
148 68 -0.037037
361 68 0
69 69 1000
70 69 -0.00167203
71 69 -2.27179e-07
69 70 -1.03213e-12
70 70 1000
71 70 -1.03213e-12
76 70 -1000
69 71 -0.00167226
70 71 0.00167203
71 71 1000
76 71 -1000
72 72 1000
73 72 -1000
72 73 -1000
73 73 1000.25
74 73 -0.248814
75 73 -3.38063e-05
73 74 -0.208105
74 74 1000.42
75 74 -0.208105
125 74 -1000
73 75 -0.0407435
74 75 -0.167395
75 75 1000.21
76 75 -1000
125 75 0
70 76 -1000
71 76 -1000
75 76 -1000
76 76 3000
80 76 -2.5641e-05
125 76 0
77 77 1000.01
78 77 -0.00640236
79 77 -6.84013e-07
361 77 -1000
77 78 -1.03213e-12
78 78 1000
79 78 -1.03213e-12
80 78 -1000
361 78 0
77 79 -0.00640304
78 79 0.00640236
79 79 1000
80 79 -1000
361 79 0
76 80 -2.5641e-05
78 80 -1000
79 80 -1000
80 80 3000
82 80 -1000
125 80 0
361 80 0
81 81 1000.01
82 81 -6.84013e-07
83 81 -0.00640236
361 81 -1000
80 82 -1000
81 82 -0.00640304
82 82 1000
83 82 0.00640236
125 82 0
361 82 0
81 83 -1.00005e-12
82 83 -1.00005e-12
83 83 1000
125 83 0
126 83 -1000
361 83 0
84 84 1000
85 84 -1000
84 85 -1000
85 85 1000
86 85 -3.84447e-12
87 85 -5.22346e-16
85 86 -1.00007e-12
86 86 1000
87 86 -1.00007e-12
127 86 -1000
85 87 -2.84492e-12
86 87 1.84433e-12
87 87 1000
92 87 -1000
127 87 0
88 88 1000
89 88 -1000
88 89 -1000
89 89 1000
90 89 -3.84447e-12
91 89 -5.22346e-16
89 90 -1.00006e-12
90 90 1000
91 90 -1.00006e-12
98 90 -1000
89 91 -2.84492e-12
90 91 1.84434e-12
91 91 1000
92 91 -1000
98 91 0
87 92 -1000
91 92 -1000
92 92 3000
94 92 -1000
98 92 0
127 92 0
93 93 1000
94 93 -0.00149685
95 93 0.00149664
98 93 -1000
92 94 -1000
93 94 -2.03348e-07
94 94 1000
95 94 -0.00149664
98 94 0
127 94 0
93 95 -1.00029e-12
94 95 -1.00029e-12
95 95 1000
98 95 0
127 95 0
361 95 -1000
96 96 1000.05
97 96 2.04243e-07
124 96 -0.0524564
125 96 -1000
96 97 -0.052445
97 97 1000.1
98 97 -1000
124 97 -0.052445
125 97 0
90 98 -1000
91 98 0
92 98 0
93 98 -1000
94 98 0
95 98 0
97 98 -1000
98 98 3000
124 98 0
125 98 0
127 98 0
361 98 0
99 99 1000.05
103 99 -5.56934e-06
104 99 -0.052129
361 99 -1000
100 100 1000.05
101 100 -0.052129
102 100 -5.56934e-06
361 100 -1000
100 101 -1.03213e-12
101 101 1000
102 101 -1.03213e-12
123 101 -1000
361 101 0
100 102 -0.0521346
101 102 0.052129
102 102 1000
123 102 -1000
361 102 0
99 103 -0.0521346
103 103 1000
104 103 0.052129
123 103 -1000
361 103 0
99 104 -1.0005e-12
103 104 -1.0005e-12
104 104 1000
123 104 0
125 104 -1000
361 104 0
105 105 1000.35
106 105 -0.698753
111 105 0.349276
125 105 -1000
105 106 -0.349476
106 106 1000.7
111 106 -0.349476
125 106 0
127 106 -1000
107 107 2000
108 107 -1000
111 107 -1000
107 108 -1000
108 108 1000.01
109 108 -0.0130778
110 108 -1.77687e-06
111 108 0
108 109 -3.89391e-08
109 109 1000
110 109 -3.89391e-08
111 109 0
123 109 -1000
108 110 -0.0130795
109 110 0.0130777
110 110 1000
111 110 0
123 110 0
360 110 -1000
105 111 -2.13825e-08
106 111 -0.00020014
107 111 -1000
108 111 0
109 111 0
110 111 0
111 111 1000
123 111 0
125 111 0
127 111 0
360 111 0
112 112 1.43282
115 112 -0.00424862
113 113 0.01
118 113 -2.40228e-12
114 114 0.0100102
118 114 -0.01
112 115 -0.00424862
115 115 100.004
118 115 -100
116 116 0.391526
118 116 -0.379795
360 116 -0.0117315
117 117 0.379795
118 117 -3.86179e-12
360 117 -0.379795
113 118 -2.40228e-12
114 118 -0.01
115 118 -100
116 118 -0.379795
117 118 -3.86179e-12
118 118 1100.39
122 118 -1000
360 118 -2.2e-28
361 118 -0.0005
119 119 2000
120 119 -1000
124 119 -1000
119 120 -1000
120 120 1000.06
121 120 -0.0609162
122 120 -8.27666e-06
124 120 0
120 121 -0.00846811
121 121 1000.02
122 121 -0.00846811
123 121 -1000
124 121 0
118 122 -1000
120 122 -0.0524564
121 122 0.04398
122 122 1000.01
123 122 0
124 122 0
360 122 0
361 122 0
101 123 -1000
102 123 -1000
103 123 -1000
104 123 0
109 123 -1000
110 123 0
111 123 0
121 123 -1000
122 123 0
123 123 5000
124 123 0
125 123 0
127 123 0
360 123 0
361 123 0
96 124 -1.12062e-05
97 124 -0.10489
98 124 0
119 124 -1000
120 124 0
121 124 0
122 124 0
123 124 0
124 124 1000.1
125 124 0
127 124 0
360 124 0
361 124 0
74 125 -1000
75 125 0
76 125 0
80 125 0
82 125 0
83 125 0
96 125 -1000
97 125 0
98 125 0
104 125 -1000
105 125 -1000
106 125 0
111 125 0
123 125 0
124 125 0
125 125 4000
126 125 0
127 125 0
360 125 0
361 125 0
42 126 -1000
43 126 -0.000222222
60 126 0
63 126 -1000
66 126 -1000
67 126 0
68 126 0
83 126 -1000
125 126 0
126 126 4000
127 126 -2.5e-32
148 126 0
360 126 0
361 126 0
52 127 -1000
53 127 0
57 127 -1000
58 127 0
59 127 0
60 127 0
86 127 -1000
87 127 0
92 127 0
94 127 0
95 127 0
98 127 0
106 127 -1000
111 127 0
123 127 0
124 127 0
125 127 0
126 127 -2.5e-32
127 127 4000
148 127 0
360 127 0
361 127 0
128 128 100
131 128 -1e-12
135 128 -100
129 129 0.01
135 129 -1.00082e-12
146 129 -0.01
130 130 1
135 130 -1
146 130 -1.18986e-12
128 131 -1e-12
131 131 0.335796
135 131 0
146 131 -0.335796
132 132 21.9246
133 132 -0.000981934
134 132 -0.105657
132 133 -0.0326096
133 133 0.0885415
134 133 0.00822272
147 133 -0.0641547
132 134 -0.0740297
133 134 -0.0234049
134 134 4.15917
135 134 -4.06174
147 134 0
128 135 -100
129 135 -1.00082e-12
130 135 -1
131 135 0
134 135 -4.06174
135 135 105.062
146 135 0
147 135 0
148 135 -0.0005
136 136 17.8891
144 136 -1.3538e-07
362 136 -17.8891
137 137 21.8267
138 137 -9.02095e-05
139 137 -0.00872319
362 137 -21.8179
137 138 0.00161933
138 138 0.0443937
139 138 -0.00684331
146 138 -0.0391698
362 138 0
137 139 -0.0104327
138 139 -0.00513377
139 139 4.0773
143 139 -4.06174
146 139 0
362 139 0
140 140 0.0380804
141 140 -0.0232999
142 140 0.0193577
143 140 -0.0341383
140 141 -0.00394214
141 141 0.459995
142 141 -0.0194126
143 141 0
146 141 -0.43664
140 142 -8.47321e-14
141 142 -5.48788e-05
142 142 5.16095
143 142 0
144 142 -5.16089
146 142 0
139 143 -4.06174
140 143 -0.0341383
141 143 0
142 143 0
143 143 4.09838
144 143 -0.0025
146 143 0
362 143 0
144 144 -1
385 144 1
136 145 -1.3538e-07
142 145 -5.16089
143 145 -0.0025
144 145 5.16472
145 145 -1
146 145 0
147 145 -0.00133333
362 145 0
385 145 0
129 146 -0.01
130 146 -1.18986e-12
131 146 -0.335796
135 146 0
138 146 -0.0391698
139 146 0
141 146 -0.43664
142 146 0
143 146 0
144 146 0
146 146 0.824106
147 146 0
148 146 0
362 146 -0.0025
385 146 0
133 147 -0.0641547
134 147 0
135 147 0
144 147 -0.00133333
146 147 0
147 147 0.065588
148 147 0
361 147 -0.0001
362 147 0
385 147 0
48 148 -0.0454545
60 148 0
61 148 -1000
62 148 0
63 148 0
68 148 -0.037037
126 148 0
127 148 0
135 148 -0.0005
146 148 0
147 148 0
148 148 1000.08
360 148 0
361 148 0
362 148 0
385 148 0
149 149 1
172 149 -24.8995
150 150 -1
172 150 1
151 151 -1
152 151 1
152 152 -1
162 152 1
153 153 1
153 154 2
154 154 1
155 154 -2
153 155 -2
155 155 2.5
160 155 -0.5
156 156 0.757971
159 156 -0.257971
157 157 6.01288
361 157 -1e-12
158 158 1000
361 158 -1000
156 159 -0.257971
159 159 1000.26
361 159 -1000
155 160 -0.5
160 160 1e+06
161 160 -1e+06
361 160 -0.0030303
160 161 -1e+06
161 161 1e+06
162 161 -3.20513
361 161 0
150 162 1
161 162 -3.20513
162 162 3.20513
172 162 0
361 162 0
163 163 1000
164 163 -1.33378e-07
170 163 -4.99012e-08
163 164 -1.8298e-07
164 164 0.0516798
165 164 -0.0516797
170 164 3.05178e-09
164 165 -0.0516797
165 165 0.17668
170 165 0
362 165 -0.125
166 166 0.0143885
167 166 -1e-12
166 167 -1e-12
167 167 1000
171 167 -1000
168 168 70.922
171 168 -1.12445e-10
167 169 -1000
168 169 -1.12445e-10
169 169 -1000
170 169 -6.57462
171 169 1.00201e+06
359 169 -1e+06
163 170 -2.99378e-10
164 170 -4.655e-08
165 170 0
170 170 6.57462
171 170 -6.57462
362 170 0
169 171 1000
170 171 0
171 171 -1000
359 171 0
362 171 0
149 172 -1
171 172 -1e+06
172 172 23.8995
358 172 -8e-31
359 172 1e+06
362 172 0
173 173 0.000165357
175 173 -1.1274e-05
174 174 0.000333533
176 174 -0.000333333
173 175 -1.1274e-05
175 175 0.000111324
176 175 -5e-08
360 175 -0.0001
174 176 -0.000333333
175 176 -5e-08
176 176 0.000363417
177 176 -3.00339e-05
360 176 0
176 177 -3.00339e-05
177 177 0.882643
179 177 -0.882613
360 177 0
177 178 -0.882613
178 178 -1
179 178 0.882613
360 178 0
179 179 -1
183 179 1
180 180 1
182 180 -24.8995
181 181 -24.8995
357 181 1
180 182 -1
181 182 1
182 182 23.8995
183 182 -0.00641026
187 182 0.00641026
357 182 0
178 183 1
179 183 0
183 183 0.00641026
187 183 -0.00641026
360 183 0
184 184 -1
185 185 -1
187 185 1
186 186 1
184 187 1
186 187 -22553.2
187 187 -1
188 188 -1
190 188 1
188 189 0.882613
189 189 -1
190 189 0
201 189 -0.882613
189 190 1
190 190 0.0172414
201 190 0
355 190 -0.0172414
191 191 0.0002002
192 191 -2e-07
191 192 -2e-07
192 192 6.24015e-05
193 192 -3.11007e-05
195 192 -3.11007e-05
192 193 -3.11007e-05
193 193 0.882644
194 193 -0.882613
195 193 0
193 194 -0.882613
194 194 0.882644
195 194 0
201 194 -3.11007e-05
192 195 -3.11007e-05
193 195 0
194 195 0
195 195 0.882644
196 195 -0.882613
201 195 0
195 196 -0.882613
196 196 0.882644
197 196 -3.11007e-05
201 196 0
196 197 -3.11007e-05
197 197 0.882644
199 197 -0.882613
201 197 0
197 198 -0.882613
198 198 -1
199 198 0.882613
201 198 0
199 199 -1
200 199 1
198 200 1
199 200 0
200 200 0.0172414
201 200 0
358 200 -0.0172414
188 201 -0.882613
190 201 0
194 201 -3.11007e-05
195 201 0
196 201 0
197 201 0
199 201 0
200 201 0
201 201 0.882644
355 201 0
358 201 0
202 202 0.000165357
204 202 -1.1274e-05
203 203 0.000333533
205 203 -0.000333333
202 204 -1.1274e-05
204 204 0.000111324
205 204 -5e-08
353 204 -0.0001
203 205 -0.000333333
204 205 -5e-08
205 205 0.000363417
206 205 -3.00339e-05
353 205 0
205 206 -3.00339e-05
206 206 0.882643
208 206 -0.882613
353 206 0
206 207 -0.882613
207 207 -1
208 207 0.882613
353 207 0
208 208 -1
212 208 1
209 209 1
211 209 -24.8995
210 210 -24.8995
356 210 1
209 211 -1
210 211 1
211 211 23.8995
212 211 -0.00641026
216 211 0.00641026
356 211 0
207 212 1
208 212 0
212 212 0.00641026
216 212 -0.00641026
353 212 0
213 213 -1
214 214 -1
216 214 1
215 215 1
213 216 1
215 216 -22553.2
216 216 -1
217 217 1
240 217 -24.8995
218 218 -1
240 218 1
219 219 -1
220 219 1
220 220 -1
230 220 1
221 221 1
221 222 2
222 222 1
223 222 -2
221 223 -2
223 223 2.5
228 223 -0.5
224 224 0.757971
227 224 -0.257971
225 225 6.01288
351 225 -1e-12
226 226 1000
351 226 -1000
224 227 -0.257971
227 227 1000.26
351 227 -1000
223 228 -0.5
228 228 1e+06
229 228 -1e+06
351 228 -0.0030303
228 229 -1e+06
229 229 1e+06
230 229 -3.20513
351 229 0
218 230 1
229 230 -3.20513
230 230 3.20513
240 230 0
351 230 0
231 231 1000
232 231 -1.33378e-07
238 231 -4.99012e-08
231 232 -1.8298e-07
232 232 0.0516798
233 232 -0.0516797
238 232 3.05178e-09
232 233 -0.0516797
233 233 0.17668
238 233 0
352 233 -0.125
234 234 0.0143885
235 234 -1e-12
234 235 -1e-12
235 235 1000
239 235 -1000
236 236 70.922
239 236 -1.12445e-10
235 237 -1000
236 237 -1.12445e-10
237 237 -1000
238 237 -6.57462
239 237 1.00201e+06
354 237 -1e+06
231 238 -2.99378e-10
232 238 -4.655e-08
233 238 0
238 238 6.57462
239 238 -6.57462
352 238 0
237 239 1000
238 239 0
239 239 -1000
352 239 0
354 239 0
217 240 -1
239 240 -1e+06
240 240 23.8995
352 240 0
354 240 1e+06
355 240 -8e-31
241 241 1000
242 241 -4.96247e-07
243 241 -0.00365238
261 241 -1000
241 242 -0.00365288
242 242 1000
243 242 0.00365238
244 242 -1000
261 242 0
241 243 -1.0021e-12
242 243 -1.0021e-12
243 243 1000
244 243 0
261 243 0
327 243 -1000
242 244 -1000
243 244 0
244 244 1000
261 244 -0.000133333
327 244 -0.000222222
245 245 1000.07
246 245 -1000
245 246 -1000
246 246 1000.07
247 246 -0.0352393
248 246 -0.0352393
246 247 -0.0704722
247 247 1000.04
248 247 0.0352329
261 247 -1000
246 248 -6.43837e-06
247 248 -6.8786e-10
248 248 1000
249 248 -1000
261 248 0
248 249 -1000
249 249 1000.05
261 249 0
350 249 -0.0454545
250 250 1000
251 250 -1.41955e-16
253 250 -1.04479e-12
250 251 -4.48724e-14
251 251 1000
252 251 -1000
253 251 -9.55328e-13
251 252 -1000
252 252 2000.01
253 252 0
254 252 -1000
250 253 -1.00006e-12
251 253 -1.00006e-12
252 253 0
253 253 1000
254 253 0
328 253 -1000
252 254 -1000
253 254 0
254 254 1000
259 254 -1.01839e-12
260 254 -1.38368e-16
328 254 0
255 255 2000
256 255 -1000
260 255 -1000
255 256 -1000
256 256 1000
257 256 -0.00170853
258 256 -2.32138e-07
260 256 0
256 257 -0.00503977
257 257 1000.01
258 257 -0.00503977
260 257 0
261 257 -1000
256 258 0.003331
257 258 -0.00837101
258 258 1000.01
260 258 0
261 258 0
328 258 -1000
254 259 -0.0245335
259 259 1000.05
260 259 -0.0245335
261 259 -1000
328 259 0
254 260 0.0245335
255 260 -1000
256 260 0
257 260 0
258 260 0
259 260 -0.0490669
260 260 1000.02
261 260 0
328 260 0
241 261 -1000
242 261 0
243 261 0
244 261 -0.000133333
247 261 -1000
248 261 0
249 261 0
257 261 -1000
258 261 0
259 261 -1000
260 261 0
261 261 4000
327 261 0
328 261 0
350 261 0
262 262 1000
263 262 -1.40235e-16
264 262 -1.03213e-12
350 262 -1000
262 263 -3.07765e-14
263 263 1000
264 263 -9.70857e-13
269 263 -1000
350 263 0
262 264 -1.00149e-12
263 264 -1.00149e-12
264 264 1000
269 264 0
327 264 -1000
350 264 0
265 265 1000.07
266 265 -1000
351 265 -0.0666667
265 266 -1000
266 266 1000
267 266 -1.00005e-12
268 266 -1.00005e-12
351 266 0
266 267 7.088e-05
267 267 1000
268 267 -7.08897e-05
327 267 -1000
351 267 0
266 268 -7.088e-05
267 268 -9.63044e-09
268 268 1000
269 268 -1000
327 268 0
351 268 0
263 269 -1000
264 269 0
268 269 -1000
269 269 2000.04
327 269 0
350 269 -0.037037
351 269 0
270 270 1000
271 270 -0.00167205
272 270 -2.27181e-07
270 271 -1.03213e-12
271 271 1000
272 271 -1.03213e-12
277 271 -1000
270 272 -0.00167228
271 272 0.00167205
272 272 1000
277 272 -1000
273 273 1000
274 273 -1000
273 274 -1000
274 274 1000.25
275 274 -0.248815
276 274 -3.38064e-05
274 275 -0.208105
275 275 1000.42
276 275 -0.208105
326 275 -1000
274 276 -0.0407441
275 276 -0.167394
276 276 1000.21
277 276 -1000
326 276 0
271 277 -1000
272 277 -1000
276 277 -1000
277 277 3000
281 277 -2.5641e-05
326 277 0
278 278 1000.01
279 278 -0.00640227
280 278 -6.84004e-07
351 278 -1000
278 279 -1.03213e-12
279 279 1000
280 279 -1.03213e-12
281 279 -1000
351 279 0
278 280 -0.00640296
279 280 0.00640227
280 280 1000
281 280 -1000
351 280 0
277 281 -2.5641e-05
279 281 -1000
280 281 -1000
281 281 3000
283 281 -1000
326 281 0
351 281 0
282 282 1000.01
283 282 -6.84004e-07
284 282 -0.00640227
351 282 -1000
281 283 -1000
282 283 -0.00640296
283 283 1000
284 283 0.00640227
326 283 0
351 283 0
282 284 -1.00005e-12
283 284 -1.00005e-12
284 284 1000
326 284 0
327 284 -1000
351 284 0
285 285 1000
286 285 -1000
285 286 -1000
286 286 1000
287 286 -3.84445e-12
288 286 -5.22343e-16
286 287 -1.00007e-12
287 287 1000
288 287 -1.00007e-12
328 287 -1000
286 288 -2.8449e-12
287 288 1.84431e-12
288 288 1000
293 288 -1000
328 288 0
289 289 1000
290 289 -1000
289 290 -1000
290 290 1000
291 290 -3.84445e-12
292 290 -5.22343e-16
290 291 -1.00006e-12
291 291 1000
292 291 -1.00006e-12
299 291 -1000
290 292 -2.8449e-12
291 292 1.84432e-12
292 292 1000
293 292 -1000
299 292 0
288 293 -1000
292 293 -1000
293 293 3000
295 293 -1000
299 293 0
328 293 0
294 294 1000
295 294 -0.00149684
296 294 0.00149663
299 294 -1000
293 295 -1000
294 295 -2.03347e-07
295 295 1000
296 295 -0.00149663
299 295 0
328 295 0
294 296 -1.00029e-12
295 296 -1.00029e-12
296 296 1000
299 296 0
328 296 0
351 296 -1000
297 297 1000.05
298 297 2.04278e-07
325 297 -0.0524401
326 297 -1000
297 298 -0.0524287
298 298 1000.1
299 298 -1000
325 298 -0.0524287
326 298 0
291 299 -1000
292 299 0
293 299 0
294 299 -1000
295 299 0
296 299 0
298 299 -1000
299 299 3000
325 299 0
326 299 0
328 299 0
351 299 0
300 300 1000.05
304 300 -5.5692e-06
305 300 -0.0521277
351 300 -1000
301 301 1000.05
302 301 -0.0521277
303 301 -5.5692e-06
351 301 -1000
301 302 -1.03213e-12
302 302 1000
303 302 -1.03213e-12
324 302 -1000
351 302 0
301 303 -0.0521333
302 303 0.0521277
303 303 1000
324 303 -1000
351 303 0
300 304 -0.0521333
304 304 1000
305 304 0.0521277
324 304 -1000
351 304 0
300 305 -1.0005e-12
304 305 -1.0005e-12
305 305 1000
324 305 0
326 305 -1000
351 305 0
306 306 1000.35
307 306 -0.698728
312 306 0.349245
326 306 -1000
306 307 -0.349483
307 307 1000.7
312 307 -0.349483
326 307 0
328 307 -1000
308 308 2000
309 308 -1000
312 308 -1000
308 309 -1000
309 309 1000
310 309 -3.75086e-05
311 309 -5.09627e-09
312 309 0
309 310 -3.90678e-08
310 310 1000
311 310 -3.90678e-08
312 310 0
324 310 -1000
309 311 -3.74746e-05
310 311 3.74304e-05
311 311 1000
312 311 0
324 311 0
353 311 -1000
306 312 -2.55246e-08
307 312 -0.00023891
308 312 -1000
309 312 0
310 312 0
311 312 0
312 312 1000
324 312 0
326 312 0
328 312 0
353 312 0
313 313 1.43282
316 313 -0.00424848
314 314 0.01
319 314 -2.4023e-12
315 315 0.0100102
319 315 -0.01
313 316 -0.00424848
316 316 100.004
319 316 -100
317 317 0.391556
319 317 -0.379795
353 317 -0.0117613
318 318 0.379795
319 318 -3.85959e-12
353 318 -0.379795
314 319 -2.4023e-12
315 319 -0.01
316 319 -100
317 319 -0.379795
318 319 -3.85959e-12
319 319 1100.39
323 319 -1000
351 319 -0.0005
353 319 -2.2e-28
320 320 2000
321 320 -1000
325 320 -1000
320 321 -1000
321 321 1000.06
322 321 -0.0609041
323 321 -8.27501e-06
325 321 0
321 322 -0.00847231
322 322 1000.02
323 322 -0.00847231
324 322 -1000
325 322 0
319 323 -1000
321 323 -0.0524401
322 323 0.0439595
323 323 1000.01
324 323 0
325 323 0
351 323 0
353 323 0
302 324 -1000
303 324 -1000
304 324 -1000
305 324 0
310 324 -1000
311 324 0
312 324 0
322 324 -1000
323 324 0
324 324 5000
325 324 0
326 324 0
328 324 0
351 324 0
353 324 0
297 325 -1.12027e-05
298 325 -0.104858
299 325 0
320 325 -1000
321 325 0
322 325 0
323 325 0
324 325 0
325 325 1000.1
326 325 0
328 325 0
351 325 0
353 325 0
275 326 -1000
276 326 0
277 326 0
281 326 0
283 326 0
284 326 0
297 326 -1000
298 326 0
299 326 0
305 326 -1000
306 326 -1000
307 326 0
312 326 0
324 326 0
325 326 0
326 326 4000
327 326 0
328 326 0
351 326 0
353 326 0
243 327 -1000
244 327 -0.000222222
261 327 0
264 327 -1000
267 327 -1000
268 327 0
269 327 0
284 327 -1000
326 327 0
327 327 4000
328 327 -2.5e-32
350 327 0
351 327 0
353 327 0
253 328 -1000
254 328 0
258 328 -1000
259 328 0
260 328 0
261 328 0
287 328 -1000
288 328 0
293 328 0
295 328 0
296 328 0
299 328 0
307 328 -1000
312 328 0
324 328 0
325 328 0
326 328 0
327 328 -2.5e-32
328 328 4000
350 328 0
351 328 0
353 328 0
329 329 100
332 329 -1e-12
336 329 -100
330 330 0.01
336 330 -1.00082e-12
348 330 -0.01
331 331 1
336 331 -1
348 331 -1.18986e-12
329 332 -1e-12
332 332 0.335796
336 332 0
348 332 -0.335796
333 333 21.9246
334 333 -0.000981936
335 333 -0.105657
333 334 -0.0326097
334 334 0.0885415
335 334 0.00822284
349 334 -0.0641547
333 335 -0.0740297
334 335 -0.0234049
335 335 4.15917
336 335 -4.06174
349 335 0
329 336 -100
330 336 -1.00082e-12
331 336 -1
332 336 0
335 336 -4.06174
336 336 105.062
348 336 0
349 336 0
350 336 -0.0005
337 337 1
338 337 100000
363 337 -100000
338 338 1
347 338 -1
339 339 17.8891
347 339 -1.3538e-07
352 339 -17.8891
340 340 -0.0104327
341 340 -0.00513377
345 340 4.0773
346 340 -4.06174
340 341 21.8267
341 341 -9.02095e-05
345 341 -0.00872319
346 341 0
352 341 -21.8179
342 342 0.459995
343 342 -0.00394214
344 342 -0.0194126
348 342 -0.43664
342 343 -0.0232999
343 343 0.0380804
344 343 0.0193577
346 343 -0.0341383
348 343 0
342 344 -5.48788e-05
343 344 -8.47321e-14
344 344 5.16095
346 344 0
347 344 -5.16089
348 344 0
340 345 0.00161933
341 345 0.0443937
345 345 -0.00684331
346 345 0
348 345 -0.0391698
352 345 0
337 346 -1
338 346 0
339 346 -1.3538e-07
344 346 -5.16089
346 346 -0.0025
347 346 5.16472
348 346 0
349 346 -0.00133333
352 346 0
363 346 0
343 347 -0.0341383
344 347 0
345 347 -4.06174
346 347 4.09838
347 347 -0.0025
348 347 0
349 347 0
352 347 0
363 347 0
330 348 -0.01
331 348 -1.18986e-12
332 348 -0.335796
336 348 0
341 348 -0.0391698
342 348 -0.43664
343 348 0
344 348 0
345 348 0
346 348 0
347 348 0
348 348 0.824106
349 348 0
350 348 0
352 348 -0.0025
363 348 0
334 349 -0.0641547
335 349 0
336 349 0
347 349 -0.00133333
348 349 0
349 349 0.065588
350 349 0
351 349 -0.0001
352 349 0
363 349 0
249 350 -0.0454545
261 350 0
262 350 -1000
263 350 0
264 350 0
269 350 -0.037037
327 350 0
328 350 0
336 350 -0.0005
348 350 0
349 350 0
350 350 1000.08
351 350 0
352 350 0
353 350 0
363 350 0
225 351 -1e-12
226 351 -1000
227 351 -1000
228 351 -0.0030303
229 351 0
230 351 0
240 351 0
265 351 -0.0666667
266 351 0
267 351 0
268 351 0
269 351 0
278 351 -1000
279 351 0
280 351 0
281 351 0
282 351 -1000
283 351 0
284 351 0
296 351 -1000
299 351 0
300 351 -1000
301 351 -1000
302 351 0
303 351 0
304 351 0
305 351 0
319 351 -0.0005
323 351 0
324 351 0
325 351 0
326 351 0
327 351 0
328 351 0
349 351 -0.0001
350 351 0
351 351 7000.07
352 351 0
353 351 0
354 351 0
355 351 0
363 351 0
233 352 -0.125
238 352 0
239 352 0
339 352 -17.8891
340 352 -21.8179
341 352 0
345 352 0
346 352 0
347 352 0
348 352 -0.0025
349 352 0
350 352 0
351 352 0
352 352 39.8445
353 352 0
354 352 0
355 352 0
363 352 0
204 353 -0.0001
205 353 0
206 353 0
208 353 0
212 353 0
216 353 0
311 353 -1000
312 353 0
317 353 -0.0117613
318 353 -0.379795
319 353 -2.2e-28
323 353 0
324 353 0
325 353 0
326 353 0
327 353 0
328 353 0
350 353 0
351 353 0
352 353 0
353 353 1000.39
354 353 0
355 353 0
363 353 0
215 354 -691.489
219 354 1
220 354 0
230 354 0
240 354 0
351 354 0
352 354 0
353 354 0
354 354 -1
355 354 0
363 354 0
214 355 1
215 355 -7047.87
216 355 0
355 355 -1
190 356 -0.0172414
201 356 0
210 356 23.8995
354 356 -8e-31
355 356 0.0172414
356 356 -1
358 356 0
363 356 0
181 357 23.8995
200 357 -0.0172414
201 357 0
355 357 0
357 357 -1
358 357 0.0172414
359 357 -8e-31
185 358 1
186 358 -7047.87
187 358 0
358 358 -1
151 359 1
152 359 0
162 359 0
172 359 0
186 359 -691.489
358 359 0
359 359 -1
361 359 0
362 359 0
110 360 -1000
111 360 0
116 360 -0.0117315
117 360 -0.379795
118 360 -2.2e-28
122 360 0
123 360 0
124 360 0
125 360 0
126 360 0
127 360 0
148 360 0
175 360 -0.0001
176 360 0
177 360 0
179 360 0
183 360 0
187 360 0
360 360 1000.39
361 360 0
362 360 0
385 360 0
64 361 -0.0666667
65 361 0
66 361 0
67 361 0
68 361 0
77 361 -1000
78 361 0
79 361 0
80 361 0
81 361 -1000
82 361 0
83 361 0
95 361 -1000
98 361 0
99 361 -1000
100 361 -1000
101 361 0
102 361 0
103 361 0
104 361 0
118 361 -0.0005
122 361 0
123 361 0
124 361 0
125 361 0
126 361 0
127 361 0
147 361 -0.0001
148 361 0
157 361 -1e-12
158 361 -1000
159 361 -1000
160 361 -0.0030303
161 361 0
162 361 0
172 361 0
358 361 0
359 361 0
360 361 0
361 361 7000.07
362 361 0
385 361 0
136 362 -17.8891
137 362 -21.8179
138 362 0
139 362 0
143 362 0
144 362 0
146 362 -0.0025
147 362 0
148 362 0
165 362 -0.125
170 362 0
171 362 0
359 362 0
360 362 0
361 362 0
362 362 39.8445
385 362 0
38 363 1
363 363 -1
364 363 0
365 363 0
36 364 -100000
338 364 -100000
347 364 0
348 364 0
349 364 0
350 364 0
351 364 0
352 364 0
353 364 0
354 364 0
355 364 0
363 364 200000
364 364 -1
365 364 -0.00625
381 364 -3.33333e-05
35 365 -1
365 365 1
380 365 0
381 365 0
366 366 26.9179
367 366 -6.99791e-08
366 367 -6.99791e-08
367 367 100000
375 367 -100000
384 367 -0.0005
368 368 100000
375 368 -100000
383 368 -1.18e-30
369 369 1
380 369 -2325.58
383 369 -1
370 370 1
373 370 -3635.14
371 371 1
374 371 -1
371 372 0.714286
372 372 1
374 372 0
375 372 -0.714286
372 373 -1
373 373 1
374 373 100000
375 373 -0.000324675
376 373 -100000
369 374 -1
374 374 1
380 374 0
383 374 0
367 375 -100000
368 375 -100000
371 375 -0.714286
374 375 -0.000324675
375 375 200001
380 375 0
383 375 -1.33333e-06
384 375 0
365 376 -2e-31
374 376 -100000
376 376 100000
380 376 0
381 376 0
383 376 0
11 377 -2e-31
17 377 0
19 377 -18.1818
22 377 -1
33 377 0
34 377 -0.0142857
377 377 18.1961
378 377 3634.14
379 377 0
381 377 0
382 377 0
384 377 0
20 378 -100000
21 378 -100000
34 378 -7.69231e-05
36 378 -1.18e-30
37 378 -1
39 378 3634.14
363 378 -3.33333e-05
364 378 0
365 378 0
376 378 0
377 378 0
378 378 1
379 378 0
380 378 0
381 378 200000
382 378 0
383 378 -1e-08
384 378 0
14 379 -100000
368 379 -1.18e-30
370 379 -1
373 379 3634.14
374 379 0
375 379 -1.33333e-06
376 379 0
379 379 1
380 379 0
381 379 -1e-08
382 379 -2.46305e-06
383 379 200000
384 379 -100000
380 380 1
18 381 -1
377 381 0
378 381 0
379 381 0
380 381 0
381 381 1
382 381 0
383 381 0
384 381 0
13 382 -1.2987
14 382 -1.18e-30
17 382 -0.000606061
23 382 -100000
30 382 0
31 382 0
32 382 0
34 382 0
377 382 0
378 382 0
379 382 0
380 382 0
381 382 0
382 382 100001
383 382 -2.46305e-06
384 382 0
16 383 -1
17 383 0
377 383 0
378 383 0
379 383 0
380 383 0
381 383 0
382 383 0
383 383 1
384 383 0
27 384 -0.01
28 384 -0.0005
29 384 0
30 384 0
31 384 0
32 384 0
34 384 0
367 384 -0.0005
375 384 0
377 384 0
378 384 0
379 384 0
380 384 0
381 384 0
382 384 0
383 384 -100000
384 384 100000
8 385 -100000
9 385 0
10 385 0
145 385 1
146 385 0
147 385 0
148 385 0
360 385 0
361 385 0
362 385 0
385 385 100000
424 385 0
425 385 0
386 386 26.9179
387 386 -6.99791e-08
386 387 -6.99791e-08
387 387 100000
395 387 -100000
428 387 -0.0005
388 388 100000
395 388 -100000
427 388 -1.18e-30
389 389 1
424 389 -2325.58
427 389 -1
390 390 1
393 390 -3635.14
391 391 1
394 391 -1
391 392 0.714286
392 392 1
394 392 0
395 392 -0.714286
392 393 -1
393 393 1
394 393 100000
395 393 -0.000324675
396 393 -100000
389 394 -1
394 394 1
424 394 0
427 394 0
387 395 -100000
388 395 -100000
391 395 -0.714286
394 395 -0.000324675
395 395 200001
424 395 0
427 395 -1.33333e-06
428 395 0
10 396 -2e-31
394 396 -100000
396 396 100000
424 396 0
425 396 0
427 396 0
397 397 100000
403 397 -100000
421 397 -2e-31
398 398 1
399 398 1.2987
426 398 -1.2987
399 399 1
403 399 -1
400 400 100000
426 400 -1.18e-30
427 400 -100000
401 401 1
423 401 -3635.14
402 402 1
403 402 -1
424 402 -1705.43
397 403 -100000
398 403 -1
399 403 0
401 403 -1
403 403 100000
421 403 0
423 403 3634.14
426 403 -0.000606061
404 404 1
421 404 -1
424 404 -310.078
405 405 18.1818
419 405 1
421 405 -18.1818
406 406 100000
425 406 -100000
407 407 100000
420 407 -1.18e-30
425 407 -100000
408 408 1
422 408 -3635.14
409 409 100009
416 409 -8.89838
426 409 -100000
410 410 1
410 411 4
411 411 1
412 411 -4
410 412 -4
412 412 8
413 412 -4
412 413 -4
413 413 4.01
428 413 -0.01
414 414 0.126415
415 414 -0.115915
428 414 -0.0005
414 415 -0.115915
415 415 0.115915
416 415 -4.42388e-10
417 415 -9.38897e-12
428 415 0
409 416 -8.89838
415 416 -4.43362e-10
416 416 8.89838
417 416 -5.81108e-11
426 416 0
428 416 0
415 417 -8.41421e-12
416 417 -5.90855e-11
417 417 31.7901
418 417 -31.7901
426 417 0
428 417 0
417 418 -31.7901
418 418 100032
420 418 -100000
426 418 0
428 418 0
407 419 -1.18e-30
418 419 -100000
419 419 -1
420 419 100000
421 419 -0.0142857
425 419 -7.69231e-05
426 419 0
428 419 0
405 420 1
419 420 0
420 420 -1
421 420 0
425 420 0
426 420 0
428 420 0
397 421 -2e-31
403 421 0
405 421 -18.1818
408 421 -1
419 421 0
420 421 -0.0142857
421 421 18.1961
422 421 3634.14
423 421 0
425 421 0
426 421 0
428 421 0
4 422 -1.18e-30
5 422 -1
7 422 3634.14
8 422 -3.33333e-05
9 422 0
10 422 0
385 422 0
396 422 0
406 422 -100000
407 422 -100000
420 422 -7.69231e-05
421 422 0
422 422 1
423 422 0
424 422 0
425 422 200000
426 422 0
427 422 -1e-08
428 422 0
388 423 -1.18e-30
390 423 -1
393 423 3634.14
394 423 0
395 423 -1.33333e-06
396 423 0
400 423 -100000
423 423 1
424 423 0
425 423 -1e-08
426 423 -2.46305e-06
427 423 200000
428 423 -100000
424 424 1
404 425 -1
421 425 0
422 425 0
423 425 0
424 425 0
425 425 1
426 425 0
427 425 0
428 425 0
399 426 -1.2987
400 426 -1.18e-30
403 426 -0.000606061
409 426 -100000
416 426 0
417 426 0
418 426 0
420 426 0
421 426 0
422 426 0
423 426 0
424 426 0
425 426 0
426 426 100001
427 426 -2.46305e-06
428 426 0
402 427 -1
403 427 0
421 427 0
422 427 0
423 427 0
424 427 0
425 427 0
426 427 0
427 427 1
428 427 0
387 428 -0.0005
395 428 0
413 428 -0.01
414 428 -0.0005
415 428 0
416 428 0
417 428 0
418 428 0
420 428 0
421 428 0
422 428 0
423 428 0
424 428 0
425 428 0
426 428 0
427 428 -100000
428 428 100000
429 429 1
430 430 1
