%%MatrixMarket matrix coordinate real general
430 430 2301
1 1 1
2 2 1
3 3 1
424 3 -465.116
425 3 -1
4 4 100000
8 4 -1
425 4 -1.18e-35
5 5 1
7 5 -3635.14
6 6 8.33333
9 6 0.12
10 6 -1
6 7 -8.33333
7 7 1
8 7 -0.00625
9 7 1
10 7 0.00625038
396 7 -2e-31
6 8 1
8 8 -1
9 8 0.12
10 8 -1
4 9 -100000
8 9 100000
9 9 -12001
10 9 -8.33264
385 9 8.33264
425 9 2.77755e-09
3 10 -1
10 10 1
424 10 -465.116
425 10 -1
11 11 100000
17 11 -1
377 11 -2e-36
12 12 1
13 12 1.2987
382 12 -1.2987
13 13 1
17 13 -1
14 14 100000
382 14 -1.18e-35
383 14 -1
15 15 1
379 15 -3635.14
16 16 1
17 16 -1
380 16 -1705.43
11 17 -100000
12 17 -1
13 17 1.2987
15 17 -1
17 17 1.2987
377 17 -1.54e-31
379 17 -0.77
382 17 -1.00047
18 18 1
377 18 -1
380 18 -310.078
19 19 18.1818
33 19 0.055
377 19 -1
20 20 100000
381 20 -0.999998
21 21 100000
34 21 -1.18e-35
381 21 -1
22 22 1
378 22 -3635.14
23 23 100009
30 23 -8.89759e-05
382 23 -0.999911
24 24 1
24 25 4
25 25 1
26 25 -4
24 26 -4
26 26 8
27 26 -0.5
26 27 -4
27 27 2.01
384 27 -0.00497512
28 28 0.126415
29 28 -0.91694
384 28 -0.00395524
28 29 -0.115915
29 29 0.00962787
30 29 -4.59486e-08
31 29 -9.75186e-10
384 29 -0.047619
23 30 -8.89838
29 30 -4.43362e-10
30 30 8.89759
31 30 -6.53107e-12
382 30 -1
384 30 -2.37283e-12
29 31 -8.41421e-12
30 31 -5.90855e-11
31 31 31.7901
32 31 -1
382 31 -1.85861e-12
384 31 -1.26038e-14
31 32 -31.7901
32 32 100000
34 32 -1
382 32 -5.90855e-16
384 32 -4.00676e-18
21 33 -1.18e-30
32 33 -100000
33 33 -1
34 33 -0.015625
377 33 0.0142857
381 33 7.69231e-05
382 33 5.90855e-11
384 33 4.00676e-13
19 34 1
33 34 -0.055
34 34 -1.00086
377 34 -0.999926
381 34 -4.22714e-06
382 34 -3.24691e-12
384 34 -2.20183e-14
35 35 1
380 35 -465.116
381 35 -1
36 36 100000
363 36 -1
381 36 -1.18e-35
37 37 1
39 37 -3635.14
38 38 8.33333
364 38 0.12
365 38 -1
38 39 -8.33333
39 39 1
363 39 -0.00625
364 39 1
365 39 0.00625038
376 39 -2e-31
40 40 1000
41 40 -4.96254e-10
42 40 -3.65243e-06
60 40 -0.999996
40 41 -0.00365294
41 41 1000
42 41 3.65243e-06
43 41 -1
60 41 -3.65293e-06
40 42 -1.0021e-12
41 42 -1.0021e-12
42 42 1000
43 42 -1.0021e-15
60 42 -1.0021e-15
126 42 -1
41 43 -1000
42 43 0.00365243
43 43 0.000366211
60 43 -10.339
126 43 9.36676
44 44 1000.07
45 44 -0.999933
44 45 -1000
45 45 0.137134
46 45 -0.25697
47 45 -0.25697
45 46 -0.0704721
46 46 1000.02
47 46 1.71233e-05
60 46 -0.999983
45 47 -6.436e-06
46 47 -1.65455e-06
47 47 1000
48 47 -1
60 47 -1.65452e-09
47 48 -1000
48 48 0.0454712
60 48 -3.63861e-05
148 48 -0.999634
49 49 1000
50 49 -1.41955e-19
52 49 -1.04479e-15
49 50 -4.48722e-14
50 50 1000
51 50 -1
52 50 -9.55328e-16
50 51 -1000
51 51 1000.01
52 51 -9.55319e-16
53 51 -0.99999
49 52 -1.00006e-12
50 52 -1.00006e-12
51 52 -1.00006e-12
52 52 1000
53 52 -1.00005e-15
127 52 -1
51 53 -1000
52 53 -9.55319e-13
53 53 0.0100136
58 53 -1.01701e-10
59 53 -1.38181e-14
127 53 -9.54023e-11
54 54 2000
55 54 -0.5
59 54 -0.5
54 55 -1000
55 55 500.002
56 55 -3.41702e-06
57 55 -4.64269e-10
59 55 -0.999997
55 56 -0.00503972
56 56 1000.01
57 56 -5.03966e-06
59 56 -5.03965e-06
60 56 -0.99999
55 57 0.00333097
56 57 -0.0083709
57 57 1000.01
59 57 3.3309e-06
60 57 -8.37078e-06
127 57 -0.999995
53 58 -0.0245335
58 58 1000.05
59 58 -2.45323e-05
60 58 -0.999951
127 58 -2.34044e-15
53 59 0.0245335
54 59 -1000
55 59 -500
56 59 -0.00170851
57 59 -2.40745e-07
58 59 -0.0490669
59 59 0.0262337
60 59 -1.93542
127 59 -9.17681e-06
40 60 -1000
41 60 -4.96254e-07
42 60 -0.00365243
43 60 -0.00013383
46 60 -1000
47 60 0.0171233
48 60 0.0171233
56 60 -1000
57 60 -0.00503966
58 60 -1000
59 60 -0.0295719
60 60 0.0215448
126 60 -0.111344
127 60 -0.233927
148 60 0.794484
61 61 1000
62 61 -1.40235e-19
63 61 -1.03213e-15
148 61 -1
61 62 -3.07766e-14
62 62 1000
63 62 -9.70857e-16
68 62 -1
148 62 -3.07766e-17
61 63 -1.00149e-12
62 63 -1.00149e-12
63 63 1000
68 63 -1.00149e-15
126 63 -1
148 63 -1.00149e-15
64 64 1000.07
65 64 -0.999933
361 64 -6.66622e-05
64 65 -1000
65 65 0.066638
66 65 -1.50072e-11
67 65 -1.50072e-11
361 65 -1.00036
65 66 7.09078e-05
66 66 1000
67 66 -7.09175e-08
126 66 -1
361 66 7.09336e-08
65 67 -7.09078e-05
66 67 -9.63422e-09
67 67 1000
68 67 -1
126 67 -9.63422e-12
361 67 -7.09336e-08
62 68 -1000
63 68 -9.70857e-13
67 68 -1000
68 68 0.0370469
126 68 -2.60081e-07
148 68 -0.999734
361 68 -0.0019147
69 69 1000
70 69 -1.67203e-06
71 69 -2.27178e-10
69 70 -1.03213e-12
70 70 1000
71 70 -1.03213e-15
76 70 -1
69 71 -0.00167226
70 71 0.00167203
71 71 1000
76 71 -0.999998
72 72 1000
73 72 -1
72 73 -1000
73 73 0.249019
74 73 -0.999178
75 73 -0.000135758
73 74 -0.208105
74 74 1000.21
75 74 -0.00020809
125 74 -0.999792
73 75 -0.0407435
74 75 -0.208105
75 75 1000.21
76 75 -0.999792
125 75 -0.000208018
70 76 -1000
71 76 -1000
75 76 -1000
76 76 0.209677
80 76 -0.000122288
125 76 -0.992091
77 77 1000.01
78 77 -6.40232e-06
79 77 -6.84008e-10
361 77 -0.999994
77 78 -1.03213e-12
78 78 1000
79 78 -1.03213e-15
80 78 -1
361 78 -1.03212e-15
77 79 -0.00640304
78 79 0.00640232
79 79 1000
80 79 -0.999994
361 79 -6.403e-06
76 80 -2.5641e-05
78 80 -1000
79 80 -1000
80 80 1000.01
82 80 -0.999994
125 80 -2.54381e-08
361 80 -6.40296e-06
81 81 1000.01
82 81 -6.84008e-10
83 81 -6.40232e-06
361 81 -0.999994
80 82 -1000
81 82 -0.00640304
82 82 0.0064373
83 82 0.994565
125 82 -0.00395167
361 82 -1.98934
81 83 -1.00005e-12
82 83 -1.00005e-12
83 83 1000
125 83 -3.95186e-18
126 83 -1
361 83 -2.98948e-15
84 84 1000
85 84 -0.999999
84 85 -1000
85 85 0.000953674
86 85 -4.03122e-09
87 85 -5.4772e-13
85 86 -1.00007e-12
86 86 1000
87 86 -1.00007e-15
127 86 -1
85 87 -2.84492e-12
86 87 1.84433e-12
87 87 1000
92 87 -1
127 87 1.84433e-15
88 88 1000
89 88 -0.999999
88 89 -1000
89 89 0.000953674
90 89 -4.03122e-09
91 89 -5.4772e-13
89 90 -1.00006e-12
90 90 1000
91 90 -1.00006e-15
98 90 -1
89 91 -2.84492e-12
90 91 1.84434e-12
91 91 1000
92 91 -1
98 91 1.84434e-15
87 92 -1000
91 92 -1000
92 92 1000
94 92 -1
98 92 1.84434e-15
127 92 1.84433e-15
93 93 1000
94 93 -1.49685e-06
95 93 1.49664e-06
98 93 -1
92 94 -1000
93 94 -2.03348e-07
94 94 0.00152588
95 94 -0.980841
98 94 -0.000133265
127 94 1.2087e-09
93 95 -1.00029e-12
94 95 -1.00029e-12
95 95 1000
98 95 -1.00042e-15
127 95 1.20905e-24
361 95 -1
96 96 1000.05
97 96 2.04232e-10
124 96 -5.24536e-05
125 96 -0.999948
96 97 -0.052445
97 97 1000.1
98 97 -0.999895
124 97 -5.24422e-05
125 97 -5.24367e-05
90 98 -1000
91 98 -1.00006e-12
92 98 -1.00006e-12
93 98 -1000
94 98 -0.00149685
95 98 2.84755e-05
97 98 -1000
98 98 0.104919
124 98 -0.499834
125 98 -0.499782
127 98 1.72441e-11
361 98 0.000271404
99 99 1000.05
103 99 -5.56905e-09
104 99 -5.21263e-05
361 99 -0.999948
100 100 1000.05
101 100 -5.21263e-05
102 100 -5.56905e-09
361 100 -0.999948
100 101 -1.03213e-12
101 101 1000
102 101 -1.03213e-15
123 101 -1
361 101 -1.03208e-15
100 102 -0.0521346
101 102 0.0521263
102 102 1000
123 102 -0.999948
361 102 -5.21319e-05
99 103 -0.0521346
103 103 1000
104 103 5.21263e-05
123 103 -1
361 103 -5.21319e-05
99 104 -1.0005e-12
103 104 -1.0005e-12
104 104 1000
123 104 -1.0005e-15
125 104 -1
361 104 -1.0005e-15
105 105 1000.35
106 105 -0.000698509
111 105 0.000349154
125 105 -0.999651
105 106 -0.349476
106 106 1000.7
111 106 -0.00034911
125 106 -0.00034911
127 106 -0.999302
107 107 2000
108 107 -0.5
111 107 -0.5
107 108 -1000
108 108 500.013
109 108 -2.61549e-05
110 108 -3.55365e-09
111 108 -0.999974
108 109 -3.89391e-08
109 109 1000
110 109 -3.89391e-11
111 109 -3.89381e-11
123 109 -1
108 110 -0.0130795
109 110 0.0130773
110 110 1000
111 110 -1.30792e-05
123 110 1.30773e-05
360 110 -1
105 111 -2.13825e-08
106 111 -0.00020014
107 111 -1000
108 111 -500
109 111 -0.0130774
110 111 -1.77682e-06
111 111 0.0132365
123 111 -0.987986
125 111 -6.89355e-06
127 111 -0.0151098
360 111 -0.000134237
112 112 1.43282
115 112 -0.00296522
113 113 0.01
118 113 -2.40228e-10
114 114 0.0100102
118 114 -0.998979
112 115 -0.00424862
115 115 100.004
118 115 -0.999958
116 116 0.391526
118 116 -0.970036
360 116 -0.0299636
117 117 0.379795
118 117 -1.01681e-11
360 117 -1
113 118 -2.40228e-12
114 118 -0.01
115 118 -100
116 118 -0.379795
117 118 -3.86179e-12
118 118 1000.02
122 118 -0.999984
360 118 -1.13798e-05
361 118 -4.99992e-07
119 119 2000
120 119 -0.5
124 119 -0.5
119 120 -1000
120 120 500.061
121 120 -0.000121818
122 120 -1.65513e-08
124 120 -0.999878
120 121 -0.00846811
121 121 1000.02
122 121 -8.46797e-06
123 121 -0.999983
124 121 -8.46694e-06
118 122 -1000
120 122 -0.0524564
121 122 0.0439736
122 122 0.0245175
123 122 1.79353
124 122 -2.13927
360 122 -0.464151
361 122 -0.0203932
101 123 -1000
102 123 -1000
103 123 -1000
104 123 0.0521263
109 123 -1000
110 123 -3.89391e-08
111 123 -3.89386e-08
121 123 -1000
122 123 -0.00846797
123 123 0.0842498
124 123 -0.315517
125 123 0.618712
127 123 -6.98347e-09
360 123 -0.0466524
361 123 -1.23961
96 124 -1.12062e-05
97 124 -0.10489
98 124 -0.104879
119 124 -1000
120 124 -500
121 124 -0.0609088
122 124 -8.79143e-06
123 124 -0.060892
124 124 0.0941814
125 124 -0.156706
127 124 -4.49589e-09
360 124 -0.030206
361 124 -0.801154
74 125 -1000
75 125 -0.20809
76 125 -0.208046
80 125 -2.54416e-05
82 125 -2.54415e-05
83 125 2.53032e-05
96 125 -1000
97 125 2.04232e-07
98 125 2.04211e-07
104 125 -1000
105 125 -1000
106 125 -0.698509
111 125 0.34891
123 125 0.344718
124 125 0.0563109
125 125 0.198909
126 125 0.00012721
127 125 -3.48274
360 125 0.0896375
361 125 2.37484
42 126 -1000
43 126 -0.000222222
60 126 -0.00229756
63 126 -1000
66 126 -1000
67 126 -7.09175e-05
68 126 -7.09175e-05
83 126 -1000
125 126 -3.95186e-15
126 126 0.00206352
127 126 -0.260458
148 126 0.850236
360 126 1.71666e-13
361 126 0.0343093
52 127 -1000
53 127 -1.00005e-12
57 127 -1000
58 127 -1.01706e-22
59 127 0.0033309
60 127 -0.00192411
86 127 -1000
87 127 -1.00007e-12
92 127 -1.00007e-12
94 127 -1.00007e-12
95 127 -9.80907e-13
98 127 -1.33274e-16
106 127 -1000
111 127 -0.34911
123 127 -0.344916
124 127 -0.108827
125 127 -0.152763
126 127 -0.000194804
127 127 0.165585
148 127 0.0102322
360 127 -0.0346163
361 127 -0.917665
128 128 100
131 128 -1e-14
135 128 -1
129 129 0.01
135 129 -1.00082e-10
146 129 -1
130 130 1
135 130 -1
146 130 -1.18986e-12
128 131 -1e-12
131 131 0.335796
135 131 -2.97801e-12
146 131 -1
132 132 21.9246
133 132 -4.47869e-05
134 132 -0.00481913
132 133 -0.0326096
133 133 0.0885401
134 133 0.0910952
147 133 -0.724584
132 134 -0.0740297
133 134 -0.0234082
134 134 4.16095
135 134 -0.976157
147 134 -0.00407628
128 135 -100
129 135 -1.00082e-12
130 135 -1
131 135 -1e-12
134 135 -4.06174
135 135 0.0973468
146 135 -3.27764e-11
147 135 -0.170081
148 135 -0.00513627
136 136 17.8891
144 136 -7.56776e-09
362 136 -1
137 137 21.8267
138 137 -4.13298e-06
139 137 -0.000399656
362 137 -0.999596
137 138 0.00161933
138 138 0.0443937
139 138 -0.154136
146 138 -0.882326
362 138 0.0364618
137 139 -0.0104327
138 139 -0.00513381
139 139 4.07651
143 139 -0.996377
146 139 -0.00111117
362 139 -0.00251228
140 140 0.0380804
141 140 -0.61186
142 140 0.508338
143 140 -0.896479
140 141 -0.00394214
141 141 0.457583
142 141 -0.0380449
143 141 -0.00772328
146 141 -0.954232
140 142 -8.47321e-14
141 142 -5.48788e-05
142 142 5.16094
143 142 -8.21254e-08
144 142 -0.99999
146 142 -1.01468e-05
139 143 -4.06174
140 143 -0.0341383
141 143 -0.0208878
142 143 0.0165591
143 143 0.02059
144 143 0.682805
146 143 -1.18723
362 143 -0.495591
144 144 -1
385 144 -1
136 145 -1.3538e-07
142 145 -5.16089
143 145 -0.00250042
144 145 0.00559398
145 145 -1
146 145 0.00302093
147 145 0.00133333
362 145 0.00123932
385 145 -0.00559398
129 146 -0.01
130 146 -1.18986e-12
131 146 -0.335796
135 146 -3.19068e-12
138 146 -0.0391698
139 146 -0.00603746
141 146 -0.43664
142 146 -0.0166119
143 146 -0.00938788
144 146 -0.0102016
146 146 0.0159411
147 146 -3.40424e-11
148 146 -1.02805e-12
362 146 -0.360046
385 146 -0.63996
133 147 -0.0641547
134 147 0.00584418
135 147 0.00570484
144 147 -0.00133333
146 147 1.86984e-13
147 147 0.0200967
148 147 0.00145803
361 147 -0.00497595
362 147 3.34995e-12
385 147 -0.0663459
48 148 -0.0454545
60 148 -1.65391e-06
61 148 -1000
62 148 -1.40235e-16
63 148 -1.03213e-12
68 148 -0.037037
126 148 -1.93787e-07
127 148 -4.37368e-07
135 148 -0.0005
146 148 -1.63882e-14
147 148 -8.50403e-05
148 148 0.000541774
360 148 -2.79454e-05
361 148 -0.132403
362 148 -1.03653e-11
385 148 -0.0104141
149 149 1
172 149 -24.8995
150 150 -1
172 150 -1
151 151 -1
152 151 -1
152 152 -1
162 152 -1
153 153 1
153 154 2
154 154 1
155 154 -2
153 155 -2
155 155 2.5
160 155 -0.2
156 156 0.757971
159 156 -0.340344
157 157 6.01288
361 157 -1.6631e-13
158 158 1000
361 158 -1
156 159 -0.257971
159 159 1000.17
361 159 -0.99983
155 160 -0.5
160 160 1e+06
161 160 -1
361 160 -3.0303e-09
160 161 -1e+06
161 161 3.54513
162 161 -0.904094
361 161 -0.000854779
150 162 1
161 162 -3.20513
162 162 0.307392
172 162 3.25318
361 162 -0.00891266
163 163 1000
164 163 -1.33378e-10
170 163 -4.99012e-11
163 164 -1.8298e-07
164 164 0.0516798
165 164 -0.999996
170 164 5.90516e-08
164 165 -0.0516797
165 165 0.125
170 165 2.44141e-08
362 165 -0.999999
166 166 0.0143885
167 166 -6.95e-11
166 167 -1e-12
167 167 1000
171 167 -1
168 168 70.922
171 168 -1.58547e-12
167 169 -1000
168 169 -1.12445e-10
169 169 -1000
170 169 0.00657462
171 169 -1001.01
359 169 1000
163 170 -2.99378e-10
164 170 -4.655e-08
165 170 -4.65499e-08
170 170 6.57462
171 170 -1
362 170 -7.08023e-09
169 171 1000
170 171 -6.57462
171 171 1e+06
359 171 -1
362 171 -4.65498e-14
149 172 -1
171 172 -1e+06
172 172 -1
358 172 8e-31
359 172 -0
362 172 4.65498e-08
173 173 0.000165357
175 173 -0.0681794
174 174 0.000333533
176 174 -0.9994
173 175 -1.1274e-05
175 175 0.000110555
176 175 -0.000452262
360 175 -0.904525
174 176 -0.000333333
175 176 -5e-08
176 176 3.02838e-05
177 176 -0.991749
360 176 -0.00149342
176 177 -3.00339e-05
177 177 0.882613
179 177 -1
360 177 -5.08185e-08
177 178 -0.882613
178 178 -1
179 178 -2.63039e-07
360 178 4.48531e-08
179 179 -1
183 179 -1
180 180 1
182 180 -24.8995
181 181 -24.8995
357 181 -0.0401614
180 182 -1
181 182 1
182 182 -1
183 182 0.00641026
187 182 -0.00641026
357 182 -0.0401614
178 183 1
179 183 2.63039e-07
183 183 0.00641052
187 183 -0.999959
360 183 -6.99679e-06
184 184 -1
185 185 -1
187 185 -1
186 186 1
184 187 1
186 187 -22553.2
187 187 -1
188 188 -1
190 188 -1
188 189 0.882613
189 189 -1
190 189 -0.882613
201 189 0.882613
189 190 1
190 190 0.899854
201 190 -0.98084
355 190 -0.0191602
191 191 0.0002002
192 191 -0.000999001
191 192 -2e-07
192 192 6.24013e-05
193 192 -0.498399
195 192 -0.498399
192 193 -3.11007e-05
193 193 0.882628
194 193 -0.999982
195 193 -1.75618e-05
193 194 -0.882613
194 194 4.67381e-05
195 194 -0.331641
201 194 -0.665425
192 195 -3.11007e-05
193 195 -1.55006e-05
194 195 -1.55003e-05
195 195 0.882623
196 195 -0.999988
201 195 -1.1686e-05
195 196 -0.882613
196 196 4.15826e-05
197 196 -0.747927
201 196 -0.248041
196 197 -3.11007e-05
197 197 0.88262
199 197 -0.999991
201 197 -8.74017e-06
197 198 -0.882613
198 198 -1
199 198 -7.89117e-06
201 198 7.71418e-06
199 199 -1
200 199 -1
198 200 1
199 200 7.89117e-06
200 200 0.0172493
201 200 -0.000447218
358 200 -0.999542
188 201 -0.882613
190 201 -0.882613
194 201 -3.11007e-05
195 201 -1.03143e-05
196 201 -1.03142e-05
197 201 -7.71425e-06
199 201 -7.71418e-06
200 201 -7.71418e-06
201 201 0.0169189
355 201 -0.999538
358 201 -0.000455743
202 202 0.000165357
204 202 -0.0681794
203 203 0.000333533
205 203 -0.9994
202 204 -1.1274e-05
204 204 0.000110555
205 204 -0.000452262
353 204 -0.904525
203 205 -0.000333333
204 205 -5e-08
205 205 3.02838e-05
206 205 -0.99175
353 205 -0.00149342
205 206 -3.00339e-05
206 206 0.882613
208 206 -1
353 206 -5.08186e-08
206 207 -0.882613
207 207 -1
208 207 -2.63039e-07
353 207 4.48531e-08
208 208 -1
212 208 -1
209 209 1
211 209 -24.8995
210 210 -24.8995
356 210 -0.0401614
209 211 -1
210 211 1
211 211 -1
212 211 0.00641026
216 211 -0.00641026
356 211 -0.0401614
207 212 1
208 212 2.63039e-07
212 212 0.00641052
216 212 -0.999959
353 212 -6.9968e-06
213 213 -1
214 214 -1
216 214 -1
215 215 1
213 216 1
215 216 -22553.2
216 216 -1
217 217 1
240 217 -24.8995
218 218 -1
240 218 -1
219 219 -1
220 219 -1
220 220 -1
230 220 -1
221 221 1
221 222 2
222 222 1
223 222 -2
221 223 -2
223 223 2.5
228 223 -0.2
224 224 0.757971
227 224 -0.340344
225 225 6.01288
351 225 -1.6631e-13
226 226 1000
351 226 -1
224 227 -0.257971
227 227 1000.17
351 227 -0.99983
223 228 -0.5
228 228 1e+06
229 228 -1
351 228 -3.0303e-09
228 229 -1e+06
229 229 3.54513
230 229 -0.904094
351 229 -0.000854779
218 230 1
229 230 -3.20513
230 230 0.307392
240 230 3.25318
351 230 -0.00891266
231 231 1000
232 231 -1.33378e-10
238 231 -4.99012e-11
231 232 -1.8298e-07
232 232 0.0516798
233 232 -0.999996
238 232 5.90516e-08
232 233 -0.0516797
233 233 0.125
238 233 2.44141e-08
352 233 -0.999999
234 234 0.0143885
235 234 -6.95e-11
234 235 -1e-12
235 235 1000
239 235 -1
236 236 70.922
239 236 -1.58547e-12
235 237 -1000
236 237 -1.12445e-10
237 237 -1000
238 237 0.00657462
239 237 -1001.01
354 237 1000
231 238 -2.99378e-10
232 238 -4.655e-08
233 238 -4.65499e-08
238 238 6.57462
239 238 -1
352 238 -7.08023e-09
237 239 1000
238 239 -6.57462
239 239 1e+06
352 239 -4.65498e-14
354 239 -1
217 240 -1
239 240 -1e+06
240 240 -1
352 240 4.65498e-08
354 240 -0
355 240 8e-31
241 241 1000
242 241 -4.96245e-10
243 241 -3.65237e-06
261 241 -0.999996
241 242 -0.00365288
242 242 1000
243 242 3.65237e-06
244 242 -1
261 242 -3.65286e-06
241 243 -1.0021e-12
242 243 -1.0021e-12
243 243 1000
244 243 -1.0021e-15
261 243 -1.0021e-15
327 243 -1
242 244 -1000
243 244 0.00365237
244 244 0.000366211
261 244 -10.3388
327 244 9.36658
245 245 1000.07
246 245 -0.999933
245 246 -1000
246 246 0.137134
247 246 -0.256971
248 246 -0.256971
246 247 -0.0704722
247 247 1000.02
248 247 1.71233e-05
261 247 -0.999983
246 248 -6.43837e-06
247 248 -1.65516e-06
248 248 1000
249 248 -1
261 248 -1.65513e-09
248 249 -1000
249 249 0.0454712
261 249 -3.63996e-05
350 249 -0.999634
250 250 1000
251 250 -1.41955e-19
253 250 -1.04479e-15
250 251 -4.48724e-14
251 251 1000
252 251 -1
253 251 -9.55328e-16
251 252 -1000
252 252 1000.01
253 252 -9.55319e-16
254 252 -0.99999
250 253 -1.00006e-12
251 253 -1.00006e-12
252 253 -1.00006e-12
253 253 1000
254 253 -1.00005e-15
328 253 -1
252 254 -1000
253 254 -9.55319e-13
254 254 0.0100136
259 254 -1.01701e-10
260 254 -1.38181e-14
328 254 -9.54023e-11
255 255 2000
256 255 -0.5
260 255 -0.5
255 256 -1000
256 256 500.002
257 256 -3.41706e-06
258 256 -4.64274e-10
260 256 -0.999997
256 257 -0.00503977
257 257 1000.01
258 257 -5.03972e-06
260 257 -5.0397e-06
261 257 -0.99999
256 258 0.003331
257 258 -0.00837099
258 258 1000.01
260 258 3.33093e-06
261 258 -8.37087e-06
328 258 -0.999995
254 259 -0.0245335
259 259 1000.05
260 259 -2.45323e-05
261 259 -0.999951
328 259 -2.34043e-15
254 260 0.0245335
255 260 -1000
256 260 -500
257 260 -0.00170853
258 260 -2.40747e-07
259 260 -0.0490669
260 260 0.0262337
261 260 -1.93542
328 260 -9.17691e-06
241 261 -1000
242 261 -4.96245e-07
243 261 -0.00365237
244 261 -0.00013383
247 261 -1000
248 261 0.0171233
249 261 0.0171233
257 261 -1000
258 261 -0.00503972
259 261 -1000
260 261 -0.0295719
261 261 0.0215448
327 261 -0.111342
328 261 -0.23393
350 261 0.794487
262 262 1000
263 262 -1.40235e-19
264 262 -1.03213e-15
350 262 -1
262 263 -3.07765e-14
263 263 1000
264 263 -9.70857e-16
269 263 -1
350 263 -3.07765e-17
262 264 -1.00149e-12
263 264 -1.00149e-12
264 264 1000
269 264 -1.00149e-15
327 264 -1
350 264 -1.00149e-15
265 265 1000.07
266 265 -0.999933
351 265 -6.66622e-05
265 266 -1000
266 266 0.066638
267 266 -1.50072e-11
268 266 -1.50072e-11
351 266 -1.00036
266 267 7.088e-05
267 267 1000
268 267 -7.08897e-08
327 267 -1
351 267 7.09058e-08
266 268 -7.088e-05
267 268 -9.63044e-09
268 268 1000
269 268 -1
327 268 -9.63044e-12
351 268 -7.09058e-08
263 269 -1000
264 269 -9.70857e-13
268 269 -1000
269 269 0.0370469
327 269 -2.59979e-07
350 269 -0.999734
351 269 -0.00191395
270 270 1000
271 270 -1.67205e-06
272 270 -2.27181e-10
270 271 -1.03213e-12
271 271 1000
272 271 -1.03213e-15
277 271 -1
270 272 -0.00167228
271 272 0.00167205
272 272 1000
277 272 -0.999998
273 273 1000
274 273 -1
273 274 -1000
274 274 0.249019
275 274 -0.99918
276 274 -0.000135758
274 275 -0.208105
275 275 1000.21
276 275 -0.00020809
326 275 -0.999792
274 276 -0.0407441
275 276 -0.208105
276 276 1000.21
277 276 -0.999792
326 276 -0.000208018
271 277 -1000
272 277 -1000
276 277 -1000
277 277 0.209677
281 277 -0.000122288
326 277 -0.992091
278 278 1000.01
279 278 -6.40223e-06
280 278 -6.83999e-10
351 278 -0.999994
278 279 -1.03213e-12
279 279 1000
280 279 -1.03213e-15
281 279 -1
351 279 -1.03212e-15
278 280 -0.00640296
279 280 0.00640223
280 280 1000
281 280 -0.999994
351 280 -6.40292e-06
277 281 -2.5641e-05
279 281 -1000
280 281 -1000
281 281 1000.01
283 281 -0.999994
326 281 -2.54381e-08
351 281 -6.40287e-06
282 282 1000.01
283 282 -6.83999e-10
284 282 -6.40223e-06
351 282 -0.999994
281 283 -1000
282 283 -0.00640296
283 283 0.0064373
284 283 0.994552
326 283 -0.00395167
351 283 -1.98931
282 284 -1.00005e-12
283 284 -1.00005e-12
284 284 1000
326 284 -3.95186e-18
327 284 -1
351 284 -2.98945e-15
285 285 1000
286 285 -0.999999
285 286 -1000
286 286 0.000953674
287 286 -4.0312e-09
288 286 -5.47717e-13
286 287 -1.00007e-12
287 287 1000
288 287 -1.00007e-15
328 287 -1
286 288 -2.8449e-12
287 288 1.84431e-12
288 288 1000
293 288 -1
328 288 1.84431e-15
289 289 1000
290 289 -0.999999
289 290 -1000
290 290 0.000953674
291 290 -4.03119e-09
292 290 -5.47717e-13
290 291 -1.00006e-12
291 291 1000
292 291 -1.00006e-15
299 291 -1
290 292 -2.8449e-12
291 292 1.84432e-12
292 292 1000
293 292 -1
299 292 1.84432e-15
288 293 -1000
292 293 -1000
293 293 1000
295 293 -1
299 293 1.84432e-15
328 293 1.84431e-15
294 294 1000
295 294 -1.49684e-06
296 294 1.49663e-06
299 294 -1
293 295 -1000
294 295 -2.03347e-07
295 295 0.00152588
296 295 -0.980834
299 295 -0.000133264
328 295 1.20869e-09
294 296 -1.00029e-12
295 296 -1.00029e-12
296 296 1000
299 296 -1.00042e-15
328 296 1.20903e-24
351 296 -1
297 297 1000.05
298 297 2.04267e-10
325 297 -5.24373e-05
326 297 -0.999948
297 298 -0.0524287
298 298 1000.1
299 298 -0.999895
325 298 -5.24259e-05
326 298 -5.24204e-05
291 299 -1000
292 299 -1.00006e-12
293 299 -1.00006e-12
294 299 -1000
295 299 -0.00149684
296 299 2.84848e-05
298 299 -1000
299 299 0.104858
325 299 -0.49997
326 299 -0.499917
328 299 1.72539e-11
351 299 0.000271651
300 300 1000.05
304 300 -5.56891e-09
305 300 -5.2125e-05
351 300 -0.999948
301 301 1000.05
302 301 -5.2125e-05
303 301 -5.56891e-09
351 301 -0.999948
301 302 -1.03213e-12
302 302 1000
303 302 -1.03213e-15
324 302 -1
351 302 -1.03208e-15
301 303 -0.0521333
302 303 0.052125
303 303 1000
324 303 -0.999948
351 303 -5.21306e-05
300 304 -0.0521333
304 304 1000
305 304 5.2125e-05
324 304 -1
351 304 -5.21306e-05
300 305 -1.0005e-12
304 305 -1.0005e-12
305 305 1000
324 305 -1.0005e-15
326 305 -1
351 305 -1.0005e-15
306 306 1000.35
307 306 -0.000698484
312 306 0.000349123
326 306 -0.999651
306 307 -0.349483
307 307 1000.7
312 307 -0.000349118
326 307 -0.000349117
328 307 -0.999302
308 308 2000
309 308 -0.5
312 308 -0.5
308 309 -1000
309 309 500
310 309 -7.50171e-08
311 309 -1.01925e-11
312 309 -1
309 310 -3.90678e-08
310 310 1000
311 310 -3.90678e-11
312 310 -3.90678e-11
324 310 -1
309 311 -3.74746e-05
310 311 3.74304e-05
311 311 1000
312 311 -3.74746e-08
324 311 3.74304e-08
353 311 -1
306 312 -2.55246e-08
307 312 -0.00023891
308 312 -1000
309 312 -500
310 312 -3.75086e-05
311 312 -5.09627e-09
312 312 0.000303745
324 312 -0.123487
326 312 -0.000358601
328 312 -0.785998
353 312 -1.67781e-05
313 313 1.43282
316 313 -0.00296512
314 314 0.01
319 314 -2.4023e-10
315 315 0.0100102
319 315 -0.99898
313 316 -0.00424848
316 316 100.004
319 316 -0.999958
317 317 0.391556
319 317 -0.969963
353 317 -0.0300374
318 318 0.379795
319 318 -1.01623e-11
353 318 -1
314 319 -2.4023e-12
315 319 -0.01
316 319 -100
317 319 -0.379795
318 319 -3.85959e-12
319 319 1000.02
323 319 -0.999984
351 319 -4.99992e-07
353 319 -1.14079e-05
320 320 2000
321 320 -0.5
325 320 -0.5
320 321 -1000
321 321 500.061
322 321 -0.000121793
323 321 -1.6548e-08
325 321 -0.999878
321 322 -0.00847231
322 322 1000.02
323 322 -8.47216e-06
324 322 -0.999983
325 322 -8.47113e-06
319 323 -1000
321 323 -0.0524401
322 323 0.0439531
323 323 0.0245175
324 323 1.79269
325 323 -2.1386
351 323 -0.0203932
353 323 -0.465294
302 324 -1000
303 324 -1000
304 324 -1000
305 324 0.052125
310 324 -1000
311 324 -3.90678e-08
312 324 -3.90678e-08
322 324 -1000
323 324 -0.00847216
324 324 0.0842502
325 324 -0.315604
326 324 0.618693
328 324 -3.64476e-07
351 324 -1.23957
353 324 -0.0467902
297 325 -1.12027e-05
298 325 -0.104858
299 325 -0.104847
320 325 -1000
321 325 -500
322 325 -0.0608967
323 325 -8.78993e-06
324 325 -0.0608799
325 325 0.0941155
326 325 -0.156885
328 325 -2.35747e-07
351 325 -0.801532
353 325 -0.0303104
275 326 -1000
276 326 -0.20809
277 326 -0.208046
281 326 -2.54416e-05
283 326 -2.54415e-05
284 326 2.53029e-05
297 326 -1000
298 326 2.04267e-07
299 326 2.04246e-07
305 326 -1000
306 326 -1000
307 326 -0.698484
312 326 0.348879
324 326 0.0430819
325 326 -0.0388404
326 326 0.37074
327 326 6.82496e-05
328 326 -1.14306
351 326 0.0599359
353 326 0.00227761
243 327 -1000
244 327 -0.000222222
261 327 -0.00229752
264 327 -1000
267 327 -1000
268 327 -7.08897e-05
269 327 -7.08897e-05
284 327 -1000
326 327 -3.95186e-15
327 327 0.00206352
328 327 -0.260457
350 327 0.850234
351 327 0.0342957
353 327 4.36186e-15
253 328 -1000
254 328 -1.00005e-12
258 328 -1000
259 328 -1.01706e-22
260 328 0.00333093
261 328 -0.00192413
287 328 -1000
288 328 -1.00007e-12
293 328 -1.00007e-12
295 328 -1.00007e-12
296 328 -9.80901e-13
299 328 -1.33273e-16
307 328 -1000
312 328 -0.349118
324 328 -0.0431114
325 328 -0.0136062
326 328 -0.324705
327 328 -0.000192076
328 328 0.0572983
350 328 0.0295297
351 328 -0.783223
353 328 -0.0295979
329 329 100
332 329 -1e-14
336 329 -1
330 330 0.01
336 330 -1.00082e-10
348 330 -1
331 331 1
336 331 -1
348 331 -1.18986e-12
329 332 -1e-12
332 332 0.335796
336 332 -2.97801e-12
348 332 -1
333 333 21.9246
334 333 -4.4787e-05
335 333 -0.00481913
333 334 -0.0326097
334 334 0.0885401
335 334 0.0910965
349 334 -0.724584
333 335 -0.0740297
334 335 -0.0234082
335 335 4.16095
336 335 -0.976157
349 335 -0.00407628
329 336 -100
330 336 -1.00082e-12
331 336 -1
332 336 -1e-12
335 336 -4.06174
336 336 0.0973468
348 336 -3.27764e-11
349 336 -0.170081
350 336 -0.00513627
337 337 1
338 337 100000
363 337 -100000
338 338 1
347 338 -1
339 339 17.8891
347 339 -7.56776e-09
352 339 -1
340 340 -0.0104327
341 340 0.492083
345 340 -390.819
346 340 389.327
340 341 21.8267
341 341 -10.7407
345 341 -794.205
346 341 791.174
352 341 2.03134
342 342 0.459995
343 342 -0.00856996
344 342 -0.0422018
348 342 -0.949228
342 343 -0.0232999
343 343 0.0378807
344 343 0.48506
346 343 -0.901204
348 343 -0.583856
342 344 -5.48788e-05
343 344 -4.70309e-07
344 344 5.16094
346 344 -8.21254e-08
347 344 -0.99999
348 344 -1.01468e-05
340 345 0.00161933
341 345 0.0435969
345 345 35.2509
346 345 -0.996377
348 345 -0.00111117
352 345 -0.00251228
337 346 -1
338 346 100000
339 346 -1.3538e-07
344 346 -5.16089
346 346 -0.00250042
347 346 -3.99932e+07
348 346 0.0209431
349 346 0.533243
352 346 5.4143e-05
363 346 3.99932e+07
343 347 -0.0341383
344 347 0.0165591
345 347 -4.06174
346 347 0.0205894
347 347 823436
348 347 -3.02102e-08
349 347 -1.33333e-08
352 347 -1.23936e-08
363 347 -1
330 348 -0.01
331 348 -1.18986e-12
332 348 -0.335796
336 348 -3.19068e-12
341 348 -0.0391698
342 348 -0.43664
343 348 -0.00374199
344 348 -0.0166119
345 348 -31.1088
346 348 -0.00938978
347 348 -375528
348 348 0.0159385
349 348 -2.71747e-08
350 348 -1.02821e-12
352 348 -0.360171
363 348 0
334 349 -0.0641547
335 349 0.00584427
336 349 0.00570493
347 349 -0.00133333
348 349 -4.00933e-11
349 349 0.0200967
350 349 0.00145805
351 349 -0.00497594
352 349 -1.54081e-09
363 349 -0.0663459
249 350 -0.0454545
261 350 -1.65453e-06
262 350 -1000
263 350 -1.40235e-16
264 350 -1.03213e-12
269 350 -0.037037
327 350 -1.93848e-07
328 350 -4.37532e-07
336 350 -0.0005
348 350 -1.63882e-14
349 350 -8.50403e-05
350 350 0.000541784
351 350 -0.132241
352 350 -2.52746e-10
353 350 -2.39026e-05
363 350 -0.0104139
225 351 -1e-12
226 351 -1000
227 351 -1000
228 351 -0.0030303
229 351 -0.0030303
230 351 -0.00273968
240 351 0.00891266
265 351 -0.0666667
266 351 -0.0666622
267 351 -1.00041e-12
268 351 -1.00041e-12
269 351 -1.00041e-12
278 351 -1000
279 351 -0.00640223
280 351 -6.83999e-07
281 351 -0.00640292
282 351 -1000
283 351 -0.00640356
284 351 -3.35594e-05
296 351 -1000
299 351 -1.00042e-12
300 351 -1000
301 351 -1000
302 351 -0.052125
303 351 -5.56891e-06
304 351 -5.56891e-06
305 351 -0.052125
319 351 -0.0005
323 351 -0.000499992
324 351 -0.0512398
325 351 -0.0172408
326 351 -0.0231534
327 351 -3.19792e-05
328 351 -0.0264741
349 351 -0.0001
350 351 0.000809108
351 351 0.181205
352 351 -2.2893e-09
353 351 -0.0214319
354 351 0
355 351 -3.93484e-32
363 351 9.88586e-06
233 352 -0.125
238 352 3.05176e-09
239 352 3.05176e-09
339 352 -17.8891
340 352 -21.8179
341 352 10.7362
345 352 -0.0809887
346 352 -0.00920328
347 352 -368069
348 352 -0.0135167
349 352 -1.98689e-10
350 352 2.75801e-13
351 352 -9.52193e-13
352 352 0.0118642
353 352 -1.71952e-12
354 352 2.57225e-07
355 352 -3.18936e-42
363 352 -1.11085e-09
204 353 -0.0001
205 353 -4.52262e-08
206 353 -4.48531e-08
208 353 -4.48531e-08
212 353 -4.48531e-08
216 353 -4.48512e-08
311 353 -1000
312 353 -3.74746e-05
317 353 -0.0117613
318 353 -0.379795
319 353 -0.011408
323 353 -0.0114079
324 353 0.0204836
325 353 -0.0179322
326 353 -0.0154863
327 353 1.05694e-06
328 353 -0.017731
350 353 0.000522693
351 353 -0.00210512
352 353 -4.68715e-12
353 353 0.00595629
354 353 2.02417e-16
355 353 -1.39069e-32
363 353 0.000917361
215 354 -691.489
219 354 1
220 354 1
230 354 1
240 354 -3.25318
351 354 0.00891266
352 354 1.51455e-07
353 354 0.000191015
354 354 -1
355 354 -2.6029e-30
363 354 2.63339e-07
214 355 1
215 355 -7047.87
216 355 1
355 355 -1
190 356 -0.0172414
201 356 -0.016911
210 356 23.8995
354 356 -8e-31
355 356 7.81786e-06
356 356 -0.0401614
358 356 0.000191903
363 356 -5.24563e-36
181 357 23.8995
200 357 -0.0172414
201 357 -7.71065e-06
355 357 -7.70709e-06
357 357 -0.0401614
358 357 -0.000196329
359 357 1.99196e-29
185 358 1
186 358 -7047.87
187 358 1
358 358 -1
151 359 1
152 359 1
162 359 1
172 359 -3.25318
186 359 -691.489
358 359 2.60254e-30
359 359 -1
361 359 -0.00891266
362 359 -1.51435e-07
110 360 -1000
111 360 -0.0130792
116 360 -0.0117315
117 360 -0.379795
118 360 -0.01138
122 360 -0.0113798
123 360 0.0205654
124 360 -0.0178558
125 360 -0.0155222
126 360 1.97458e-06
127 360 -0.0542571
148 360 0.00055349
175 360 -0.0001
176 360 -4.52262e-08
177 360 -4.48531e-08
179 360 -4.48531e-08
183 360 -4.48531e-08
187 360 -4.48512e-08
360 360 0.00597255
361 360 -0.317804
362 360 9.60572e-13
385 360 0.000965097
64 361 -0.0666667
65 361 -0.0666622
66 361 -1.00041e-12
67 361 -1.00041e-12
68 361 -1.00041e-12
77 361 -1000
78 361 -0.00640232
79 361 -6.84008e-07
80 361 -0.006403
81 361 -1000
82 361 -0.00640364
83 361 -3.34755e-05
95 361 -1000
98 361 -1.00042e-12
99 361 -1000
100 361 -1000
101 361 -0.0521263
102 361 -5.56905e-06
103 361 -5.56905e-06
104 361 -0.0521263
118 361 -0.0005
122 361 -0.000499992
123 361 -0.0512407
124 361 -0.0172369
125 361 -0.0231495
126 361 -3.05307e-05
127 361 -0.0806318
147 361 -0.0001
148 361 0.000851144
157 361 -1e-12
158 361 -1000
159 361 -1000
160 361 -0.0030303
161 361 -0.0030303
162 361 -0.00273968
172 361 0.00891266
358 361 -7.13013e-33
359 361 0
360 361 -0.00385933
361 361 0.18054
362 361 -2.29793e-09
385 361 3.29783e-05
136 362 -17.8891
137 362 -21.8179
138 362 -9.01731e-05
139 362 -0.00873356
143 362 -0.00870192
144 362 0.00594158
146 362 -0.0129204
147 362 -4.39842e-13
148 362 -1.26415e-14
165 362 -0.125
170 362 3.05176e-09
171 362 3.05176e-09
359 362 3.05176e-09
360 362 -3.53272e-19
361 362 2.71955e-11
362 362 0.0123297
385 362 -0.188728
38 363 1
363 363 -1
364 363 0.12
365 363 -1
36 364 -100000
338 364 -100000
347 364 -100000
348 364 -0.00302102
349 364 -0.00133333
350 364 1.94407e-06
351 364 -6.3775e-06
352 364 -0.00232744
353 364 -1.36636e-07
354 364 5.98677e-10
355 364 -2.51287e-37
363 364 -8.84408e-05
364 364 -0.999989
365 364 0.00633851
381 364 3.33337e-05
35 365 -1
365 365 1
380 365 -465.116
381 365 -1
366 366 26.9179
367 366 -2.59972e-09
366 367 -6.99791e-08
367 367 100000
375 367 -1
384 367 -5e-09
368 368 100000
375 368 -1
383 368 -1.18e-35
369 369 1
380 369 -2325.58
383 369 -1
370 370 1
373 370 -3635.14
371 371 1
374 371 -1
371 372 0.714286
372 372 1
374 372 0.714286
375 372 -0.714286
372 373 -1
373 373 1
374 373 100001
375 373 -0.71461
376 373 -100000
369 374 -1
374 374 1
380 374 -2325.58
383 374 -1
367 375 -100000
368 375 -100000
371 375 -0.714286
374 375 -0.71461
375 375 0.71875
380 375 -2312.19
383 375 -0.994242
384 375 -0.000695652
365 376 -2e-31
374 376 -100000
376 376 100000
380 376 -2325.58
381 376 -2e-36
383 376 -1
11 377 -2e-31
17 377 -2e-31
19 377 -18.1818
22 377 -1
33 377 1
34 377 0.00133929
377 377 0.00133919
378 377 -746.722
379 377 -1.14995e-28
381 377 -0.0574359
382 377 -4.41172e-08
384 377 -2.99172e-10
20 378 -100000
21 378 -100000
34 378 -7.69231e-05
36 378 -1.18e-30
37 378 -1
39 378 -1
363 378 -0.00628333
364 378 1.00075
365 378 -0.00637624
376 378 -2e-31
377 378 -7.69174e-05
378 378 0.942564
379 378 -9.38411e-33
380 378 -3.14641
381 378 0.2082
382 378 -3.60042e-12
383 378 -1.06094e-08
384 378 -2.44155e-14
14 379 -100000
368 379 -1.18e-30
370 379 -1
373 379 -1
374 379 100001
375 379 -0.714612
376 379 -100000
379 379 1
380 379 -1.88281
381 379 -1e-08
382 379 -2.46305e-06
383 379 100000
384 379 -100000
380 380 1
18 381 -1
377 381 -1
378 381 -746.722
379 381 -1.22002e-28
380 381 -2659.57
381 381 156.41
382 381 -2.9925e-10
383 381 -5.06505e-08
384 381 -2.0293e-12
13 382 -1.2987
14 382 -1.18e-30
17 382 -1.29931
23 382 -100000
30 382 -8.89759
31 382 -5.81108e-11
32 382 -5.81108e-11
34 382 -5.81108e-11
377 382 -5.81065e-11
378 382 -4.33894e-08
379 382 -1.00047
380 382 -1.88369
381 382 -9.74339e-10
382 382 -0.00165647
383 382 -6.03976e+07
384 382 6.03976e+07
16 383 -1
17 383 -1
377 383 -1.54e-31
378 383 -1.14995e-28
379 383 -0.77
380 383 -1706.88
381 383 -7.7e-09
382 383 -1.00047
383 383 -6.03489e+07
384 383 -1
27 384 -0.01
28 384 -0.0005
29 384 -0.00045847
30 384 -2.10661e-11
31 384 -4.47094e-13
32 384 -4.47094e-13
34 384 -4.47094e-13
367 384 -0.0005
375 384 -0.0005
377 384 -4.47061e-13
378 384 -3.3383e-10
379 384 -5.45427e-41
380 384 -1.15609
381 384 6.94777e-11
382 384 -2.10661e-11
383 384 -100000
384 384 0.0078125
8 385 -100000
9 385 12000
10 385 -8.33511
145 385 1
146 385 -0.00302093
147 385 -0.00133333
148 385 1.94404e-06
360 385 5.43271e-11
361 385 -6.37718e-06
362 385 -0.002327
385 385 8.33825
424 385 -464.942
425 385 -0.999628
386 386 26.9179
387 386 -2.59972e-09
386 387 -6.99791e-08
387 387 100000
395 387 -1
428 387 -5e-09
388 388 100000
395 388 -1
427 388 -1.18e-35
389 389 1
424 389 -2325.58
427 389 -1
390 390 1
393 390 -3635.14
391 391 1
394 391 -1
391 392 0.714286
392 392 1
394 392 0.714286
395 392 -0.714286
392 393 -1
393 393 1
394 393 100001
395 393 -0.71461
396 393 -100000
389 394 -1
394 394 1
424 394 -2325.58
427 394 -1
387 395 -100000
388 395 -100000
391 395 -0.714286
394 395 -0.71461
395 395 0.71875
424 395 -2312.19
427 395 -0.994242
428 395 -0.000695652
10 396 -2e-31
394 396 -100000
396 396 100000
424 396 -2325.58
425 396 -2e-36
427 396 -1
397 397 100000
403 397 -1
421 397 -2e-36
398 398 1
399 398 1.2987
426 398 -1.2987
399 399 1
403 399 -1
400 400 100000
426 400 -1.18e-35
427 400 -1
401 401 1
423 401 -3635.14
402 402 1
403 402 -1
424 402 -1705.43
397 403 -100000
398 403 -1
399 403 1.2987
401 403 -1
403 403 1.2987
421 403 -1.54e-31
423 403 -0.77
426 403 -1.00047
404 404 1
421 404 -1
424 404 -310.078
405 405 18.1818
419 405 0.055
421 405 -1
406 406 100000
425 406 -0.999998
407 407 100000
420 407 -1.18e-35
425 407 -1
408 408 1
422 408 -3635.14
409 409 100009
416 409 -8.89759e-05
426 409 -0.999911
410 410 1
410 411 4
411 411 1
412 411 -4
410 412 -4
412 412 8
413 412 -0.5
412 413 -4
413 413 2.01
428 413 -0.00497512
414 414 0.126415
415 414 -0.91694
428 414 -0.00395524
414 415 -0.115915
415 415 0.00962787
416 415 -4.59486e-08
417 415 -9.75186e-10
428 415 -0.047619
409 416 -8.89838
415 416 -4.43362e-10
416 416 8.89759
417 416 -6.53107e-12
426 416 -1
428 416 -2.37283e-12
415 417 -8.41421e-12
416 417 -5.90855e-11
417 417 31.7901
418 417 -1
426 417 -1.85861e-12
428 417 -1.26038e-14
417 418 -31.7901
418 418 100000
420 418 -1
426 418 -5.90855e-16
428 418 -4.00676e-18
407 419 -1.18e-30
418 419 -100000
419 419 -1
420 419 -0.015625
421 419 0.0142857
425 419 7.69231e-05
426 419 5.90855e-11
428 419 4.00676e-13
405 420 1
419 420 -0.055
420 420 -1.00086
421 420 -0.999926
425 420 -4.22714e-06
426 420 -3.24691e-12
428 420 -2.20183e-14
397 421 -2e-31
403 421 -2e-31
405 421 -18.1818
408 421 -1
419 421 1
420 421 0.00133929
421 421 0.00133951
422 421 -746.539
423 421 -1.14967e-28
425 421 -0.0574219
426 421 -4.41064e-08
428 421 -2.99099e-10
4 422 -1.18e-30
5 422 -1
7 422 -1
8 422 -0.00628333
9 422 1.00075
10 422 8.33889
385 422 -8.33892
396 422 -2e-31
406 422 -100000
407 422 -100000
420 422 -7.69231e-05
421 422 -7.69174e-05
422 422 0.942578
423 422 -9.38168e-33
424 422 1.52938
425 422 0.218249
426 422 -3.59949e-12
427 422 -1.06092e-08
428 422 -2.44092e-14
388 423 -1.18e-30
390 423 -1
393 423 -1
394 423 100001
395 423 -0.714612
396 423 -100000
400 423 -100000
423 423 1
424 423 2.90962
425 423 -1e-08
426 423 -2.46305e-06
427 423 100000
428 423 -100000
424 424 1
404 425 -1
421 425 -1
422 425 -746.539
423 425 -1.21971e-28
424 425 831.666
425 425 163.874
426 425 -2.85545e-10
427 425 -4.83308e-08
428 425 -1.93637e-12
399 426 -1.2987
400 426 -1.18e-30
403 426 -1.29931
409 426 -100000
416 426 -8.89759
417 426 -5.81108e-11
418 426 -5.81108e-11
420 426 -5.81108e-11
421 426 -5.81065e-11
422 426 -4.33788e-08
423 426 -1.00047
424 426 2.91098
425 426 -5.40606e-10
426 426 -0.00165647
427 426 -6.03976e+07
428 426 6.03976e+07
402 427 -1
403 427 -1
421 427 -1.54e-31
422 427 -1.14967e-28
423 427 -0.77
424 427 -1703.19
425 427 -7.7e-09
426 427 -1.00047
427 427 -6.03489e+07
428 427 -1
387 428 -0.0005
395 428 -0.0005
413 428 -0.01
414 428 -0.0005
415 428 -0.00045847
416 428 -2.10661e-11
417 428 -4.47094e-13
418 428 -4.47094e-13
420 428 -4.47094e-13
421 428 -4.47061e-13
422 428 -3.33748e-10
423 428 -5.45273e-41
424 428 -1.15609
425 428 7.28147e-11
426 428 -2.10661e-11
427 428 -100000
428 428 0.0078125
429 429 1
430 430 1
