%%MatrixMarket matrix coordinate real general
1813 1813 14639
1 1 1
1 2 1e-06
2 2 1
3 3 1
3 4 1e-06
4 4 1
5 5 1
6 6 1.00055e-06
9 6 -0.00054393
29 6 -0
7 7 1.00079e-06
8 7 -0.000791386
29 7 -0
7 8 -5.71292e-10
8 8 1.00207e-06
9 8 -0.00149274
29 8 0
6 9 -3.22439e-10
8 9 -8.31558e-10
9 9 1.00262e-06
29 9 0
30 9 -0.00146041
10 10 0.00316089
17 10 -0.499842
10 11 -1.92127e-12
11 11 0.000664973
17 11 1.50052e-09
30 11 -0
1813 11 -0.998496
12 12 0.00230983
17 12 8.77661e-33
27 12 -8.72661e-26
1813 12 -8.65891e-10
13 13 0.00158095
16 13 1.42785e-09
1813 13 -1.74748e-09
14 14 0.00230983
15 14 8.77661e-33
28 14 -8.72661e-26
1813 14 -8.65891e-10
14 15 7.39313e-35
15 15 0.00384937
16 15 3.94457e-11
28 15 -0.277576
29 15 1.09243e-10
1813 15 -6.28821e-10
12 16 7.49789e-13
14 16 7.49789e-13
15 16 -8.31858e-13
16 16 0.000639615
17 16 -1.30056e-09
27 16 1.29687e-09
28 16 9.35863e-10
29 16 1.42077e-19
1813 16 -0.998437
10 17 -0.00157995
11 17 1.57068e-13
12 17 2.21807e-34
16 17 1.51841e-13
17 17 0.00185972
27 17 -0.574547
28 17 -7.64108e-20
29 17 -1.16002e-29
30 17 0
1813 17 -1.53191e-09
18 18 0.00230983
21 18 -1.43952e-10
19 19 0.00588063
1813 19 -1.70264e-10
20 20 0.00201978
21 20 -0.499752
1813 20 -0.499752
18 21 -4.06129e-15
20 21 -0.00100939
21 21 0.000505945
26 21 -3.47286e-11
1813 21 -0.997036
22 22 0.00125781
26 22 -2.68935e-11
1813 22 -0.999205
23 23 0.00230983
25 23 -1.43952e-10
24 24 0.00201978
25 24 -0.499752
1813 24 -0.499752
23 25 -4.06129e-15
24 25 -0.00100939
25 25 0.00118572
26 25 -0.573302
1813 25 -0.425433
19 26 6.68999e-13
21 26 -1.75707e-14
22 26 -3.38267e-14
25 26 -0.000679777
26 26 0.000291059
1813 26 -0.99361
12 27 -2.0157e-28
16 27 -1.93547e-13
17 27 -0.00106849
18 27 -2.60878e-13
20 27 -1.15179e-12
21 27 8.37056e-13
26 27 2.90698e-23
27 27 0.000455594
28 27 2.18373e-19
29 27 3.31521e-29
30 27 0
1813 27 -7.83837e-09
14 28 -2.0157e-28
15 28 -0.00106849
16 28 -1.514e-13
17 28 -1.96905e-22
23 28 -2.60878e-13
24 28 -2.87771e-12
25 28 1.70044e-12
26 28 9.74869e-13
27 28 8.32149e-23
28 28 0.000772905
29 28 1.51022e-10
30 28 0
1813 28 -3.32399e-09
6 29 -0
7 29 -0
8 29 0
9 29 0
10 29 1.92127e-12
15 29 1.45861e-12
16 29 -5.7536e-23
17 29 9.97195e-13
27 29 5.72935e-13
28 29 4.04876e-13
29 29 0.000630738
30 29 0
1813 29 -0.998415
9 30 -2.63932e-11
11 30 -0
17 30 0
27 30 0
28 30 0
29 30 0
30 30 0.000270407
1813 30 -0.996302
31 31 0.00461866
34 31 -0.499892
32 32 0.00606005
1813 32 -0.999835
33 33 0.00101039
34 33 -5.92566e-11
1813 33 -0.99901
31 34 -0.00230883
33 34 -1.76532e-16
34 34 0.00115566
39 34 -1.65304e-11
1813 34 -1.73076e-09
35 35 0.010091
39 35 -4.70517e-12
1813 35 -1.9822e-10
36 36 0.00461866
38 36 -0.499892
37 37 0.00101039
38 37 -5.92566e-11
1813 37 -0.99901
36 38 -0.00230883
37 38 -1.76532e-16
38 38 0.00247801
39 38 -0.533631
1813 38 -8.07172e-10
32 39 1.32819e-12
34 39 -1.91036e-14
35 39 -4.74796e-14
38 39 -0.00132234
39 39 0.000617699
1813 39 -5.34525e-09
40 40 0.00103187
41 40 1.25756e-11
49 40 -0.658782
1813 40 -0.340249
40 41 -1.17031e-12
41 41 0.00278088
46 41 -5.46019e-11
49 41 1.37602e-10
1799 41 2.01624e-10
1813 41 -1.06403e-09
42 42 0.000229782
46 42 1.65834e-09
1813 42 -0.995648
43 43 0.00316089
45 43 -0.499842
44 44 0.00103187
45 44 1.25756e-11
48 44 -0.658782
1813 44 -0.340249
43 45 -0.00157995
44 45 -1.17031e-12
45 45 0.000791223
46 45 -1.91907e-10
47 45 1.98522e-10
48 45 4.83623e-10
1813 45 -4.49375e-09
40 46 2.09654e-12
41 46 -1.32142e-13
44 46 2.09654e-12
45 46 -1.32142e-13
46 46 0.00404042
47 46 6.49266e-21
48 46 3.26638e-10
49 46 3.26638e-10
1799 46 6.59412e-21
1813 46 -8.03068e-10
43 47 -1.15303e-12
45 47 6.13562e-13
46 47 1.17747e-22
47 47 0.000664973
48 47 -4.46233e-19
49 47 -5.78378e-29
1790 47 -0
1799 47 -1.16745e-39
1813 47 -0.998496
31 48 -7.34351e-13
33 48 -4.48778e-14
34 48 4.12133e-13
39 48 6.81274e-24
44 48 -0.000679777
45 48 -1.08437e-14
46 48 -2.36142e-15
47 48 2.15272e-24
48 48 0.000232953
49 48 3.3111e-21
1790 48 0
1799 48 6.68441e-32
1813 48 -0.992879
36 49 -1.83569e-12
37 49 -4.48778e-14
38 49 9.62922e-13
39 49 5.13846e-13
40 49 -0.000679777
41 49 -1.08437e-14
46 49 -2.36142e-15
47 49 1.53319e-35
48 49 7.71329e-25
49 49 0.000232953
1790 49 0
1799 49 9.38544e-21
1813 49 -0.992879
50 50 0.00530206
1792 50 -1.18945e-10
51 51 0.000434078
1792 51 -7.53112e-26
1794 51 7.53112e-26
1813 51 -0.997696
52 52 0.00158095
1792 52 2.03132e-10
1801 52 -2.03132e-10
1813 52 -6.32578e-10
53 53 0.00278088
54 53 5.68319e-18
78 53 1.03907e-32
1805 53 -5.68319e-18
1813 53 -3.59625e-10
54 54 0.00278088
78 54 -0.99964
1794 54 1.33997e-09
1805 54 -8.89483e-12
1813 54 -1.75512e-09
55 55 0.00489816
59 55 -0.269967
56 56 0.00290329
59 56 -0.455463
57 57 1e-06
59 57 -3.84575e-08
1813 57 -3.11841e-06
58 58 1e-06
59 58 -3.82167e-08
1813 58 -2.05475e-06
55 59 -0.00132234
56 59 -0.00132234
57 59 -1.13048e-16
58 59 -1.12347e-16
59 59 0.00168642
65 59 1.66894e-09
1813 59 -2.56153e-09
60 60 0.00807984
154 60 -0.499938
61 61 0.000352093
62 61 2.08314e-09
1813 61 -0.99716
62 62 0.00430315
63 62 -7.72967e-11
1813 62 -4.64802e-10
60 63 -1.06043e-12
62 63 -4.29973e-14
63 63 0.000845528
65 63 -0.998817
154 63 7.71832e-10
1813 63 -2.56036e-09
64 64 0.00404042
66 64 1.78894e-32
67 64 7.94819e-11
78 64 -7.94819e-11
1813 64 -2.47525e-10
63 65 -0.000844528
64 65 3.8021e-13
65 65 0.000846526
66 65 -2.13536e-09
67 65 -4.35464e-11
78 65 2.17891e-09
154 65 7.7001e-10
1813 65 -0.997639
62 66 -2.60878e-13
63 66 1.42028e-12
65 66 2.59198e-13
66 66 0.00556076
67 66 2.02978e-21
78 66 -0.49991
154 66 -2.33027e-19
1813 66 -3.13187e-10
62 67 2.9173e-14
63 67 -2.9173e-14
65 67 -2.91385e-14
66 67 -6.22213e-23
67 67 0.000845528
78 67 -6.40883e-11
154 67 5.31663e-20
1813 67 -0.998817
68 68 0.00230983
69 68 1.39032e-10
70 68 -9.30386e-11
71 68 9.30386e-11
73 68 -1.39032e-10
1813 68 -4.32959e-10
66 69 2.56727e-12
67 69 -5.211e-33
69 69 0.000352093
70 69 4.42377e-11
71 69 -2.36894e-08
73 69 -1.4201e-11
78 69 3.64507e-09
154 69 1.6991e-27
1813 69 -0.99716
67 70 1.48234e-12
69 70 3.17408e-12
70 70 0.00278088
71 70 -9.86038e-11
73 70 -0.99964
78 70 -4.1263e-18
154 70 -2.83402e-29
1813 70 -2.48011e-10
69 71 -4.58004e-10
70 71 -3.40389e-15
71 71 1.00067e-06
73 71 -3.4004e-09
74 71 -3.40164e-09
77 71 -0.000206187
78 71 1.66834e-12
154 71 7.77675e-31
1813 71 -0.000456398
71 72 2.14903e-13
72 72 0.00230983
73 72 -9.30387e-11
74 72 -9.30387e-11
77 72 9.30578e-11
78 72 -1.5522e-22
154 72 -7.21935e-41
1813 72 -4.32916e-10
69 73 -4.09329e-13
70 73 -0.00277988
71 73 -2.74106e-13
73 73 0.00278188
74 73 -0.999281
77 73 -9.85887e-11
78 73 -3.58683e-18
154 73 -2.83199e-29
1813 73 -3.94601e-10
71 74 -2.74205e-13
73 74 -0.00277988
74 74 0.00278288
76 74 -0.998923
77 74 -9.85028e-11
78 74 -3.5828e-18
154 74 -2.82893e-29
1806 74 -1.47089e-10
1813 74 -3.94221e-10
74 75 3.65013e-13
75 75 0.000352093
76 75 -1.11702e-12
77 75 -1.14009e-06
78 75 3.71427e-27
154 75 2.93279e-38
1806 75 1.14009e-06
1813 75 -0.99716
74 76 -0.00277988
76 76 0.00404342
77 76 -1.35537e-10
78 76 -2.4632e-18
154 76 -1.94491e-29
1806 76 -1.01124e-10
1813 76 -5.18381e-10
71 77 -2.06325e-10
73 77 -3.40461e-15
74 77 -3.40287e-15
76 77 -6.80311e-15
77 77 1.00067e-06
78 77 3.4399e-16
154 77 1.60022e-34
1806 77 -0.000457698
1813 77 -9.41035e-08
54 78 -0.00277988
66 78 -0.00277988
67 78 -4.09474e-13
78 78 0.00139219
154 78 -4.653e-19
1794 78 2.67561e-09
1805 78 -1.77609e-11
1813 78 -6.57859e-09
79 79 0.00278088
80 79 5.68319e-18
104 79 1.03907e-32
1805 79 -5.68319e-18
1813 79 -3.59625e-10
80 80 0.00278088
104 80 -0.99964
1798 80 1.33997e-09
1805 80 -8.89483e-12
1813 80 -1.75512e-09
81 81 0.00807984
1801 81 -0.499938
82 82 0.00290329
86 82 -0.455463
83 83 0.00489816
86 83 -0.269967
84 84 1e-06
86 84 -3.82167e-08
1813 84 -2.05475e-06
85 85 1e-06
86 85 -3.84575e-08
1813 85 -3.11841e-06
82 86 -0.00132234
83 86 -0.00132234
84 86 -1.12347e-16
85 86 -1.13048e-16
86 86 0.00168642
91 86 1.66894e-09
1813 86 -2.56153e-09
87 87 0.000352093
88 87 2.08314e-09
1813 87 -0.99716
88 88 0.00430315
89 88 -7.72967e-11
1813 88 -4.64802e-10
81 89 -1.06043e-12
88 89 -4.29973e-14
89 89 0.000845528
91 89 -0.998817
1801 89 7.71832e-10
1813 89 -2.56036e-09
90 90 0.00404042
92 90 7.94819e-11
93 90 1.78894e-32
104 90 -7.94819e-11
1813 90 -2.47525e-10
89 91 -0.000844528
90 91 3.8021e-13
91 91 0.000846526
92 91 -4.35464e-11
93 91 -2.13536e-09
104 91 2.17891e-09
1801 91 7.7001e-10
1813 91 -0.997639
88 92 2.9173e-14
89 92 -2.9173e-14
91 92 -2.91385e-14
92 92 0.000845528
93 92 -7.35888e-20
104 92 -6.40883e-11
1801 92 5.31663e-20
1813 92 -0.998817
88 93 -2.60878e-13
89 93 1.42028e-12
91 93 2.59198e-13
92 93 1.12871e-23
93 93 0.00556076
104 93 -0.49991
1801 93 -2.33027e-19
1813 93 -3.13187e-10
94 94 0.00230983
95 94 -9.30386e-11
96 94 1.39032e-10
97 94 9.30386e-11
99 94 -1.39032e-10
1813 94 -4.32959e-10
92 95 1.48234e-12
93 95 1.09084e-31
95 95 0.00278088
96 95 1.1414e-09
97 95 -9.86038e-11
99 95 -0.99964
104 95 3.41622e-20
1801 95 -2.83402e-29
1813 95 -1.38616e-09
93 96 2.56727e-12
95 96 1.55758e-14
96 96 0.000352093
97 96 -2.36894e-08
99 96 3.00208e-11
104 96 3.64507e-09
1801 96 1.6991e-27
1813 96 -0.99716
95 97 -3.40391e-15
96 97 -4.58004e-10
97 97 1.00067e-06
99 97 -3.4004e-09
100 97 -0.000206187
103 97 -3.40164e-09
104 97 1.66834e-12
1801 97 7.77675e-31
1813 97 -0.000456398
97 98 2.14903e-13
98 98 0.00230983
99 98 -9.30387e-11
100 98 9.30578e-11
103 98 -9.30387e-11
104 98 -1.5522e-22
1801 98 -7.21935e-41
1813 98 -4.32916e-10
95 99 -0.00277988
96 99 2.76361e-12
97 99 -2.74107e-13
99 99 0.00278188
100 99 -9.85887e-11
103 99 -0.999281
104 99 -3.58683e-18
1801 99 -2.83199e-29
1813 99 -3.94601e-10
97 100 -2.06325e-10
99 100 -3.40461e-15
100 100 1.00067e-06
102 100 -3.40164e-09
103 100 -3.4006e-09
104 100 3.4399e-16
1801 100 1.6025e-34
1806 100 -0.000457698
1813 100 -9.41035e-08
100 101 -4.01419e-10
101 101 0.000352093
102 101 -1.0367e-09
103 101 1.03669e-09
104 101 3.92181e-22
1801 101 1.83075e-40
1806 101 1.13957e-06
1813 101 -0.99716
100 102 -2.74205e-13
102 102 0.0068203
103 102 -0.407589
104 102 1.38299e-26
1801 102 0
1806 102 -1.84014e-14
1813 102 -1.46642e-10
97 103 -2.74205e-13
99 103 -0.00277988
100 103 -2.74121e-13
102 103 -0.00277988
103 103 0.00164983
104 103 -6.04335e-18
1801 103 -4.77175e-29
1806 103 -2.48211e-10
1813 103 -9.12043e-10
80 104 -0.00277988
92 104 -4.09474e-13
93 104 -0.00277988
104 104 0.00139219
1798 104 2.67561e-09
1801 104 -4.653e-19
1805 104 -1.77609e-11
1813 104 -6.57859e-09
105 105 1.00059e-06
110 105 -0.000585057
1799 105 -0
106 106 1.00098e-06
109 106 -0.000972139
1799 106 -0
107 107 1.00117e-06
108 107 -0.00116349
1799 107 -0
107 108 -9.45262e-10
108 108 1.00409e-06
109 108 -0.00313232
1799 108 0
106 109 -7.52966e-10
108 109 -2.48472e-09
109 109 1.00599e-06
110 109 -0.00274399
1799 109 0
105 110 -3.63816e-10
109 110 -1.3275e-09
110 110 1.00394e-06
1790 110 -0.00223496
1799 110 0
111 111 0.00530206
1807 111 -1.18945e-10
112 112 0.000434078
153 112 7.53112e-26
1807 112 -7.53112e-26
1813 112 -0.997696
113 113 0.00158095
154 113 -2.03132e-10
1807 113 2.03132e-10
1813 113 -6.32578e-10
114 114 0.00330474
116 114 -0.999697
1797 114 -1.43331e-10
115 115 0.00230944
152 115 -0.999567
1797 115 -1.36608e-10
114 116 -0.00330374
116 116 0.00530223
152 116 -0.999623
1797 116 -8.93077e-11
117 117 0.0017881
120 117 -0.999441
1797 117 -1.34732e-10
118 118 1e-06
119 118 -2.07967e-08
1797 118 -2.0393e-07
118 119 -2.29047e-14
119 119 1e-06
120 119 -1.65452e-07
1797 119 -4.67094e-15
117 120 -0.0017871
119 120 -1.57327e-13
120 120 0.00530223
152 120 -0.999623
1797 120 -4.54112e-11
121 121 1e-06
1804 121 -5.95533e-08
122 122 0.000434078
151 122 8.66655e-11
1804 122 -8.66655e-11
1813 122 -0.997696
123 123 0.000434078
1796 123 -1.75147e-09
1804 123 1.75147e-09
1813 123 -0.997696
124 124 1
124 125 -1.58043e-20
125 125 0.00278088
126 125 5.68319e-18
138 125 1.03907e-32
1813 125 -3.59625e-10
124 126 -2.47354e-14
126 126 0.00278088
138 126 -0.99964
153 126 1.33997e-09
1813 126 -1.75512e-09
127 127 0.00807984
151 127 -0.499938
128 128 0.00489816
132 128 -0.269967
129 129 0.00290329
132 129 -0.455463
130 130 1e-06
132 130 -3.84575e-08
1813 130 -3.11841e-06
131 131 1e-06
132 131 -3.82167e-08
1813 131 -2.05475e-06
128 132 -0.00132234
129 132 -0.00132234
130 132 -1.13048e-16
131 132 -1.12347e-16
132 132 0.00168642
137 132 1.66894e-09
1813 132 -2.56153e-09
133 133 0.000352093
134 133 2.08314e-09
1813 133 -0.99716
134 134 0.00430315
135 134 -7.72967e-11
1813 134 -4.64802e-10
127 135 -1.0227e-12
134 135 -4.29973e-14
135 135 0.000845528
137 135 -0.998817
151 135 7.49516e-10
1813 135 -2.56036e-09
136 136 0.00404042
138 136 -7.94819e-11
139 136 7.94819e-11
140 136 1.78894e-32
1813 136 -2.47525e-10
135 137 -0.000844528
136 137 3.8021e-13
137 137 0.000846526
138 137 2.17891e-09
139 137 -4.35464e-11
140 137 -2.13536e-09
151 137 7.47746e-10
1813 137 -0.997639
126 138 -0.00277988
138 138 0.00278188
139 138 -1.47193e-10
140 138 -0.999281
153 138 1.33901e-09
1813 138 -2.83227e-09
134 139 2.9173e-14
135 139 -2.9173e-14
137 139 -2.91385e-14
138 139 -5.41884e-14
139 139 0.000845528
140 139 -6.40422e-11
151 139 5.16291e-20
153 139 8.58147e-20
1813 139 -0.998817
134 140 -2.60878e-13
135 140 1.42028e-12
137 140 2.59198e-13
138 140 -0.00277988
139 140 -4.0918e-13
140 140 0.00278288
151 140 -4.52171e-19
153 140 1.33756e-09
1813 140 -3.60189e-09
139 141 1.48234e-12
140 141 9.49326e-23
141 141 0.00278088
143 141 1.1414e-09
144 141 -9.86038e-11
146 141 -0.99964
151 141 -2.75208e-29
153 141 -9.14047e-29
1813 141 -1.38616e-09
141 142 -2.14903e-13
142 142 0.00230983
143 142 1.39032e-10
144 142 9.30386e-11
146 142 -2.32037e-10
151 142 -2.56075e-39
153 142 -8.50427e-39
1813 142 -4.32959e-10
140 143 2.56727e-12
141 143 1.55758e-14
143 143 0.000352093
144 143 -2.36894e-08
146 143 3.00208e-11
151 143 3.29698e-27
153 143 -9.75278e-18
1813 143 -0.99716
141 144 -3.40391e-15
143 144 -4.58004e-10
144 144 1.00067e-06
146 144 -3.4004e-09
147 144 -0.000206187
150 144 -3.40164e-09
151 144 1.50902e-30
153 144 -4.46383e-21
1813 144 -0.000456398
144 145 2.14903e-13
145 145 0.00230983
146 145 -9.30387e-11
147 145 9.30578e-11
150 145 -9.30387e-11
151 145 -1.4014e-40
153 145 4.15309e-31
1813 145 -4.32916e-10
141 146 -0.00277988
143 146 2.76361e-12
144 146 -2.74107e-13
146 146 0.00278188
147 146 -9.85887e-11
150 146 -0.999281
151 146 -2.7501e-29
153 146 9.59696e-27
1813 146 -3.94601e-10
144 147 -2.06325e-10
146 147 -3.40461e-15
147 147 1.00067e-06
148 147 -3.40164e-09
150 147 -3.4006e-09
151 147 3.11047e-34
153 147 -9.20385e-25
1806 147 -0.000457698
1813 147 -9.41035e-08
147 148 -2.74205e-13
148 148 0.0068203
150 148 -0.407589
151 148 0
153 148 -3.70034e-35
1806 148 -1.84014e-14
1813 148 -1.46642e-10
147 149 -4.01419e-10
148 149 -3.65014e-13
149 149 0.000352093
150 149 6.14144e-10
151 149 3.54212e-40
153 149 -1.04932e-30
1806 149 1.13957e-06
1813 149 -0.99716
144 150 -2.74205e-13
146 150 -0.00277988
147 150 -2.74121e-13
148 150 -0.00277988
150 150 0.00164983
151 150 -4.63378e-29
153 150 1.61696e-26
1806 150 -2.48211e-10
1813 150 -9.12043e-10
118 151 -1.60044e-13
119 151 -3.20582e-15
120 151 3.20581e-15
121 151 7.84852e-20
123 151 7.78198e-13
127 151 -0.00403942
151 151 0.00480084
152 151 6.67509e-13
1796 151 2.83907e-19
1797 151 3.33367e-11
1804 151 -0.57904
1813 151 -5.88624e-10
115 152 -0.00230844
116 152 -0.00530023
120 152 -0.00530023
152 152 5.99632e-06
1797 152 -1.71671e-07
107 153 -1.95496e-10
108 153 -3.93042e-10
109 153 5.87079e-10
110 153 1.61094e-12
111 153 1.36461e-15
113 153 4.02792e-13
117 153 3.17032e-16
120 153 -3.1085e-16
152 153 -6.00335e-20
153 153 0.00189614
154 153 1.94411e-11
1790 153 1.8988e-12
1797 153 9.64716e-24
1799 153 0
1807 153 -0.445392
1813 153 -0.554081
60 154 -0.00403942
107 154 -0
108 154 -0
109 154 0
110 154 0
111 154 -4.94722e-13
112 154 7.78198e-13
117 154 -1.89048e-13
120 154 -1.88943e-13
152 154 -1.88871e-13
153 154 -1.74108e-12
154 154 0.00202096
1790 154 1.63584e-21
1797 154 9.35437e-11
1799 154 0
1807 154 5.19984e-10
1813 154 -1.87564e-09
155 155 0.00807984
1248 155 -0.499938
156 156 1.00059e-06
157 156 -0.000585676
1813 156 -1.99896e-06
156 157 -3.43116e-10
157 157 1.00084e-06
158 157 -0.000490711
1813 157 -1.99901e-06
157 158 -3.46566e-12
158 158 0.00122117
1018 158 -0
1492 158 0
1813 158 -8.18892e-10
159 159 0.00106949
1017 159 4.2492e-10
1813 159 -1.35999e-09
160 160 0.00106949
1492 160 3.91579e-10
1813 160 -1.32664e-09
161 161 0.00285116
163 161 -0.499825
162 162 1e-06
163 162 -1.08707e-07
1813 162 -3.14203e-06
161 163 -0.00142508
162 163 -3.20543e-16
163 163 0.00213887
165 163 1.02771e-09
1017 163 2.51007e-10
1813 163 -1.70502e-09
164 164 0.000434078
165 164 -1.74143e-26
1492 164 1.74143e-26
1813 164 -0.997696
165 165 0.00107269
1492 165 -0.595338
1813 165 -0.40373
166 166 1.00025e-06
167 166 -0.000246164
1813 166 -1.99957e-06
166 167 -1.72251e-12
167 167 0.00122117
1247 167 0
1800 167 -0
1813 167 -8.18889e-10
168 168 0.00193171
169 168 -2.8008e-11
1813 168 -0.999482
168 169 -5.40339e-14
169 169 1e-06
170 169 -5.52566e-08
1813 169 -2.16216e-06
169 170 -5.24358e-14
170 170 1e-06
171 170 -1.17009e-07
1813 170 -2.10395e-06
166 171 -2.10716e-10
167 171 2.10664e-10
170 171 -3.45757e-16
171 171 0.00427624
1018 171 -0
1247 171 0
1800 171 0
1813 171 -2.33949e-10
157 172 -4.20724e-10
158 172 4.20518e-10
164 172 9.23197e-13
165 172 9.43655e-14
168 172 1.53522e-18
169 172 4.29983e-29
170 172 2.37594e-36
171 172 6.00771e-22
172 172 0.00178841
1018 172 0
1247 172 0
1492 172 -2.1352e-11
1800 172 0
1813 172 -3.59972e-10
173 173 0.00903813
1803 173 1.55939e-10
1813 173 -1.73045e-10
174 174 0.00760768
183 174 -0.344749
175 175 1e-06
183 175 -8.17051e-08
1813 175 -2.1118e-06
176 176 1e-06
177 176 -4.47323e-08
1813 176 -2.06363e-06
176 177 -1.31703e-16
177 177 0.00233973
182 177 2.00168e-12
1813 177 -4.27401e-10
178 178 0.000735312
184 178 5.8608e-10
1813 178 -1.94612e-09
179 179 1e-06
182 179 -9.94759e-08
184 179 -9.14689e-07
180 180 1e-06
182 180 -9.34597e-08
184 180 -1.66061e-06
180 181 4.15218e-14
181 181 0.00278088
182 181 -1.49312e-11
184 181 2.47948e-17
1813 181 -3.59625e-10
179 182 -1.42785e-13
180 182 -1.46061e-13
182 182 1e-06
184 182 -3.73152e-13
174 183 -0.00262274
175 183 -2.41283e-16
179 183 3.41841e-14
180 183 -6.52134e-13
182 183 -3.41842e-14
183 183 0.00171955
184 183 3.79246e-10
1813 183 -1.16318e-09
173 184 3.72063e-13
178 184 5.01787e-13
179 184 -1.12047e-14
180 184 -2.03569e-14
182 184 -3.01715e-21
184 184 0.000636864
1802 184 1.87838e-09
1803 184 -9.11013e-20
1813 184 -0.99843
185 185 0.00285116
187 185 -0.499825
186 186 1e-06
187 186 -1.08707e-07
1813 186 -3.14203e-06
185 187 -0.00142508
186 187 -3.20543e-16
187 187 0.00213887
381 187 2.94298e-10
1018 187 1.07722e-09
1813 187 -1.79782e-09
188 188 0.00290329
192 188 -0.455463
189 189 0.00489816
192 189 -0.269967
190 190 1e-06
192 190 -3.82167e-08
1813 190 -2.05475e-06
191 191 1e-06
192 191 -3.84575e-08
1813 191 -3.11841e-06
188 192 -0.00132234
189 192 -0.00132234
190 192 -1.12347e-16
191 192 -1.13048e-16
192 192 0.00168642
197 192 1.66894e-09
1813 192 -2.56153e-09
193 193 0.000352093
194 193 2.08314e-09
1813 193 -0.99716
194 194 0.00430315
195 194 -7.72967e-11
1813 194 -4.64802e-10
194 195 -4.29973e-14
195 195 0.000845528
197 195 -0.998817
240 195 8.75528e-10
1813 195 -2.47118e-09
196 196 0.00404042
198 196 -7.9482e-11
199 196 7.16194e-33
200 196 7.9482e-11
1813 196 -2.47525e-10
195 197 -0.000844528
196 197 3.8021e-13
197 197 0.000846526
198 197 8.98429e-10
199 197 -8.54883e-10
200 197 -4.35464e-11
240 197 8.73461e-10
1813 197 -0.997639
198 198 0.00278088
199 198 -0.99964
200 198 -1.47246e-10
379 198 1.33997e-09
1813 198 -1.75512e-09
194 199 -2.60878e-13
195 199 1.42028e-12
197 199 2.59198e-13
198 199 -0.00277988
199 199 0.00278188
200 199 -1.4714e-10
240 199 -5.28382e-19
379 199 1.33901e-09
1813 199 -2.3799e-09
194 200 2.9173e-14
195 200 -2.9173e-14
197 200 -2.91385e-14
198 200 -5.41884e-14
199 200 -5.4169e-14
200 200 0.000845528
240 200 6.03092e-20
379 200 1.7166e-19
1813 200 -0.998817
199 201 1.48331e-12
200 201 2.18254e-22
201 201 0.000352093
203 201 4.42377e-11
204 201 -1.4201e-11
206 201 -2.36894e-08
240 201 2.22598e-27
379 201 -5.641e-18
1813 201 -0.99716
201 202 3.21141e-13
202 202 0.00230983
203 202 -9.30386e-11
204 202 -1.39032e-10
206 202 9.30387e-11
240 202 -3.09483e-37
379 202 7.84281e-28
1813 202 -2.94321e-10
200 203 1.48234e-12
201 203 3.17408e-12
203 203 0.00278088
204 203 -0.99964
206 203 -9.86038e-11
240 203 -3.21477e-29
379 203 6.34711e-27
1813 203 -2.48011e-10
201 204 -4.09329e-13
203 204 -0.00277988
204 204 0.00278188
206 204 -9.85329e-11
207 204 -9.85683e-11
210 204 -0.999281
240 204 -3.21246e-29
379 204 5.51252e-27
1813 204 -3.94556e-10
204 205 -2.14903e-13
205 205 0.00230983
206 205 9.30387e-11
207 205 9.30387e-11
210 205 -1.8601e-10
240 205 -2.98905e-39
379 205 5.12878e-37
1813 205 -4.32959e-10
201 206 -4.58004e-10
203 206 -3.40389e-15
204 206 -3.40267e-15
206 206 1.00067e-06
207 206 -0.000206187
210 206 -6.7996e-09
240 206 1.01883e-30
379 206 -2.58188e-21
1813 206 -0.000456398
204 207 -3.40391e-15
206 207 -2.06325e-10
207 207 1.00067e-06
209 207 -3.40164e-09
210 207 -3.4006e-09
240 207 2.09961e-34
379 207 -5.3235e-25
1806 207 -0.000457698
1813 207 -9.41035e-08
207 208 -4.01419e-10
208 208 0.000352093
209 208 -1.0367e-09
210 208 1.03669e-09
240 208 2.38794e-40
379 208 -6.06928e-31
1806 208 1.13957e-06
1813 208 -0.99716
207 209 -2.74205e-13
209 209 0.0068203
210 209 -0.407589
240 209 0
379 209 -2.14027e-35
1806 209 -1.84014e-14
1813 209 -1.46642e-10
204 210 -0.00277988
206 210 -5.48115e-13
207 210 -2.74121e-13
209 210 -0.00277988
210 210 0.00164983
240 210 -5.41284e-29
379 210 9.28746e-27
1806 210 -2.48211e-10
1813 210 -9.12043e-10
211 211 0.00530206
378 211 -1.18945e-10
212 212 0.00158095
240 212 -2.03132e-10
378 212 2.03132e-10
1813 212 -6.32578e-10
213 213 0.000434078
216 213 7.53112e-26
378 213 -7.53112e-26
1813 213 -0.997696
214 214 0.00158069
215 214 -0.999367
381 214 -1.35875e-10
214 215 -0.00157969
215 215 0.00530229
380 215 -0.999623
381 215 -4.04806e-11
211 216 1.36461e-15
212 216 4.02792e-13
214 216 2.80031e-16
215 216 -1.98854e-16
216 216 0.00189614
240 216 1.94411e-11
378 216 -0.445392
380 216 -5.38848e-17
381 216 1.58213e-23
1813 216 -0.554081
217 217 0.00290329
221 217 -0.455463
218 218 0.00489816
221 218 -0.269967
219 219 1e-06
221 219 -3.82167e-08
1813 219 -2.05475e-06
220 220 1e-06
221 220 -3.84575e-08
1813 220 -3.11841e-06
217 221 -0.00132234
218 221 -0.00132234
219 221 -1.12347e-16
220 221 -1.13048e-16
221 221 0.00168642
226 221 1.66894e-09
1813 221 -2.56153e-09
222 222 0.000352093
223 222 2.08314e-09
1813 222 -0.99716
223 223 0.00430315
224 223 -7.72967e-11
1813 223 -4.64802e-10
223 224 -4.29973e-14
224 224 0.000845528
226 224 -0.998817
1015 224 8.75528e-10
1813 224 -2.47118e-09
225 225 0.00404042
227 225 7.16194e-33
228 225 7.9482e-11
239 225 -7.9482e-11
1813 225 -2.47525e-10
224 226 -0.000844528
225 226 3.8021e-13
226 226 0.000846526
227 226 -8.54883e-10
228 226 -4.35464e-11
239 226 8.98429e-10
1015 226 8.73461e-10
1813 226 -0.997639
223 227 -2.60878e-13
224 227 1.42028e-12
226 227 2.59198e-13
227 227 0.00556076
228 227 2.02978e-21
239 227 -0.49991
1015 227 -2.64334e-19
1813 227 -3.13187e-10
223 228 2.9173e-14
224 228 -2.9173e-14
226 228 -2.91385e-14
227 228 -2.491e-23
228 228 0.000845528
239 228 -6.40883e-11
1015 228 6.03092e-20
1813 228 -0.998817
229 229 0.00230983
230 229 1.39032e-10
231 229 -9.30386e-11
232 229 -1.39032e-10
234 229 9.30386e-11
1813 229 -4.32959e-10
227 230 1.48331e-12
228 230 -3.01079e-33
230 230 0.000352093
231 230 4.42377e-11
232 230 -1.4201e-11
234 230 -2.36894e-08
239 230 2.10603e-09
1015 230 1.11359e-27
1813 230 -0.99716
228 231 1.48234e-12
230 231 3.17408e-12
231 231 0.00278088
232 231 -0.99964
234 231 -9.86038e-11
239 231 -2.36965e-18
1015 231 -3.21477e-29
1813 231 -2.48011e-10
230 232 -4.09329e-13
231 232 -0.00277988
232 232 0.00278188
234 232 -9.85329e-11
235 232 -9.85683e-11
238 232 -0.999281
239 232 -2.05807e-18
1015 232 -3.21246e-29
1813 232 -3.94556e-10
232 233 -2.14903e-13
233 233 0.00230983
234 233 9.30387e-11
235 233 9.30387e-11
238 233 -1.8601e-10
239 233 -1.9148e-28
1015 233 -2.98905e-39
1813 233 -4.32959e-10
230 234 -4.58004e-10
231 234 -3.40389e-15
232 234 -3.40267e-15
234 234 1.00067e-06
235 234 -0.000206187
238 234 -6.7996e-09
239 234 9.63928e-13
1015 234 5.09688e-31
1813 234 -0.000456398
232 235 -3.40391e-15
234 235 -2.06325e-10
235 235 1.00067e-06
237 235 -3.40164e-09
238 235 -3.4006e-09
239 235 1.9875e-16
1015 235 1.04982e-34
1806 235 -0.000457698
1813 235 -9.41035e-08
235 236 -4.01419e-10
236 236 0.000352093
237 236 -1.0367e-09
238 236 1.03669e-09
239 236 2.26593e-22
1015 236 1.19398e-40
1806 236 1.13957e-06
1813 236 -0.99716
235 237 -2.74205e-13
237 237 0.0068203
238 237 -0.407589
239 237 7.99058e-27
1015 237 0
1806 237 -1.84014e-14
1813 237 -1.46642e-10
232 238 -0.00277988
234 238 -5.48115e-13
235 238 -2.74121e-13
237 238 -0.00277988
238 238 0.00164983
239 238 -3.46742e-18
1015 238 -5.41284e-29
1806 238 -2.48211e-10
1813 238 -9.12043e-10
216 239 3.7263e-12
227 239 -0.00277988
228 239 -4.09474e-13
239 239 0.00139119
240 239 -5.20729e-20
378 239 1.19298e-09
380 239 1.4433e-25
381 239 -4.23773e-32
1015 239 -5.28192e-19
1813 239 -2.94405e-09
211 240 -4.94722e-13
213 240 7.78198e-13
214 240 -1.68531e-13
215 240 -1.68424e-13
216 240 -1.74108e-12
240 240 0.00640673
378 240 1.64026e-10
380 240 -2.62788e-11
381 240 2.63053e-11
1813 240 -4.3545e-10
241 241 0.00178812
380 241 -0.999441
381 241 -1.35285e-10
242 242 0.00230947
245 242 -0.999567
381 242 -1.37168e-10
243 243 0.00330478
244 243 -0.999697
381 243 -1.43919e-10
243 244 -0.00330378
244 244 0.00530229
245 244 -0.999623
381 244 -8.96739e-11
242 245 -0.00230847
244 245 -0.00530029
245 245 0.00530429
380 245 -0.999246
381 245 -1.49303e-10
246 246 0.00290329
250 246 -0.455463
247 247 0.00489816
250 247 -0.269967
248 248 1e-06
250 248 -3.82167e-08
1813 248 -2.05475e-06
249 249 1e-06
250 249 -3.84575e-08
1813 249 -3.11841e-06
246 250 -0.00132234
247 250 -0.00132234
248 250 -1.12347e-16
249 250 -1.13048e-16
250 250 0.00168642
255 250 1.66894e-09
1813 250 -2.56153e-09
251 251 0.000352093
252 251 2.08314e-09
1813 251 -0.99716
252 252 0.00430315
253 252 -7.72967e-11
1813 252 -4.64802e-10
252 253 -4.29973e-14
253 253 0.000845528
255 253 -0.998817
374 253 8.75528e-10
1813 253 -2.47118e-09
254 254 0.00404042
256 254 -7.9482e-11
257 254 7.16194e-33
258 254 7.9482e-11
1813 254 -2.47525e-10
253 255 -0.000844528
254 255 3.8021e-13
255 255 0.000846526
256 255 8.98429e-10
257 255 -8.54883e-10
258 255 -4.35464e-11
374 255 8.73461e-10
1813 255 -0.997639
256 256 0.00278088
257 256 -0.99964
258 256 -1.47246e-10
376 256 1.33997e-09
1813 256 -1.75512e-09
252 257 -2.60878e-13
253 257 1.42028e-12
255 257 2.59198e-13
256 257 -0.00277988
257 257 0.00278188
258 257 -1.4714e-10
374 257 -5.28382e-19
376 257 1.33901e-09
1813 257 -2.3799e-09
252 258 2.9173e-14
253 258 -2.9173e-14
255 258 -2.91385e-14
256 258 -5.41884e-14
257 258 -5.4169e-14
258 258 0.000845528
374 258 6.03092e-20
376 258 1.7166e-19
1813 258 -0.998817
259 259 0.00230983
260 259 1.39032e-10
261 259 -9.30386e-11
262 259 -1.39032e-10
264 259 9.30386e-11
1813 259 -4.32959e-10
257 260 1.48331e-12
258 260 2.18254e-22
260 260 0.000352093
261 260 4.42377e-11
262 260 -1.4201e-11
264 260 -2.36894e-08
374 260 2.22598e-27
376 260 -5.641e-18
1813 260 -0.99716
258 261 1.48234e-12
260 261 3.17408e-12
261 261 0.00278088
262 261 -0.99964
264 261 -9.86038e-11
374 261 -3.21477e-29
376 261 6.34711e-27
1813 261 -2.48011e-10
260 262 -4.09329e-13
261 262 -0.00277988
262 262 0.00278188
264 262 -9.85329e-11
265 262 -9.85683e-11
268 262 -0.999281
374 262 -3.21246e-29
376 262 5.51252e-27
1813 262 -3.94556e-10
262 263 -2.14903e-13
263 263 0.00230983
264 263 9.30387e-11
265 263 9.30387e-11
268 263 -1.8601e-10
374 263 -2.98905e-39
376 263 5.12878e-37
1813 263 -4.32959e-10
260 264 -4.58004e-10
261 264 -3.40389e-15
262 264 -3.40267e-15
264 264 1.00067e-06
265 264 -0.000206187
268 264 -6.7996e-09
374 264 1.01883e-30
376 264 -2.58188e-21
1813 264 -0.000456398
262 265 -3.40391e-15
264 265 -2.06325e-10
265 265 1.00067e-06
267 265 -3.40164e-09
268 265 -3.4006e-09
374 265 2.09961e-34
376 265 -5.3235e-25
1806 265 -0.000457698
1813 265 -9.41035e-08
265 266 -4.01419e-10
266 266 0.000352093
267 266 -1.0367e-09
268 266 1.03669e-09
374 266 2.38794e-40
376 266 -6.06928e-31
1806 266 1.13957e-06
1813 266 -0.99716
265 267 -2.74205e-13
267 267 0.0068203
268 267 -0.407589
374 267 0
376 267 -2.14027e-35
1806 267 -1.84014e-14
1813 267 -1.46642e-10
262 268 -0.00277988
264 268 -5.48115e-13
265 268 -2.74121e-13
267 268 -0.00277988
268 268 0.00164983
374 268 -5.41284e-29
376 268 9.28746e-27
1806 268 -2.48211e-10
1813 268 -9.12043e-10
269 269 0.00290329
273 269 -0.455463
270 270 0.00489816
273 270 -0.269967
271 271 1e-06
273 271 -3.82167e-08
1813 271 -2.05475e-06
272 272 1e-06
273 272 -3.84575e-08
1813 272 -3.11841e-06
269 273 -0.00132234
270 273 -0.00132234
271 273 -1.12347e-16
272 273 -1.13048e-16
273 273 0.00168642
278 273 1.66894e-09
1813 273 -2.56153e-09
274 274 0.000352093
275 274 2.08314e-09
1813 274 -0.99716
275 275 0.00430315
276 275 -7.72967e-11
1813 275 -4.64802e-10
275 276 -4.29973e-14
276 276 0.000845528
278 276 -0.998817
377 276 8.75528e-10
1813 276 -2.47118e-09
277 277 0.00404042
279 277 -7.9482e-11
280 277 7.16194e-33
281 277 7.9482e-11
1813 277 -2.47525e-10
276 278 -0.000844528
277 278 3.8021e-13
278 278 0.000846526
279 278 8.98429e-10
280 278 -8.54883e-10
281 278 -4.35464e-11
377 278 8.73461e-10
1813 278 -0.997639
279 279 0.00278088
280 279 -0.99964
281 279 -1.47246e-10
375 279 1.33997e-09
1813 279 -1.75512e-09
275 280 -2.60878e-13
276 280 1.42028e-12
278 280 2.59198e-13
279 280 -0.00277988
280 280 0.00278188
281 280 -1.4714e-10
375 280 1.33901e-09
377 280 -5.28382e-19
1813 280 -2.3799e-09
275 281 2.9173e-14
276 281 -2.9173e-14
278 281 -2.91385e-14
279 281 -5.41884e-14
280 281 -5.4169e-14
281 281 0.000845528
375 281 1.7166e-19
377 281 6.03092e-20
1813 281 -0.998817
282 282 0.00230983
283 282 1.39032e-10
284 282 -9.30386e-11
285 282 -1.39032e-10
287 282 9.30386e-11
1813 282 -4.32959e-10
280 283 1.48331e-12
281 283 2.18254e-22
283 283 0.000352093
284 283 4.42377e-11
285 283 -1.4201e-11
287 283 -2.36894e-08
375 283 -5.641e-18
377 283 2.22598e-27
1813 283 -0.99716
281 284 1.48234e-12
283 284 3.17408e-12
284 284 0.00278088
285 284 -0.99964
287 284 -9.86038e-11
375 284 6.34711e-27
377 284 -3.21477e-29
1813 284 -2.48011e-10
283 285 -4.09329e-13
284 285 -0.00277988
285 285 0.00278188
287 285 -9.85329e-11
288 285 -0.999281
291 285 -9.85683e-11
375 285 5.51252e-27
377 285 -3.21246e-29
1813 285 -3.94556e-10
285 286 -2.14903e-13
286 286 0.00230983
287 286 9.30387e-11
288 286 -1.8601e-10
291 286 9.30387e-11
375 286 5.12878e-37
377 286 -2.98905e-39
1813 286 -4.32959e-10
283 287 -4.58004e-10
284 287 -3.40389e-15
285 287 -3.40267e-15
287 287 1.00067e-06
288 287 -6.7996e-09
291 287 -0.000206187
375 287 -2.58188e-21
377 287 1.01883e-30
1813 287 -0.000456398
285 288 -0.00277988
287 288 -5.48115e-13
288 288 0.00278288
290 288 -0.998923
291 288 -9.85028e-11
375 288 5.50608e-27
377 288 -3.209e-29
1806 288 -1.47089e-10
1813 288 -3.9422e-10
288 289 3.65013e-13
289 289 0.000352093
290 289 -1.11702e-12
291 289 -1.14009e-06
375 289 -5.70812e-36
377 289 3.3268e-38
1806 289 1.14009e-06
1813 289 -0.99716
288 290 -0.00277988
290 290 0.00404342
291 290 -1.35537e-10
375 290 3.78547e-27
377 290 -2.20621e-29
1806 290 -1.01124e-10
1813 290 -5.18381e-10
285 291 -3.40391e-15
287 291 -2.06325e-10
288 291 -3.40287e-15
290 291 -6.80311e-15
291 291 1.00067e-06
375 291 -5.3235e-25
377 291 2.09701e-34
1806 291 -0.000457698
1813 291 -9.41035e-08
292 292 0.00530206
372 292 -1.18945e-10
293 293 0.000434078
372 293 -7.53112e-26
379 293 7.53112e-26
1813 293 -0.997696
294 294 0.00158095
372 294 2.03132e-10
374 294 -2.03132e-10
1813 294 -6.32578e-10
295 295 0.00530206
350 295 -1.18945e-10
296 296 0.000434078
350 296 -7.53112e-26
376 296 7.53112e-26
1813 296 -0.997696
297 297 0.00158095
350 297 2.03132e-10
377 297 -2.03132e-10
1813 297 -6.32578e-10
298 298 0.00956453
1813 298 -2.09341e-10
298 299 1.25987e-12
299 299 0.000680777
300 299 -3.23598e-11
301 299 -0.998531
1813 299 -3.8418e-09
299 300 -2.20298e-14
300 300 0.000680777
301 300 -3.23123e-11
1813 300 -0.998531
299 301 -0.000679777
300 301 -2.19975e-14
301 301 0.000681776
1813 301 -0.997069
302 302 0.00158095
308 302 1.42785e-09
1813 302 -1.74748e-09
303 303 0.00230983
304 303 8.7766e-33
309 303 -8.72661e-26
1813 303 -8.65891e-10
303 304 7.39312e-35
304 304 0.00384937
308 304 3.94457e-11
309 304 -0.277576
315 304 7.28263e-11
1813 304 -5.92404e-10
305 305 0.00316089
307 305 -0.499842
306 306 0.00230983
307 306 8.77661e-33
310 306 -8.72661e-26
1813 306 -8.65891e-10
305 307 -0.00157995
306 307 2.21807e-34
307 307 0.00185972
308 307 8.16474e-11
310 307 -0.574547
316 307 1.03243e-09
1813 307 -2.64574e-09
303 308 7.49789e-13
304 308 -8.31858e-13
306 308 7.49789e-13
307 308 -8.31858e-13
308 308 0.000639615
309 308 9.35863e-10
310 308 5.49636e-10
315 308 9.47149e-20
316 308 1.34274e-18
1813 308 -0.998437
301 309 2.87295e-12
303 309 -2.0157e-28
304 309 -0.00106849
308 309 -1.514e-13
309 309 0.000772905
310 309 1.07665e-19
315 309 1.00678e-10
316 309 2.63021e-28
1813 309 -2.92416e-09
300 310 1.70401e-12
301 310 5.50603e-23
306 310 -2.0157e-28
307 310 -0.00106849
308 310 -1.06308e-13
309 310 9.94895e-23
310 310 0.000455594
315 310 1.15326e-31
316 310 2.42133e-09
1813 310 -9.66459e-09
311 311 1.00055e-06
314 311 -0.00054393
315 311 -0
312 312 1.00079e-06
313 312 -0.000791386
315 312 -0
312 313 -5.71292e-10
313 313 1.00207e-06
314 313 -0.00149274
315 313 0
311 314 -3.22439e-10
313 314 -8.31558e-10
314 314 1.00262e-06
315 314 0
316 314 -0.00146041
304 315 1.45861e-12
305 315 1.92127e-12
307 315 9.97195e-13
308 315 -1.38954e-22
309 315 4.04876e-13
310 315 5.72935e-13
311 315 -0
312 315 -0
313 315 0
314 315 0
315 315 0.000630738
316 315 -3.83171e-18
1813 315 -0.998415
305 316 -1.92127e-12
307 316 9.97802e-13
308 316 -8.1468e-23
309 316 7.62429e-32
310 316 5.73284e-13
314 316 -2.63932e-11
315 316 -2.66247e-44
316 316 0.000664973
1813 316 -0.998496
317 317 1.00024e-06
321 317 -0.000116677
819 317 -0.000116677
318 318 0.010091
319 318 -0
819 318 2.92611e-11
1813 318 -1.28374e-10
319 319 1.00068e-06
320 319 -0.000680607
819 319 -0
319 320 -3.4241e-10
320 320 1.00092e-06
321 320 -0.000573145
819 320 0
317 321 -2.17016e-12
320 321 -1.05001e-11
321 321 0.000270407
819 321 -9.36399e-13
1813 321 -0.996302
322 322 0.00530206
349 322 -1.18945e-10
323 323 0.00158095
349 323 2.03132e-10
817 323 -2.03132e-10
1813 323 -6.32578e-10
324 324 0.000434078
349 324 -7.53112e-26
375 324 7.53112e-26
1813 324 -0.997696
325 325 0.00956453
1813 325 -2.09341e-10
325 326 1.25987e-12
326 326 0.000680777
327 326 -7.82188e-11
329 326 -0.998531
1813 326 -3.8418e-09
326 327 -3.3265e-13
327 327 0.00430315
329 327 -7.71902e-11
1813 327 -4.64802e-10
328 328 0.00230983
329 328 1.24439e-09
1813 328 -1.44683e-09
326 329 -0.000679777
327 329 -5.31714e-14
329 329 0.000681776
1813 329 -0.997069
327 330 7.33494e-13
328 330 3.82692e-13
329 330 -4.19599e-22
330 330 0.000639615
1813 330 -0.998437
330 331 1.08339e-12
331 331 0.00158095
1813 331 -3.20705e-10
332 332 0.00158095
341 332 1.42785e-09
1813 332 -1.74748e-09
333 333 0.00230983
340 333 -8.72661e-26
347 333 8.77661e-33
1813 333 -8.65891e-10
334 334 0.00230983
339 334 -8.72661e-26
348 334 8.7766e-33
1813 334 -8.65891e-10
335 335 0.00956453
1813 335 -2.09341e-10
335 336 1.25987e-12
336 336 0.000680777
337 336 -3.23598e-11
338 336 -0.998531
1813 336 -3.8418e-09
336 337 -2.20298e-14
337 337 0.000680777
338 337 -3.23123e-11
1813 337 -0.998531
336 338 -0.000679777
337 338 -2.19975e-14
338 338 0.000681776
1813 338 -0.997069
334 339 -2.0157e-28
338 339 2.87295e-12
339 339 0.00106949
341 339 -1.80971e-10
348 339 -0.999065
1813 339 -1.38005e-09
333 340 -2.0157e-28
337 340 1.70401e-12
338 340 5.50603e-23
340 340 0.00106949
341 340 -1.80971e-10
347 340 -0.999065
1813 340 -1.37452e-09
333 341 7.49789e-13
334 341 7.49789e-13
339 341 8.29496e-13
340 341 8.29496e-13
341 341 0.000639615
347 341 -4.90447e-12
348 341 -4.90456e-12
1813 341 -0.998437
342 342 0.00316089
347 342 -0.499842
343 343 1.00046e-06
344 343 -0.000456811
346 343 -0
343 344 -2.34755e-10
344 344 1.00092e-06
345 344 -0.000679127
346 344 0
342 345 -1.92127e-12
344 345 -1.22897e-11
345 345 0.000419157
346 345 0
347 345 2.3805e-09
1813 345 -0.997614
342 346 1.92127e-12
343 346 -0
344 346 0
345 346 0
346 346 0.000384921
347 346 2.59064e-09
348 346 3.78938e-09
1813 346 -0.997402
333 347 2.21807e-34
340 347 -0.00106849
341 347 -4.15254e-14
342 347 -0.00157995
345 347 1.6816e-12
346 347 0
347 347 0.000792222
348 347 -2.57079e-22
1813 347 -5.69844e-09
334 348 7.39312e-35
339 348 -0.00106849
341 348 -4.15254e-14
346 348 2.29914e-13
347 348 -5.95829e-22
348 348 0.00278188
1813 348 -1.26414e-09
317 349 -1.02315e-10
321 349 -1.19378e-14
322 349 -7.70349e-15
331 349 3.96112e-13
349 349 0.000845528
375 349 -0.998817
817 349 -6.40883e-11
819 349 1.20993e-07
1813 349 -2.44942e-09
295 350 -7.70349e-15
317 350 -1.02315e-10
321 350 1.02303e-10
332 350 3.96112e-13
341 350 -5.65588e-22
347 350 -2.77391e-33
348 350 -2.77396e-33
350 350 0.000845528
376 350 -0.998817
377 350 -6.40883e-11
819 350 -1.41187e-11
1813 350 1.1811e-07
351 351 1.00098e-06
354 351 -0.000972139
370 351 -0
352 352 1.00117e-06
353 352 -0.00116349
370 352 -0
352 353 -9.45262e-10
353 353 1.00409e-06
354 353 -0.00313233
370 353 0
351 354 -7.52965e-10
353 354 -2.48472e-09
354 354 1.00599e-06
370 354 0
371 354 -0.00274399
355 355 1.00059e-06
370 355 -0
371 355 -0.000585057
356 356 0.00158095
368 356 1.42785e-09
1813 356 -1.74748e-09
357 357 0.00316089
359 357 -0.499842
358 358 0.00230983
359 358 8.77661e-33
367 358 -8.72661e-26
1813 358 -8.65891e-10
357 359 -0.00157995
358 359 2.21807e-34
359 359 0.00185972
367 359 -0.574547
368 359 8.16474e-11
369 359 1.49262e-09
1813 359 -3.10593e-09
360 360 0.00230983
361 360 8.77661e-33
366 360 -8.72661e-26
1813 360 -8.65891e-10
360 361 7.39313e-35
361 361 0.00384937
366 361 -0.277576
368 361 3.94457e-11
370 361 1.09239e-10
1813 361 -6.28817e-10
362 362 0.00956453
1813 362 -2.09341e-10
362 363 1.25987e-12
363 363 0.000680777
364 363 -3.23598e-11
365 363 -0.998531
1813 363 -3.8418e-09
363 364 -2.20298e-14
364 364 0.000680777
365 364 -3.23123e-11
1813 364 -0.998531
363 365 -0.000679777
364 365 -2.19975e-14
365 365 0.000681776
1813 365 -0.997069
360 366 -2.0157e-28
361 366 -0.00106849
365 366 2.87295e-12
366 366 0.000772905
368 366 -1.95884e-10
370 366 1.51017e-10
1813 366 -2.77892e-09
358 367 -2.0157e-28
359 367 -0.00106849
364 367 1.70401e-12
365 367 5.50603e-23
367 367 0.000455594
368 367 -2.33338e-10
369 367 3.50061e-09
1813 367 -1.05109e-08
358 368 7.49789e-13
359 368 -8.31858e-13
360 368 7.49789e-13
361 368 -8.31858e-13
366 368 5.98593e-13
367 368 3.51555e-13
368 368 0.000639615
369 368 1.71851e-20
370 368 7.41364e-22
1813 368 -0.998437
357 369 -1.92127e-12
359 369 9.97802e-13
367 369 5.73284e-13
368 369 5.23012e-23
369 369 0.000664973
370 369 -5.90045e-41
371 369 -6.07479e-08
1813 369 -0.998496
351 370 -0
352 370 -0
353 370 0
354 370 0
355 370 -0
357 370 1.92127e-12
359 370 9.97194e-13
361 370 1.45861e-12
366 370 4.04876e-13
367 370 5.72935e-13
368 370 7.40422e-23
369 370 -3.49406e-21
370 370 0.000630738
371 370 -3.36521e-25
1813 370 -0.998415
354 371 -1.3275e-09
355 371 -3.63816e-10
369 371 -2.24376e-09
370 371 0
371 371 1.00394e-06
1813 371 -0.0022316
292 372 -7.70349e-15
302 372 3.96112e-13
308 372 -5.65588e-22
309 372 5.29313e-31
310 372 3.10868e-31
315 372 2.8026e-43
316 372 6.72343e-42
320 372 -5.02827e-10
321 372 5.02539e-10
372 372 0.000845528
374 372 -6.40883e-11
379 372 -0.998817
819 372 5.56548e-19
1813 372 5.89716e-07
299 373 1.16898e-12
300 373 3.7828e-23
301 373 -1.71716e-15
326 373 1.43123e-12
327 373 -2.60878e-13
329 373 2.58776e-13
336 373 1.16898e-12
337 373 3.7828e-23
338 373 -1.71716e-15
363 373 1.16898e-12
364 373 3.7828e-23
365 373 -1.71716e-15
373 373 0.00530206
1813 373 -1.40925e-10
241 374 -1.89823e-13
245 374 2.25443e-24
292 374 -4.94722e-13
293 374 7.78198e-13
352 374 -0
353 374 -0
354 374 0
370 374 0
371 374 0
372 374 1.82633e-12
374 374 0.00640673
379 374 1.29689e-11
380 374 -2.96122e-11
381 374 2.96288e-11
819 374 -1.58652e-28
1813 374 -2.84874e-10
243 375 8.3656e-16
244 375 -2.53157e-19
245 375 -2.53062e-19
311 375 -1.97536e-10
314 375 -1.08568e-09
315 375 0
316 375 1.28152e-09
322 375 1.36461e-15
323 375 4.02792e-13
343 375 -1.97986e-10
344 375 -3.97774e-10
345 375 5.954e-10
346 375 0
347 375 -1.41735e-18
348 375 -3.64371e-40
349 375 -0.000844528
355 375 -1.97346e-10
369 375 1.96615e-09
370 375 0
371 375 -1.76892e-09
375 375 0.00105262
380 375 -2.40231e-16
381 375 1.14321e-22
817 375 -1.63984e-11
819 375 9.70739e-08
1813 375 -0.998098
242 376 4.98961e-16
244 376 4.91995e-16
245 376 -4.01599e-19
295 376 1.36461e-15
297 376 4.02792e-13
312 376 -1.96545e-10
313 376 -3.95521e-10
314 376 5.9132e-10
315 376 0
316 376 8.6357e-13
350 376 -0.000844528
351 376 -1.95989e-10
354 376 -1.08098e-09
370 376 0
371 376 1.27381e-09
376 376 0.00105262
377 376 -1.63984e-11
380 376 -3.81238e-16
381 376 1.06877e-22
819 376 -1.13277e-11
1813 376 -0.998101
242 377 -2.4858e-13
244 377 2.60481e-24
245 377 -2.48472e-13
295 377 -4.94722e-13
296 377 7.78198e-13
312 377 -0
313 377 -0
314 377 0
315 377 0
316 377 0
350 377 1.82633e-12
351 377 -0
354 377 -0
370 377 0
371 377 0
376 377 8.30882e-14
377 377 0.00640673
380 377 -3.87538e-11
381 377 3.87998e-11
819 377 4.17167e-21
1813 377 -2.7193e-10
211 378 -7.70349e-15
216 378 -0.000844528
240 378 -3.77699e-14
319 378 -3.0194e-10
320 378 3.01734e-10
321 378 1.72938e-13
356 378 3.96112e-13
368 378 -5.65588e-22
369 378 9.71941e-42
370 378 4.18988e-43
371 378 0
378 378 0.000469382
380 378 -9.69534e-17
381 378 2.14518e-21
819 378 3.45004e-22
1813 378 -0.996921
241 379 3.38365e-16
245 379 4.25752e-16
292 379 1.36461e-15
294 379 4.02792e-13
352 379 -1.95496e-10
353 379 -3.93044e-10
354 379 5.87081e-10
370 379 0
371 379 1.61095e-12
372 379 -0.000844528
374 379 -1.72612e-14
379 379 0.00105262
380 379 -4.84577e-16
381 379 5.8974e-22
819 379 4.46526e-19
1813 379 -0.998101
215 380 -0.00530029
241 380 -0.00178712
245 380 -0.00530029
380 380 7.99214e-06
381 380 -1.56113e-07
185 381 -2.60471e-13
186 381 -4.07433e-14
187 381 1.71025e-13
214 381 -2.62281e-15
215 381 -2.62115e-15
241 381 -2.95486e-15
242 381 -3.8707e-15
243 381 -5.81206e-15
244 381 -5.8103e-15
245 381 -9.67714e-15
380 381 -1.52432e-14
381 381 0.000664973
1018 381 -2.77051e-19
1813 381 -0.998496
382 382 0.00163272
383 382 -1.29058e-07
384 382 1.29058e-07
1813 382 -6.12501e-10
383 383 1.00025e-06
384 383 -0.000246164
1813 383 -1.99957e-06
383 384 -1.72251e-12
384 384 0.00122117
818 384 0
1018 384 -0
1813 384 -8.18889e-10
385 385 1e-06
386 385 -7.38085e-08
1813 385 -2.1017e-06
385 386 -2.17901e-16
386 386 0.00233973
816 386 0
1018 386 -0
1813 386 -4.27401e-10
387 387 0.00285116
389 387 -0.499825
388 388 1e-06
389 388 -2.43559e-07
1813 388 -3.29998e-06
387 389 -0.00142508
388 389 -7.16859e-16
389 389 0.00213887
613 389 1.72118e-09
816 389 9.64705e-10
1813 389 -3.11218e-09
390 390 0.00530206
611 390 -1.18945e-10
391 391 0.00158095
611 391 2.03132e-10
612 391 -2.03132e-10
1813 391 -6.32578e-10
392 392 0.000434078
395 392 7.53112e-26
611 392 -7.53112e-26
1813 392 -0.997696
393 393 2.35714e-05
394 393 -0.957576
613 393 -0
393 394 -4.31914e-07
394 394 7.08476e-06
610 394 -0.856265
613 394 0
390 395 1.36461e-15
391 395 4.02792e-13
393 395 -1.96513e-05
394 395 0.000274835
395 395 0.00189614
610 395 -0.0203938
611 395 -0.445392
612 395 1.94411e-11
613 395 0
1813 395 -0.554081
396 396 0.00290329
400 396 -0.455463
397 397 0.00489816
400 397 -0.269967
398 398 1e-06
400 398 -3.82167e-08
1813 398 -2.05475e-06
399 399 1e-06
400 399 -3.84575e-08
1813 399 -3.11841e-06
396 400 -0.00132234
397 400 -0.00132234
398 400 -1.12347e-16
399 400 -1.13048e-16
400 400 0.00168642
405 400 1.66894e-09
1813 400 -2.56153e-09
401 401 0.000352093
402 401 2.08314e-09
1813 401 -0.99716
402 402 0.00430315
403 402 -7.72967e-11
1813 402 -4.64802e-10
402 403 -4.29973e-14
403 403 0.000845528
405 403 -0.998817
814 403 8.75528e-10
1813 403 -2.47118e-09
404 404 0.00404042
406 404 7.9482e-11
407 404 7.16194e-33
418 404 -7.9482e-11
1813 404 -2.47525e-10
403 405 -0.000844528
404 405 3.8021e-13
405 405 0.000846526
406 405 -4.35464e-11
407 405 -8.54883e-10
418 405 8.98429e-10
814 405 8.73461e-10
1813 405 -0.997639
402 406 2.9173e-14
403 406 -2.9173e-14
405 406 -2.91385e-14
406 406 0.000845528
407 406 -2.94609e-20
418 406 -6.40883e-11
814 406 6.03092e-20
1813 406 -0.998817
402 407 -2.60878e-13
403 407 1.42028e-12
405 407 2.59198e-13
406 407 1.12871e-23
407 407 0.00556076
418 407 -0.49991
814 407 -2.64334e-19
1813 407 -3.13187e-10
408 408 0.00230983
409 408 -9.30386e-11
410 408 1.39032e-10
411 408 -1.39032e-10
413 408 9.30386e-11
1813 408 -4.32959e-10
406 409 1.48234e-12
407 409 4.36712e-32
409 409 0.00278088
410 409 1.1414e-09
411 409 -0.99964
413 409 -9.86038e-11
418 409 3.41622e-20
814 409 -3.21477e-29
1813 409 -1.38616e-09
407 410 1.48331e-12
409 410 1.55758e-14
410 410 0.000352093
411 410 3.00208e-11
413 410 -2.36894e-08
418 410 2.10603e-09
814 410 1.11359e-27
1813 410 -0.99716
409 411 -0.00277988
410 411 2.76361e-12
411 411 0.00278188
413 411 -9.85329e-11
414 411 -9.85683e-11
417 411 -0.999281
418 411 -2.05807e-18
814 411 -3.21246e-29
1813 411 -3.94556e-10
411 412 -2.14903e-13
412 412 0.00230983
413 412 9.30387e-11
414 412 9.30387e-11
417 412 -1.8601e-10
418 412 -1.9148e-28
814 412 -2.98905e-39
1813 412 -4.32959e-10
409 413 -3.40391e-15
410 413 -4.58004e-10
411 413 -3.40267e-15
413 413 1.00067e-06
414 413 -0.000206187
417 413 -6.7996e-09
418 413 9.63928e-13
814 413 5.09688e-31
1813 413 -0.000456398
411 414 -3.40391e-15
413 414 -2.06325e-10
414 414 1.00067e-06
416 414 -3.40164e-09
417 414 -3.4006e-09
418 414 1.9875e-16
814 414 1.04982e-34
1806 414 -0.000457698
1813 414 -9.41035e-08
414 415 -4.01419e-10
415 415 0.000352093
416 415 -1.0367e-09
417 415 1.03669e-09
418 415 2.26593e-22
814 415 1.19398e-40
1806 415 1.13957e-06
1813 415 -0.99716
414 416 -2.74205e-13
416 416 0.0068203
417 416 -0.407589
418 416 7.99058e-27
814 416 0
1806 416 -1.84014e-14
1813 416 -1.46642e-10
411 417 -0.00277988
413 417 -5.48115e-13
414 417 -2.74121e-13
416 417 -0.00277988
417 417 0.00164983
418 417 -3.46742e-18
814 417 -5.41284e-29
1806 417 -2.48211e-10
1813 417 -9.12043e-10
395 418 3.7263e-12
406 418 -4.09474e-13
407 418 -0.00277988
418 418 0.00139119
610 418 5.46248e-11
611 418 1.19298e-09
612 418 -5.20729e-20
613 418 0
814 418 -5.28192e-19
1813 418 -2.94405e-09
419 419 0.00404042
420 419 -0.999752
1813 419 -4.95236e-10
419 420 -0.00403942
420 420 0.00404142
1813 420 -4.94991e-10
421 421 0.00489816
425 421 -0.269967
422 422 0.00290329
425 422 -0.455463
423 423 1e-06
425 423 -3.82167e-08
1813 423 -2.05475e-06
424 424 1e-06
425 424 -3.84575e-08
1813 424 -3.11841e-06
421 425 -0.00132234
422 425 -0.00132234
423 425 -1.12347e-16
424 425 -1.13048e-16
425 425 0.00168642
430 425 9.81444e-10
1813 425 -1.87403e-09
419 426 8.28922e-13
420 426 1.2212e-13
426 426 0.000680777
428 426 -0.998531
430 426 -3.23598e-11
1813 426 -3.17998e-09
427 427 0.00230983
428 427 1.24383e-09
1813 427 -1.44627e-09
426 428 -0.000679777
428 428 0.000681776
430 428 -3.2265e-11
1813 428 -0.997069
429 429 0.00404042
431 429 -7.16963e-10
432 429 -7.9482e-11
433 429 7.96445e-10
1813 429 -2.47525e-10
426 430 -2.20299e-14
428 430 -2.19975e-14
429 430 3.8021e-13
430 430 0.000845528
431 430 3.22398e-19
432 430 4.35977e-11
433 430 -4.35977e-11
1813 430 -0.998817
426 431 1.81587e-20
428 431 1.8132e-20
430 431 -1.81587e-20
431 431 0.00169006
432 431 4.68433e-28
433 431 -0.499704
1813 431 -0.499704
426 432 1.16903e-12
428 432 -1.71716e-15
430 432 3.77741e-23
431 432 -1.21787e-41
432 432 0.00278088
433 432 -1.47246e-10
1813 432 -7.19865e-10
431 433 -0.000844528
432 433 -5.41883e-14
433 433 0.00126804
435 433 -0.66601
1813 433 -0.332808
433 434 -1.15806e-12
434 434 0.00278088
435 434 1.39086e-10
1806 434 0
1813 434 -4.98218e-10
433 435 -0.000844528
435 435 0.000283064
1796 435 5.18461e-09
1806 435 -4.72574e-11
1813 435 -0.992939
436 436 0.00230983
437 436 -9.30386e-11
438 436 1.39032e-10
439 436 -1.39032e-10
441 436 9.30386e-11
1813 436 -4.32959e-10
431 437 4.37754e-12
432 437 -2.05058e-39
433 437 2.18747e-12
435 437 1.45688e-12
437 437 0.00278088
438 437 1.14139e-09
439 437 -0.99964
441 437 -9.86038e-11
1796 437 -2.71617e-18
1806 437 2.47577e-20
1813 437 -1.39109e-09
432 438 7.60649e-13
433 438 1.12003e-22
435 438 7.45949e-23
437 438 1.55758e-14
438 438 0.000352093
439 438 3.00208e-11
441 438 -2.36893e-08
1796 438 -9.78259e-28
1806 438 8.91677e-30
1813 438 -0.99716
437 439 -0.00277988
438 439 2.76361e-12
439 439 0.00278188
441 439 -9.85329e-11
442 439 -0.999281
445 439 -9.85683e-11
1796 439 -2.71422e-18
1806 439 2.47399e-20
1813 439 -3.99483e-10
439 440 -2.14903e-13
440 440 0.00230983
441 440 9.30387e-11
442 440 -1.8601e-10
445 440 9.30387e-11
1796 440 -2.52527e-28
1806 440 2.30177e-30
1813 440 -4.32959e-10
437 441 -3.40391e-15
438 441 -4.58004e-10
439 441 -3.40267e-15
441 441 1.00067e-06
442 441 -6.7996e-09
445 441 -0.000206187
1796 441 -1.84693e-26
1806 441 1.68347e-28
1813 441 -0.000456398
439 442 -0.00277988
441 442 -5.48115e-13
442 442 0.00278288
443 442 -0.998923
445 442 -9.85027e-11
1796 442 -2.71129e-18
1806 442 -1.47089e-10
1813 442 -3.99142e-10
442 443 -0.00277988
443 443 0.00404342
445 443 -1.35537e-10
1796 443 -1.86403e-18
1806 443 -1.01124e-10
1813 443 -5.21765e-10
442 444 -3.21141e-13
443 444 -5.35698e-13
444 444 0.00230983
445 444 9.30387e-11
1796 444 -8.09266e-28
1806 444 1.39032e-10
1813 444 -4.32959e-10
439 445 -3.40391e-15
441 445 -2.06325e-10
442 445 -3.40287e-15
443 445 -6.80312e-15
445 445 1.00067e-06
1796 445 -3.11294e-26
1806 445 -0.000457699
1813 445 -9.41036e-08
446 446 0.0068203
448 446 -4.02043e-11
450 446 -0.407589
1813 446 -1.46642e-10
446 447 -2.14903e-13
447 447 0.00230983
448 447 9.30387e-11
450 447 -1.76954e-10
1806 447 1.39032e-10
1813 447 -4.32959e-10
446 448 -3.40391e-15
448 448 1.00067e-06
450 448 -1.38647e-09
451 448 -3.40164e-09
453 448 -0.000206188
1806 448 -0.000457699
1813 448 -4.98824e-19
448 449 2.14903e-13
449 449 0.00230983
450 449 -9.30387e-11
451 449 -9.30386e-11
453 449 9.30578e-11
1806 449 4.25837e-14
1813 449 -4.32959e-10
446 450 -0.00277988
448 450 -1.11763e-13
450 450 0.00442771
451 450 -0.627837
453 450 -6.19345e-11
1806 450 -9.24587e-11
1813 450 -9.20674e-11
448 451 -2.74205e-13
450 451 -0.00277988
451 451 0.00381545
453 451 -4.51394e-11
467 451 -0.728585
468 451 -1.07282e-10
1806 451 -6.73969e-11
1813 451 -6.7079e-11
451 452 -3.21141e-13
452 452 0.00230983
453 452 9.30387e-11
467 452 -1.94336e-10
468 452 1.39032e-10
1806 452 -9.37035e-21
1813 452 -4.32959e-10
448 453 -2.06325e-10
450 453 -3.4042e-15
451 453 -2.13798e-15
453 453 1.00067e-06
467 453 -4.9583e-09
468 453 -0.000457697
1806 453 -9.43717e-08
1813 453 -4.56627e-19
454 454 0.00136055
458 454 -0.499633
1813 454 -0.499633
455 455 1e-06
458 455 -1.77384e-07
456 456 1e-06
458 456 -1.8239e-07
457 457 0.00253467
458 457 -0.268191
1813 457 -0.731414
454 458 -0.000679777
455 458 -2.16564e-15
456 458 -2.22629e-15
457 458 -0.000679777
458 458 0.000838605
466 458 8.86746e-10
1813 458 -0.997892
459 459 0.00230983
460 459 1.24455e-09
1813 459 -1.44698e-09
460 460 0.00136055
461 460 -0.499633
1813 460 -0.499633
460 461 -0.000679777
461 461 0.000341138
466 461 -1.58846e-10
609 461 2.17004e-09
1813 461 -0.995604
462 462 0.000639615
463 462 -5.76333e-11
464 462 1.18906e-09
465 462 -1.13143e-09
1813 462 -0.998437
460 463 2.2034e-29
461 463 -3.68631e-14
463 463 0.000845528
464 463 -6.40883e-11
466 463 4.35978e-11
609 463 9.46087e-20
1813 463 -0.998817
463 464 -4.09474e-13
464 464 0.00278088
465 464 -0.99964
466 464 6.41961e-21
608 464 7.1929e-10
609 464 1.39308e-29
1813 464 -1.28152e-09
460 465 -1.17068e-12
461 465 9.06913e-13
464 465 -0.00277988
465 465 0.00278188
466 465 -1.1544e-10
608 465 7.18773e-10
609 465 -7.07448e-19
1813 465 -1.88527e-09
461 466 -4.09474e-13
462 466 1.08339e-12
463 466 3.21141e-13
464 466 -3.21141e-13
465 466 -3.21025e-13
466 466 0.00404042
608 466 1.14279e-19
609 466 2.19921e-19
1813 466 -3.94521e-10
451 467 -0.00277988
453 467 -3.99687e-13
463 467 1.48234e-12
464 467 9.50008e-23
465 467 9.49667e-23
466 467 -6.46268e-23
467 467 0.000755501
468 467 3.8063e-09
608 467 -1.80797e-28
609 467 -1.85629e-28
1806 467 -2.47988e-10
1813 467 -5.34907e-09
451 468 -5.00008e-15
453 468 -8.34084e-12
465 468 1.48331e-12
466 468 1.71233e-22
467 468 1.19328e-14
468 468 0.000352093
608 468 -3.02806e-18
609 468 2.98035e-27
1806 468 -2.23559e-15
1813 468 -0.99716
469 469 0.00290329
479 469 -0.455463
470 470 0.00290329
475 470 -0.455463
471 471 0.000845528
1813 471 -0.998817
472 472 0.00489816
475 472 -0.269967
473 473 1e-06
475 473 -3.84575e-08
1813 473 -3.11841e-06
474 474 1e-06
475 474 -3.82167e-08
1813 474 -2.05475e-06
470 475 -0.00132234
471 475 1.07608e-12
472 475 -0.00132234
473 475 -1.13048e-16
474 475 -1.12347e-16
475 475 0.00168642
1813 475 -8.93344e-10
476 476 0.00489816
479 476 -0.269967
477 477 1e-06
479 477 -3.82167e-08
1813 477 -2.05475e-06
478 478 1e-06
479 478 -3.84575e-08
1813 478 -3.11841e-06
469 479 -0.00132234
476 479 -0.00132234
477 479 -1.12347e-16
478 479 -1.13048e-16
479 479 0.00168642
487 479 1.66894e-09
1813 479 -2.56153e-09
480 480 0.00404042
481 480 -7.9482e-11
485 480 7.9482e-11
486 480 7.16194e-33
1813 480 -2.47525e-10
481 481 0.00278088
485 481 -1.47246e-10
486 481 -0.99964
607 481 1.33997e-09
1813 481 -1.75512e-09
482 482 0.000352093
483 482 2.08314e-09
1813 482 -0.99716
483 483 0.00430315
484 483 -7.72967e-11
1813 483 -4.64802e-10
483 484 -4.29973e-14
484 484 0.000845528
487 484 -0.998817
612 484 8.75528e-10
1813 484 -2.47118e-09
481 485 -5.41884e-14
483 485 2.9173e-14
484 485 -2.9173e-14
485 485 0.000845528
486 485 -6.40653e-11
487 485 -3.44619e-11
607 485 8.58765e-20
612 485 3.02081e-20
1813 485 -0.998817
481 486 -0.00277988
483 486 -2.60878e-13
484 486 1.42028e-12
485 486 -4.09327e-13
486 486 0.00278188
487 486 9.31738e-11
607 486 1.33901e-09
612 486 -4.46999e-19
1813 486 -2.61982e-09
480 487 3.8021e-13
481 487 7.60544e-13
484 487 -0.000844528
485 487 -3.68632e-14
486 487 3.65897e-14
487 487 0.000846526
607 487 -1.26174e-18
612 487 8.73461e-10
1813 487 -0.997639
488 488 0.00230983
489 488 -9.30386e-11
490 488 1.39032e-10
491 488 -1.39032e-10
493 488 9.30386e-11
1813 488 -4.32959e-10
485 489 1.48234e-12
486 489 9.49667e-23
487 489 5.10844e-23
489 489 0.00278088
490 489 1.1414e-09
491 489 -0.99964
493 489 -9.86038e-11
607 489 -9.15032e-29
612 489 -3.21477e-29
1813 489 -1.38616e-09
486 490 1.48331e-12
487 490 -1.38205e-22
489 490 1.55758e-14
490 490 0.000352093
491 490 3.00208e-11
493 490 -2.36894e-08
607 490 -5.641e-18
612 490 2.22598e-27
1813 490 -0.99716
489 491 -0.00277988
490 491 2.76361e-12
491 491 0.00278188
493 491 -9.85329e-11
494 491 -0.999281
497 491 -9.85683e-11
607 491 5.51252e-27
612 491 -3.21246e-29
1813 491 -3.94556e-10
491 492 -2.14903e-13
492 492 0.00230983
493 492 9.30387e-11
494 492 -1.8601e-10
497 492 9.30387e-11
607 492 5.12878e-37
612 492 -2.98905e-39
1813 492 -4.32959e-10
489 493 -3.40391e-15
490 493 -4.58004e-10
491 493 -3.40267e-15
493 493 1.00067e-06
494 493 -6.7996e-09
497 493 -0.000206187
607 493 -2.58188e-21
612 493 1.01883e-30
1813 493 -0.000456398
491 494 -0.00277988
493 494 -5.48115e-13
494 494 0.00278288
496 494 -0.998923
497 494 -9.85028e-11
607 494 5.50608e-27
612 494 -3.209e-29
1806 494 -1.47089e-10
1813 494 -3.94221e-10
494 495 3.65013e-13
495 495 0.000352093
496 495 -1.11702e-12
497 495 -1.14009e-06
607 495 -5.70812e-36
612 495 3.3268e-38
1806 495 1.14009e-06
1813 495 -0.99716
494 496 -0.00277988
496 496 0.00404342
497 496 -1.35537e-10
607 496 3.78547e-27
612 496 -2.20621e-29
1806 496 -1.01124e-10
1813 496 -5.18381e-10
491 497 -3.40391e-15
493 497 -2.06325e-10
494 497 -3.40287e-15
496 497 -6.80311e-15
497 497 1.00067e-06
607 497 -5.3235e-25
612 497 2.09701e-34
1806 497 -0.000457698
1813 497 -9.41035e-08
436 498 3.82692e-13
437 498 3.61948e-13
438 498 4.01418e-10
439 498 -1.30171e-16
441 498 -4.01418e-10
442 498 -1.32806e-16
443 498 -1.32663e-16
445 498 -8.27672e-14
451 498 -3.61948e-13
452 498 3.82692e-13
453 498 -4.01418e-10
467 498 9.82361e-14
468 498 4.01234e-10
472 498 -4.53685e-13
473 498 -2.88156e-14
475 498 3.60021e-13
476 498 -4.53685e-13
478 498 -2.88156e-14
479 498 3.60021e-13
487 498 -6.00853e-22
498 498 1
607 498 -7.58122e-40
608 498 1.21496e-27
609 498 -1.1958e-36
612 498 5.24821e-31
1796 498 9.82144e-31
1806 498 -7.57649e-17
1813 498 8.00157e-10
499 499 0.00230983
500 499 7.383e-10
1813 499 -9.40738e-10
500 500 0.000680777
501 500 -6.31592e-11
1813 500 -0.998531
500 501 -3.32619e-13
501 501 0.00278088
606 501 7.1929e-10
1813 501 -1.25388e-09
502 502 0.000639615
503 502 3.40444e-26
504 502 -5.76333e-11
505 502 5.76333e-11
1813 502 -0.998437
500 503 -2.9173e-14
501 503 7.52647e-13
503 503 0.00169006
504 503 -0.499704
606 503 -3.20327e-19
1813 503 -0.499704
503 504 -0.000844528
504 504 0.000423514
505 504 -1.2795e-10
605 504 1.74796e-09
606 504 -6.38764e-19
1813 504 -0.996459
500 505 2.60878e-13
501 505 -2.60878e-13
504 505 -4.09474e-13
505 505 0.00278088
605 505 2.5738e-19
606 505 6.74775e-20
1813 505 -7.72301e-10
506 506 0.000352093
507 506 1.02798e-09
508 506 1.14009e-06
509 506 -1.02798e-09
511 506 -1.14009e-06
1813 506 -0.99716
503 507 2.64043e-12
504 507 1.31944e-12
505 507 1.68821e-22
507 507 0.00278088
508 507 1.1414e-09
509 507 -0.99964
511 507 -9.86038e-11
605 507 -8.29347e-19
606 507 6.07222e-28
1813 507 -1.38778e-09
505 508 7.60649e-13
507 508 1.55758e-14
508 508 0.000352093
509 508 3.00208e-11
511 508 -2.36894e-08
605 508 -5.19345e-28
606 508 -1.45776e-28
1813 508 -0.99716
507 509 -0.00277988
508 509 2.76361e-12
509 509 0.00278188
511 509 -9.85329e-11
512 509 -0.999281
515 509 -9.85683e-11
605 509 -8.28751e-19
606 509 6.06786e-28
1813 509 -3.96166e-10
509 510 3.63478e-13
510 510 0.000352093
511 510 -1.02062e-13
512 510 -7.42112e-13
515 510 1.02063e-13
605 510 8.55549e-28
606 510 -6.26405e-37
1813 510 -0.99716
507 511 -3.40391e-15
508 511 -4.58004e-10
509 511 -3.40267e-15
511 511 1.00067e-06
512 511 -6.7996e-09
515 511 -0.000206187
605 511 -5.63947e-27
606 511 -6.67172e-32
1813 511 -0.000456398
509 512 -0.00277988
511 512 -5.48115e-13
512 512 0.00278288
514 512 -1.47089e-10
515 512 -9.85028e-11
605 512 -8.27858e-19
606 512 6.06132e-28
1805 512 -0.998923
1813 512 -3.95829e-10
512 513 -3.21141e-13
513 513 0.00230983
514 513 1.39032e-10
515 513 9.30387e-11
605 513 -1.15099e-28
606 513 8.42716e-38
1805 513 -2.31921e-10
1813 513 -4.32959e-10
512 514 -5.00008e-15
514 514 0.000845528
515 514 -9.86468e-09
605 514 -4.89559e-30
606 514 3.58475e-39
1805 514 -5.90719e-12
1813 514 -0.998817
509 515 -3.40391e-15
511 515 -2.06325e-10
512 515 -3.40287e-15
514 515 -4.58004e-10
515 515 1.00067e-06
605 515 -5.63549e-27
606 515 -9.63029e-36
1805 515 -6.79857e-09
1813 515 -0.000457251
516 516 2.82969e-06
610 516 -0.646604
613 516 -0
517 517 1.00023e-06
519 517 -0
613 517 -0.000230689
518 518 1.00411e-06
520 518 -0.00155095
613 518 -0.00253801
517 519 -0
519 519 1.01609e-06
520 519 -0.0158305
613 519 0
518 520 -3.8448e-09
519 520 -1.57576e-08
520 520 7.93784e-06
610 520 -0.871583
613 520 -1.22932e-06
521 521 0.00530206
604 521 -1.18945e-10
522 522 0.00158095
604 522 2.03132e-10
609 522 -2.03132e-10
1813 522 -6.32578e-10
523 523 0.000434078
604 523 -7.53112e-26
607 523 7.53112e-26
1813 523 -0.997696
524 524 1.0005e-06
525 524 -0.000175794
541 524 -0.00032146
524 525 -2.68633e-10
525 525 1.00158e-06
541 525 -8.62183e-08
542 525 -0.00130723
526 526 1.00023e-06
541 526 -0.000228312
542 526 -0
527 527 0.00316089
537 527 -0.499842
528 528 0.00956453
1813 528 -2.09341e-10
528 529 1.25987e-12
529 529 0.000845528
530 529 -0.998817
531 529 -2.07808e-11
1813 529 -3.09323e-09
529 530 -0.000844528
530 530 0.000681776
531 530 -2.57415e-11
1813 530 -0.997068
529 531 -1.75707e-14
530 531 -1.75499e-14
531 531 0.000680777
1813 531 -0.998531
532 532 0.00230983
533 532 -8.72661e-26
534 532 8.77661e-33
1813 532 -8.65891e-10
531 533 1.70397e-12
532 533 -2.0157e-28
533 533 0.00106949
534 533 -0.999065
538 533 -1.80971e-10
1813 533 -1.37452e-09
532 534 7.39313e-35
533 534 -0.00106849
534 534 0.00278188
538 534 -1.49271e-11
541 534 2.93997e-10
1813 534 -1.54089e-09
535 535 0.00230983
536 535 -8.72661e-26
537 535 8.77661e-33
1813 535 -8.65891e-10
530 536 2.87298e-12
531 536 7.39549e-23
535 536 -2.0157e-28
536 536 0.00106949
537 536 -0.999065
538 536 -1.80971e-10
1813 536 -1.38005e-09
527 537 -0.00157995
535 537 2.21807e-34
536 537 -0.00106849
537 537 0.000792222
538 537 -5.24164e-11
540 537 1.67934e-09
1813 537 -7.32784e-09
532 538 7.4979e-13
533 538 8.29497e-13
534 538 -3.13698e-15
535 538 7.4979e-13
536 538 8.29496e-13
537 538 -3.13698e-15
538 538 0.000639615
540 538 8.23626e-21
541 538 1.4419e-21
1813 538 -0.998437
538 539 2.25735e-12
539 539 0.00158095
540 539 -1.17601e-29
541 539 -2.05882e-30
1813 539 -3.21866e-10
527 540 -1.92127e-12
537 540 9.97802e-13
538 540 5.23012e-23
540 540 0.000664973
541 540 -1.13794e-40
542 540 -2.52469e-08
1813 540 -0.998496
524 541 -5.81493e-12
525 541 -1.02223e-15
526 541 -4.14218e-12
527 541 1.92127e-12
534 541 1.45861e-12
537 541 9.97195e-13
538 541 7.40422e-23
540 541 -1.67462e-21
541 541 0.000630738
542 541 -2.11861e-15
1813 541 -0.998415
525 542 -9.54911e-10
526 542 -0
540 542 -9.27461e-10
541 542 -8.23308e-17
542 542 1.00189e-06
1813 542 -0.000924323
543 543 0.00934148
582 543 -0.432418
544 544 0.00158095
582 544 -2.03132e-10
608 544 2.03132e-10
1813 544 -6.32578e-10
545 545 0.00158095
582 545 -2.03132e-10
606 545 2.03132e-10
1813 545 -6.32578e-10
546 546 1.00025e-06
547 546 -0.000246164
1813 546 -1.99957e-06
546 547 -1.72251e-12
547 547 0.00122117
816 547 8.91109e-10
1813 547 -8.18889e-10
548 548 0.0107445
1813 548 -0.999907
548 549 1.89998e-12
549 549 0.00230983
550 549 -8.38426e-11
551 549 -0.999567
1813 549 -2.88136e-10
549 550 -4.12975e-14
550 550 0.000680777
551 550 -6.0636e-11
1813 550 -0.998531
549 551 -0.00230883
550 551 -1.93578e-13
551 551 0.00430415
1813 551 -6.64164e-10
550 552 1.70481e-12
551 552 1.03373e-22
552 552 0.00230983
1813 552 -2.03522e-10
551 553 1.43658e-12
552 553 3.82692e-13
553 553 0.000639615
1813 553 -0.998437
553 554 1.08339e-12
554 554 0.00158095
1813 554 -3.20705e-10
555 555 1.00023e-06
558 555 -0.000231729
556 556 0.000434078
558 556 -1.15631e-25
1813 556 -0.997696
557 557 0.00158095
558 557 2.03132e-10
605 557 -2.03132e-10
1813 557 -6.32578e-10
554 558 3.96112e-13
555 558 -4.26728e-12
558 558 0.000845528
559 558 -2.40472e-07
581 558 2.40472e-07
605 558 -6.40883e-11
1813 558 -0.998817
559 559 1.00023e-06
580 559 -0
581 559 -0.000231889
560 560 0.000229782
576 560 1.65834e-09
1813 560 -0.995648
561 561 1.00023e-06
562 561 -0
572 561 -0.000228312
561 562 -0
562 562 1.00046e-06
571 562 -0.000455913
572 562 0
563 563 0.00316089
570 563 -0.499842
564 564 0.0107445
1813 564 -0.999907
564 565 1.89998e-12
565 565 0.00230983
566 565 -8.27059e-12
567 565 -0.999567
1813 565 -2.88136e-10
565 566 -1.91036e-14
566 566 0.00430315
567 566 -4.43753e-12
1813 566 -4.64802e-10
565 567 -0.00230883
566 567 -1.90954e-14
567 567 0.00430415
1813 567 -6.19256e-10
568 568 0.00103187
569 568 -0.658782
570 568 1.25756e-11
1813 568 -0.340249
567 569 1.43608e-12
568 569 -0.000679777
569 569 0.000232953
570 569 -4.65492e-11
576 569 -1.01369e-11
1813 569 -0.992879
563 570 -0.00157995
568 570 -1.17031e-12
569 570 3.82654e-13
570 570 0.000791223
571 570 1.63284e-09
576 570 -1.91907e-10
1813 570 -5.4479e-09
562 571 -8.27746e-12
563 571 -1.15303e-12
570 571 6.13562e-13
571 571 0.000419157
572 571 0
576 571 2.80914e-19
1813 571 -0.997614
561 572 -4.14218e-12
562 572 0
563 572 1.15303e-12
570 572 6.13197e-13
571 572 -1.00126e-21
572 572 0.000384921
575 572 1.91206e-09
576 572 3.05717e-19
1813 572 -0.997402
566 573 7.32654e-13
567 573 3.25117e-24
573 573 0.000680777
574 573 -0.998531
575 573 -2.84856e-11
576 573 -3.46871e-12
1813 573 -3.01929e-09
573 574 -0.000679777
574 574 0.000353092
575 574 -1.80901e-11
576 574 -6.67802e-12
1813 574 -0.99434
572 575 5.95893e-13
573 575 1.15363e-12
574 575 -1.8372e-14
575 575 0.00278088
576 575 -5.46019e-11
1813 575 -7.26341e-10
568 576 2.09654e-12
569 576 1.31975e-12
570 576 -1.32142e-13
571 576 2.15767e-22
572 576 0
573 576 -6.14055e-14
574 576 2.03522e-12
575 576 -1.32142e-13
576 576 0.00404042
1813 576 -1.54444e-10
577 577 0.010091
578 577 -0
581 577 3.76103e-11
1813 577 -1.36723e-10
578 578 1.00183e-06
579 578 -0.00182027
581 578 -0
578 579 -1.61033e-09
579 579 1.00508e-06
580 579 -0.003449
581 579 0
559 580 -0
579 580 -6.23822e-11
580 580 0.000270407
581 580 0
1813 580 -0.996302
546 581 1.69605e-14
547 581 1.0145e-12
559 581 -4.28334e-12
577 581 3.78951e-13
578 581 0
579 581 0
580 581 0
581 581 0.000994277
816 581 -9.09231e-19
1813 581 -0.998994
543 582 -0.00403942
559 582 -0
560 582 8.20264e-13
576 582 -1.36028e-21
580 582 0
581 582 0
582 582 0.0022937
606 582 -1.78521e-10
608 582 -1.78521e-10
816 582 0
1813 582 -7.96398e-10
583 583 1.40949e-06
584 583 -0.290521
602 583 -0
583 584 -2.01607e-05
584 584 8.26546e-05
602 584 0
603 584 -0.814849
585 585 1.00065e-06
602 585 -0.00041025
603 585 -0.000235215
586 586 1.00023e-06
601 586 -0
602 586 -0.000228315
587 587 0.00316089
597 587 -0.499842
588 588 0.00956453
1813 588 -2.09341e-10
588 589 1.25987e-12
589 589 0.000845528
590 589 -0.998817
591 589 -2.07808e-11
1813 589 -3.09323e-09
589 590 -0.000844528
590 590 0.000681776
591 590 -2.57415e-11
1813 590 -0.997068
589 591 -1.75707e-14
590 591 -1.75499e-14
591 591 0.000680777
1813 591 -0.998531
592 592 0.00230983
593 592 -8.72661e-26
594 592 8.77661e-33
1813 592 -8.65891e-10
591 593 1.70397e-12
592 593 -2.0157e-28
593 593 0.00106949
594 593 -0.999065
598 593 -1.80971e-10
1813 593 -1.37452e-09
592 594 7.39313e-35
593 594 -0.00106849
594 594 0.00278188
598 594 -1.49271e-11
602 594 3.75688e-10
1813 594 -1.62259e-09
595 595 0.00230983
596 595 -8.72661e-26
597 595 8.77661e-33
1813 595 -8.65891e-10
590 596 2.87299e-12
591 596 7.3955e-23
595 596 -2.0157e-28
596 596 0.00106949
597 596 -0.999065
598 596 -1.80971e-10
1813 596 -1.38005e-09
587 597 -0.00157995
595 597 2.21807e-34
596 597 -0.00106849
597 597 0.000792222
598 597 -5.24164e-11
600 597 2.58848e-09
1813 597 -8.23698e-09
592 598 7.49789e-13
593 598 8.29497e-13
594 598 -3.13703e-15
595 598 7.49789e-13
596 598 8.29496e-13
597 598 -3.13698e-15
598 598 0.000639615
600 598 1.26951e-20
602 598 1.84259e-21
1813 598 -0.998437
598 599 2.25735e-12
599 599 0.00158095
600 599 -1.81267e-29
602 599 -2.63094e-30
1813 599 -3.21866e-10
587 600 -1.92127e-12
597 600 9.97802e-13
598 600 5.23012e-23
600 600 0.000664973
601 600 -4.30218e-08
602 600 -1.45404e-40
1813 600 -0.998496
586 601 -0
600 601 -1.58396e-09
601 601 1.00331e-06
602 601 0
603 601 -0.00171259
1813 601 -0.00157637
583 602 -0
584 602 0
585 602 -7.40534e-12
586 602 -4.14224e-12
587 602 1.92127e-12
594 602 1.45861e-12
597 602 9.97195e-13
598 602 7.40422e-23
600 602 -2.58121e-21
601 602 -1.11048e-28
602 602 0.000630738
603 602 -2.7616e-12
1813 602 -0.998415
584 603 -1.53118e-06
585 603 -4.16295e-10
601 603 -2.72126e-09
602 603 -1.70785e-13
603 603 1.28664e-06
1813 603 -3.46658e-06
521 604 -7.70349e-15
539 604 3.96112e-13
540 604 4.65792e-42
541 604 8.15556e-43
542 604 0
579 604 -3.03754e-09
580 604 3.02706e-09
581 604 0
604 604 0.000845528
607 604 -0.998817
609 604 -6.40883e-11
816 604 0
1813 604 3.56441e-06
517 605 0
519 605 0
520 605 0
526 605 0
540 605 0
541 605 0
542 605 0
555 605 4.61512e-13
556 605 7.78198e-13
558 605 2.26385e-12
559 605 5.44392e-19
561 605 0
562 605 0
571 605 0
572 605 0
575 605 0
576 605 0
580 605 0
581 605 -5.44266e-19
586 605 0
600 605 0
601 605 0
602 605 0
603 605 0
605 605 0.00640673
610 605 0
613 605 0
816 605 -7.72412e-35
1813 605 -3.49188e-10
518 606 -2.2328e-09
519 606 -1.45855e-10
520 606 1.40083e-10
524 606 -2.81751e-10
525 606 -1.57969e-10
541 606 2.8166e-10
542 606 1.57713e-10
543 606 -7.07663e-13
544 606 4.02792e-13
582 606 3.84331e-13
585 606 -3.59612e-10
601 606 4.46919e-10
602 606 3.59464e-10
603 606 -4.46238e-10
606 606 0.00105162
608 606 -3.50538e-11
610 606 1.16102e-07
613 606 2.11781e-06
816 606 0
1813 606 -0.999049
516 607 8.4379e-05
520 607 0.000244783
521 607 1.36461e-15
522 607 4.02792e-13
583 607 1.75215e-05
584 607 -7.08367e-05
602 607 0
603 607 6.84366e-07
604 607 -0.000844528
607 607 0.00105262
609 607 -1.63984e-11
610 607 -0.0581916
613 607 2.85874e-07
816 607 0
1813 607 -0.998098
518 608 2.03755e-09
519 608 -1.45855e-10
520 608 -1.89084e-09
524 608 8.26268e-11
525 608 -2.40532e-10
541 608 2.65405e-14
542 608 1.57606e-10
543 608 6.98958e-13
545 608 4.02792e-13
582 608 2.84917e-13
585 608 1.61162e-10
601 608 4.46919e-10
602 608 6.61168e-14
603 608 -6.07278e-10
606 608 -3.68631e-14
608 608 0.00105162
610 608 -1.56713e-06
613 608 4.91527e-09
816 608 0
1813 608 -0.999049
516 609 -0
520 609 0
521 609 -4.94722e-13
523 609 7.78198e-13
583 609 -0
584 609 -0
602 609 0
603 609 0
604 609 1.82633e-12
607 609 8.30882e-14
609 609 0.00640673
610 609 7.54681e-13
613 609 -3.70747e-18
816 609 0
1813 609 -2.71931e-10
394 610 -0.000315057
516 610 -9.69808e-05
520 610 -0.000283041
610 610 0.000116904
613 610 -2.97634e-06
390 611 -7.70349e-15
395 611 -0.000844528
578 611 -1.90038e-10
579 611 1.89692e-10
580 611 6.54248e-13
581 611 0
599 611 3.96112e-13
600 611 7.18025e-42
601 611 0
602 611 1.04257e-42
603 611 0
610 611 -1.72231e-05
611 611 0.000469382
612 611 -8.04672e-11
613 611 -1.09212e-07
816 611 0
1813 611 -0.996921
390 612 -4.94722e-13
392 612 7.78198e-13
393 612 -0
394 612 0
395 612 -1.74108e-12
610 612 -3.55074e-14
611 612 1.05087e-12
612 612 0.00640673
613 612 1.41803e-18
816 612 0
1813 612 -2.7193e-10
387 613 -2.59481e-13
388 613 -9.17121e-14
389 613 2.21498e-13
393 613 -0
394 613 0
516 613 -0
517 613 -4.23854e-12
518 613 -4.55875e-11
519 613 0
520 613 -7.07041e-14
610 613 -6.16245e-14
613 613 0.000664973
816 613 -3.21337e-19
1813 613 -0.998496
614 614 1.00025e-06
615 614 -0.000246164
1813 614 -1.99957e-06
614 615 -1.72251e-12
615 615 0.00122117
816 615 -0
818 615 0
1813 615 -8.18889e-10
616 616 0.00285116
618 616 -0.499825
617 617 1e-06
618 617 -1.08707e-07
1813 617 -3.14203e-06
616 618 -0.00142508
617 618 -3.20543e-16
618 618 0.00213887
813 618 2.94298e-10
818 618 8.50233e-10
1813 618 -1.57083e-09
619 619 0.00489816
623 619 -0.269967
620 620 0.00290329
623 620 -0.455463
621 621 1e-06
623 621 -3.82167e-08
1813 621 -2.05475e-06
622 622 1e-06
623 622 -3.84575e-08
1813 622 -3.11841e-06
619 623 -0.00132234
620 623 -0.00132234
621 623 -1.12347e-16
622 623 -1.13048e-16
623 623 0.00168642
628 623 1.66894e-09
1813 623 -2.56153e-09
624 624 0.000352093
625 624 2.08314e-09
1813 624 -0.99716
625 625 0.00430315
626 625 -7.72967e-11
1813 625 -4.64802e-10
625 626 -4.29973e-14
626 626 0.000845528
628 626 -0.998817
817 626 8.75528e-10
1813 626 -2.47118e-09
627 627 0.00404042
629 627 7.9482e-11
630 627 7.16194e-33
671 627 -7.9482e-11
1813 627 -2.47525e-10
626 628 -0.000844528
627 628 3.8021e-13
628 628 0.000846526
629 628 -4.35464e-11
630 628 -8.54883e-10
671 628 8.98429e-10
817 628 8.73461e-10
1813 628 -0.997639
625 629 2.9173e-14
626 629 -2.9173e-14
628 629 -2.91385e-14
629 629 0.000845528
630 629 -2.94609e-20
671 629 -6.40883e-11
817 629 6.03092e-20
1813 629 -0.998817
625 630 -2.60878e-13
626 630 1.42028e-12
628 630 2.59198e-13
629 630 1.12871e-23
630 630 0.00556076
671 630 -0.49991
817 630 -2.64334e-19
1813 630 -3.13187e-10
631 631 0.00230983
632 631 -9.30386e-11
633 631 1.39032e-10
634 631 -1.39032e-10
636 631 9.30386e-11
1813 631 -4.32959e-10
629 632 1.48234e-12
630 632 4.36712e-32
632 632 0.00278088
633 632 1.1414e-09
634 632 -0.99964
636 632 -9.86038e-11
671 632 3.41622e-20
817 632 -3.21477e-29
1813 632 -1.38616e-09
630 633 1.48331e-12
632 633 1.55758e-14
633 633 0.000352093
634 633 3.00208e-11
636 633 -2.36894e-08
671 633 2.10603e-09
817 633 1.11359e-27
1813 633 -0.99716
632 634 -0.00277988
633 634 2.76361e-12
634 634 0.00278188
636 634 -9.85329e-11
637 634 -9.85683e-11
640 634 -0.999281
671 634 -2.05807e-18
817 634 -3.21246e-29
1813 634 -3.94556e-10
634 635 -2.14903e-13
635 635 0.00230983
636 635 9.30387e-11
637 635 9.30387e-11
640 635 -1.8601e-10
671 635 -1.9148e-28
817 635 -2.98905e-39
1813 635 -4.32959e-10
632 636 -3.40391e-15
633 636 -4.58004e-10
634 636 -3.40267e-15
636 636 1.00067e-06
637 636 -0.000206187
640 636 -6.7996e-09
671 636 9.63928e-13
817 636 5.09688e-31
1813 636 -0.000456398
634 637 -3.40391e-15
636 637 -2.06325e-10
637 637 1.00067e-06
638 637 -3.40164e-09
640 637 -3.4006e-09
671 637 1.9875e-16
817 637 1.04982e-34
1806 637 -0.000457698
1813 637 -9.41035e-08
637 638 -2.74205e-13
638 638 0.0068203
640 638 -0.407589
671 638 7.99058e-27
817 638 0
1806 638 -1.84014e-14
1813 638 -1.46642e-10
637 639 -4.01419e-10
638 639 -3.65014e-13
639 639 0.000352093
640 639 6.14144e-10
671 639 2.26593e-22
817 639 1.19398e-40
1806 639 1.13957e-06
1813 639 -0.99716
634 640 -0.00277988
636 640 -5.48115e-13
637 640 -2.74121e-13
638 640 -0.00277988
640 640 0.00164983
671 640 -3.46742e-18
817 640 -5.41284e-29
1806 640 -2.48211e-10
1813 640 -9.12043e-10
641 641 0.00530206
810 641 -1.18945e-10
642 642 0.00158095
670 642 -2.03132e-10
810 642 2.03132e-10
1813 642 -6.32578e-10
643 643 0.000434078
646 643 7.53112e-26
810 643 -7.53112e-26
1813 643 -0.997696
644 644 0.00158069
645 644 -0.999367
813 644 -1.35875e-10
644 645 -0.00157969
645 645 0.00530229
812 645 -0.999623
813 645 -4.04806e-11
641 646 1.36461e-15
642 646 4.02792e-13
644 646 2.79951e-16
645 646 -1.98364e-16
646 646 0.00189614
670 646 1.94411e-11
810 646 -0.445392
812 646 -5.39476e-17
813 646 1.5826e-23
1813 646 -0.554081
647 647 0.00489816
651 647 -0.269967
648 648 0.00290329
651 648 -0.455463
649 649 1e-06
651 649 -3.82167e-08
1813 649 -2.05475e-06
650 650 1e-06
651 650 -3.84575e-08
1813 650 -3.11841e-06
647 651 -0.00132234
648 651 -0.00132234
649 651 -1.12347e-16
650 651 -1.13048e-16
651 651 0.00168642
656 651 1.66894e-09
1813 651 -2.56153e-09
652 652 0.000352093
653 652 2.08314e-09
1813 652 -0.99716
653 653 0.00430315
654 653 -7.72967e-11
1813 653 -4.64802e-10
653 654 -4.29973e-14
654 654 0.000845528
656 654 -0.998817
670 654 8.75528e-10
1813 654 -2.47118e-09
655 655 0.00404042
657 655 -7.9482e-11
658 655 7.9482e-11
659 655 7.16194e-33
1813 655 -2.47525e-10
654 656 -0.000844528
655 656 3.8021e-13
656 656 0.000846526
657 656 8.98429e-10
658 656 -4.35464e-11
659 656 -8.54883e-10
670 656 8.73461e-10
1813 656 -0.997639
657 657 0.00278088
658 657 -1.47246e-10
659 657 -0.99964
811 657 1.33997e-09
1813 657 -1.75512e-09
653 658 2.9173e-14
654 658 -2.9173e-14
656 658 -2.91385e-14
657 658 -5.41884e-14
658 658 0.000845528
659 658 -6.40653e-11
670 658 6.03092e-20
811 658 8.58765e-20
1813 658 -0.998817
653 659 -2.60878e-13
654 659 1.42028e-12
656 659 2.59198e-13
657 659 -0.00277988
658 659 -4.09327e-13
659 659 0.00278188
670 659 -5.28382e-19
811 659 1.33901e-09
1813 659 -2.52687e-09
658 660 1.48234e-12
659 660 9.49667e-23
660 660 0.00278088
662 660 1.1414e-09
663 660 -0.99964
665 660 -9.86038e-11
670 660 -3.21477e-29
811 660 -9.15032e-29
1813 660 -1.38616e-09
660 661 -2.14903e-13
661 661 0.00230983
662 661 1.39032e-10
663 661 -2.32037e-10
665 661 9.30386e-11
670 661 -2.99087e-39
811 661 -8.51337e-39
1813 661 -4.32959e-10
659 662 1.48331e-12
660 662 1.55758e-14
662 662 0.000352093
663 662 3.00208e-11
665 662 -2.36894e-08
670 662 2.22598e-27
811 662 -5.641e-18
1813 662 -0.99716
660 663 -0.00277988
662 663 2.76361e-12
663 663 0.00278188
665 663 -9.85329e-11
666 663 -9.85683e-11
669 663 -0.999281
670 663 -3.21246e-29
811 663 5.51252e-27
1813 663 -3.94556e-10
663 664 -2.14903e-13
664 664 0.00230983
665 664 9.30387e-11
666 664 9.30387e-11
669 664 -1.8601e-10
670 664 -2.98905e-39
811 664 5.12878e-37
1813 664 -4.32959e-10
660 665 -3.40391e-15
662 665 -4.58004e-10
663 665 -3.40267e-15
665 665 1.00067e-06
666 665 -0.000206187
669 665 -6.7996e-09
670 665 1.01883e-30
811 665 -2.58188e-21
1813 665 -0.000456398
663 666 -3.40391e-15
665 666 -2.06325e-10
666 666 1.00067e-06
668 666 -3.40164e-09
669 666 -3.4006e-09
670 666 2.09961e-34
811 666 -5.3235e-25
1806 666 -0.000457698
1813 666 -9.41035e-08
666 667 -4.01419e-10
667 667 0.000352093
668 667 -1.0367e-09
669 667 1.03669e-09
670 667 2.38794e-40
811 667 -6.06928e-31
1806 667 1.13957e-06
1813 667 -0.99716
666 668 -2.74205e-13
668 668 0.0068203
669 668 -0.407589
670 668 0
811 668 -2.14027e-35
1806 668 -1.84014e-14
1813 668 -1.46642e-10
663 669 -0.00277988
665 669 -5.48115e-13
666 669 -2.74121e-13
668 669 -0.00277988
669 669 0.00164983
670 669 -5.41284e-29
811 669 9.28746e-27
1806 669 -2.48211e-10
1813 669 -9.12043e-10
641 670 -4.94722e-13
643 670 7.78198e-13
644 670 -1.68531e-13
645 670 -1.68424e-13
646 670 -1.74108e-12
670 670 0.00640673
810 670 1.64026e-10
812 670 -2.62788e-11
813 670 2.63053e-11
1813 670 -4.3545e-10
629 671 -4.09474e-13
630 671 -0.00277988
646 671 3.7263e-12
670 671 -7.24432e-23
671 671 0.00139119
810 671 1.19298e-09
812 671 1.44497e-25
813 671 1.3274e-30
817 671 -5.28192e-19
1813 671 -2.94405e-09
672 672 0.00489816
676 672 -0.269967
673 673 0.00290329
676 673 -0.455463
674 674 1e-06
676 674 -3.84575e-08
1813 674 -3.11841e-06
675 675 1e-06
676 675 -3.82167e-08
1813 675 -2.05475e-06
672 676 -0.00132234
673 676 -0.00132234
674 676 -1.13048e-16
675 676 -1.12347e-16
676 676 0.00168642
681 676 1.66894e-09
1813 676 -2.56153e-09
677 677 0.000352093
678 677 2.08314e-09
1813 677 -0.99716
678 678 0.00430315
679 678 -7.72967e-11
1813 678 -4.64802e-10
678 679 -4.29973e-14
679 679 0.000845528
681 679 -0.998817
809 679 8.75528e-10
1813 679 -2.47118e-09
680 680 0.00404042
682 680 -7.9482e-11
683 680 7.16194e-33
684 680 7.9482e-11
1813 680 -2.47525e-10
679 681 -0.000844528
680 681 3.8021e-13
681 681 0.000846526
682 681 8.98429e-10
683 681 -8.54883e-10
684 681 -4.35464e-11
809 681 8.73461e-10
1813 681 -0.997639
682 682 0.00278088
683 682 -0.99964
684 682 -1.47246e-10
807 682 1.33997e-09
1813 682 -1.75512e-09
678 683 -2.60878e-13
679 683 1.42028e-12
681 683 2.59198e-13
682 683 -0.00277988
683 683 0.00278188
684 683 -1.4714e-10
807 683 1.33901e-09
809 683 -5.28382e-19
1813 683 -2.3799e-09
678 684 2.9173e-14
679 684 -2.9173e-14
681 684 -2.91385e-14
682 684 -5.41884e-14
683 684 -5.4169e-14
684 684 0.000845528
807 684 1.7166e-19
809 684 6.03092e-20
1813 684 -0.998817
685 685 0.00230983
686 685 1.39032e-10
687 685 -9.30386e-11
688 685 9.30386e-11
690 685 -1.39032e-10
1813 685 -4.32959e-10
683 686 1.48331e-12
684 686 2.18254e-22
686 686 0.000352093
687 686 4.42377e-11
688 686 -2.36894e-08
690 686 -1.4201e-11
807 686 -5.641e-18
809 686 2.22598e-27
1813 686 -0.99716
684 687 1.48234e-12
686 687 3.17408e-12
687 687 0.00278088
688 687 -9.86038e-11
690 687 -0.99964
807 687 6.34711e-27
809 687 -3.21477e-29
1813 687 -2.48011e-10
686 688 -4.58004e-10
687 688 -3.40389e-15
688 688 1.00067e-06
690 688 -3.4004e-09
691 688 -3.40164e-09
694 688 -0.000206187
807 688 -2.58188e-21
809 688 1.01883e-30
1813 688 -0.000456398
688 689 2.14903e-13
689 689 0.00230983
690 689 -9.30387e-11
691 689 -9.30387e-11
694 689 9.30578e-11
807 689 2.40214e-31
809 689 -9.46395e-41
1813 689 -4.32916e-10
686 690 -4.09329e-13
687 690 -0.00277988
688 690 -2.74106e-13
690 690 0.00278188
691 690 -0.999281
694 690 -9.85887e-11
807 690 5.51227e-27
809 690 -3.21246e-29
1813 690 -3.94601e-10
688 691 -2.74205e-13
690 691 -0.00277988
691 691 0.00278288
693 691 -0.998923
694 691 -9.85028e-11
807 691 5.50608e-27
809 691 -3.209e-29
1806 691 -1.47089e-10
1813 691 -3.94221e-10
691 692 3.65013e-13
692 692 0.000352093
693 692 -1.11702e-12
694 692 -1.14009e-06
807 692 -5.70812e-36
809 692 3.3268e-38
1806 692 1.14009e-06
1813 692 -0.99716
691 693 -0.00277988
693 693 0.00404342
694 693 -1.35537e-10
807 693 3.78547e-27
809 693 -2.20621e-29
1806 693 -1.01124e-10
1813 693 -5.18381e-10
688 694 -2.06325e-10
690 694 -3.40461e-15
691 694 -3.40287e-15
693 694 -6.80311e-15
694 694 1.00067e-06
807 694 -5.3235e-25
809 694 2.09701e-34
1806 694 -0.000457698
1813 694 -9.41035e-08
695 695 0.00178812
812 695 -0.999441
813 695 -1.35285e-10
696 696 0.00330478
698 696 -0.999697
813 696 -1.43919e-10
697 697 0.00230947
699 697 -0.999567
813 697 -1.37168e-10
696 698 -0.00330378
698 698 0.00530229
699 698 -0.999623
813 698 -8.96739e-11
697 699 -0.00230847
698 699 -0.00530029
699 699 0.00530429
812 699 -0.999246
813 699 -1.49303e-10
700 700 0.00489816
704 700 -0.269967
701 701 0.00290329
704 701 -0.455463
702 702 1e-06
704 702 -3.84575e-08
1813 702 -3.11841e-06
703 703 1e-06
704 703 -3.82167e-08
1813 703 -2.05475e-06
700 704 -0.00132234
701 704 -0.00132234
702 704 -1.13048e-16
703 704 -1.12347e-16
704 704 0.00168642
709 704 1.66894e-09
1813 704 -2.56153e-09
705 705 0.000352093
706 705 2.08314e-09
1813 705 -0.99716
706 706 0.00430315
707 706 -7.72967e-11
1813 706 -4.64802e-10
706 707 -4.29973e-14
707 707 0.000845528
709 707 -0.998817
806 707 8.75528e-10
1813 707 -2.47118e-09
708 708 0.00404042
710 708 -7.9482e-11
711 708 7.9482e-11
712 708 7.16194e-33
1813 708 -2.47525e-10
707 709 -0.000844528
708 709 3.8021e-13
709 709 0.000846526
710 709 8.98429e-10
711 709 -4.35464e-11
712 709 -8.54883e-10
806 709 8.73461e-10
1813 709 -0.997639
710 710 0.00278088
711 710 -1.47246e-10
712 710 -0.99964
808 710 1.33997e-09
1813 710 -1.75512e-09
706 711 2.9173e-14
707 711 -2.9173e-14
709 711 -2.91385e-14
710 711 -5.41884e-14
711 711 0.000845528
712 711 -6.40653e-11
806 711 6.03092e-20
808 711 8.58765e-20
1813 711 -0.998817
706 712 -2.60878e-13
707 712 1.42028e-12
709 712 2.59198e-13
710 712 -0.00277988
711 712 -4.09327e-13
712 712 0.00278188
806 712 -5.28382e-19
808 712 1.33901e-09
1813 712 -2.52687e-09
711 713 1.48234e-12
712 713 9.49667e-23
713 713 0.00278088
715 713 1.1414e-09
716 713 -0.99964
718 713 -9.86038e-11
806 713 -3.21477e-29
808 713 -9.15032e-29
1813 713 -1.38616e-09
713 714 -2.14903e-13
714 714 0.00230983
715 714 1.39032e-10
716 714 -2.32037e-10
718 714 9.30386e-11
806 714 -2.99087e-39
808 714 -8.51337e-39
1813 714 -4.32959e-10
712 715 1.48331e-12
713 715 1.55758e-14
715 715 0.000352093
716 715 3.00208e-11
718 715 -2.36894e-08
806 715 2.22598e-27
808 715 -5.641e-18
1813 715 -0.99716
713 716 -0.00277988
715 716 2.76361e-12
716 716 0.00278188
718 716 -9.85329e-11
719 716 -9.85683e-11
722 716 -0.999281
806 716 -3.21246e-29
808 716 5.51252e-27
1813 716 -3.94556e-10
716 717 -2.14903e-13
717 717 0.00230983
718 717 9.30387e-11
719 717 9.30387e-11
722 717 -1.8601e-10
806 717 -2.98905e-39
808 717 5.12878e-37
1813 717 -4.32959e-10
713 718 -3.40391e-15
715 718 -4.58004e-10
716 718 -3.40267e-15
718 718 1.00067e-06
719 718 -0.000206187
722 718 -6.7996e-09
806 718 1.01883e-30
808 718 -2.58188e-21
1813 718 -0.000456398
716 719 -3.40391e-15
718 719 -2.06325e-10
719 719 1.00067e-06
720 719 -3.40164e-09
722 719 -3.4006e-09
806 719 2.09961e-34
808 719 -5.3235e-25
1806 719 -0.000457698
1813 719 -9.41035e-08
719 720 -2.74205e-13
720 720 0.0068203
722 720 -0.407589
806 720 0
808 720 -2.14027e-35
1806 720 -1.84014e-14
1813 720 -1.46642e-10
719 721 -4.01419e-10
720 721 -3.65014e-13
721 721 0.000352093
722 721 6.14144e-10
806 721 2.38794e-40
808 721 -6.06928e-31
1806 721 1.13957e-06
1813 721 -0.99716
716 722 -0.00277988
718 722 -5.48115e-13
719 722 -2.74121e-13
720 722 -0.00277988
722 722 0.00164983
806 722 -5.41284e-29
808 722 9.28746e-27
1806 722 -2.48211e-10
1813 722 -9.12043e-10
723 723 0.00530206
803 723 -1.18945e-10
724 724 0.000434078
803 724 -7.53112e-26
811 724 7.53112e-26
1813 724 -0.997696
725 725 0.00158095
803 725 2.03132e-10
806 725 -2.03132e-10
1813 725 -6.32578e-10
726 726 0.00530206
781 726 -1.18945e-10
727 727 0.000434078
781 727 -7.53112e-26
808 727 7.53112e-26
1813 727 -0.997696
728 728 0.00158095
781 728 2.03132e-10
809 728 -2.03132e-10
1813 728 -6.32578e-10
729 729 0.00956453
1813 729 -2.09341e-10
729 730 1.25987e-12
730 730 0.000680777
731 730 -0.998531
732 730 -3.23598e-11
1813 730 -3.8418e-09
730 731 -0.000679777
731 731 0.000681776
732 731 -3.22649e-11
1813 731 -0.997069
730 732 -2.20298e-14
731 732 -2.19975e-14
732 732 0.000680777
1813 732 -0.998531
733 733 0.00158095
739 733 1.42785e-09
1813 733 -1.74748e-09
734 734 0.00230983
735 734 8.7766e-33
740 734 -8.72661e-26
1813 734 -8.65891e-10
734 735 7.39312e-35
735 735 0.00384937
739 735 3.94457e-11
740 735 -0.277576
746 735 7.28263e-11
1813 735 -5.92404e-10
736 736 0.00316089
738 736 -0.499842
737 737 0.00230983
738 737 8.77661e-33
741 737 -8.72661e-26
1813 737 -8.65891e-10
736 738 -0.00157995
737 738 2.21807e-34
738 738 0.00185972
739 738 8.16474e-11
741 738 -0.574547
747 738 1.03243e-09
1813 738 -2.64574e-09
734 739 7.49789e-13
735 739 -8.31858e-13
737 739 7.49789e-13
738 739 -8.31858e-13
739 739 0.000639615
740 739 9.35863e-10
741 739 5.49636e-10
746 739 9.47149e-20
747 739 1.34274e-18
1813 739 -0.998437
731 740 2.87295e-12
732 740 9.26955e-23
734 740 -2.0157e-28
735 740 -0.00106849
739 740 -1.514e-13
740 740 0.000772905
741 740 1.07665e-19
746 740 1.00678e-10
747 740 2.63021e-28
1813 740 -2.92416e-09
732 741 1.70401e-12
737 741 -2.0157e-28
738 741 -0.00106849
739 741 -1.06308e-13
740 741 9.94895e-23
741 741 0.000455594
746 741 1.15326e-31
747 741 2.42133e-09
1813 741 -9.66459e-09
742 742 1.00055e-06
745 742 -0.00054393
746 742 -0
743 743 1.00079e-06
744 743 -0.000791386
746 743 -0
743 744 -5.71292e-10
744 744 1.00207e-06
745 744 -0.00149274
746 744 0
742 745 -3.22439e-10
744 745 -8.31558e-10
745 745 1.00262e-06
746 745 0
747 745 -0.00146041
735 746 1.45861e-12
736 746 1.92127e-12
738 746 9.97195e-13
739 746 -1.38954e-22
740 746 4.04876e-13
741 746 5.72935e-13
742 746 -0
743 746 -0
744 746 0
745 746 0
746 746 0.000630738
747 746 -3.83171e-18
1813 746 -0.998415
736 747 -1.92127e-12
738 747 9.97802e-13
739 747 -8.1468e-23
740 747 7.62429e-32
741 747 5.73284e-13
745 747 -2.63932e-11
746 747 -2.66247e-44
747 747 0.000664973
1813 747 -0.998496
748 748 0.00530206
780 748 -1.18945e-10
749 749 0.00158095
780 749 2.03132e-10
814 749 -2.03132e-10
1813 749 -6.32578e-10
750 750 0.000434078
780 750 -7.53112e-26
807 750 7.53112e-26
1813 750 -0.997696
751 751 1.00024e-06
755 751 -0.000116677
815 751 -0.000116677
752 752 0.010091
753 752 -0
815 752 2.92611e-11
1813 752 -1.28374e-10
753 753 1.00068e-06
754 753 -0.000680609
815 753 -0
753 754 -3.42412e-10
754 754 1.00092e-06
755 754 -0.00057315
815 754 0
751 755 -2.17016e-12
754 755 -1.05001e-11
755 755 0.000270407
815 755 -9.36399e-13
1813 755 -0.996302
756 756 0.00956453
1813 756 -2.09341e-10
756 757 1.25987e-12
757 757 0.000680777
758 757 -0.998531
759 757 -7.82188e-11
1813 757 -3.8418e-09
757 758 -0.000679777
758 758 0.000681776
759 758 -7.79895e-11
1813 758 -0.997069
757 759 -3.3265e-13
758 759 -3.32161e-13
759 759 0.00430315
1813 759 -5.41766e-10
758 760 2.87433e-12
759 760 2.24167e-22
760 760 0.00230983
1813 760 -2.06086e-10
759 761 7.33494e-13
760 761 3.82692e-13
761 761 0.000639615
1813 761 -0.998437
761 762 1.08339e-12
762 762 0.00158095
1813 762 -3.20705e-10
763 763 0.00158095
772 763 1.42785e-09
1813 763 -1.74748e-09
764 764 0.00230983
771 764 -8.72661e-26
778 764 8.77661e-33
1813 764 -8.65891e-10
765 765 0.00230983
770 765 -8.72661e-26
779 765 8.7766e-33
1813 765 -8.65891e-10
766 766 0.00956453
1813 766 -2.09341e-10
766 767 1.25987e-12
767 767 0.000680777
768 767 -0.998531
769 767 -3.23598e-11
1813 767 -3.8418e-09
767 768 -0.000679777
768 768 0.000681776
769 768 -3.22649e-11
1813 768 -0.997069
767 769 -2.20298e-14
768 769 -2.19975e-14
769 769 0.000680777
1813 769 -0.998531
765 770 -2.0157e-28
768 770 2.87295e-12
769 770 9.26955e-23
770 770 0.00106949
772 770 -1.80971e-10
779 770 -0.999065
1813 770 -1.38005e-09
764 771 -2.0157e-28
769 771 1.70401e-12
771 771 0.00106949
772 771 -1.80971e-10
778 771 -0.999065
1813 771 -1.37452e-09
764 772 7.49789e-13
765 772 7.49789e-13
770 772 8.29496e-13
771 772 8.29496e-13
772 772 0.000639615
778 772 -4.90447e-12
779 772 -4.90456e-12
1813 772 -0.998437
773 773 0.00316089
778 773 -0.499842
774 774 1.00046e-06
775 774 -0.000456811
777 774 -0
774 775 -2.34755e-10
775 775 1.00092e-06
776 775 -0.000679126
777 775 0
773 776 -1.92127e-12
775 776 -1.22897e-11
776 776 0.000419157
777 776 0
778 776 2.3805e-09
1813 776 -0.997614
773 777 1.92127e-12
774 777 -0
775 777 0
776 777 0
777 777 0.000384921
778 777 2.59064e-09
779 777 3.78938e-09
1813 777 -0.997402
764 778 2.21807e-34
771 778 -0.00106849
772 778 -4.15254e-14
773 778 -0.00157995
776 778 1.6816e-12
777 778 0
778 778 0.000792222
779 778 -2.57079e-22
1813 778 -5.69844e-09
765 779 7.39312e-35
770 779 -0.00106849
772 779 -4.15254e-14
777 779 2.29914e-13
778 779 -5.95829e-22
779 779 0.00278188
1813 779 -1.26414e-09
748 780 -7.70349e-15
751 780 -1.02315e-10
755 780 -1.19378e-14
762 780 3.96112e-13
780 780 0.000845528
807 780 -0.998817
814 780 -6.40883e-11
815 780 1.20993e-07
1813 780 -2.44942e-09
726 781 -7.70349e-15
751 781 -1.02315e-10
755 781 1.02303e-10
763 781 3.96112e-13
772 781 -5.65588e-22
778 781 -2.77391e-33
779 781 -2.77396e-33
781 781 0.000845528
808 781 -0.998817
809 781 -6.40883e-11
815 781 -1.41187e-11
1813 781 1.1811e-07
782 782 1.00098e-06
785 782 -0.000972139
801 782 -0
783 783 1.00117e-06
784 783 -0.00116349
801 783 -0
783 784 -9.45262e-10
784 784 1.00409e-06
785 784 -0.00313233
801 784 0
782 785 -7.52965e-10
784 785 -2.48472e-09
785 785 1.00599e-06
801 785 0
802 785 -0.00274399
786 786 1.00059e-06
801 786 -0
802 786 -0.000585057
787 787 0.00956453
1813 787 -2.09341e-10
787 788 1.25987e-12
788 788 0.000680777
789 788 -0.998531
790 788 -3.23598e-11
1813 788 -3.8418e-09
788 789 -0.000679777
789 789 0.000681776
790 789 -3.22649e-11
1813 789 -0.997069
788 790 -2.20298e-14
789 790 -2.19975e-14
790 790 0.000680777
1813 790 -0.998531
791 791 0.00158095
797 791 1.42785e-09
1813 791 -1.74748e-09
792 792 0.00230983
793 792 8.77661e-33
798 792 -8.72661e-26
1813 792 -8.65891e-10
792 793 7.39313e-35
793 793 0.00384937
797 793 3.94457e-11
798 793 -0.277576
801 793 1.09239e-10
1813 793 -6.28817e-10
794 794 0.00316089
796 794 -0.499842
795 795 0.00230983
796 795 8.77661e-33
799 795 -8.72661e-26
1813 795 -8.65891e-10
794 796 -0.00157995
795 796 2.21807e-34
796 796 0.00185972
797 796 8.16474e-11
799 796 -0.574547
800 796 1.49262e-09
1813 796 -3.10593e-09
792 797 7.49789e-13
793 797 -8.31858e-13
795 797 7.49789e-13
796 797 -8.31858e-13
797 797 0.000639615
798 797 9.35863e-10
799 797 5.49636e-10
800 797 1.94125e-18
801 797 1.42072e-19
1813 797 -0.998437
789 798 2.87295e-12
790 798 9.26955e-23
792 798 -2.0157e-28
793 798 -0.00106849
797 798 -1.514e-13
798 798 0.000772905
799 798 1.07665e-19
800 798 3.8026e-28
801 798 1.51017e-10
1813 798 -2.9745e-09
790 799 1.70401e-12
795 799 -2.0157e-28
796 799 -0.00106849
797 799 -1.06308e-13
798 799 9.94895e-23
799 799 0.000455594
800 799 3.50061e-09
801 799 1.72988e-31
1813 799 -1.07439e-08
794 800 -1.92127e-12
796 800 9.97803e-13
797 800 -8.1468e-23
798 800 7.62429e-32
799 800 5.73284e-13
800 800 0.000664973
801 800 -5.90045e-41
802 800 -6.07479e-08
1813 800 -0.998496
782 801 -0
783 801 -0
784 801 0
785 801 0
786 801 -0
793 801 1.45861e-12
794 801 1.92127e-12
796 801 9.97194e-13
797 801 -1.38954e-22
798 801 4.04876e-13
799 801 5.72935e-13
800 801 -3.49406e-21
801 801 0.000630738
802 801 -3.36521e-25
1813 801 -0.998415
785 802 -1.3275e-09
786 802 -3.63816e-10
800 802 -2.24376e-09
801 802 0
802 802 1.00394e-06
1813 802 -0.0022316
723 803 -7.70349e-15
733 803 3.96112e-13
739 803 -5.65588e-22
740 803 5.29313e-31
741 803 3.10868e-31
746 803 2.8026e-43
747 803 6.72343e-42
754 803 -5.02831e-10
755 803 5.02542e-10
803 803 0.000845528
806 803 -6.40883e-11
811 803 -0.998817
815 803 5.56552e-19
1813 803 5.8972e-07
730 804 1.65399e-20
731 804 1.65156e-20
732 804 -1.65399e-20
757 804 -3.68631e-14
758 804 -3.68089e-14
759 804 3.68631e-14
767 804 1.65399e-20
768 804 1.65156e-20
769 804 -1.65399e-20
788 804 1.65399e-20
789 804 1.65156e-20
790 804 -1.65399e-20
804 804 0.000845528
1813 804 -0.998817
730 805 1.16898e-12
731 805 -1.71705e-15
732 805 3.77724e-23
757 805 1.43123e-12
758 805 2.58776e-13
759 805 -2.60878e-13
767 805 1.16898e-12
768 805 -1.71705e-15
769 805 3.77724e-23
788 805 1.16898e-12
789 805 -1.71705e-15
790 805 3.77724e-23
804 805 7.31534e-13
805 805 0.00278088
1813 805 -2.14398e-10
695 806 -1.89823e-13
699 806 2.25482e-24
723 806 -4.94722e-13
724 806 7.78198e-13
783 806 -0
784 806 -0
785 806 0
801 806 0
802 806 0
803 806 1.82633e-12
806 806 0.00640673
811 806 1.29689e-11
812 806 -2.96122e-11
813 806 2.96288e-11
815 806 -1.58654e-28
1813 806 -2.84874e-10
696 807 8.36403e-16
698 807 -2.53104e-19
699 807 -2.53009e-19
742 807 -1.97536e-10
745 807 -1.08568e-09
746 807 0
747 807 1.28152e-09
748 807 1.36461e-15
749 807 4.02792e-13
774 807 -1.97986e-10
775 807 -3.97774e-10
776 807 5.954e-10
777 807 0
778 807 -1.41735e-18
779 807 -3.64371e-40
780 807 -0.000844528
786 807 -1.97346e-10
800 807 1.96615e-09
801 807 0
802 807 -1.76892e-09
807 807 0.00105262
812 807 -2.40181e-16
813 807 1.143e-22
814 807 -1.63984e-11
815 807 9.70739e-08
1813 807 -0.998098
697 808 4.99174e-16
698 808 4.91944e-16
699 808 -4.01652e-19
726 808 1.36461e-15
728 808 4.02792e-13
743 808 -1.96545e-10
744 808 -3.95521e-10
745 808 5.9132e-10
746 808 0
747 808 8.6357e-13
781 808 -0.000844528
782 808 -1.95989e-10
785 808 -1.08098e-09
801 808 0
802 808 1.27381e-09
808 808 0.00105262
809 808 -1.63984e-11
812 808 -3.81288e-16
813 808 1.06901e-22
815 808 -1.13277e-11
1813 808 -0.998101
697 809 -2.4858e-13
698 809 2.60659e-24
699 809 -2.48472e-13
726 809 -4.94722e-13
727 809 7.78198e-13
743 809 -0
744 809 -0
745 809 0
746 809 0
747 809 0
781 809 1.82633e-12
782 809 -0
785 809 -0
801 809 0
802 809 0
808 809 8.30882e-14
809 809 0.00640673
812 809 -3.87538e-11
813 809 3.87998e-11
815 809 4.17167e-21
1813 809 -2.7193e-10
641 810 -7.70349e-15
646 810 -0.000844528
670 810 -3.77699e-14
753 810 -3.0194e-10
754 810 3.01734e-10
755 810 1.72939e-13
791 810 3.96112e-13
797 810 -5.65588e-22
798 810 5.29313e-31
799 810 3.10868e-31
800 810 9.71941e-42
801 810 4.18988e-43
802 810 0
810 810 0.000469382
812 810 -9.70664e-17
813 810 2.14519e-21
815 810 3.45007e-22
1813 810 -0.996921
695 811 3.38505e-16
699 811 4.25752e-16
723 811 1.36461e-15
725 811 4.02792e-13
783 811 -1.95496e-10
784 811 -3.93044e-10
785 811 5.87081e-10
801 811 0
802 811 1.61095e-12
803 811 -0.000844528
806 811 -1.72612e-14
811 811 0.00105262
812 811 -4.84652e-16
813 811 5.89758e-22
815 811 4.46529e-19
1813 811 -0.998101
645 812 -0.00530029
695 812 -0.00178712
699 812 -0.00530029
812 812 7.99214e-06
813 812 -1.56113e-07
616 813 -2.60471e-13
617 813 -4.07433e-14
618 813 1.71025e-13
644 813 -2.62281e-15
645 813 -2.62115e-15
695 813 -2.95486e-15
696 813 -5.81206e-15
697 813 -3.8707e-15
698 813 -5.8103e-15
699 813 -9.67714e-15
812 813 -1.52432e-14
813 813 0.000664973
818 813 -2.18672e-19
1813 813 -0.998496
696 814 -3.73183e-13
698 814 -3.7307e-13
699 814 -3.72929e-13
742 814 -0
745 814 -0
746 814 0
747 814 0
748 814 -4.94722e-13
750 814 7.78198e-13
774 814 -0
775 814 -0
776 814 0
777 814 0
778 814 0
779 814 0
780 814 1.82633e-12
786 814 -0
800 814 0
801 814 0
802 814 0
807 814 8.30882e-14
812 814 -3.72648e-13
813 814 3.73183e-13
814 814 0.00640673
815 814 -3.57497e-17
818 814 1.27373e-29
1813 814 -2.13769e-10
382 815 3.94296e-13
383 815 5.08871e-20
384 815 -5.08746e-20
385 815 8.81558e-16
386 815 2.03294e-13
614 815 1.69605e-14
615 815 1.0145e-12
751 815 -2.17016e-12
752 815 3.78951e-13
753 815 0
754 815 0
755 815 -2.53209e-16
815 815 0.000994277
816 815 0
818 815 0
1018 815 0
1813 815 -0.998994
387 816 2.59481e-13
388 816 -9.17117e-14
389 816 2.21407e-13
613 816 -3.8108e-22
805 816 3.7998e-13
816 816 0.00107269
818 816 -0
1018 816 -0
1813 816 -0.999068
243 817 -3.73183e-13
244 817 -3.7307e-13
245 817 -3.72929e-13
311 817 -0
314 817 -0
315 817 0
316 817 0
322 817 -4.94722e-13
324 817 7.78198e-13
343 817 -0
344 817 -0
345 817 0
346 817 0
347 817 0
348 817 0
349 817 1.82633e-12
355 817 -0
369 817 0
370 817 0
371 817 0
375 817 8.30882e-14
380 817 -3.72648e-13
381 817 3.73183e-13
817 817 0.00640673
819 817 -3.57497e-17
1018 817 1.61379e-29
1813 817 -2.13769e-10
299 818 1.65399e-20
300 818 -1.65399e-20
301 818 1.65156e-20
326 818 -3.68631e-14
327 818 3.68631e-14
329 818 -3.6809e-14
336 818 1.65399e-20
337 818 -1.65399e-20
338 818 1.65156e-20
363 818 1.65399e-20
364 818 -1.65399e-20
365 818 1.65156e-20
373 818 3.67141e-13
616 818 2.60471e-13
617 818 -4.07433e-14
618 818 1.70933e-13
813 818 -5.03053e-23
816 818 -0
818 818 0.00107269
1018 818 -0
1813 818 -0.999068
317 819 -2.17016e-12
318 819 3.78951e-13
319 819 0
320 819 0
321 819 -2.53209e-16
383 819 1.69605e-14
384 819 1.0145e-12
385 819 -5.53402e-14
386 819 2.58635e-13
816 819 0
818 819 0
819 819 0.000994277
1018 819 0
1813 819 -0.998994
820 820 1.00092e-06
824 820 -0.000342098
1014 820 -0.00057315
821 821 1.00025e-06
823 821 -0.000246164
1813 821 -1.99957e-06
821 822 -2.10716e-10
822 822 0.010091
823 822 2.08766e-08
824 822 -0
1016 822 2.92611e-11
1813 822 -1.28416e-10
821 823 -1.72251e-12
823 823 0.00122117
1247 823 0
1492 823 -0
1813 823 -8.18889e-10
820 824 -6.81075e-10
824 824 1.00068e-06
1014 824 -3.90091e-07
1016 824 -0
825 825 0.00489816
829 825 -0.269967
826 826 0.00290329
829 826 -0.455463
827 827 1e-06
829 827 -3.82167e-08
1813 827 -2.05475e-06
828 828 1e-06
829 828 -3.84575e-08
1813 828 -3.11841e-06
825 829 -0.00132234
826 829 -0.00132234
827 829 -1.12347e-16
828 829 -1.13048e-16
829 829 0.00168642
834 829 1.66894e-09
1813 829 -2.56153e-09
830 830 0.000352093
831 830 2.08314e-09
1813 830 -0.99716
831 831 0.00430315
832 831 -7.72967e-11
1813 831 -4.64802e-10
831 832 -4.29973e-14
832 832 0.000845528
834 832 -0.998817
1007 832 8.75528e-10
1813 832 -2.47118e-09
833 833 0.00404042
835 833 -7.9482e-11
836 833 7.16194e-33
837 833 7.9482e-11
1813 833 -2.47525e-10
832 834 -0.000844528
833 834 3.8021e-13
834 834 0.000846526
835 834 8.98429e-10
836 834 -8.54883e-10
837 834 -4.35464e-11
1007 834 8.73461e-10
1813 834 -0.997639
835 835 0.00278088
836 835 -0.99964
837 835 -1.47246e-10
1008 835 1.33997e-09
1813 835 -1.75512e-09
831 836 -2.60878e-13
832 836 1.42028e-12
834 836 2.59198e-13
835 836 -0.00277988
836 836 0.00278188
837 836 -1.4714e-10
1007 836 -5.28382e-19
1008 836 1.33901e-09
1813 836 -2.3799e-09
831 837 2.9173e-14
832 837 -2.9173e-14
834 837 -2.91385e-14
835 837 -5.41884e-14
836 837 -5.4169e-14
837 837 0.000845528
1007 837 6.03092e-20
1008 837 1.7166e-19
1813 837 -0.998817
838 838 0.00230983
839 838 1.39032e-10
840 838 -9.30386e-11
841 838 -1.39032e-10
843 838 9.30386e-11
1813 838 -4.32959e-10
836 839 1.48331e-12
837 839 2.18254e-22
839 839 0.000352093
840 839 4.42377e-11
841 839 -1.4201e-11
843 839 -2.36894e-08
1007 839 2.22598e-27
1008 839 -5.641e-18
1813 839 -0.99716
837 840 1.48234e-12
839 840 3.17408e-12
840 840 0.00278088
841 840 -0.99964
843 840 -9.86038e-11
1007 840 -3.21477e-29
1008 840 6.34711e-27
1813 840 -2.48011e-10
839 841 -4.09329e-13
840 841 -0.00277988
841 841 0.00278188
843 841 -9.85329e-11
844 841 -9.85683e-11
847 841 -0.999281
1007 841 -3.21246e-29
1008 841 5.51252e-27
1813 841 -3.94556e-10
841 842 -2.14903e-13
842 842 0.00230983
843 842 9.30387e-11
844 842 9.30387e-11
847 842 -1.8601e-10
1007 842 -2.98905e-39
1008 842 5.12878e-37
1813 842 -4.32959e-10
839 843 -4.58004e-10
840 843 -3.40389e-15
841 843 -3.40267e-15
843 843 1.00067e-06
844 843 -0.000206187
847 843 -6.7996e-09
1007 843 1.01883e-30
1008 843 -2.58188e-21
1813 843 -0.000456398
841 844 -3.40391e-15
843 844 -2.06325e-10
844 844 1.00067e-06
845 844 -3.40164e-09
847 844 -3.4006e-09
1007 844 2.09961e-34
1008 844 -5.3235e-25
1806 844 -0.000457698
1813 844 -9.41035e-08
844 845 -2.74205e-13
845 845 0.0068203
847 845 -0.407589
1007 845 0
1008 845 -2.14027e-35
1806 845 -1.84014e-14
1813 845 -1.46642e-10
844 846 -4.01419e-10
845 846 -3.65014e-13
846 846 0.000352093
847 846 6.14144e-10
1007 846 2.38794e-40
1008 846 -6.06928e-31
1806 846 1.13957e-06
1813 846 -0.99716
841 847 -0.00277988
843 847 -5.48115e-13
844 847 -2.74121e-13
845 847 -0.00277988
847 847 0.00164983
1007 847 -5.41284e-29
1008 847 9.28746e-27
1806 847 -2.48211e-10
1813 847 -9.12043e-10
848 848 0.00230947
928 848 -0.999567
1017 848 -1.37168e-10
849 849 0.00330478
850 849 -0.999697
1017 849 -1.43919e-10
849 850 -0.00330378
850 850 0.00530229
928 850 -0.999623
1017 850 -8.96739e-11
851 851 0.00489816
855 851 -0.269967
852 852 0.00290329
855 852 -0.455463
853 853 1e-06
855 853 -3.84575e-08
1813 853 -3.11841e-06
854 854 1e-06
855 854 -3.82167e-08
1813 854 -2.05475e-06
851 855 -0.00132234
852 855 -0.00132234
853 855 -1.13048e-16
854 855 -1.12347e-16
855 855 0.00168642
860 855 1.66894e-09
1813 855 -2.56153e-09
856 856 0.000352093
857 856 2.08314e-09
1813 856 -0.99716
857 857 0.00430315
858 857 -7.72967e-11
1813 857 -4.64802e-10
857 858 -4.29973e-14
858 858 0.000845528
860 858 -0.998817
1010 858 8.75528e-10
1813 858 -2.47118e-09
859 859 0.00404042
861 859 -7.9482e-11
862 859 7.9482e-11
863 859 7.16194e-33
1813 859 -2.47525e-10
858 860 -0.000844528
859 860 3.8021e-13
860 860 0.000846526
861 860 8.98429e-10
862 860 -4.35464e-11
863 860 -8.54883e-10
1010 860 8.73461e-10
1813 860 -0.997639
861 861 0.00278088
862 861 -1.47246e-10
863 861 -0.99964
1011 861 1.33997e-09
1813 861 -1.75512e-09
857 862 2.9173e-14
858 862 -2.9173e-14
860 862 -2.91385e-14
861 862 -5.41884e-14
862 862 0.000845528
863 862 -6.40653e-11
1010 862 6.03092e-20
1011 862 8.58765e-20
1813 862 -0.998817
857 863 -2.60878e-13
858 863 1.42028e-12
860 863 2.59198e-13
861 863 -0.00277988
862 863 -4.09327e-13
863 863 0.00278188
1010 863 -5.28382e-19
1011 863 1.33901e-09
1813 863 -2.52687e-09
864 864 0.00230983
865 864 -9.30386e-11
866 864 1.39032e-10
867 864 -1.39032e-10
869 864 9.30386e-11
1813 864 -4.32959e-10
862 865 1.48234e-12
863 865 9.49667e-23
865 865 0.00278088
866 865 1.1414e-09
867 865 -0.99964
869 865 -9.86038e-11
1010 865 -3.21477e-29
1011 865 -9.15032e-29
1813 865 -1.38616e-09
863 866 1.48331e-12
865 866 1.55758e-14
866 866 0.000352093
867 866 3.00208e-11
869 866 -2.36894e-08
1010 866 2.22598e-27
1011 866 -5.641e-18
1813 866 -0.99716
865 867 -0.00277988
866 867 2.76361e-12
867 867 0.00278188
869 867 -9.85329e-11
870 867 -9.85683e-11
873 867 -0.999281
1010 867 -3.21246e-29
1011 867 5.51252e-27
1813 867 -3.94556e-10
867 868 -2.14903e-13
868 868 0.00230983
869 868 9.30387e-11
870 868 9.30387e-11
873 868 -1.8601e-10
1010 868 -2.98905e-39
1011 868 5.12878e-37
1813 868 -4.32959e-10
865 869 -3.40391e-15
866 869 -4.58004e-10
867 869 -3.40267e-15
869 869 1.00067e-06
870 869 -0.000206187
873 869 -6.7996e-09
1010 869 1.01883e-30
1011 869 -2.58188e-21
1813 869 -0.000456398
867 870 -3.40391e-15
869 870 -2.06325e-10
870 870 1.00067e-06
871 870 -3.40164e-09
873 870 -3.4006e-09
1010 870 2.09961e-34
1011 870 -5.3235e-25
1806 870 -0.000457698
1813 870 -9.41035e-08
870 871 -2.74205e-13
871 871 0.0068203
873 871 -0.407589
1010 871 0
1011 871 -2.14027e-35
1806 871 -1.84014e-14
1813 871 -1.46642e-10
870 872 -4.01419e-10
871 872 -3.65014e-13
872 872 0.000352093
873 872 6.14144e-10
1010 872 2.38794e-40
1011 872 -6.06928e-31
1806 872 1.13957e-06
1813 872 -0.99716
867 873 -0.00277988
869 873 -5.48115e-13
870 873 -2.74121e-13
871 873 -0.00277988
873 873 0.00164983
1010 873 -5.41284e-29
1011 873 9.28746e-27
1806 873 -2.48211e-10
1813 873 -9.12043e-10
874 874 0.000352093
875 874 2.08314e-09
1813 874 -0.99716
875 875 0.00430315
1019 875 -7.72967e-11
1813 875 -4.64802e-10
876 876 0.00489816
880 876 -0.269967
877 877 0.00290329
880 877 -0.455463
878 878 1e-06
880 878 -3.82167e-08
1813 878 -2.05475e-06
879 879 1e-06
880 879 -3.84575e-08
1813 879 -3.11841e-06
876 880 -0.00132234
877 880 -0.00132234
878 880 -1.12347e-16
879 880 -1.13048e-16
880 880 0.00168642
882 880 1.66894e-09
1813 880 -2.56153e-09
881 881 0.00404042
883 881 -7.9482e-11
884 881 7.9482e-11
885 881 7.16194e-33
1813 881 -2.47525e-10
881 882 3.8021e-13
882 882 0.00169006
883 882 4.50011e-10
884 882 -2.18118e-11
885 882 -4.282e-10
1019 882 -0.499704
1813 882 -0.499704
883 883 0.00278088
884 883 -1.47246e-10
885 883 -0.99964
927 883 1.33997e-09
1813 883 -1.75512e-09
875 884 2.9173e-14
882 884 2.17692e-29
883 884 -5.41884e-14
884 884 0.000845528
885 884 -6.40653e-11
927 884 8.58765e-20
1019 884 -3.45027e-11
1813 884 -0.998817
875 885 -2.60878e-13
882 885 -1.1594e-12
883 885 -0.00277988
884 885 -4.09327e-13
885 885 0.00278188
927 885 1.33901e-09
1019 885 3.02286e-10
1813 885 -2.82808e-09
886 886 0.00230983
887 886 -9.30386e-11
888 886 1.39032e-10
889 886 -1.39032e-10
891 886 9.30386e-11
1813 886 -4.32959e-10
884 887 1.48234e-12
885 887 9.49667e-23
887 887 0.00278088
888 887 1.1414e-09
889 887 -0.99964
891 887 -9.86038e-11
927 887 -9.15032e-29
1019 887 1.83916e-20
1813 887 -1.38616e-09
885 888 1.48331e-12
887 888 1.55758e-14
888 888 0.000352093
889 888 3.00208e-11
891 888 -2.36894e-08
927 888 -5.641e-18
1019 888 -1.27348e-18
1813 888 -0.99716
887 889 -0.00277988
888 889 2.76361e-12
889 889 0.00278188
891 889 -9.85329e-11
892 889 -9.85683e-11
895 889 -0.999281
927 889 5.51252e-27
1019 889 1.83784e-20
1813 889 -3.94556e-10
889 890 -2.14903e-13
890 890 0.00230983
891 890 9.30387e-11
892 890 9.30387e-11
895 890 -1.8601e-10
927 890 5.12878e-37
1019 890 1.7099e-30
1813 890 -4.32959e-10
887 891 -3.40391e-15
888 891 -4.58004e-10
889 891 -3.40267e-15
891 891 1.00067e-06
892 891 -0.000206187
895 891 -6.7996e-09
927 891 -2.58188e-21
1019 891 -5.82868e-22
1813 891 -0.000456398
889 892 -3.40391e-15
891 892 -2.06325e-10
892 892 1.00067e-06
893 892 -3.40164e-09
895 892 -3.4006e-09
927 892 -5.3235e-25
1019 892 -1.20117e-25
1806 892 -0.000457698
1813 892 -9.41035e-08
892 893 -2.74205e-13
893 893 0.0068203
895 893 -0.407589
927 893 -2.14027e-35
1019 893 -4.82923e-36
1806 893 -1.84014e-14
1813 893 -1.46642e-10
892 894 -4.01419e-10
893 894 -3.65014e-13
894 894 0.000352093
895 894 6.14144e-10
927 894 -6.06928e-31
1019 894 -1.36945e-31
1806 894 1.13957e-06
1813 894 -0.99716
889 895 -0.00277988
891 895 -5.48115e-13
892 895 -2.74121e-13
893 895 -0.00277988
895 895 0.00164983
927 895 9.28746e-27
1019 895 3.09667e-20
1806 895 -2.48211e-10
1813 895 -9.12043e-10
896 896 0.00489816
900 896 -0.269967
897 897 0.00290329
900 897 -0.455463
898 898 1e-06
900 898 -3.82167e-08
1813 898 -2.05475e-06
899 899 1e-06
900 899 -3.84575e-08
1813 899 -3.11841e-06
896 900 -0.00132234
897 900 -0.00132234
898 900 -1.12347e-16
899 900 -1.13048e-16
900 900 0.00168642
905 900 1.66894e-09
1813 900 -2.56153e-09
901 901 0.000352093
902 901 2.08314e-09
1813 901 -0.99716
902 902 0.00430315
903 902 -7.72967e-11
1813 902 -4.64802e-10
902 903 -4.29973e-14
903 903 0.000845528
905 903 -0.998817
926 903 8.75528e-10
1813 903 -2.47118e-09
904 904 0.00404042
906 904 -7.9482e-11
907 904 7.9482e-11
908 904 7.16194e-33
1813 904 -2.47525e-10
903 905 -0.000844528
904 905 3.8021e-13
905 905 0.000846526
906 905 8.98429e-10
907 905 -4.35464e-11
908 905 -8.54883e-10
926 905 8.73461e-10
1813 905 -0.997639
906 906 0.00278088
907 906 -1.47246e-10
908 906 -0.99964
1009 906 1.33997e-09
1813 906 -1.75512e-09
902 907 2.9173e-14
903 907 -2.9173e-14
905 907 -2.91385e-14
906 907 -5.41884e-14
907 907 0.000845528
908 907 -6.40653e-11
926 907 6.03092e-20
1009 907 8.58765e-20
1813 907 -0.998817
902 908 -2.60878e-13
903 908 1.42028e-12
905 908 2.59198e-13
906 908 -0.00277988
907 908 -4.09327e-13
908 908 0.00278188
926 908 -5.28382e-19
1009 908 1.33901e-09
1813 908 -2.52687e-09
909 909 0.00230983
910 909 -9.30386e-11
911 909 1.39032e-10
912 909 9.30386e-11
914 909 -1.39032e-10
1813 909 -4.32959e-10
907 910 1.48234e-12
908 910 9.49667e-23
910 910 0.00278088
911 910 1.1414e-09
912 910 -9.86038e-11
914 910 -0.99964
926 910 -3.21477e-29
1009 910 -9.15032e-29
1813 910 -1.38616e-09
908 911 1.48331e-12
910 911 1.55758e-14
911 911 0.000352093
912 911 -2.36894e-08
914 911 3.00208e-11
926 911 2.22598e-27
1009 911 -5.641e-18
1813 911 -0.99716
910 912 -3.40391e-15
911 912 -4.58004e-10
912 912 1.00067e-06
914 912 -3.4004e-09
915 912 -0.000206187
918 912 -3.40164e-09
926 912 1.01883e-30
1009 912 -2.58188e-21
1813 912 -0.000456398
912 913 2.14903e-13
913 913 0.00230983
914 913 -9.30387e-11
915 913 9.30578e-11
918 913 -9.30387e-11
926 913 -9.46395e-41
1009 913 2.40214e-31
1813 913 -4.32916e-10
910 914 -0.00277988
911 914 2.76361e-12
912 914 -2.74107e-13
914 914 0.00278188
915 914 -9.85887e-11
918 914 -0.999281
926 914 -3.21246e-29
1009 914 5.51227e-27
1813 914 -3.94601e-10
912 915 -2.06325e-10
914 915 -3.40461e-15
915 915 1.00067e-06
917 915 -3.40164e-09
918 915 -3.4006e-09
926 915 2.09961e-34
1009 915 -5.3235e-25
1806 915 -0.000457698
1813 915 -9.41035e-08
915 916 -4.01419e-10
916 916 0.000352093
917 916 -1.0367e-09
918 916 1.03669e-09
926 916 2.38794e-40
1009 916 -6.06928e-31
1806 916 1.13957e-06
1813 916 -0.99716
915 917 -2.74205e-13
917 917 0.0068203
918 917 -0.407589
926 917 0
1009 917 -2.14027e-35
1806 917 -1.84014e-14
1813 917 -1.46642e-10
912 918 -2.74205e-13
914 918 -0.00277988
915 918 -2.74121e-13
917 918 -0.00277988
918 918 0.00164983
926 918 -5.41284e-29
1009 918 9.28746e-27
1806 918 -2.48211e-10
1813 918 -9.12043e-10
919 919 0.00530206
1012 919 -1.18945e-10
920 920 0.000434078
927 920 7.53112e-26
1012 920 -7.53112e-26
1813 920 -0.997696
921 921 0.00158095
926 921 -2.03132e-10
1012 921 2.03132e-10
1813 921 -6.32578e-10
922 922 0.00178812
925 922 -0.999441
1017 922 -1.35285e-10
923 923 0.00158069
924 923 -0.999367
1017 923 -1.35875e-10
923 924 -0.00157969
924 924 0.00530229
925 924 -0.999623
1017 924 -4.04806e-11
922 925 -0.00178712
924 925 -0.00530029
925 925 0.00530429
928 925 -0.999246
1017 925 -8.60303e-11
919 926 -4.94722e-13
920 926 7.78198e-13
923 926 -1.68531e-13
924 926 -1.68424e-13
925 926 -1.68361e-13
926 926 0.00640673
927 926 -2.71759e-10
928 926 -2.62589e-11
1012 926 2.85065e-10
1017 926 2.63053e-11
1813 926 -2.84874e-10
919 927 1.36461e-15
921 927 4.02792e-13
923 927 2.79951e-16
924 927 -1.98609e-16
925 927 -1.02226e-19
926 927 3.68631e-14
927 927 0.00189614
928 927 -5.38716e-17
1012 927 -0.445392
1017 927 -4.95588e-22
1813 927 -0.554081
848 928 -0.00230847
850 928 -0.00530029
925 928 -0.00530029
928 928 7.99261e-06
1017 928 -1.56136e-07
929 929 0.00530206
1013 929 -1.18945e-10
930 930 0.00158095
1010 930 -2.03132e-10
1013 930 2.03132e-10
1813 930 -6.32578e-10
931 931 0.000434078
1009 931 7.53112e-26
1013 931 -7.53112e-26
1813 931 -0.997696
932 932 0.00530206
964 932 -1.18945e-10
933 933 0.000434078
964 933 -7.53112e-26
1011 933 7.53112e-26
1813 933 -0.997696
934 934 0.00158095
964 934 2.03132e-10
1007 934 -2.03132e-10
1813 934 -6.32578e-10
935 935 0.00956453
1813 935 -1.04774e-10
935 936 8.8118e-13
936 936 0.000680777
937 936 -0.998531
938 936 -7.82188e-11
1813 936 -3.78861e-09
936 937 -0.000679777
937 937 0.000681776
938 937 -7.79895e-11
1813 937 -0.997069
936 938 -3.3265e-13
937 938 -3.32161e-13
938 938 0.00430315
1813 938 -5.41766e-10
937 939 2.87433e-12
938 939 2.24168e-22
939 939 0.00230983
1813 939 -2.06086e-10
938 940 7.33494e-13
939 940 3.82692e-13
940 940 0.000639615
1813 940 -0.998437
940 941 1.08339e-12
941 941 0.00158095
1813 941 -3.20705e-10
942 942 0.00530206
946 942 -1.18945e-10
943 943 0.000434078
946 943 -7.53112e-26
1008 943 7.53112e-26
1813 943 -0.997696
944 944 0.00158095
946 944 2.03132e-10
1015 944 -2.03132e-10
1813 944 -6.32578e-10
945 945 1.00024e-06
1014 945 -0.000116677
1016 945 -0.000116677
941 946 3.96112e-13
942 946 -7.70349e-15
945 946 -1.02315e-10
946 946 0.000845528
1008 946 -0.998817
1014 946 -1.41187e-11
1015 946 -6.40883e-11
1016 946 1.20993e-07
1813 946 -2.43535e-09
947 947 0.00158095
956 947 1.42785e-09
1813 947 -1.74748e-09
948 948 0.00230983
955 948 -8.72661e-26
962 948 8.77661e-33
1813 948 -8.65891e-10
949 949 0.00230983
954 949 -8.72661e-26
963 949 8.7766e-33
1813 949 -8.65891e-10
950 950 0.00956453
1813 950 -1.04774e-10
950 951 8.8118e-13
951 951 0.000680777
952 951 -0.998531
953 951 -3.23598e-11
1813 951 -3.78861e-09
951 952 -0.000679777
952 952 0.000681776
953 952 -3.22649e-11
1813 952 -0.997069
951 953 -2.20298e-14
952 953 -2.19975e-14
953 953 0.000680777
1813 953 -0.998531
949 954 -2.0157e-28
952 954 2.87295e-12
953 954 9.26956e-23
954 954 0.00106949
956 954 -1.80971e-10
963 954 -0.999065
1813 954 -1.38005e-09
948 955 -2.0157e-28
953 955 1.70401e-12
955 955 0.00106949
956 955 -1.80971e-10
962 955 -0.999065
1813 955 -1.37452e-09
948 956 7.49789e-13
949 956 7.49789e-13
954 956 8.29496e-13
955 956 8.29496e-13
956 956 0.000639615
962 956 -4.90447e-12
963 956 -4.90456e-12
1813 956 -0.998437
957 957 0.00316089
962 957 -0.499842
958 958 1.00046e-06
959 958 -0.000456811
961 958 -0
958 959 -2.34755e-10
959 959 1.00092e-06
960 959 -0.000679127
961 959 0
957 960 -1.92127e-12
959 960 -1.22897e-11
960 960 0.000419157
961 960 0
962 960 2.3805e-09
1813 960 -0.997614
957 961 1.92127e-12
958 961 -0
959 961 0
960 961 0
961 961 0.000384921
962 961 2.59064e-09
963 961 3.78938e-09
1813 961 -0.997402
948 962 2.21807e-34
955 962 -0.00106849
956 962 -4.15254e-14
957 962 -0.00157995
960 962 1.6816e-12
961 962 0
962 962 0.000792222
963 962 -2.57079e-22
1813 962 -5.69844e-09
949 963 7.39312e-35
954 963 -0.00106849
956 963 -4.15254e-14
961 963 2.29914e-13
962 963 -5.95829e-22
963 963 0.00278188
1813 963 -1.26414e-09
932 964 -7.70349e-15
945 964 -1.02315e-10
947 964 3.96112e-13
956 964 -5.65588e-22
962 964 -2.77391e-33
963 964 -2.77396e-33
964 964 0.000845528
1007 964 -6.40883e-11
1011 964 -0.998817
1014 964 1.20993e-07
1016 964 -1.41187e-11
1813 964 -2.43535e-09
965 965 0.00956453
1813 965 -1.04774e-10
965 966 8.8118e-13
966 966 0.000680777
967 966 -0.998531
968 966 -3.23598e-11
1813 966 -3.78861e-09
966 967 -0.000679777
967 967 0.000681776
968 967 -3.22649e-11
1813 967 -0.997069
966 968 -2.20298e-14
967 968 -2.19975e-14
968 968 0.000680777
1813 968 -0.998531
969 969 0.00158095
975 969 1.42785e-09
1813 969 -1.74748e-09
970 970 0.00230983
971 970 8.7766e-33
976 970 -8.72661e-26
1813 970 -8.65891e-10
970 971 7.39312e-35
971 971 0.00384937
975 971 3.94457e-11
976 971 -0.277576
982 971 7.28263e-11
1813 971 -5.92404e-10
972 972 0.00316089
974 972 -0.499842
973 973 0.00230983
974 973 8.77661e-33
977 973 -8.72661e-26
1813 973 -8.65891e-10
972 974 -0.00157995
973 974 2.21807e-34
974 974 0.00185972
975 974 8.16474e-11
977 974 -0.574547
983 974 1.03243e-09
1813 974 -2.64574e-09
970 975 7.49789e-13
971 975 -8.31858e-13
973 975 7.49789e-13
974 975 -8.31858e-13
975 975 0.000639615
976 975 9.35863e-10
977 975 5.49636e-10
982 975 9.47149e-20
983 975 1.34274e-18
1813 975 -0.998437
967 976 2.87295e-12
968 976 9.26956e-23
970 976 -2.0157e-28
971 976 -0.00106849
975 976 -1.514e-13
976 976 0.000772905
977 976 1.07665e-19
982 976 1.00678e-10
983 976 2.63021e-28
1813 976 -2.92416e-09
968 977 1.70401e-12
973 977 -2.0157e-28
974 977 -0.00106849
975 977 -1.06308e-13
976 977 9.94895e-23
977 977 0.000455594
982 977 1.15326e-31
983 977 2.42133e-09
1813 977 -9.66459e-09
978 978 1.00055e-06
981 978 -0.00054393
982 978 -0
979 979 1.00079e-06
980 979 -0.000791386
982 979 -0
979 980 -5.71292e-10
980 980 1.00207e-06
981 980 -0.00149274
982 980 0
978 981 -3.22439e-10
980 981 -8.31558e-10
981 981 1.00262e-06
982 981 0
983 981 -0.00146041
971 982 1.45861e-12
972 982 1.92127e-12
974 982 9.97195e-13
975 982 -1.38954e-22
976 982 4.04876e-13
977 982 5.72935e-13
978 982 -0
979 982 -0
980 982 0
981 982 0
982 982 0.000630738
983 982 -3.83171e-18
1813 982 -0.998415
972 983 -1.92127e-12
974 983 9.97802e-13
975 983 -8.1468e-23
976 983 7.62429e-32
977 983 5.73284e-13
981 983 -2.63932e-11
982 983 -2.66247e-44
983 983 0.000664973
1813 983 -0.998496
984 984 1.00098e-06
987 984 -0.000972139
1003 984 -0
985 985 1.00117e-06
986 985 -0.00116349
1003 985 -0
985 986 -9.45261e-10
986 986 1.00409e-06
987 986 -0.00313232
1003 986 0
984 987 -7.52966e-10
986 987 -2.48472e-09
987 987 1.00599e-06
1003 987 0
1004 987 -0.002744
988 988 1.00059e-06
1003 988 -0
1004 988 -0.000585057
989 989 0.00956453
1813 989 -1.04774e-10
989 990 8.8118e-13
990 990 0.000680777
991 990 -3.23598e-11
992 990 -0.998531
1813 990 -3.78861e-09
990 991 -2.20298e-14
991 991 0.000680777
992 991 -3.23123e-11
1813 991 -0.998531
990 992 -0.000679777
991 992 -2.19975e-14
992 992 0.000681776
1813 992 -0.997069
993 993 0.00158095
999 993 1.42785e-09
1813 993 -1.74748e-09
994 994 0.00230983
995 994 8.77661e-33
1000 994 -8.72661e-26
1813 994 -8.65891e-10
994 995 7.39313e-35
995 995 0.00384937
999 995 3.94457e-11
1000 995 -0.277576
1003 995 1.09239e-10
1813 995 -6.28817e-10
996 996 0.00316089
998 996 -0.499842
997 997 0.00230983
998 997 8.77661e-33
1001 997 -8.72661e-26
1813 997 -8.65891e-10
996 998 -0.00157995
997 998 2.21807e-34
998 998 0.00185972
999 998 8.16474e-11
1001 998 -0.574547
1002 998 1.49262e-09
1813 998 -3.10593e-09
994 999 7.49789e-13
995 999 -8.31858e-13
997 999 7.49789e-13
998 999 -8.31858e-13
999 999 0.000639615
1000 999 9.35863e-10
1001 999 5.49636e-10
1002 999 1.94125e-18
1003 999 1.42072e-19
1813 999 -0.998437
992 1000 2.87295e-12
994 1000 -2.0157e-28
995 1000 -0.00106849
999 1000 -1.514e-13
1000 1000 0.000772905
1001 1000 1.07665e-19
1002 1000 3.8026e-28
1003 1000 1.51017e-10
1813 1000 -2.9745e-09
991 1001 1.70401e-12
992 1001 5.50603e-23
997 1001 -2.0157e-28
998 1001 -0.00106849
999 1001 -1.06308e-13
1000 1001 9.94895e-23
1001 1001 0.000455594
1002 1001 3.50061e-09
1003 1001 1.72988e-31
1813 1001 -1.07439e-08
996 1002 -1.92127e-12
998 1002 9.97803e-13
999 1002 -8.1468e-23
1000 1002 7.62429e-32
1001 1002 5.73284e-13
1002 1002 0.000664973
1003 1002 -5.90045e-41
1004 1002 -6.07479e-08
1813 1002 -0.998496
984 1003 -0
985 1003 -0
986 1003 0
987 1003 0
988 1003 -0
995 1003 1.45861e-12
996 1003 1.92127e-12
998 1003 9.97194e-13
999 1003 -1.38954e-22
1000 1003 4.04876e-13
1001 1003 5.72935e-13
1002 1003 -3.49406e-21
1003 1003 0.000630738
1004 1003 -3.36521e-25
1813 1003 -0.998415
987 1004 -1.3275e-09
988 1004 -3.63815e-10
1002 1004 -2.24376e-09
1003 1004 0
1004 1004 1.00394e-06
1813 1004 -0.0022316
936 1005 -3.68631e-14
937 1005 -3.68089e-14
938 1005 3.68631e-14
951 1005 1.65399e-20
952 1005 1.65156e-20
953 1005 -1.65399e-20
966 1005 1.65399e-20
967 1005 1.65156e-20
968 1005 -1.65399e-20
990 1005 1.65399e-20
991 1005 -1.65399e-20
992 1005 1.65156e-20
1005 1005 0.00125781
1813 1005 -0.999205
936 1006 1.43123e-12
937 1006 2.58776e-13
938 1006 -2.60878e-13
951 1006 1.16898e-12
952 1006 -1.71716e-15
953 1006 3.77725e-23
966 1006 1.16898e-12
967 1006 -1.71716e-15
968 1006 3.77725e-23
990 1006 1.16898e-12
991 1006 3.78279e-23
992 1006 -1.71716e-15
1005 1006 7.24032e-13
1006 1006 0.00404042
1813 1006 -1.47494e-10
848 1007 -2.4858e-13
850 1007 2.60569e-24
928 1007 -2.48472e-13
932 1007 -4.94722e-13
933 1007 7.78198e-13
964 1007 1.82633e-12
979 1007 -0
980 1007 -0
981 1007 0
982 1007 0
983 1007 0
984 1007 -0
987 1007 -0
1003 1007 0
1004 1007 0
1007 1007 0.00640673
1011 1007 1.29689e-11
1014 1007 -3.44907e-17
1016 1007 4.02476e-21
1017 1007 3.87998e-11
1813 1007 -2.84874e-10
849 1008 8.3656e-16
850 1008 -2.53157e-19
928 1008 -2.53062e-19
942 1008 1.36461e-15
944 1008 4.02792e-13
946 1008 -0.000844528
958 1008 -1.97986e-10
959 1008 -3.97774e-10
960 1008 5.954e-10
961 1008 0
962 1008 -1.41735e-18
963 1008 -3.64371e-40
978 1008 -1.97536e-10
981 1008 -1.08568e-09
982 1008 0
983 1008 1.28152e-09
988 1008 -1.97346e-10
1002 1008 1.96615e-09
1003 1008 0
1004 1008 -1.76892e-09
1008 1008 0.00105262
1014 1008 -1.13277e-11
1015 1008 -1.63984e-11
1016 1008 9.70739e-08
1017 1008 7.68202e-23
1813 1008 -0.998098
922 1009 3.38415e-16
925 1009 -4.25942e-16
928 1009 1.3182e-19
929 1009 1.36461e-15
930 1009 4.02792e-13
985 1009 -1.95497e-10
986 1009 -3.9304e-10
987 1009 5.87078e-10
1003 1009 0
1004 1009 1.61094e-12
1009 1009 0.00189614
1010 1009 1.94411e-11
1013 1009 -0.445392
1017 1009 1.5674e-23
1813 1009 -0.554081
922 1010 -1.89823e-13
925 1010 -1.89717e-13
928 1010 -1.89574e-13
929 1010 -4.94722e-13
931 1010 7.78198e-13
985 1010 -0
986 1010 -0
987 1010 0
1003 1010 0
1004 1010 0
1009 1010 -1.74108e-12
1010 1010 0.00640673
1013 1010 1.64026e-10
1017 1010 2.96288e-11
1813 1010 -4.3545e-10
848 1011 4.99025e-16
850 1011 4.92179e-16
928 1011 -4.01652e-19
932 1011 1.36461e-15
934 1011 4.02792e-13
964 1011 -0.000844528
979 1011 -1.96545e-10
980 1011 -3.95521e-10
981 1011 5.9132e-10
982 1011 0
983 1011 8.6357e-13
984 1011 -1.95988e-10
987 1011 -1.08098e-09
1003 1011 0
1004 1011 1.27381e-09
1007 1011 -1.72612e-14
1011 1011 0.00105262
1014 1011 9.70739e-08
1016 1011 -1.13277e-11
1017 1011 6.83635e-22
1813 1011 -0.998101
820 1012 3.0194e-10
824 1012 -3.01837e-10
919 1012 -7.70349e-15
926 1012 -5.41884e-14
927 1012 -0.000844528
928 1012 -4.54974e-20
993 1012 3.96112e-13
999 1012 -5.65588e-22
1000 1012 5.29313e-31
1001 1012 3.10868e-31
1002 1012 9.71941e-42
1003 1012 4.18988e-43
1004 1012 0
1012 1012 0.000469382
1014 1012 3.6844e-10
1016 1012 0
1017 1012 2.13004e-21
1813 1012 -0.996921
820 1013 -5.02831e-10
824 1013 -1.72017e-13
929 1013 -7.70349e-15
969 1013 3.96112e-13
975 1013 -5.65588e-22
976 1013 5.29313e-31
977 1013 3.10868e-31
982 1013 2.8026e-43
983 1013 6.72343e-42
1009 1013 -0.000844528
1010 1013 -3.77699e-14
1013 1013 0.000469382
1014 1013 1.07065e-06
1016 1013 0
1017 1013 2.41235e-21
1813 1013 -0.996921
820 1014 -1.05001e-11
824 1014 -3.59208e-15
945 1014 -2.17016e-12
1014 1014 0.000270407
1016 1014 -9.36399e-13
1813 1014 -0.996302
849 1015 -3.73183e-13
850 1015 -3.7307e-13
928 1015 -3.72929e-13
942 1015 -4.94722e-13
943 1015 7.78198e-13
946 1015 1.82633e-12
958 1015 -0
959 1015 -0
960 1015 0
961 1015 0
962 1015 0
963 1015 0
978 1015 -0
981 1015 -0
982 1015 0
983 1015 0
988 1015 -0
1002 1015 0
1003 1015 0
1004 1015 0
1008 1015 8.30882e-14
1014 1015 2.67267e-23
1015 1015 0.00640673
1016 1015 -3.57497e-17
1017 1015 5.82486e-11
1813 1015 -2.7193e-10
156 1016 3.25211e-14
157 1016 1.90468e-17
158 1016 1.62442e-12
168 1016 -5.18588e-17
169 1016 5.18588e-17
170 1016 2.86554e-24
171 1016 1.30312e-13
174 1016 3.40289e-13
175 1016 -6.12662e-14
183 1016 1.78581e-13
184 1016 -6.77259e-23
822 1016 3.78951e-13
823 1016 -7.9112e-21
824 1016 0
945 1016 -2.17016e-12
1014 1016 -2.53209e-16
1016 1016 0.000994277
1018 1016 0
1247 1016 0
1492 1016 0
1800 1016 0
1802 1016 1.27947e-28
1803 1016 -6.20543e-39
1813 1016 -0.998994
159 1017 4.31071e-13
161 1017 -2.60471e-13
162 1017 -4.07433e-14
163 1017 1.71025e-13
165 1017 -1.75764e-22
174 1017 -7.26349e-13
183 1017 5.1611e-13
184 1017 -1.95732e-22
848 1017 -3.8707e-15
849 1017 -5.81206e-15
850 1017 -5.8103e-15
922 1017 -2.95486e-15
923 1017 -2.62281e-15
924 1017 -2.62115e-15
925 1017 -5.57337e-15
928 1017 -1.52463e-14
1017 1017 0.000779487
1492 1017 -1.34241e-19
1802 1017 4.71669e-28
1803 1017 -2.2876e-38
1813 1017 -0.998717
174 1018 3.89239e-13
175 1018 1.072e-15
183 1018 1.3419e-13
184 1018 -5.08909e-23
185 1018 2.60471e-13
186 1018 -4.07433e-14
187 1018 1.70933e-13
381 1018 -5.03053e-23
816 1018 -0
818 1018 -0
1006 1018 3.74833e-13
1018 1018 0.00107269
1492 1018 -0
1800 1018 -0
1802 1018 8.91143e-29
1803 1018 -4.32267e-39
1813 1018 -0.999068
155 1019 -1.06043e-12
181 1019 3.7998e-13
182 1019 5.67355e-24
184 1019 -9.42154e-30
875 1019 -4.29973e-14
882 1019 -0.000844528
883 1019 3.80047e-13
884 1019 -1.84207e-14
885 1019 1.8284e-14
927 1019 -5.33734e-22
928 1019 -2.87531e-38
1012 1019 -2.37721e-22
1014 1019 8.75858e-32
1016 1019 8.26766e-44
1017 1019 2.36819e-43
1018 1019 0
1019 1019 0.000423514
1247 1019 0
1248 1019 1.54093e-09
1492 1019 0
1800 1019 0
1802 1019 4.17867e-35
1803 1019 0
1813 1019 -0.996459
1020 1020 0.00278088
1021 1020 5.68319e-18
1045 1020 1.03907e-32
1805 1020 -5.68319e-18
1813 1020 -3.59625e-10
1021 1021 0.00278088
1045 1021 -0.99964
1246 1021 1.33997e-09
1805 1021 -8.89483e-12
1813 1021 -1.75512e-09
1022 1022 0.00807984
1490 1022 -0.499938
1023 1023 0.00290329
1027 1023 -0.455463
1024 1024 0.00489816
1027 1024 -0.269967
1025 1025 1e-06
1027 1025 -3.82167e-08
1813 1025 -2.05475e-06
1026 1026 1e-06
1027 1026 -3.84575e-08
1813 1026 -3.11841e-06
1023 1027 -0.00132234
1024 1027 -0.00132234
1025 1027 -1.12347e-16
1026 1027 -1.13048e-16
1027 1027 0.00168642
1032 1027 1.66894e-09
1813 1027 -2.56153e-09
1028 1028 0.000352093
1029 1028 2.08314e-09
1813 1028 -0.99716
1029 1029 0.00430315
1030 1029 -7.72967e-11
1813 1029 -4.64802e-10
1022 1030 -1.06043e-12
1029 1030 -4.29973e-14
1030 1030 0.000845528
1032 1030 -0.998817
1490 1030 7.71832e-10
1813 1030 -2.56036e-09
1031 1031 0.00404042
1033 1031 7.94819e-11
1034 1031 1.78894e-32
1045 1031 -7.94819e-11
1813 1031 -2.47525e-10
1030 1032 -0.000844528
1031 1032 3.8021e-13
1032 1032 0.000846526
1033 1032 -4.35464e-11
1034 1032 -2.13536e-09
1045 1032 2.17891e-09
1490 1032 7.7001e-10
1813 1032 -0.997639
1029 1033 2.9173e-14
1030 1033 -2.9173e-14
1032 1033 -2.91385e-14
1033 1033 0.000845528
1034 1033 -7.35888e-20
1045 1033 -6.40883e-11
1490 1033 5.31663e-20
1813 1033 -0.998817
1029 1034 -2.60878e-13
1030 1034 1.42028e-12
1032 1034 2.59198e-13
1033 1034 1.12871e-23
1034 1034 0.00556076
1045 1034 -0.49991
1490 1034 -2.33027e-19
1813 1034 -3.13187e-10
1033 1035 1.48234e-12
1034 1035 1.09084e-31
1035 1035 0.00278088
1037 1035 1.1414e-09
1038 1035 -9.86038e-11
1040 1035 -0.99964
1045 1035 3.41622e-20
1490 1035 -2.83402e-29
1813 1035 -1.38616e-09
1035 1036 -2.14903e-13
1036 1036 0.00230983
1037 1036 1.39032e-10
1038 1036 9.30386e-11
1040 1036 -2.32037e-10
1045 1036 3.1784e-30
1490 1036 -2.63658e-39
1813 1036 -4.32959e-10
1034 1037 2.56727e-12
1035 1037 1.55758e-14
1037 1037 0.000352093
1038 1037 -2.36894e-08
1040 1037 3.00208e-11
1045 1037 3.64507e-09
1490 1037 1.6991e-27
1813 1037 -0.99716
1035 1038 -3.40391e-15
1037 1038 -4.58004e-10
1038 1038 1.00067e-06
1040 1038 -3.4004e-09
1041 1038 -0.000206187
1044 1038 -3.40164e-09
1045 1038 1.66834e-12
1490 1038 7.77675e-31
1813 1038 -0.000456398
1038 1039 2.14903e-13
1039 1039 0.00230983
1040 1039 -9.30387e-11
1041 1039 9.30578e-11
1044 1039 -9.30387e-11
1045 1039 -1.5522e-22
1490 1039 -7.21935e-41
1813 1039 -4.32916e-10
1035 1040 -0.00277988
1037 1040 2.76361e-12
1038 1040 -2.74107e-13
1040 1040 0.00278188
1041 1040 -9.85887e-11
1044 1040 -0.999281
1045 1040 -3.58683e-18
1490 1040 -2.83199e-29
1813 1040 -3.94601e-10
1038 1041 -2.06325e-10
1040 1041 -3.40461e-15
1041 1041 1.00067e-06
1042 1041 -3.40164e-09
1044 1041 -3.4006e-09
1045 1041 3.4399e-16
1490 1041 1.6025e-34
1806 1041 -0.000457698
1813 1041 -9.41035e-08
1041 1042 -2.74205e-13
1042 1042 0.0068203
1044 1042 -0.407589
1045 1042 1.38299e-26
1490 1042 0
1806 1042 -1.84014e-14
1813 1042 -1.46642e-10
1041 1043 -4.01419e-10
1042 1043 -3.65014e-13
1043 1043 0.000352093
1044 1043 6.14144e-10
1045 1043 3.92181e-22
1490 1043 1.83075e-40
1806 1043 1.13957e-06
1813 1043 -0.99716
1038 1044 -2.74205e-13
1040 1044 -0.00277988
1041 1044 -2.74121e-13
1042 1044 -0.00277988
1044 1044 0.00164983
1045 1044 -6.04335e-18
1490 1044 -4.77175e-29
1806 1044 -2.48211e-10
1813 1044 -9.12043e-10
1021 1045 -0.00277988
1033 1045 -4.09474e-13
1034 1045 -0.00277988
1045 1045 0.00139219
1246 1045 2.67561e-09
1490 1045 -4.653e-19
1805 1045 -1.77609e-11
1813 1045 -6.57859e-09
1046 1046 0.00530206
1115 1046 -1.18945e-10
1047 1047 0.00158095
1115 1047 2.03132e-10
1242 1047 -2.03132e-10
1813 1047 -6.32578e-10
1048 1048 0.000434078
1115 1048 -7.53112e-26
1240 1048 7.53112e-26
1813 1048 -0.997696
1049 1049 0.00125781
1057 1049 -2.68935e-11
1813 1049 -0.999205
1050 1050 0.00230983
1053 1050 -1.43952e-10
1051 1051 0.00956453
1813 1051 -1.04774e-10
1052 1052 0.00201978
1053 1052 -0.499752
1813 1052 -0.499752
1050 1053 -4.06129e-15
1052 1053 -0.00100939
1053 1053 0.000505945
1057 1053 -3.47286e-11
1813 1053 -0.997036
1054 1054 0.00230983
1056 1054 -1.43952e-10
1055 1055 0.00201978
1056 1055 -0.499752
1813 1055 -0.499752
1054 1056 -4.06129e-15
1055 1056 -0.00100939
1056 1056 0.00118572
1057 1056 -0.573302
1813 1056 -0.425433
1049 1057 -3.38267e-14
1051 1057 8.81179e-13
1053 1057 -1.75707e-14
1056 1057 -0.000679777
1057 1057 0.000291059
1813 1057 -0.99361
1058 1058 0.00158095
1064 1058 1.42785e-09
1813 1058 -1.74748e-09
1059 1059 0.00230983
1060 1059 8.7766e-33
1072 1059 -8.72661e-26
1813 1059 -8.65891e-10
1059 1060 7.39312e-35
1060 1060 0.00384937
1064 1060 3.94457e-11
1069 1060 7.28263e-11
1072 1060 -0.277576
1813 1060 -5.92404e-10
1061 1061 0.00316089
1063 1061 -0.499842
1062 1062 0.00230983
1063 1062 8.77661e-33
1071 1062 -8.72661e-26
1813 1062 -8.65891e-10
1061 1063 -0.00157995
1062 1063 2.21807e-34
1063 1063 0.00185972
1064 1063 8.16474e-11
1070 1063 1.03243e-09
1071 1063 -0.574547
1813 1063 -2.64574e-09
1059 1064 7.49789e-13
1060 1064 -8.31858e-13
1062 1064 7.49789e-13
1063 1064 -8.31858e-13
1064 1064 0.000639615
1069 1064 9.47149e-20
1070 1064 1.34274e-18
1071 1064 5.49636e-10
1072 1064 9.35863e-10
1813 1064 -0.998437
1065 1065 1.00055e-06
1068 1065 -0.00054393
1069 1065 -0
1066 1066 1.00079e-06
1067 1066 -0.000791386
1069 1066 -0
1066 1067 -5.71292e-10
1067 1067 1.00207e-06
1068 1067 -0.00149274
1069 1067 0
1065 1068 -3.22439e-10
1067 1068 -8.31558e-10
1068 1068 1.00262e-06
1069 1068 0
1070 1068 -0.00146041
1060 1069 1.45861e-12
1061 1069 1.92127e-12
1063 1069 9.97195e-13
1064 1069 -1.38954e-22
1065 1069 -0
1066 1069 -0
1067 1069 0
1068 1069 0
1069 1069 0.000630738
1070 1069 -1.63227e-18
1071 1069 9.08356e-10
1072 1069 6.41909e-10
1813 1069 -0.998415
1061 1070 -1.92127e-12
1063 1070 9.97802e-13
1064 1070 -8.1468e-23
1068 1070 -2.63932e-11
1069 1070 7.71555e-42
1070 1070 0.000664973
1071 1070 8.62116e-10
1072 1070 1.14656e-28
1813 1070 -0.998496
1050 1071 -2.60878e-13
1052 1071 -1.15179e-12
1053 1071 8.37056e-13
1057 1071 2.90698e-23
1062 1071 -2.0157e-28
1063 1071 -0.00106849
1064 1071 -1.06308e-13
1069 1071 1.00689e-32
1070 1071 1.10315e-12
1071 1071 0.000455594
1072 1071 2.18373e-19
1813 1071 -7.84171e-09
1054 1072 -2.60878e-13
1055 1072 -2.87769e-12
1056 1072 1.70044e-12
1057 1072 9.74864e-13
1059 1072 -2.0157e-28
1060 1072 -0.00106849
1064 1072 -1.514e-13
1069 1072 7.78144e-14
1070 1072 3.30305e-31
1071 1072 1.25317e-23
1072 1072 0.000772905
1813 1072 -3.17313e-09
1073 1073 0.00230983
1080 1073 -1.43952e-10
1073 1074 -2.60878e-13
1074 1074 0.00178841
1075 1074 -1.60954e-09
1080 1074 1.75541e-09
1813 1074 -5.59183e-10
1075 1075 0.00201978
1080 1075 -0.499752
1813 1075 -0.499752
1076 1076 0.00461866
1079 1076 -0.499892
1077 1077 0.00956453
1813 1077 -1.04774e-10
1078 1078 0.00125781
1079 1078 -6.07827e-11
1813 1078 -0.999205
1076 1079 -0.00230883
1078 1079 -2.25621e-16
1079 1079 0.00115566
1081 1079 -1.67576e-10
1813 1079 -1.7308e-09
1073 1080 -4.06128e-15
1075 1080 -0.00100939
1080 1080 0.00118572
1081 1080 -0.573302
1813 1080 -0.425433
1077 1081 8.8118e-13
1079 1081 -4.12974e-14
1080 1081 -0.000679777
1081 1081 0.000291059
1082 1081 -1.16219e-10
1813 1081 -0.99361
1081 1082 -3.38268e-14
1082 1082 0.00125781
1813 1082 -0.999205
1083 1083 1.00092e-06
1084 1083 -0.000342102
1091 1083 -0.000573156
1083 1084 -6.81082e-10
1084 1084 1.00068e-06
1091 1084 -3.901e-07
1249 1084 -0
1085 1085 0.00530206
1090 1085 -1.18945e-10
1086 1086 0.000434078
1090 1086 -7.53112e-26
1241 1086 7.53112e-26
1813 1086 -0.997696
1087 1087 0.00158095
1090 1087 2.03132e-10
1248 1087 -2.03132e-10
1813 1087 -6.32578e-10
1088 1088 0.00158095
1114 1088 6.8528e-10
1813 1088 -1.00491e-09
1089 1089 1.00024e-06
1091 1089 -0.000116677
1249 1089 -0.000116677
1085 1090 -7.70349e-15
1088 1090 3.96112e-13
1089 1090 -1.02315e-10
1090 1090 0.000845528
1091 1090 -1.41187e-11
1114 1090 -3.21039e-19
1241 1090 -0.998817
1248 1090 -6.40883e-11
1249 1090 1.20993e-07
1813 1090 -2.43535e-09
1083 1091 -1.05003e-11
1084 1091 -3.59216e-15
1089 1091 -2.17016e-12
1091 1091 0.000270407
1249 1091 -9.36399e-13
1813 1091 -0.996302
1092 1092 0.00316089
1113 1092 -0.499842
1093 1093 1.00046e-06
1094 1093 -0.000456811
1096 1093 -0
1093 1094 -2.34755e-10
1094 1094 1.00092e-06
1095 1094 -0.000679126
1096 1094 0
1092 1095 -1.92127e-12
1094 1095 -1.22897e-11
1095 1095 0.000419157
1096 1095 0
1113 1095 2.3805e-09
1813 1095 -0.997614
1092 1096 1.92127e-12
1093 1096 -0
1094 1096 0
1095 1096 0
1096 1096 0.000384921
1112 1096 3.78938e-09
1113 1096 2.59064e-09
1813 1096 -0.997402
1097 1097 0.00956453
1813 1097 -1.04774e-10
1098 1098 0.00125781
1099 1098 -2.68935e-11
1813 1098 -0.999205
1097 1099 8.81179e-13
1098 1099 -3.38267e-14
1099 1099 0.000680777
1110 1099 -0.998531
1111 1099 -2.58098e-11
1813 1099 -5.35204e-09
1100 1100 0.00230983
1111 1100 -1.43952e-10
1101 1101 0.00230983
1102 1101 -8.72661e-26
1113 1101 8.77661e-33
1813 1101 -8.65891e-10
1100 1102 -2.60878e-13
1101 1102 -2.0157e-28
1102 1102 0.00106949
1103 1102 -1.07694e-09
1109 1102 -1.80971e-10
1111 1102 1.32087e-09
1113 1102 -0.999065
1813 1102 -1.87004e-09
1103 1103 0.00201978
1111 1103 -0.499752
1813 1103 -0.499752
1104 1104 0.00158095
1109 1104 1.42785e-09
1813 1104 -1.74748e-09
1105 1105 0.00230983
1110 1105 -1.43952e-10
1106 1106 0.00230983
1107 1106 -8.72661e-26
1112 1106 8.7766e-33
1813 1106 -8.65891e-10
1105 1107 -2.60878e-13
1106 1107 -2.0157e-28
1107 1107 0.00106949
1108 1107 -2.6907e-09
1109 1107 -1.80971e-10
1110 1107 2.93463e-09
1112 1107 -0.999065
1813 1107 -1.87004e-09
1108 1108 0.00201978
1110 1108 -0.499752
1813 1108 -0.499752
1101 1109 7.49789e-13
1102 1109 8.29496e-13
1103 1109 8.93322e-22
1106 1109 7.49789e-13
1107 1109 8.29496e-13
1108 1109 2.23193e-21
1109 1109 0.000639615
1110 1109 -2.06195e-18
1111 1109 -1.01501e-18
1112 1109 -4.90456e-12
1113 1109 -4.90447e-12
1813 1109 -0.998437
1099 1110 -0.000679777
1105 1110 -4.06129e-15
1108 1110 -0.00100939
1110 1110 0.000506943
1111 1110 -3.46092e-11
1813 1110 -0.995072
1099 1111 -1.75707e-14
1100 1111 -4.06129e-15
1103 1111 -0.00100939
1110 1111 -1.75449e-14
1111 1111 0.000505945
1813 1111 -0.997036
1096 1112 2.29914e-13
1106 1112 7.39312e-35
1107 1112 -0.00106849
1108 1112 -2.875e-12
1109 1112 -4.15254e-14
1110 1112 1.69885e-12
1111 1112 5.87957e-23
1112 1112 0.00278188
1113 1112 -2.14182e-19
1813 1112 -1.36115e-09
1092 1113 -0.00157995
1095 1113 1.6816e-12
1096 1113 0
1101 1113 2.21807e-34
1102 1113 -0.00106849
1103 1113 -1.15071e-12
1109 1113 -4.15254e-14
1110 1113 -8.56232e-32
1111 1113 8.36274e-13
1112 1113 -2.03664e-25
1113 1113 0.000792222
1813 1113 -6.04018e-09
1074 1114 3.90589e-13
1075 1114 6.28668e-22
1076 1114 -7.34932e-13
1078 1114 -5.73171e-14
1079 1114 4.24863e-13
1080 1114 -3.71465e-22
1081 1114 -1.41765e-22
1082 1114 -1.64758e-32
1114 1114 0.000639615
1813 1114 -0.998437
1046 1115 -7.70349e-15
1089 1115 -1.02315e-10
1091 1115 1.02303e-10
1104 1115 3.96112e-13
1109 1115 -5.65588e-22
1110 1115 -1.16621e-39
1111 1115 -5.7408e-40
1112 1115 -2.77396e-33
1113 1115 -2.77391e-33
1115 1115 0.000845528
1240 1115 -0.998817
1242 1115 -6.40883e-11
1249 1115 -1.41187e-11
1813 1115 1.1811e-07
1116 1116 0.00530206
1145 1116 -1.18945e-10
1117 1117 0.00158095
1145 1117 2.03132e-10
1243 1117 -2.03132e-10
1813 1117 -6.32578e-10
1118 1118 0.000434078
1145 1118 -7.53112e-26
1244 1118 7.53112e-26
1813 1118 -0.997696
1119 1119 0.00230983
1122 1119 -1.43952e-10
1120 1120 0.00956453
1813 1120 -1.04774e-10
1121 1121 0.00201978
1122 1121 -0.499752
1813 1121 -0.499752
1119 1122 -4.06129e-15
1121 1122 -0.00100939
1122 1122 0.000505945
1127 1122 -3.47286e-11
1813 1122 -0.997036
1123 1123 0.00125781
1127 1123 -2.68935e-11
1813 1123 -0.999205
1124 1124 0.00230983
1126 1124 -1.43952e-10
1125 1125 0.00201978
1126 1125 -0.499752
1813 1125 -0.499752
1124 1126 -4.06129e-15
1125 1126 -0.00100939
1126 1126 0.00118572
1127 1126 -0.573302
1813 1126 -0.425433
1120 1127 8.81179e-13
1122 1127 -1.75707e-14
1123 1127 -3.38267e-14
1126 1127 -0.000679777
1127 1127 0.000291059
1813 1127 -0.99361
1128 1128 1.00098e-06
1131 1128 -0.000972139
1141 1128 -0
1129 1129 1.00117e-06
1130 1129 -0.00116349
1141 1129 -0
1129 1130 -9.45262e-10
1130 1130 1.00409e-06
1131 1130 -0.00313233
1141 1130 0
1128 1131 -7.52965e-10
1130 1131 -2.48472e-09
1131 1131 1.00599e-06
1141 1131 0
1142 1131 -0.00274399
1132 1132 1.00059e-06
1141 1132 -0
1142 1132 -0.000585057
1133 1133 0.00230983
1134 1133 8.77661e-33
1144 1133 -8.72661e-26
1813 1133 -8.65891e-10
1133 1134 7.39313e-35
1134 1134 0.00384937
1139 1134 3.94457e-11
1141 1134 1.09239e-10
1144 1134 -0.277576
1813 1134 -6.28817e-10
1135 1135 0.00158095
1139 1135 1.42785e-09
1813 1135 -1.74748e-09
1136 1136 0.00316089
1138 1136 -0.499842
1137 1137 0.00230983
1138 1137 8.77661e-33
1143 1137 -8.72661e-26
1813 1137 -8.65891e-10
1136 1138 -0.00157995
1137 1138 2.21807e-34
1138 1138 0.00185972
1139 1138 8.16474e-11
1140 1138 1.49262e-09
1143 1138 -0.574547
1813 1138 -3.10593e-09
1133 1139 7.49789e-13
1134 1139 -8.31858e-13
1137 1139 7.49789e-13
1138 1139 -8.31858e-13
1139 1139 0.000639615
1140 1139 1.94125e-18
1141 1139 1.42072e-19
1143 1139 5.49636e-10
1144 1139 9.35863e-10
1813 1139 -0.998437
1136 1140 -1.92127e-12
1138 1140 9.97803e-13
1139 1140 -8.1468e-23
1140 1140 0.000664973
1141 1140 1.74063e-38
1142 1140 -6.07479e-08
1143 1140 8.62116e-10
1144 1140 1.14656e-28
1813 1140 -0.998496
1128 1141 -0
1129 1141 -0
1130 1141 0
1131 1141 0
1132 1141 -0
1134 1141 1.45861e-12
1136 1141 1.92127e-12
1138 1141 9.97194e-13
1139 1141 -1.38954e-22
1140 1141 -1.48844e-21
1141 1141 0.000630738
1142 1141 -1.43355e-25
1143 1141 9.08356e-10
1144 1141 6.41909e-10
1813 1141 -0.998415
1131 1142 -1.3275e-09
1132 1142 -3.63816e-10
1140 1142 -2.24376e-09
1141 1142 0
1142 1142 1.00394e-06
1143 1142 1.9268e-12
1144 1142 2.56251e-31
1813 1142 -0.0022316
1119 1143 -2.60878e-13
1121 1143 -1.15179e-12
1122 1143 8.37056e-13
1127 1143 2.90698e-23
1137 1143 -2.0157e-28
1138 1143 -0.00106849
1139 1143 -1.06308e-13
1140 1143 1.59486e-12
1141 1143 1.51034e-32
1142 1143 9.68843e-20
1143 1143 0.000455594
1144 1143 2.18373e-19
1813 1143 -7.84333e-09
1124 1144 -2.60878e-13
1125 1144 -2.87769e-12
1126 1144 1.70044e-12
1127 1144 9.74864e-13
1133 1144 -2.0157e-28
1134 1144 -0.00106849
1139 1144 -1.514e-13
1140 1144 2.93905e-31
1141 1144 1.16722e-13
1142 1144 3.45867e-38
1143 1144 -2.28099e-23
1144 1144 0.000772905
1813 1144 -3.17321e-09
1058 1145 3.96112e-13
1064 1145 -5.65588e-22
1069 1145 5.35702e-41
1070 1145 7.59438e-40
1071 1145 3.10868e-31
1072 1145 5.29313e-31
1083 1145 -5.02836e-10
1084 1145 -1.72021e-13
1091 1145 5.02548e-10
1116 1145 -7.70349e-15
1145 1145 0.000845528
1243 1145 -6.40883e-11
1244 1145 -0.998817
1249 1145 5.56559e-19
1813 1145 5.89727e-07
1146 1146 0.00278088
1147 1146 5.68319e-18
1171 1146 1.03907e-32
1805 1146 -5.68319e-18
1813 1146 -3.59625e-10
1147 1147 0.00278088
1171 1147 -0.99964
1240 1147 1.33997e-09
1805 1147 -8.89483e-12
1813 1147 -1.75512e-09
1148 1148 0.00290329
1152 1148 -0.455463
1149 1149 0.00489816
1152 1149 -0.269967
1150 1150 1e-06
1152 1150 -3.82167e-08
1813 1150 -2.05475e-06
1151 1151 1e-06
1152 1151 -3.84575e-08
1813 1151 -3.11841e-06
1148 1152 -0.00132234
1149 1152 -0.00132234
1150 1152 -1.12347e-16
1151 1152 -1.13048e-16
1152 1152 0.00168642
1158 1152 1.66894e-09
1813 1152 -2.56153e-09
1153 1153 0.00807984
1243 1153 -0.499938
1154 1154 0.000352093
1155 1154 2.08314e-09
1813 1154 -0.99716
1155 1155 0.00430315
1156 1155 -7.72967e-11
1813 1155 -4.64802e-10
1153 1156 -1.06043e-12
1155 1156 -4.29973e-14
1156 1156 0.000845528
1158 1156 -0.998817
1243 1156 7.71832e-10
1813 1156 -2.56036e-09
1157 1157 0.00404042
1159 1157 7.94819e-11
1160 1157 1.78894e-32
1171 1157 -7.94819e-11
1813 1157 -2.47525e-10
1156 1158 -0.000844528
1157 1158 3.8021e-13
1158 1158 0.000846526
1159 1158 -4.35464e-11
1160 1158 -2.13536e-09
1171 1158 2.17891e-09
1243 1158 7.7001e-10
1813 1158 -0.997639
1155 1159 2.9173e-14
1156 1159 -2.9173e-14
1158 1159 -2.91385e-14
1159 1159 0.000845528
1160 1159 -7.35888e-20
1171 1159 -6.40883e-11
1243 1159 5.31663e-20
1813 1159 -0.998817
1155 1160 -2.60878e-13
1156 1160 1.42028e-12
1158 1160 2.59198e-13
1159 1160 1.12871e-23
1160 1160 0.00556076
1171 1160 -0.49991
1243 1160 -2.33027e-19
1813 1160 -3.13187e-10
1161 1161 0.00230983
1162 1161 -9.30386e-11
1163 1161 1.39032e-10
1164 1161 -1.39032e-10
1166 1161 9.30386e-11
1813 1161 -4.32959e-10
1159 1162 1.48234e-12
1160 1162 1.09084e-31
1162 1162 0.00278088
1163 1162 1.1414e-09
1164 1162 -0.99964
1166 1162 -9.86038e-11
1171 1162 3.41622e-20
1243 1162 -2.83402e-29
1813 1162 -1.38616e-09
1160 1163 2.56727e-12
1162 1163 1.55758e-14
1163 1163 0.000352093
1164 1163 3.00208e-11
1166 1163 -2.36894e-08
1171 1163 3.64507e-09
1243 1163 1.6991e-27
1813 1163 -0.99716
1162 1164 -0.00277988
1163 1164 2.76361e-12
1164 1164 0.00278188
1166 1164 -9.85329e-11
1167 1164 -9.85683e-11
1170 1164 -0.999281
1171 1164 -3.58699e-18
1243 1164 -2.83199e-29
1813 1164 -3.94556e-10
1164 1165 -2.14903e-13
1165 1165 0.00230983
1166 1165 9.30387e-11
1167 1165 9.30387e-11
1170 1165 -1.8601e-10
1171 1165 -3.33729e-28
1243 1165 -2.63476e-39
1813 1165 -4.32959e-10
1162 1166 -3.40391e-15
1163 1166 -4.58004e-10
1164 1166 -3.40267e-15
1166 1166 1.00067e-06
1167 1166 -0.000206187
1170 1166 -6.7996e-09
1171 1166 1.66834e-12
1243 1166 7.77675e-31
1813 1166 -0.000456398
1164 1167 -3.40391e-15
1166 1167 -2.06325e-10
1167 1167 1.00067e-06
1168 1167 -3.40164e-09
1170 1167 -3.4006e-09
1171 1167 3.4399e-16
1243 1167 1.6025e-34
1806 1167 -0.000457698
1813 1167 -9.41035e-08
1167 1168 -2.74205e-13
1168 1168 0.0068203
1170 1168 -0.407589
1171 1168 1.38299e-26
1243 1168 0
1806 1168 -1.84014e-14
1813 1168 -1.46642e-10
1167 1169 -4.01419e-10
1168 1169 -3.65014e-13
1169 1169 0.000352093
1170 1169 6.14144e-10
1171 1169 3.92181e-22
1243 1169 1.83075e-40
1806 1169 1.13957e-06
1813 1169 -0.99716
1164 1170 -0.00277988
1166 1170 -5.48115e-13
1167 1170 -2.74121e-13
1168 1170 -0.00277988
1170 1170 0.00164983
1171 1170 -6.04335e-18
1243 1170 -4.77175e-29
1806 1170 -2.48211e-10
1813 1170 -9.12043e-10
1147 1171 -0.00277988
1159 1171 -4.09474e-13
1160 1171 -0.00277988
1171 1171 0.00139219
1240 1171 2.67561e-09
1243 1171 -4.653e-19
1805 1171 -1.77609e-11
1813 1171 -6.57859e-09
1172 1172 0.00278088
1173 1172 5.68319e-18
1197 1172 1.03907e-32
1805 1172 -5.68319e-18
1813 1172 -3.59625e-10
1173 1173 0.00278088
1197 1173 -0.99964
1241 1173 1.33997e-09
1805 1173 -8.89483e-12
1813 1173 -1.75512e-09
1174 1174 0.00489816
1178 1174 -0.269967
1175 1175 0.00290329
1178 1175 -0.455463
1176 1176 1e-06
1178 1176 -3.82167e-08
1813 1176 -2.05475e-06
1177 1177 1e-06
1178 1177 -3.84575e-08
1813 1177 -3.11841e-06
1174 1178 -0.00132234
1175 1178 -0.00132234
1176 1178 -1.12347e-16
1177 1178 -1.13048e-16
1178 1178 0.00168642
1184 1178 1.66894e-09
1813 1178 -2.56153e-09
1179 1179 0.00807984
1242 1179 -0.499938
1180 1180 0.000352093
1181 1180 2.08314e-09
1813 1180 -0.99716
1181 1181 0.00430315
1182 1181 -7.72967e-11
1813 1181 -4.64802e-10
1179 1182 -1.06043e-12
1181 1182 -4.29973e-14
1182 1182 0.000845528
1184 1182 -0.998817
1242 1182 7.71832e-10
1813 1182 -2.56036e-09
1183 1183 0.00404042
1185 1183 1.78894e-32
1186 1183 7.94819e-11
1197 1183 -7.94819e-11
1813 1183 -2.47525e-10
1182 1184 -0.000844528
1183 1184 3.8021e-13
1184 1184 0.000846526
1185 1184 -2.13536e-09
1186 1184 -4.35464e-11
1197 1184 2.17891e-09
1242 1184 7.7001e-10
1813 1184 -0.997639
1181 1185 -2.60878e-13
1182 1185 1.42028e-12
1184 1185 2.59198e-13
1185 1185 0.00556076
1186 1185 2.02978e-21
1197 1185 -0.49991
1242 1185 -2.33027e-19
1813 1185 -3.13187e-10
1181 1186 2.9173e-14
1182 1186 -2.9173e-14
1184 1186 -2.91385e-14
1185 1186 -6.22213e-23
1186 1186 0.000845528
1197 1186 -6.40883e-11
1242 1186 5.31663e-20
1813 1186 -0.998817
1185 1187 2.56727e-12
1186 1187 -5.211e-33
1187 1187 0.000352093
1189 1187 4.42377e-11
1190 1187 -2.36894e-08
1192 1187 -1.4201e-11
1197 1187 3.64507e-09
1242 1187 1.6991e-27
1813 1187 -0.99716
1187 1188 3.21141e-13
1188 1188 0.00230983
1189 1188 -9.30386e-11
1190 1188 9.30387e-11
1192 1188 -1.39032e-10
1197 1188 -5.06782e-19
1242 1188 -2.3623e-37
1813 1188 -2.94321e-10
1186 1189 1.48234e-12
1187 1189 3.17408e-12
1189 1189 0.00278088
1190 1189 -9.86038e-11
1192 1189 -0.99964
1197 1189 -4.1263e-18
1242 1189 -2.83402e-29
1813 1189 -2.48011e-10
1187 1190 -4.58004e-10
1189 1190 -3.40389e-15
1190 1190 1.00067e-06
1192 1190 -3.4004e-09
1193 1190 -0.000206187
1196 1190 -3.40164e-09
1197 1190 1.66834e-12
1242 1190 7.77675e-31
1813 1190 -0.000456398
1190 1191 2.14903e-13
1191 1191 0.00230983
1192 1191 -9.30387e-11
1193 1191 9.30578e-11
1196 1191 -9.30387e-11
1197 1191 -1.5522e-22
1242 1191 -7.21935e-41
1813 1191 -4.32916e-10
1187 1192 -4.09329e-13
1189 1192 -0.00277988
1190 1192 -2.74106e-13
1192 1192 0.00278188
1193 1192 -9.85887e-11
1196 1192 -0.999281
1197 1192 -3.58683e-18
1242 1192 -2.83199e-29
1813 1192 -3.94601e-10
1190 1193 -2.06325e-10
1192 1193 -3.40461e-15
1193 1193 1.00067e-06
1195 1193 -3.40164e-09
1196 1193 -3.4006e-09
1197 1193 3.4399e-16
1242 1193 1.6025e-34
1806 1193 -0.000457698
1813 1193 -9.41035e-08
1193 1194 -4.01419e-10
1194 1194 0.000352093
1195 1194 -1.0367e-09
1196 1194 1.03669e-09
1197 1194 3.92181e-22
1242 1194 1.83075e-40
1806 1194 1.13957e-06
1813 1194 -0.99716
1193 1195 -2.74205e-13
1195 1195 0.0068203
1196 1195 -0.407589
1197 1195 1.38299e-26
1242 1195 0
1806 1195 -1.84014e-14
1813 1195 -1.46642e-10
1190 1196 -2.74205e-13
1192 1196 -0.00277988
1193 1196 -2.74121e-13
1195 1196 -0.00277988
1196 1196 0.00164983
1197 1196 -6.04335e-18
1242 1196 -4.77175e-29
1806 1196 -2.48211e-10
1813 1196 -9.12043e-10
1173 1197 -0.00277988
1185 1197 -0.00277988
1186 1197 -4.09474e-13
1197 1197 0.00139219
1241 1197 2.67561e-09
1242 1197 -4.653e-19
1805 1197 -1.77609e-11
1813 1197 -6.57859e-09
1198 1198 0.00530206
1245 1198 -1.18945e-10
1199 1199 0.000434078
1245 1199 -7.53112e-26
1246 1199 7.53112e-26
1813 1199 -0.997696
1200 1200 0.00158095
1239 1200 -2.03132e-10
1245 1200 2.03132e-10
1813 1200 -6.32578e-10
1201 1201 0.00278088
1202 1201 5.68319e-18
1226 1201 1.03907e-32
1805 1201 -5.68319e-18
1813 1201 -3.59625e-10
1202 1202 0.00278088
1226 1202 -0.99964
1244 1202 1.33997e-09
1805 1202 -8.89483e-12
1813 1202 -1.75512e-09
1203 1203 0.00807984
1239 1203 -0.499938
1204 1204 0.00290329
1208 1204 -0.455463
1205 1205 0.00489816
1208 1205 -0.269967
1206 1206 1e-06
1208 1206 -3.82167e-08
1813 1206 -2.05475e-06
1207 1207 1e-06
1208 1207 -3.84575e-08
1813 1207 -3.11841e-06
1204 1208 -0.00132234
1205 1208 -0.00132234
1206 1208 -1.12347e-16
1207 1208 -1.13048e-16
1208 1208 0.00168642
1213 1208 1.66894e-09
1813 1208 -2.56153e-09
1209 1209 0.000352093
1210 1209 2.08314e-09
1813 1209 -0.99716
1210 1210 0.00430315
1211 1210 -7.72967e-11
1813 1210 -4.64802e-10
1203 1211 -1.06043e-12
1210 1211 -4.29973e-14
1211 1211 0.000845528
1213 1211 -0.998817
1239 1211 7.71832e-10
1813 1211 -2.56036e-09
1212 1212 0.00404042
1214 1212 7.94819e-11
1215 1212 1.78894e-32
1226 1212 -7.94819e-11
1813 1212 -2.47525e-10
1211 1213 -0.000844528
1212 1213 3.8021e-13
1213 1213 0.000846526
1214 1213 -4.35464e-11
1215 1213 -2.13536e-09
1226 1213 2.17891e-09
1239 1213 7.7001e-10
1813 1213 -0.997639
1210 1214 2.9173e-14
1211 1214 -2.9173e-14
1213 1214 -2.91385e-14
1214 1214 0.000845528
1215 1214 -7.35888e-20
1226 1214 -6.40883e-11
1239 1214 5.31663e-20
1813 1214 -0.998817
1210 1215 -2.60878e-13
1211 1215 1.42028e-12
1213 1215 2.59198e-13
1214 1215 1.12871e-23
1215 1215 0.00556076
1226 1215 -0.49991
1239 1215 -2.33027e-19
1813 1215 -3.13187e-10
1216 1216 0.00230983
1217 1216 -9.30386e-11
1218 1216 1.39032e-10
1219 1216 9.30386e-11
1221 1216 -1.39032e-10
1813 1216 -4.32959e-10
1214 1217 1.48234e-12
1215 1217 1.09084e-31
1217 1217 0.00278088
1218 1217 1.1414e-09
1219 1217 -9.86038e-11
1221 1217 -0.99964
1226 1217 3.41622e-20
1239 1217 -2.83402e-29
1813 1217 -1.38616e-09
1215 1218 2.56727e-12
1217 1218 1.55758e-14
1218 1218 0.000352093
1219 1218 -2.36894e-08
1221 1218 3.00208e-11
1226 1218 3.64507e-09
1239 1218 1.6991e-27
1813 1218 -0.99716
1217 1219 -3.40391e-15
1218 1219 -4.58004e-10
1219 1219 1.00067e-06
1221 1219 -3.4004e-09
1222 1219 -0.000206187
1225 1219 -3.40164e-09
1226 1219 1.66834e-12
1239 1219 7.77675e-31
1813 1219 -0.000456398
1219 1220 2.14903e-13
1220 1220 0.00230983
1221 1220 -9.30387e-11
1222 1220 9.30578e-11
1225 1220 -9.30387e-11
1226 1220 -1.5522e-22
1239 1220 -7.21935e-41
1813 1220 -4.32916e-10
1217 1221 -0.00277988
1218 1221 2.76361e-12
1219 1221 -2.74107e-13
1221 1221 0.00278188
1222 1221 -9.85887e-11
1225 1221 -0.999281
1226 1221 -3.58683e-18
1239 1221 -2.83199e-29
1813 1221 -3.94601e-10
1219 1222 -2.06325e-10
1221 1222 -3.40461e-15
1222 1222 1.00067e-06
1224 1222 -3.40164e-09
1225 1222 -3.4006e-09
1226 1222 3.4399e-16
1239 1222 1.6025e-34
1806 1222 -0.000457698
1813 1222 -9.41035e-08
1222 1223 -4.01419e-10
1223 1223 0.000352093
1224 1223 -1.0367e-09
1225 1223 1.03669e-09
1226 1223 3.92181e-22
1239 1223 1.83075e-40
1806 1223 1.13957e-06
1813 1223 -0.99716
1222 1224 -2.74205e-13
1224 1224 0.0068203
1225 1224 -0.407589
1226 1224 1.38299e-26
1239 1224 0
1806 1224 -1.84014e-14
1813 1224 -1.46642e-10
1219 1225 -2.74205e-13
1221 1225 -0.00277988
1222 1225 -2.74121e-13
1224 1225 -0.00277988
1225 1225 0.00164983
1226 1225 -6.04335e-18
1239 1225 -4.77175e-29
1806 1225 -2.48211e-10
1813 1225 -9.12043e-10
1202 1226 -0.00277988
1214 1226 -4.09474e-13
1215 1226 -0.00277988
1226 1226 0.00139219
1239 1226 -4.653e-19
1244 1226 2.67561e-09
1805 1226 -1.77609e-11
1813 1226 -6.57859e-09
1227 1227 0.00285116
1229 1227 -0.499825
1228 1228 1e-06
1229 1228 -1.08717e-07
1813 1228 -3.14204e-06
1227 1229 -0.00142508
1228 1229 -3.2057e-16
1229 1229 0.00213887
1238 1229 2.51007e-10
1247 1229 8.50233e-10
1813 1229 -1.52754e-09
1230 1230 0.00230946
1237 1230 -0.999567
1238 1230 -1.37024e-10
1231 1231 0.00330477
1232 1231 -0.999697
1238 1231 -1.43768e-10
1231 1232 -0.00330377
1232 1232 0.00530227
1237 1232 -0.999623
1238 1232 -8.95797e-11
1233 1233 0.00178812
1236 1233 -0.999441
1238 1233 -1.35143e-10
1234 1234 0.00158068
1235 1234 -0.999367
1238 1234 -1.35732e-10
1234 1235 -0.00157968
1235 1235 0.00530227
1236 1235 -0.999623
1238 1235 -4.04381e-11
1233 1236 -0.00178712
1235 1236 -0.00530027
1236 1236 0.00530427
1237 1236 -0.999246
1238 1236 -8.59399e-11
1230 1237 -0.00230846
1232 1237 -0.00530027
1236 1237 -0.00530027
1237 1237 7.99121e-06
1238 1237 -1.55999e-07
1227 1238 -2.60471e-13
1228 1238 -4.07468e-14
1229 1238 1.71028e-13
1230 1238 -3.86665e-15
1231 1238 -5.80598e-15
1232 1238 -5.80423e-15
1233 1238 -2.95177e-15
1234 1238 -2.62006e-15
1235 1238 -2.61841e-15
1236 1238 -5.56754e-15
1237 1238 -1.52304e-14
1238 1238 0.000779487
1247 1238 -1.86551e-19
1489 1238 4.86154e-10
1813 1238 -0.998717
1198 1239 -4.94722e-13
1199 1239 7.78198e-13
1203 1239 -0.00403942
1234 1239 -1.68354e-13
1235 1239 -1.68247e-13
1236 1239 -1.68184e-13
1237 1239 -1.68057e-13
1238 1239 1.68354e-13
1239 1239 0.00202096
1245 1239 9.03695e-10
1246 1239 -8.61513e-10
1247 1239 1.55404e-29
1489 1239 -4.04985e-20
1813 1239 -1.31509e-09
1046 1240 1.36461e-15
1047 1240 4.02792e-13
1066 1240 -1.96545e-10
1067 1240 -3.95521e-10
1068 1240 5.9132e-10
1069 1240 0
1070 1240 8.6357e-13
1071 1240 -7.44498e-22
1072 1240 6.35657e-41
1115 1240 -0.000844528
1128 1240 -1.95989e-10
1131 1240 -1.08098e-09
1141 1240 0
1142 1240 1.27381e-09
1143 1240 -2.45437e-21
1144 1240 2.09553e-40
1230 1240 5.01612e-16
1232 1240 4.9464e-16
1237 1240 -4.0377e-19
1238 1240 5.00551e-26
1240 1240 0.00105262
1242 1240 -1.63984e-11
1247 1240 9.31863e-42
1249 1240 -1.13277e-11
1489 1240 -2.31181e-32
1813 1240 -0.998101
1065 1241 -1.97536e-10
1068 1241 -1.08568e-09
1069 1241 0
1070 1241 1.28152e-09
1071 1241 -1.10482e-18
1072 1241 9.43293e-38
1085 1241 1.36461e-15
1087 1241 4.02792e-13
1090 1241 -0.000844528
1091 1241 -1.19237e-14
1093 1241 -1.97986e-10
1094 1241 -3.97774e-10
1095 1241 5.95399e-10
1096 1241 0
1112 1241 0
1113 1241 -1.41735e-18
1114 1241 -2.71126e-22
1132 1241 -1.97346e-10
1140 1241 1.96615e-09
1141 1241 0
1142 1241 -1.76892e-09
1143 1241 -1.69165e-18
1144 1241 1.44432e-37
1231 1241 8.38612e-16
1232 1241 -2.53792e-19
1237 1241 -2.53697e-19
1238 1241 8.09663e-26
1241 1241 0.00105262
1247 1241 1.46436e-41
1248 1241 -1.63984e-11
1249 1241 9.70739e-08
1489 1241 -3.73946e-32
1813 1241 -0.998098
1046 1242 -4.94722e-13
1048 1242 7.78198e-13
1066 1242 -0
1067 1242 -0
1068 1242 0
1069 1242 0
1070 1242 0
1071 1242 0
1072 1242 0
1115 1242 1.82633e-12
1128 1242 -0
1131 1242 -0
1141 1242 0
1142 1242 0
1143 1242 0
1144 1242 0
1179 1242 -0.00403942
1230 1242 -2.48319e-13
1232 1242 2.6169e-24
1237 1242 -2.48211e-13
1238 1242 2.48319e-13
1240 1242 8.30883e-14
1242 1242 0.00202096
1247 1242 2.29218e-29
1249 1242 1.32248e-20
1489 1242 -5.97345e-20
1813 1242 -1.23454e-09
1116 1243 -4.94722e-13
1118 1243 7.78198e-13
1129 1243 -0
1130 1243 -0
1131 1243 0
1141 1243 0
1142 1243 0
1143 1243 0
1144 1243 0
1145 1243 1.82633e-12
1153 1243 -0.00403942
1233 1243 -1.89624e-13
1236 1243 -1.89518e-13
1237 1243 -1.89375e-13
1238 1243 1.89624e-13
1243 1243 0.00202096
1244 1243 4.11132e-11
1247 1243 1.75038e-29
1249 1243 -5.0296e-28
1489 1243 -4.56152e-20
1813 1243 -1.30458e-09
1116 1244 1.36461e-15
1117 1244 4.02792e-13
1129 1244 -1.95496e-10
1130 1244 -3.93044e-10
1131 1244 5.87081e-10
1141 1244 0
1142 1244 1.61095e-12
1143 1244 -3.10397e-24
1144 1244 2.64845e-43
1145 1244 -0.000844528
1233 1244 3.41189e-16
1236 1244 -4.26636e-16
1237 1244 1.30681e-19
1238 1244 2.98301e-26
1243 1244 -1.72612e-14
1244 1244 0.00105262
1247 1244 2.92876e-40
1249 1244 4.46534e-19
1489 1244 -7.61792e-31
1813 1244 -0.998101
1083 1245 3.01943e-10
1084 1245 -3.0184e-10
1091 1245 1.72943e-13
1135 1245 3.96112e-13
1139 1245 -5.65588e-22
1140 1245 1.09795e-39
1141 1245 8.03547e-41
1142 1245 0
1143 1245 3.10868e-31
1144 1245 5.29313e-31
1198 1245 -7.70349e-15
1239 1245 -5.41884e-14
1245 1245 0.000845528
1246 1245 -0.998817
1247 1245 9.96042e-40
1249 1245 1.9153e-22
1489 1245 -2.59548e-30
1813 1245 -2.23157e-09
1198 1246 1.36461e-15
1200 1246 4.02792e-13
1234 1246 2.82859e-16
1235 1246 -1.98125e-16
1236 1246 -1.04198e-19
1237 1246 -1.0412e-19
1238 1246 1.41298e-26
1239 1246 3.68631e-14
1245 1246 -0.000844528
1246 1246 0.00105262
1247 1246 2.56932e-40
1249 1246 1.53667e-22
1489 1246 -6.70636e-31
1813 1246 -0.998101
1227 1247 2.60471e-13
1228 1247 -4.07468e-14
1229 1247 1.70937e-13
1238 1247 -4.29062e-23
1247 1247 0.00107269
1489 1247 1.94455e-29
1492 1247 -0
1800 1247 -0
1813 1247 -0.999068
155 1248 -0.00403942
1065 1248 -0
1068 1248 -0
1069 1248 0
1070 1248 0
1071 1248 0
1072 1248 0
1085 1248 -4.94722e-13
1086 1248 7.78198e-13
1090 1248 1.82633e-12
1091 1248 2.57855e-23
1093 1248 -0
1094 1248 -0
1095 1248 0
1096 1248 0
1112 1248 0
1113 1248 0
1114 1248 5.86324e-31
1132 1248 -0
1140 1248 0
1141 1248 0
1142 1248 0
1143 1248 0
1144 1248 0
1231 1248 -3.72791e-13
1232 1248 -3.72678e-13
1237 1248 -3.72538e-13
1238 1248 3.72791e-13
1241 1248 8.30883e-14
1247 1248 6.95443e-32
1248 1248 0.00202096
1249 1248 -1.13331e-16
1489 1248 -8.96771e-20
1492 1248 0
1800 1248 0
1813 1248 -1.17303e-09
169 1249 -2.10912e-15
170 1249 2.10912e-15
171 1249 1.30312e-13
821 1249 1.69605e-14
823 1249 1.0145e-12
1018 1249 0
1084 1249 -0
1089 1249 -2.17016e-12
1091 1249 -2.53209e-16
1247 1249 0
1249 1249 0.000994277
1489 1249 0
1491 1249 3.81132e-10
1492 1249 0
1800 1249 0
1802 1249 0
1803 1249 0
1813 1249 -0.998994
1250 1250 0.00530206
1329 1250 -1.18945e-10
1251 1251 0.000434078
1329 1251 -7.53112e-26
1485 1251 7.53112e-26
1813 1251 -0.997696
1252 1252 0.00158095
1329 1252 2.03132e-10
1490 1252 -2.03132e-10
1813 1252 -6.32578e-10
1253 1253 0.010091
1254 1253 -0
1494 1253 2.92611e-11
1813 1253 -1.28374e-10
1254 1254 1.00068e-06
1255 1254 -0.000680617
1494 1254 -0
1254 1255 -3.42416e-10
1255 1255 1.00092e-06
1262 1255 -0.000573156
1494 1255 0
1256 1256 0.00530206
1261 1256 -1.18945e-10
1257 1257 0.00158095
1261 1257 2.03132e-10
1484 1257 -2.03132e-10
1813 1257 -6.32578e-10
1258 1258 0.000434078
1261 1258 -7.53112e-26
1487 1258 7.53112e-26
1813 1258 -0.997696
1259 1259 0.00158095
1330 1259 1.42785e-09
1813 1259 -1.74748e-09
1260 1260 1.00024e-06
1262 1260 -0.000116677
1494 1260 -0.000116677
1256 1261 -7.70349e-15
1259 1261 3.96112e-13
1260 1261 -1.02315e-10
1261 1261 0.000845528
1262 1261 1.20993e-07
1330 1261 -6.68918e-19
1484 1261 -6.40883e-11
1487 1261 -0.998817
1494 1261 -1.41187e-11
1813 1261 -2.43535e-09
1255 1262 -1.05003e-11
1260 1262 -2.17016e-12
1262 1262 0.000270407
1494 1262 -9.36399e-13
1813 1262 -0.996302
1263 1263 0.00230983
1282 1263 -1.43952e-10
1264 1264 0.000189452
1266 1264 7.87511e-09
1813 1264 -0.994722
1265 1265 0.00230983
1266 1265 8.77661e-33
1267 1265 -8.72661e-26
1813 1265 -8.65891e-10
1265 1266 8.66217e-35
1266 1266 0.00322161
1267 1266 -0.331665
1277 1266 4.71321e-11
1813 1266 -6.20823e-10
1263 1267 -2.60878e-13
1265 1267 -2.0157e-28
1266 1267 -0.00106849
1267 1267 0.000715112
1268 1267 -4.02411e-09
1277 1267 -2.0023e-10
1282 1267 4.38892e-09
1813 1267 -3.72438e-09
1268 1268 0.00201978
1282 1268 -0.499752
1813 1268 -0.499752
1269 1269 0.00158095
1277 1269 1.42785e-09
1813 1269 -1.74748e-09
1270 1270 0.00230983
1281 1270 -1.43952e-10
1271 1271 0.00201978
1281 1271 -0.499752
1813 1271 -0.499752
1272 1272 0.000703187
1273 1272 -0.499289
1813 1272 -0.499289
1272 1273 -0.000351093
1273 1273 0.000176796
1275 1273 8.43884e-09
1813 1273 -0.99152
1274 1274 0.00230983
1275 1274 8.77661e-33
1276 1274 -8.72661e-26
1813 1274 -8.65891e-10
1274 1275 8.66217e-35
1275 1275 0.00322161
1276 1275 -0.331665
1277 1275 4.71321e-11
1813 1275 -6.20823e-10
1270 1276 -2.60878e-13
1271 1276 -1.15179e-12
1274 1276 -2.0157e-28
1275 1276 -0.00106849
1276 1276 0.000715112
1277 1276 -2.0023e-10
1281 1276 1.17052e-09
1813 1276 -4.5293e-09
1265 1277 7.49789e-13
1266 1277 -8.31858e-13
1267 1277 5.53598e-13
1268 1277 2.22774e-21
1274 1277 7.49789e-13
1275 1277 -8.31858e-13
1276 1277 5.53598e-13
1277 1277 0.000639615
1281 1277 -1.01311e-18
1282 1277 -2.05808e-18
1813 1277 -0.998437
1278 1278 0.00588063
1813 1278 -1.70264e-10
1279 1279 0.00125781
1280 1279 -2.68935e-11
1813 1279 -0.999205
1278 1280 6.68999e-13
1279 1280 -3.38267e-14
1280 1280 0.000680777
1281 1280 -2.58098e-11
1282 1280 -0.998531
1813 1280 -5.03464e-09
1270 1281 -4.06129e-15
1271 1281 -0.00100939
1280 1281 -1.75707e-14
1281 1281 0.000505945
1282 1281 -3.46776e-11
1813 1281 -0.997036
1263 1282 -4.06129e-15
1268 1282 -0.00100939
1280 1282 -0.000679777
1281 1282 -1.75449e-14
1282 1282 0.000506943
1813 1282 -0.995072
1283 1283 1.00046e-06
1284 1283 -0.000456811
1302 1283 -0
1283 1284 -2.34755e-10
1284 1284 1.00092e-06
1287 1284 -0.000679126
1302 1284 0
1285 1285 0.00316089
1303 1285 -0.499842
1285 1286 -1.92127e-12
1286 1286 0.000664973
1287 1286 -0
1303 1286 1.50052e-09
1813 1286 -0.998496
1284 1287 -1.22897e-11
1286 1287 -0
1287 1287 0.000270407
1302 1287 0
1303 1287 0
1813 1287 -0.996302
1288 1288 0.00230983
1301 1288 -1.43952e-10
1289 1289 0.00230983
1290 1289 -8.72661e-26
1303 1289 8.77661e-33
1813 1289 -8.65891e-10
1288 1290 -2.60878e-13
1289 1290 -2.0157e-28
1290 1290 0.00106949
1291 1290 -1.07694e-09
1301 1290 1.32087e-09
1303 1290 -0.999065
1330 1290 -1.80971e-10
1813 1290 -1.87004e-09
1291 1291 0.00201978
1301 1291 -0.499752
1813 1291 -0.499752
1292 1292 0.00230983
1300 1292 -1.43952e-10
1293 1293 0.00230983
1294 1293 8.77661e-33
1295 1293 -8.72661e-26
1813 1293 -8.65891e-10
1293 1294 7.39313e-35
1294 1294 0.00384937
1295 1294 -0.277576
1302 1294 7.28281e-11
1330 1294 3.94457e-11
1813 1294 -5.92406e-10
1292 1295 -2.60878e-13
1293 1295 -2.0157e-28
1294 1295 -0.00106849
1295 1295 0.000772905
1296 1295 -3.72321e-09
1300 1295 4.06074e-09
1302 1295 1.0068e-10
1330 1295 -1.95884e-10
1813 1295 -3.4066e-09
1296 1296 0.00201978
1300 1296 -0.499752
1813 1296 -0.499752
1297 1297 0.00588063
1813 1297 -1.70264e-10
1298 1298 0.00125781
1299 1298 -2.68935e-11
1813 1298 -0.999205
1297 1299 6.68999e-13
1298 1299 -3.38267e-14
1299 1299 0.000680777
1300 1299 -0.998531
1301 1299 -2.58098e-11
1813 1299 -5.03464e-09
1292 1300 -4.06129e-15
1296 1300 -0.00100939
1299 1300 -0.000679777
1300 1300 0.000506943
1301 1300 -3.46092e-11
1813 1300 -0.995072
1288 1301 -4.06129e-15
1291 1301 -0.00100939
1299 1301 -1.75707e-14
1300 1301 -1.75449e-14
1301 1301 0.000505945
1813 1301 -0.997036
1283 1302 -0
1284 1302 0
1285 1302 1.92127e-12
1287 1302 0
1294 1302 1.45861e-12
1295 1302 4.04876e-13
1296 1302 1.50744e-21
1300 1302 -8.9075e-22
1301 1302 -3.08282e-32
1302 1302 0.000630738
1303 1302 1.581e-09
1330 1302 3.45197e-20
1813 1302 -0.998415
1285 1303 -0.00157995
1286 1303 1.57059e-13
1287 1303 0
1289 1303 2.21807e-34
1290 1303 -0.00106849
1291 1303 -1.15071e-12
1301 1303 8.36274e-13
1302 1303 0
1303 1303 0.000792222
1330 1303 -5.24164e-11
1813 1303 -5.98308e-09
1304 1304 1.00055e-06
1307 1304 -0.00054393
1327 1304 -0
1305 1305 1.00079e-06
1306 1305 -0.000791386
1327 1305 -0
1305 1306 -5.71292e-10
1306 1306 1.00207e-06
1307 1306 -0.00149274
1327 1306 0
1304 1307 -3.22439e-10
1306 1307 -8.31558e-10
1307 1307 1.00262e-06
1327 1307 0
1328 1307 -0.00146041
1308 1308 0.00230983
1309 1308 8.77661e-33
1326 1308 -8.72661e-26
1813 1308 -8.65891e-10
1308 1309 7.39313e-35
1309 1309 0.00384937
1314 1309 3.94457e-11
1326 1309 -0.277576
1327 1309 1.09243e-10
1813 1309 -6.28821e-10
1310 1310 0.00158095
1314 1310 1.42785e-09
1813 1310 -1.74748e-09
1311 1311 0.00316089
1313 1311 -0.499842
1312 1312 0.00230983
1313 1312 8.77661e-33
1325 1312 -8.72661e-26
1813 1312 -8.65891e-10
1311 1313 -0.00157995
1312 1313 2.21807e-34
1313 1313 0.00185972
1314 1313 8.16474e-11
1315 1313 8.44578e-11
1325 1313 -0.574547
1813 1313 -1.69776e-09
1308 1314 7.49789e-13
1309 1314 -8.31858e-13
1312 1314 7.49789e-13
1313 1314 -8.31858e-13
1314 1314 0.000639615
1315 1314 1.09842e-19
1325 1314 5.49636e-10
1326 1314 9.35863e-10
1327 1314 1.42077e-19
1813 1314 -0.998437
1311 1315 -1.92127e-12
1313 1315 9.97802e-13
1314 1315 -8.1468e-23
1315 1315 0.000664973
1325 1315 8.62116e-10
1326 1315 1.14656e-28
1327 1315 1.74063e-38
1328 1315 -0
1813 1315 -0.998496
1316 1316 0.00125781
1324 1316 -2.68935e-11
1813 1316 -0.999205
1317 1317 0.00230983
1320 1317 -1.43952e-10
1318 1318 0.00588063
1813 1318 -1.70264e-10
1319 1319 0.00201978
1320 1319 -0.499752
1813 1319 -0.499752
1317 1320 -4.06129e-15
1319 1320 -0.00100939
1320 1320 0.000505945
1324 1320 -3.47286e-11
1813 1320 -0.997036
1321 1321 0.00230983
1323 1321 -1.43952e-10
1322 1322 0.00201978
1323 1322 -0.499752
1813 1322 -0.499752
1321 1323 -4.06129e-15
1322 1323 -0.00100939
1323 1323 0.00118572
1324 1323 -0.573302
1813 1323 -0.425433
1316 1324 -3.38267e-14
1318 1324 6.68999e-13
1320 1324 -1.75707e-14
1323 1324 -0.000679777
1324 1324 0.000291059
1813 1324 -0.99361
1312 1325 -2.0157e-28
1313 1325 -0.00106849
1314 1325 -1.06308e-13
1315 1325 9.02426e-14
1317 1325 -2.60878e-13
1319 1325 -1.15179e-12
1320 1325 8.37056e-13
1324 1325 2.90698e-23
1325 1325 0.000455594
1326 1325 2.18373e-19
1327 1325 3.31521e-29
1328 1325 0
1813 1325 -7.83837e-09
1308 1326 -2.0157e-28
1309 1326 -0.00106849
1314 1326 -1.514e-13
1315 1326 1.66301e-32
1321 1326 -2.60878e-13
1322 1326 -2.87769e-12
1323 1326 1.70044e-12
1324 1326 9.74864e-13
1325 1326 8.32149e-23
1326 1326 0.000772905
1327 1326 1.51022e-10
1328 1326 0
1813 1326 -3.32399e-09
1304 1327 -0
1305 1327 -0
1306 1327 0
1307 1327 0
1309 1327 1.45861e-12
1311 1327 1.92127e-12
1313 1327 9.97195e-13
1314 1327 -1.38954e-22
1315 1327 -8.42208e-23
1325 1327 5.72935e-13
1326 1327 4.04876e-13
1327 1327 0.000630738
1328 1327 0
1813 1327 -0.998415
1307 1328 -2.63932e-11
1315 1328 -0
1325 1328 0
1326 1328 0
1327 1328 0
1328 1328 0.000270407
1813 1328 -0.996302
1250 1329 -7.70349e-15
1260 1329 -1.02315e-10
1262 1329 -1.19378e-14
1269 1329 3.96112e-13
1277 1329 -5.65588e-22
1281 1329 -5.73004e-40
1282 1329 -1.16403e-39
1329 1329 0.000845528
1485 1329 -0.998817
1490 1329 -6.40883e-11
1494 1329 1.20993e-07
1813 1329 -2.44942e-09
1289 1330 7.49789e-13
1290 1330 8.29496e-13
1291 1330 8.93322e-22
1293 1330 7.49789e-13
1294 1330 -8.31858e-13
1295 1330 5.98593e-13
1296 1330 2.22869e-21
1300 1330 -1.31694e-21
1301 1330 -6.49219e-22
1302 1330 3.16131e-25
1303 1330 -3.13698e-15
1330 1330 0.000639615
1813 1330 -0.998437
1331 1331 0.00230983
1332 1331 8.77661e-33
1349 1331 -8.72661e-26
1813 1331 -8.65891e-10
1331 1332 7.39313e-35
1332 1332 0.00384937
1337 1332 3.94457e-11
1349 1332 -0.277576
1486 1332 1.45658e-10
1813 1332 -6.65236e-10
1333 1333 0.00158095
1337 1333 1.42785e-09
1813 1333 -1.74748e-09
1334 1334 0.00316089
1336 1334 -0.499842
1335 1335 0.00230983
1336 1335 8.77661e-33
1348 1335 -8.72661e-26
1813 1335 -8.65891e-10
1334 1336 -0.00157995
1335 1336 2.21807e-34
1336 1336 0.00185972
1337 1336 8.16474e-11
1338 1336 8.44619e-11
1348 1336 -0.574547
1813 1336 -1.69777e-09
1331 1337 7.49789e-13
1332 1337 -8.31858e-13
1335 1337 7.49789e-13
1336 1337 -8.31858e-13
1337 1337 0.000639615
1338 1337 1.09848e-19
1348 1337 5.49636e-10
1349 1337 9.35863e-10
1486 1337 1.89437e-19
1813 1337 -0.998437
1334 1338 -1.92127e-12
1336 1338 9.97802e-13
1337 1338 -8.1468e-23
1338 1338 0.000664973
1348 1338 8.62116e-10
1349 1338 1.14656e-28
1482 1338 -0
1486 1338 2.32077e-38
1813 1338 -0.998496
1339 1339 0.00125781
1347 1339 -2.68935e-11
1813 1339 -0.999205
1340 1340 0.00230983
1343 1340 -1.43952e-10
1341 1341 0.00588063
1813 1341 -1.70264e-10
1342 1342 0.00201978
1343 1342 -0.499752
1813 1342 -0.499752
1340 1343 -4.06129e-15
1342 1343 -0.00100939
1343 1343 0.000505945
1347 1343 -3.47286e-11
1813 1343 -0.997036
1344 1344 0.00230983
1346 1344 -1.43952e-10
1345 1345 0.00201978
1346 1345 -0.499752
1813 1345 -0.499752
1344 1346 -4.06129e-15
1345 1346 -0.00100939
1346 1346 0.00118572
1347 1346 -0.573302
1813 1346 -0.425433
1339 1347 -3.38267e-14
1341 1347 6.68999e-13
1343 1347 -1.75707e-14
1346 1347 -0.000679777
1347 1347 0.000291059
1813 1347 -0.99361
1335 1348 -2.0157e-28
1336 1348 -0.00106849
1337 1348 -1.06308e-13
1338 1348 9.0247e-14
1340 1348 -2.60878e-13
1342 1348 -1.15179e-12
1343 1348 8.37056e-13
1347 1348 2.90698e-23
1348 1348 0.000455594
1349 1348 2.18373e-19
1482 1348 0
1486 1348 4.42029e-29
1813 1348 -7.83837e-09
1331 1349 -2.0157e-28
1332 1349 -0.00106849
1337 1349 -1.514e-13
1338 1349 1.66309e-32
1344 1349 -2.60878e-13
1345 1349 -2.87769e-12
1346 1349 1.70044e-12
1347 1349 9.74864e-13
1348 1349 8.32149e-23
1349 1349 0.000772905
1482 1349 0
1486 1349 2.01363e-10
1813 1349 -3.37433e-09
1350 1350 1.00059e-06
1355 1350 -0.000585072
1486 1350 -0
1351 1351 1.00098e-06
1354 1351 -0.000972136
1486 1351 -0
1352 1352 1.00117e-06
1353 1352 -0.00116349
1486 1352 -0
1352 1353 -9.45263e-10
1353 1353 1.00409e-06
1354 1353 -0.00313233
1486 1353 0
1351 1354 -7.52965e-10
1353 1354 -2.48472e-09
1354 1354 1.00599e-06
1355 1354 -0.002744
1486 1354 0
1350 1355 -3.63819e-10
1354 1355 -1.32751e-09
1355 1355 1.00394e-06
1482 1355 -0.00223497
1486 1355 0
1356 1356 0.00530206
1488 1356 -1.18945e-10
1357 1357 0.000434078
1480 1357 7.53112e-26
1488 1357 -7.53112e-26
1813 1357 -0.997696
1358 1358 0.00158095
1481 1358 -2.03132e-10
1488 1358 2.03132e-10
1813 1358 -6.32578e-10
1359 1359 0.00278088
1360 1359 5.68319e-18
1384 1359 1.03907e-32
1805 1359 -5.68319e-18
1813 1359 -3.59625e-10
1360 1360 0.00278088
1384 1360 -0.99964
1479 1360 1.33997e-09
1805 1360 -8.89483e-12
1813 1360 -1.75512e-09
1361 1361 0.00807984
1786 1361 -0.499938
1362 1362 0.00489816
1366 1362 -0.269967
1363 1363 0.00290329
1366 1363 -0.455463
1364 1364 1e-06
1366 1364 -3.84575e-08
1813 1364 -3.11841e-06
1365 1365 1e-06
1366 1365 -3.82167e-08
1813 1365 -2.05475e-06
1362 1366 -0.00132234
1363 1366 -0.00132234
1364 1366 -1.13048e-16
1365 1366 -1.12347e-16
1366 1366 0.00168642
1371 1366 1.66894e-09
1813 1366 -2.56153e-09
1367 1367 0.000352093
1368 1367 2.08314e-09
1813 1367 -0.99716
1368 1368 0.00430315
1369 1368 -7.72967e-11
1813 1368 -4.64802e-10
1361 1369 -1.06043e-12
1368 1369 -4.29973e-14
1369 1369 0.000845528
1371 1369 -0.998817
1786 1369 7.71832e-10
1813 1369 -2.56036e-09
1370 1370 0.00404042
1372 1370 7.94819e-11
1373 1370 1.78894e-32
1384 1370 -7.94819e-11
1813 1370 -2.47525e-10
1369 1371 -0.000844528
1370 1371 3.8021e-13
1371 1371 0.000846526
1372 1371 -4.35464e-11
1373 1371 -2.13536e-09
1384 1371 2.17891e-09
1786 1371 7.7001e-10
1813 1371 -0.997639
1368 1372 2.9173e-14
1369 1372 -2.9173e-14
1371 1372 -2.91385e-14
1372 1372 0.000845528
1373 1372 -7.35888e-20
1384 1372 -6.40883e-11
1786 1372 5.31663e-20
1813 1372 -0.998817
1368 1373 -2.60878e-13
1369 1373 1.42028e-12
1371 1373 2.59198e-13
1372 1373 1.12871e-23
1373 1373 0.00556076
1384 1373 -0.49991
1786 1373 -2.33027e-19
1813 1373 -3.13187e-10
1374 1374 0.00230983
1375 1374 -9.30386e-11
1376 1374 1.39032e-10
1377 1374 -1.39032e-10
1379 1374 9.30386e-11
1813 1374 -4.32959e-10
1372 1375 1.48234e-12
1373 1375 1.09084e-31
1375 1375 0.00278088
1376 1375 1.1414e-09
1377 1375 -0.99964
1379 1375 -9.86038e-11
1384 1375 3.41622e-20
1786 1375 -2.83402e-29
1813 1375 -1.38616e-09
1373 1376 2.56727e-12
1375 1376 1.55758e-14
1376 1376 0.000352093
1377 1376 3.00208e-11
1379 1376 -2.36894e-08
1384 1376 3.64507e-09
1786 1376 1.6991e-27
1813 1376 -0.99716
1375 1377 -0.00277988
1376 1377 2.76361e-12
1377 1377 0.00278188
1379 1377 -9.85329e-11
1380 1377 -9.85683e-11
1383 1377 -0.999281
1384 1377 -3.58699e-18
1786 1377 -2.83199e-29
1813 1377 -3.94556e-10
1377 1378 -2.14903e-13
1378 1378 0.00230983
1379 1378 9.30387e-11
1380 1378 9.30387e-11
1383 1378 -1.8601e-10
1384 1378 -3.33729e-28
1786 1378 -2.63476e-39
1813 1378 -4.32959e-10
1375 1379 -3.40391e-15
1376 1379 -4.58004e-10
1377 1379 -3.40267e-15
1379 1379 1.00067e-06
1380 1379 -0.000206187
1383 1379 -6.7996e-09
1384 1379 1.66834e-12
1786 1379 7.77675e-31
1813 1379 -0.000456398
1377 1380 -3.40391e-15
1379 1380 -2.06325e-10
1380 1380 1.00067e-06
1381 1380 -3.40164e-09
1383 1380 -3.4006e-09
1384 1380 3.4399e-16
1786 1380 1.6025e-34
1806 1380 -0.000457698
1813 1380 -9.41035e-08
1380 1381 -2.74205e-13
1381 1381 0.0068203
1383 1381 -0.407589
1384 1381 1.38299e-26
1786 1381 0
1806 1381 -1.84014e-14
1813 1381 -1.46642e-10
1380 1382 -4.01419e-10
1381 1382 -3.65014e-13
1382 1382 0.000352093
1383 1382 6.14144e-10
1384 1382 3.92181e-22
1786 1382 1.83075e-40
1806 1382 1.13957e-06
1813 1382 -0.99716
1377 1383 -0.00277988
1379 1383 -5.48115e-13
1380 1383 -2.74121e-13
1381 1383 -0.00277988
1383 1383 0.00164983
1384 1383 -6.04335e-18
1786 1383 -4.77175e-29
1806 1383 -2.48211e-10
1813 1383 -9.12043e-10
1360 1384 -0.00277988
1372 1384 -4.09474e-13
1373 1384 -0.00277988
1384 1384 0.00139219
1479 1384 2.67561e-09
1786 1384 -4.653e-19
1805 1384 -1.77609e-11
1813 1384 -6.57859e-09
1385 1385 0.00530206
1483 1385 -1.18945e-10
1386 1386 0.00158095
1478 1386 -2.03132e-10
1483 1386 2.03132e-10
1813 1386 -6.32578e-10
1387 1387 0.000434078
1479 1387 7.53112e-26
1483 1387 -7.53112e-26
1813 1387 -0.997696
1388 1388 0.00278088
1389 1388 5.68319e-18
1413 1388 1.03907e-32
1805 1388 -5.68319e-18
1813 1388 -3.59625e-10
1389 1389 0.00278088
1413 1389 -0.99964
1480 1389 1.33997e-09
1805 1389 -8.89483e-12
1813 1389 -1.75512e-09
1390 1390 0.00807984
1478 1390 -0.499938
1391 1391 0.00489816
1395 1391 -0.269967
1392 1392 0.00290329
1395 1392 -0.455463
1393 1393 1e-06
1395 1393 -3.82167e-08
1813 1393 -2.05475e-06
1394 1394 1e-06
1395 1394 -3.84575e-08
1813 1394 -3.11841e-06
1391 1395 -0.00132234
1392 1395 -0.00132234
1393 1395 -1.12347e-16
1394 1395 -1.13048e-16
1395 1395 0.00168642
1400 1395 1.66894e-09
1813 1395 -2.56153e-09
1396 1396 0.000352093
1397 1396 2.08314e-09
1813 1396 -0.99716
1397 1397 0.00430315
1398 1397 -7.72967e-11
1813 1397 -4.64802e-10
1390 1398 -1.06043e-12
1397 1398 -4.29973e-14
1398 1398 0.000845528
1400 1398 -0.998817
1478 1398 7.71832e-10
1813 1398 -2.56036e-09
1399 1399 0.00404042
1401 1399 7.94819e-11
1402 1399 1.78894e-32
1413 1399 -7.94819e-11
1813 1399 -2.47525e-10
1398 1400 -0.000844528
1399 1400 3.8021e-13
1400 1400 0.000846526
1401 1400 -4.35464e-11
1402 1400 -2.13536e-09
1413 1400 2.17891e-09
1478 1400 7.7001e-10
1813 1400 -0.997639
1397 1401 2.9173e-14
1398 1401 -2.9173e-14
1400 1401 -2.91385e-14
1401 1401 0.000845528
1402 1401 -7.35888e-20
1413 1401 -6.40883e-11
1478 1401 5.31663e-20
1813 1401 -0.998817
1397 1402 -2.60878e-13
1398 1402 1.42028e-12
1400 1402 2.59198e-13
1401 1402 1.12871e-23
1402 1402 0.00556076
1413 1402 -0.49991
1478 1402 -2.33027e-19
1813 1402 -3.13187e-10
1401 1403 1.48234e-12
1402 1403 1.09084e-31
1403 1403 0.00278088
1405 1403 1.1414e-09
1406 1403 -9.86038e-11
1408 1403 -0.99964
1413 1403 3.41622e-20
1478 1403 -2.83402e-29
1813 1403 -1.38616e-09
1403 1404 -2.14903e-13
1404 1404 0.00230983
1405 1404 1.39032e-10
1406 1404 9.30386e-11
1408 1404 -2.32037e-10
1413 1404 3.1784e-30
1478 1404 -2.63658e-39
1813 1404 -4.32959e-10
1402 1405 2.56727e-12
1403 1405 1.55758e-14
1405 1405 0.000352093
1406 1405 -2.36894e-08
1408 1405 3.00208e-11
1413 1405 3.64507e-09
1478 1405 1.6991e-27
1813 1405 -0.99716
1403 1406 -3.40391e-15
1405 1406 -4.58004e-10
1406 1406 1.00067e-06
1408 1406 -3.4004e-09
1409 1406 -0.000206187
1412 1406 -3.40164e-09
1413 1406 1.66834e-12
1478 1406 7.77675e-31
1813 1406 -0.000456398
1406 1407 2.14903e-13
1407 1407 0.00230983
1408 1407 -9.30387e-11
1409 1407 9.30578e-11
1412 1407 -9.30387e-11
1413 1407 -1.5522e-22
1478 1407 -7.21935e-41
1813 1407 -4.32916e-10
1403 1408 -0.00277988
1405 1408 2.76361e-12
1406 1408 -2.74107e-13
1408 1408 0.00278188
1409 1408 -9.85887e-11
1412 1408 -0.999281
1413 1408 -3.58683e-18
1478 1408 -2.83199e-29
1813 1408 -3.94601e-10
1406 1409 -2.06325e-10
1408 1409 -3.40461e-15
1409 1409 1.00067e-06
1411 1409 -3.40164e-09
1412 1409 -3.4006e-09
1413 1409 3.4399e-16
1478 1409 1.6025e-34
1806 1409 -0.000457698
1813 1409 -9.41035e-08
1409 1410 -4.01419e-10
1410 1410 0.000352093
1411 1410 -1.0367e-09
1412 1410 1.03669e-09
1413 1410 3.92181e-22
1478 1410 1.83075e-40
1806 1410 1.13957e-06
1813 1410 -0.99716
1409 1411 -2.74205e-13
1411 1411 0.0068203
1412 1411 -0.407589
1413 1411 1.38299e-26
1478 1411 0
1806 1411 -1.84014e-14
1813 1411 -1.46642e-10
1406 1412 -2.74205e-13
1408 1412 -0.00277988
1409 1412 -2.74121e-13
1411 1412 -0.00277988
1412 1412 0.00164983
1413 1412 -6.04335e-18
1478 1412 -4.77175e-29
1806 1412 -2.48211e-10
1813 1412 -9.12043e-10
1389 1413 -0.00277988
1401 1413 -4.09474e-13
1402 1413 -0.00277988
1413 1413 0.00139219
1478 1413 -4.653e-19
1480 1413 2.67561e-09
1805 1413 -1.77609e-11
1813 1413 -6.57859e-09
1414 1414 0.00278088
1415 1414 5.68319e-18
1439 1414 1.03907e-32
1805 1414 -5.68319e-18
1813 1414 -3.59625e-10
1415 1415 0.00278088
1439 1415 -0.99964
1487 1415 1.33997e-09
1805 1415 -8.89483e-12
1813 1415 -1.75512e-09
1416 1416 0.00807984
1481 1416 -0.499938
1417 1417 0.00290329
1421 1417 -0.455463
1418 1418 0.00489816
1421 1418 -0.269967
1419 1419 1e-06
1421 1419 -3.82167e-08
1813 1419 -2.05475e-06
1420 1420 1e-06
1421 1420 -3.84575e-08
1813 1420 -3.11841e-06
1417 1421 -0.00132234
1418 1421 -0.00132234
1419 1421 -1.12347e-16
1420 1421 -1.13048e-16
1421 1421 0.00168642
1426 1421 1.66894e-09
1813 1421 -2.56153e-09
1422 1422 0.000352093
1423 1422 2.08314e-09
1813 1422 -0.99716
1423 1423 0.00430315
1424 1423 -7.72967e-11
1813 1423 -4.64802e-10
1416 1424 -1.06043e-12
1423 1424 -4.29973e-14
1424 1424 0.000845528
1426 1424 -0.998817
1481 1424 7.71832e-10
1813 1424 -2.56036e-09
1425 1425 0.00404042
1427 1425 7.94819e-11
1428 1425 1.78894e-32
1439 1425 -7.94819e-11
1813 1425 -2.47525e-10
1424 1426 -0.000844528
1425 1426 3.8021e-13
1426 1426 0.000846526
1427 1426 -4.35464e-11
1428 1426 -2.13536e-09
1439 1426 2.17891e-09
1481 1426 7.7001e-10
1813 1426 -0.997639
1423 1427 2.9173e-14
1424 1427 -2.9173e-14
1426 1427 -2.91385e-14
1427 1427 0.000845528
1428 1427 -7.35888e-20
1439 1427 -6.40883e-11
1481 1427 5.31663e-20
1813 1427 -0.998817
1423 1428 -2.60878e-13
1424 1428 1.42028e-12
1426 1428 2.59198e-13
1427 1428 1.12871e-23
1428 1428 0.00556076
1439 1428 -0.49991
1481 1428 -2.33027e-19
1813 1428 -3.13187e-10
1429 1429 0.00230983
1430 1429 -9.30386e-11
1431 1429 1.39032e-10
1432 1429 -1.39032e-10
1434 1429 9.30386e-11
1813 1429 -4.32959e-10
1427 1430 1.48234e-12
1428 1430 1.09084e-31
1430 1430 0.00278088
1431 1430 1.1414e-09
1432 1430 -0.99964
1434 1430 -9.86038e-11
1439 1430 3.41622e-20
1481 1430 -2.83402e-29
1813 1430 -1.38616e-09
1428 1431 2.56727e-12
1430 1431 1.55758e-14
1431 1431 0.000352093
1432 1431 3.00208e-11
1434 1431 -2.36894e-08
1439 1431 3.64507e-09
1481 1431 1.6991e-27
1813 1431 -0.99716
1430 1432 -0.00277988
1431 1432 2.76361e-12
1432 1432 0.00278188
1434 1432 -9.85329e-11
1435 1432 -9.85683e-11
1438 1432 -0.999281
1439 1432 -3.58699e-18
1481 1432 -2.83199e-29
1813 1432 -3.94556e-10
1432 1433 -2.14903e-13
1433 1433 0.00230983
1434 1433 9.30387e-11
1435 1433 9.30387e-11
1438 1433 -1.8601e-10
1439 1433 -3.33729e-28
1481 1433 -2.63476e-39
1813 1433 -4.32959e-10
1430 1434 -3.40391e-15
1431 1434 -4.58004e-10
1432 1434 -3.40267e-15
1434 1434 1.00067e-06
1435 1434 -0.000206187
1438 1434 -6.7996e-09
1439 1434 1.66834e-12
1481 1434 7.77675e-31
1813 1434 -0.000456398
1432 1435 -3.40391e-15
1434 1435 -2.06325e-10
1435 1435 1.00067e-06
1436 1435 -3.40164e-09
1438 1435 -3.4006e-09
1439 1435 3.4399e-16
1481 1435 1.6025e-34
1806 1435 -0.000457698
1813 1435 -9.41035e-08
1435 1436 -2.74205e-13
1436 1436 0.0068203
1438 1436 -0.407589
1439 1436 1.38299e-26
1481 1436 0
1806 1436 -1.84014e-14
1813 1436 -1.46642e-10
1435 1437 -4.01419e-10
1436 1437 -3.65014e-13
1437 1437 0.000352093
1438 1437 6.14144e-10
1439 1437 3.92181e-22
1481 1437 1.83075e-40
1806 1437 1.13957e-06
1813 1437 -0.99716
1432 1438 -0.00277988
1434 1438 -5.48115e-13
1435 1438 -2.74121e-13
1436 1438 -0.00277988
1438 1438 0.00164983
1439 1438 -6.04335e-18
1481 1438 -4.77175e-29
1806 1438 -2.48211e-10
1813 1438 -9.12043e-10
1415 1439 -0.00277988
1427 1439 -4.09474e-13
1428 1439 -0.00277988
1439 1439 0.00139219
1481 1439 -4.653e-19
1487 1439 2.67561e-09
1805 1439 -1.77609e-11
1813 1439 -6.57859e-09
1440 1440 0.00278088
1441 1440 5.68319e-18
1465 1440 1.03907e-32
1805 1440 -5.68319e-18
1813 1440 -3.59625e-10
1441 1441 0.00278088
1465 1441 -0.99964
1485 1441 1.33997e-09
1805 1441 -8.89483e-12
1813 1441 -1.75512e-09
1442 1442 0.00807984
1484 1442 -0.499938
1443 1443 0.00489816
1447 1443 -0.269967
1444 1444 0.00290329
1447 1444 -0.455463
1445 1445 1e-06
1447 1445 -3.84575e-08
1813 1445 -3.11841e-06
1446 1446 1e-06
1447 1446 -3.82167e-08
1813 1446 -2.05475e-06
1443 1447 -0.00132234
1444 1447 -0.00132234
1445 1447 -1.13048e-16
1446 1447 -1.12347e-16
1447 1447 0.00168642
1452 1447 1.66894e-09
1813 1447 -2.56153e-09
1448 1448 0.000352093
1449 1448 2.08314e-09
1813 1448 -0.99716
1449 1449 0.00430315
1450 1449 -7.72967e-11
1813 1449 -4.64802e-10
1442 1450 -1.06043e-12
1449 1450 -4.29973e-14
1450 1450 0.000845528
1452 1450 -0.998817
1484 1450 7.71832e-10
1813 1450 -2.56036e-09
1451 1451 0.00404042
1453 1451 7.94819e-11
1454 1451 1.78894e-32
1465 1451 -7.94819e-11
1813 1451 -2.47525e-10
1450 1452 -0.000844528
1451 1452 3.8021e-13
1452 1452 0.000846526
1453 1452 -4.35464e-11
1454 1452 -2.13536e-09
1465 1452 2.17891e-09
1484 1452 7.7001e-10
1813 1452 -0.997639
1449 1453 2.9173e-14
1450 1453 -2.9173e-14
1452 1453 -2.91385e-14
1453 1453 0.000845528
1454 1453 -7.35888e-20
1465 1453 -6.40883e-11
1484 1453 5.31663e-20
1813 1453 -0.998817
1449 1454 -2.60878e-13
1450 1454 1.42028e-12
1452 1454 2.59198e-13
1453 1454 1.12871e-23
1454 1454 0.00556076
1465 1454 -0.49991
1484 1454 -2.33027e-19
1813 1454 -3.13187e-10
1455 1455 0.00230983
1456 1455 -9.30386e-11
1457 1455 1.39032e-10
1458 1455 -1.39032e-10
1460 1455 9.30386e-11
1813 1455 -4.32959e-10
1453 1456 1.48234e-12
1454 1456 1.09084e-31
1456 1456 0.00278088
1457 1456 1.1414e-09
1458 1456 -0.99964
1460 1456 -9.86038e-11
1465 1456 3.41622e-20
1484 1456 -2.83402e-29
1813 1456 -1.38616e-09
1454 1457 2.56727e-12
1456 1457 1.55758e-14
1457 1457 0.000352093
1458 1457 3.00208e-11
1460 1457 -2.36894e-08
1465 1457 3.64507e-09
1484 1457 1.6991e-27
1813 1457 -0.99716
1456 1458 -0.00277988
1457 1458 2.76361e-12
1458 1458 0.00278188
1460 1458 -9.85329e-11
1461 1458 -9.85683e-11
1464 1458 -0.999281
1465 1458 -3.58699e-18
1484 1458 -2.83199e-29
1813 1458 -3.94556e-10
1458 1459 -2.14903e-13
1459 1459 0.00230983
1460 1459 9.30387e-11
1461 1459 9.30387e-11
1464 1459 -1.8601e-10
1465 1459 -3.33729e-28
1484 1459 -2.63476e-39
1813 1459 -4.32959e-10
1456 1460 -3.40391e-15
1457 1460 -4.58004e-10
1458 1460 -3.40267e-15
1460 1460 1.00067e-06
1461 1460 -0.000206187
1464 1460 -6.7996e-09
1465 1460 1.66834e-12
1484 1460 7.77675e-31
1813 1460 -0.000456398
1458 1461 -3.40391e-15
1460 1461 -2.06325e-10
1461 1461 1.00067e-06
1463 1461 -3.40164e-09
1464 1461 -3.4006e-09
1465 1461 3.4399e-16
1484 1461 1.6025e-34
1806 1461 -0.000457698
1813 1461 -9.41035e-08
1461 1462 -4.01419e-10
1462 1462 0.000352093
1463 1462 -1.0367e-09
1464 1462 1.03669e-09
1465 1462 3.92181e-22
1484 1462 1.83075e-40
1806 1462 1.13957e-06
1813 1462 -0.99716
1461 1463 -2.74205e-13
1463 1463 0.0068203
1464 1463 -0.407589
1465 1463 1.38299e-26
1484 1463 0
1806 1463 -1.84014e-14
1813 1463 -1.46642e-10
1458 1464 -0.00277988
1460 1464 -5.48115e-13
1461 1464 -2.74121e-13
1463 1464 -0.00277988
1464 1464 0.00164983
1465 1464 -6.04335e-18
1484 1464 -4.77175e-29
1806 1464 -2.48211e-10
1813 1464 -9.12043e-10
1441 1465 -0.00277988
1453 1465 -4.09474e-13
1454 1465 -0.00277988
1465 1465 0.00139219
1484 1465 -4.653e-19
1485 1465 2.67561e-09
1805 1465 -1.77609e-11
1813 1465 -6.57859e-09
1466 1466 0.00285116
1468 1466 -0.499825
1467 1467 1e-06
1468 1467 -1.08719e-07
1813 1467 -3.14204e-06
1466 1468 -0.00142508
1467 1468 -3.20577e-16
1468 1468 0.00213887
1477 1468 2.94298e-10
1800 1468 9.63728e-10
1813 1468 -1.68433e-09
1469 1469 0.00230947
1476 1469 -0.999567
1477 1469 -1.37168e-10
1470 1470 0.00330478
1471 1470 -0.999697
1477 1470 -1.43919e-10
1470 1471 -0.00330378
1471 1471 0.00530229
1476 1471 -0.999623
1477 1471 -8.9674e-11
1472 1472 0.00178812
1475 1472 -0.999441
1477 1472 -1.35285e-10
1473 1473 0.00158069
1474 1473 -0.999367
1477 1473 -1.35875e-10
1473 1474 -0.00157969
1474 1474 0.00530229
1475 1474 -0.999623
1477 1474 -4.04807e-11
1472 1475 -0.00178712
1474 1475 -0.00530029
1475 1475 0.00530429
1476 1475 -0.999246
1477 1475 -8.60304e-11
1469 1476 -0.00230847
1471 1476 -0.00530029
1475 1476 -0.00530029
1476 1476 7.99261e-06
1477 1476 -1.56136e-07
1466 1477 -2.60471e-13
1467 1477 -4.07477e-14
1468 1477 1.71029e-13
1469 1477 -3.87071e-15
1470 1477 -5.81207e-15
1471 1477 -5.81031e-15
1472 1477 -2.95487e-15
1473 1477 -2.62281e-15
1474 1477 -2.62115e-15
1475 1477 -5.57338e-15
1476 1477 -1.52463e-14
1477 1477 0.000664973
1800 1477 -2.47868e-19
1813 1477 -0.998496
1385 1478 -4.94722e-13
1387 1478 7.78198e-13
1390 1478 -0.00403942
1473 1478 -1.68531e-13
1474 1478 -1.68424e-13
1475 1478 -1.68361e-13
1476 1478 -1.68234e-13
1477 1478 1.68531e-13
1478 1478 0.00202096
1479 1478 -8.61513e-10
1483 1478 9.03695e-10
1800 1478 2.06701e-29
1813 1478 -1.31502e-09
1385 1479 1.36461e-15
1386 1479 4.02792e-13
1473 1479 2.80031e-16
1474 1479 -1.98854e-16
1475 1479 -1.02173e-19
1476 1479 -1.02096e-19
1477 1479 1.40498e-26
1478 1479 3.68631e-14
1479 1479 0.00189614
1483 1479 -0.445392
1800 1479 -4.00551e-40
1813 1479 -0.554081
1352 1480 -1.95497e-10
1353 1480 -3.93044e-10
1354 1480 5.87082e-10
1355 1480 1.61095e-12
1356 1480 1.36461e-15
1358 1480 4.02792e-13
1472 1480 3.38326e-16
1475 1480 -4.25942e-16
1476 1480 1.31846e-19
1477 1480 2.97123e-26
1480 1480 0.00189614
1481 1480 1.94411e-11
1482 1480 1.89882e-12
1486 1480 0
1488 1480 -0.445392
1800 1480 3.69522e-42
1813 1480 -0.554081
1352 1481 -0
1353 1481 -0
1354 1481 0
1355 1481 0
1356 1481 -4.94722e-13
1357 1481 7.78198e-13
1416 1481 -0.00403942
1472 1481 -1.89824e-13
1475 1481 -1.89717e-13
1476 1481 -1.89574e-13
1477 1481 1.89824e-13
1480 1481 -1.74108e-12
1481 1481 0.00202096
1482 1481 1.63586e-21
1486 1481 0
1488 1481 5.19984e-10
1800 1481 2.32816e-29
1813 1481 -1.78185e-09
1338 1482 -0
1348 1482 0
1349 1482 0
1355 1482 -4.03959e-11
1482 1482 0.000270407
1486 1482 0
1813 1482 -0.996302
1254 1483 -3.01943e-10
1255 1483 3.01738e-10
1262 1483 1.72943e-13
1333 1483 3.96112e-13
1337 1483 -5.65588e-22
1338 1483 6.2128e-41
1348 1483 3.10868e-31
1349 1483 5.29313e-31
1385 1483 -7.70349e-15
1478 1483 -5.41884e-14
1479 1483 -0.000844528
1482 1483 0
1483 1483 0.000469382
1486 1483 1.19118e-39
1494 1483 3.45015e-22
1800 1483 1.66586e-39
1813 1483 -0.996921
1256 1484 -4.94722e-13
1258 1484 7.78198e-13
1261 1484 1.82633e-12
1262 1484 -2.20973e-19
1305 1484 -0
1306 1484 -0
1307 1484 0
1327 1484 0
1328 1484 0
1330 1484 1.22167e-30
1351 1484 -0
1354 1484 -0
1355 1484 0
1442 1484 -0.00403942
1469 1484 -2.4858e-13
1471 1484 2.60423e-24
1476 1484 -2.48472e-13
1477 1484 2.4858e-13
1482 1484 0
1484 1484 0.00202096
1486 1484 0
1487 1484 4.11132e-11
1494 1484 1.2759e-20
1800 1484 3.0488e-29
1813 1484 -1.27547e-09
1250 1485 1.36461e-15
1252 1485 4.02792e-13
1283 1485 -1.97986e-10
1284 1485 -3.97774e-10
1287 1485 5.954e-10
1302 1485 0
1303 1485 0
1304 1485 -1.97536e-10
1307 1485 -1.08568e-09
1327 1485 0
1328 1485 1.28152e-09
1329 1485 -0.000844528
1330 1485 0
1350 1485 -1.97356e-10
1355 1485 -1.76892e-09
1470 1485 8.36716e-16
1471 1485 -2.5321e-19
1476 1485 -2.53114e-19
1477 1485 8.08765e-26
1482 1485 1.96221e-09
1485 1485 0.00105262
1486 1485 0
1490 1485 -1.63984e-11
1494 1485 9.70739e-08
1800 1485 1.86373e-41
1813 1485 -0.998098
1332 1486 1.45861e-12
1334 1486 1.92127e-12
1336 1486 9.97195e-13
1337 1486 -1.38954e-22
1338 1486 -8.42249e-23
1348 1486 5.72935e-13
1349 1486 4.04876e-13
1350 1486 -0
1351 1486 -0
1352 1486 -0
1353 1486 0
1354 1486 0
1355 1486 0
1482 1486 0
1486 1486 0.000630738
1813 1486 -0.998415
1256 1487 1.36461e-15
1257 1487 4.02792e-13
1261 1487 -0.000844528
1262 1487 1.02182e-10
1305 1487 -1.96545e-10
1306 1487 -3.95521e-10
1307 1487 5.9132e-10
1327 1487 0
1328 1487 8.6357e-13
1330 1487 -5.64919e-22
1351 1487 -1.95986e-10
1354 1487 -1.08098e-09
1355 1487 1.27381e-09
1469 1487 4.99025e-16
1471 1487 4.91934e-16
1476 1487 -4.01547e-19
1477 1487 4.98684e-26
1482 1487 2.84692e-12
1484 1487 -1.72612e-14
1486 1487 0
1487 1487 0.00105262
1494 1487 -1.13277e-11
1800 1487 5.12532e-40
1813 1487 -0.998101
1255 1488 -5.02836e-10
1262 1488 5.02548e-10
1310 1488 3.96112e-13
1314 1488 -5.65588e-22
1315 1488 6.21252e-41
1325 1488 3.10868e-31
1326 1488 5.29313e-31
1327 1488 4.18988e-43
1328 1488 0
1356 1488 -7.70349e-15
1480 1488 -0.000844528
1481 1488 -3.77699e-14
1482 1488 1.6036e-15
1486 1488 0
1488 1488 0.000469382
1494 1488 1.00257e-18
1800 1488 1.88081e-39
1813 1488 -0.99692
1238 1489 4.54448e-13
1247 1489 8.47775e-32
1264 1489 7.89395e-13
1266 1489 -6.21658e-21
1267 1489 -2.06182e-21
1268 1489 -8.29698e-30
1272 1489 -1.22313e-12
1273 1489 7.3728e-13
1275 1489 -6.22179e-21
1276 1489 -2.06355e-21
1277 1489 -2.39778e-31
1281 1489 2.41543e-30
1282 1489 4.90271e-30
1287 1489 -0
1302 1489 0
1303 1489 0
1327 1489 0
1328 1489 -0
1330 1489 0
1482 1489 -0
1486 1489 0
1489 1489 0.010091
1492 1489 0
1800 1489 0
1813 1489 -7.52869e-11
1022 1490 -0.00403942
1250 1490 -4.94722e-13
1251 1490 7.78198e-13
1283 1490 -0
1284 1490 -0
1287 1490 0
1302 1490 0
1303 1490 0
1304 1490 -0
1307 1490 -0
1327 1490 0
1328 1490 0
1329 1490 1.82633e-12
1330 1490 0
1350 1490 -0
1355 1490 -0
1470 1490 -3.73183e-13
1471 1490 -3.73071e-13
1476 1490 -3.7293e-13
1477 1490 3.73183e-13
1482 1490 0
1485 1490 8.30883e-14
1486 1490 0
1490 1490 0.00202096
1494 1490 -1.13331e-16
1800 1490 4.57704e-29
1813 1490 -1.17288e-09
1084 1491 -0
1091 1491 0
1249 1491 2.95273e-13
1272 1491 1.22313e-12
1273 1491 7.35539e-13
1275 1491 -6.2071e-21
1276 1491 -2.05868e-21
1277 1491 -1.19656e-31
1281 1491 2.40973e-30
1282 1491 8.35636e-41
1286 1491 0
1287 1491 0
1302 1491 0
1303 1491 0
1315 1491 0
1325 1491 0
1326 1491 0
1327 1491 0
1328 1491 0
1330 1491 0
1338 1491 0
1348 1491 0
1349 1491 0
1482 1491 0
1486 1491 0
1489 1491 0
1491 1491 0.010091
1492 1491 0
1800 1491 0
1802 1491 0
1803 1491 0
1813 1491 -8.75609e-11
160 1492 4.27566e-13
161 1492 2.60471e-13
162 1492 -4.07433e-14
163 1492 1.70933e-13
165 1492 -0.000638615
1017 1492 -4.29055e-23
1018 1492 -0
1053 1492 -2.32208e-20
1056 1492 1.88401e-29
1057 1492 2.32208e-20
1079 1492 2.9173e-14
1080 1492 1.88491e-29
1081 1492 -2.9173e-14
1082 1492 -3.39046e-24
1099 1492 2.32208e-20
1110 1492 2.31867e-20
1111 1492 -2.32208e-20
1122 1492 -2.32208e-20
1126 1492 1.88401e-29
1127 1492 2.32208e-20
1247 1492 -0
1280 1492 2.32208e-20
1281 1492 -2.32208e-20
1282 1492 2.31867e-20
1299 1492 2.32208e-20
1300 1492 2.31867e-20
1301 1492 -2.32208e-20
1320 1492 -2.32208e-20
1323 1492 1.88401e-29
1324 1492 2.32208e-20
1343 1492 -2.32208e-20
1346 1492 1.88401e-29
1347 1492 2.32208e-20
1489 1492 0
1492 1492 0.00104679
1493 1492 3.68554e-10
1800 1492 0
1802 1492 0
1803 1492 0
1813 1492 -0.998476
1053 1493 0
1056 1493 -1.75348e-12
1057 1493 7.48205e-13
1079 1493 -1.51841e-13
1080 1493 -1.75431e-12
1081 1493 9.00402e-13
1082 1493 1.04644e-22
1099 1493 1.75348e-12
1110 1493 -2.57563e-15
1111 1493 4.51678e-23
1122 1493 0
1126 1493 -1.75348e-12
1127 1493 7.48205e-13
1280 1493 1.75348e-12
1281 1493 4.52569e-23
1282 1493 -2.57563e-15
1299 1493 1.75348e-12
1300 1493 -2.57563e-15
1301 1493 4.51678e-23
1320 1493 0
1323 1493 -1.75348e-12
1324 1493 7.48205e-13
1343 1493 0
1346 1493 -1.75348e-12
1347 1493 7.48205e-13
1493 1493 0.00903813
1813 1493 -9.6237e-11
166 1494 1.69605e-14
167 1494 1.0145e-12
170 1494 -8.7763e-14
171 1494 2.18075e-13
1018 1494 0
1247 1494 0
1253 1494 3.78951e-13
1254 1494 0
1255 1494 0
1260 1494 -2.17016e-12
1262 1494 -2.53209e-16
1489 1494 0
1492 1494 0
1493 1494 0
1494 1494 0.000994277
1800 1494 0
1802 1494 0
1803 1494 0
1813 1494 -0.998994
1495 1495 1.00025e-06
1496 1495 -0.000246164
1813 1495 -1.99957e-06
1495 1496 -1.72251e-12
1496 1496 0.00122117
1506 1496 0
1800 1496 -0
1813 1496 -8.18889e-10
1497 1497 0.00285116
1499 1497 -0.499825
1498 1498 1e-06
1499 1498 -1.08707e-07
1813 1498 -3.14203e-06
1497 1499 -0.00142508
1498 1499 -3.20543e-16
1499 1499 0.00213887
1506 1499 8.50233e-10
1783 1499 2.51007e-10
1813 1499 -1.52754e-09
1500 1500 1.00025e-06
1501 1500 -0.000246164
1813 1500 -1.99957e-06
1500 1501 -1.72251e-12
1501 1501 0.00122117
1505 1501 0
1506 1501 -0
1813 1501 -8.18889e-10
1502 1502 0.00285116
1504 1502 -0.499825
1503 1503 1e-06
1504 1503 -1.08707e-07
1813 1503 -3.14203e-06
1502 1504 -0.00142508
1503 1504 -3.20543e-16
1504 1504 0.00213887
1505 1504 7.36738e-10
1797 1504 2.94291e-10
1813 1504 -1.45733e-09
1502 1505 2.60471e-13
1503 1505 -4.07433e-14
1504 1505 1.70933e-13
1505 1505 0.00107269
1506 1505 -0
1797 1505 -4.68951e-20
1813 1505 -0.999068
1497 1506 2.60471e-13
1498 1506 -4.07433e-14
1499 1506 1.70933e-13
1505 1506 -0
1506 1506 0.00107269
1783 1506 -3.99979e-20
1797 1506 0
1800 1506 -0
1813 1506 -0.999068
1507 1507 0.010091
1508 1507 -4.88032e-11
1517 1507 7.81049e-11
1813 1507 -1.28415e-10
1508 1508 1e-06
1509 1508 -4.2831e-07
1517 1508 -6.27267e-07
1508 1509 -5.32477e-15
1509 1509 1.00023e-06
1516 1509 -0.000232267
1517 1509 -3.33927e-15
1510 1510 0.00530206
1515 1510 -1.18945e-10
1511 1511 0.00158095
1515 1511 2.03132e-10
1795 1511 -2.03132e-10
1813 1511 -6.32578e-10
1512 1512 0.000434078
1515 1512 -7.53112e-26
1798 1512 7.53112e-26
1813 1512 -0.997696
1513 1513 0.00158095
1559 1513 1.42785e-09
1813 1513 -1.74748e-09
1514 1514 1.00024e-06
1516 1514 -0.000116677
1517 1514 -0.000116677
1510 1515 -7.70349e-15
1513 1515 3.96112e-13
1514 1515 -1.02315e-10
1515 1515 0.000845528
1516 1515 -1.41187e-11
1517 1515 1.20993e-07
1559 1515 -6.68918e-19
1795 1515 -6.40883e-11
1798 1515 -0.998817
1813 1515 -2.43535e-09
1509 1516 -4.29025e-12
1514 1516 -2.17016e-12
1516 1516 0.000270407
1517 1516 -9.36399e-13
1813 1516 -0.996302
1500 1517 1.69605e-14
1501 1517 1.0145e-12
1505 1517 0
1506 1517 0
1507 1517 3.78951e-13
1508 1517 -7.67996e-15
1509 1517 -3.2894e-21
1514 1517 -2.17016e-12
1516 1517 -2.53209e-16
1517 1517 0.000994277
1783 1517 0
1797 1517 0
1800 1517 0
1813 1517 -0.998994
1518 1518 0.00230983
1535 1518 -1.43952e-10
1519 1519 0.00201978
1535 1519 -0.499752
1813 1519 -0.499752
1520 1520 0.00230983
1521 1520 8.77661e-33
1524 1520 -8.72661e-26
1813 1520 -8.65891e-10
1520 1521 8.66217e-35
1521 1521 0.00322161
1524 1521 -0.331665
1559 1521 4.71321e-11
1813 1521 -6.20823e-10
1522 1522 0.000703187
1523 1522 -0.499289
1813 1522 -0.499289
1521 1523 1.49196e-12
1522 1523 -0.000351093
1523 1523 0.000176796
1524 1523 2.79887e-09
1559 1523 -3.9774e-19
1813 1523 -0.99152
1518 1524 -2.60878e-13
1519 1524 -1.15179e-12
1520 1524 -2.0157e-28
1521 1524 -0.00106849
1524 1524 0.000715112
1535 1524 1.17052e-09
1559 1524 -2.0023e-10
1813 1524 -4.5293e-09
1525 1525 0.00230983
1534 1525 -1.43952e-10
1526 1526 0.000189452
1528 1526 7.87511e-09
1813 1526 -0.994722
1527 1527 0.00230983
1528 1527 8.77661e-33
1529 1527 -8.72661e-26
1813 1527 -8.65891e-10
1527 1528 8.66217e-35
1528 1528 0.00322161
1529 1528 -0.331665
1559 1528 4.71321e-11
1813 1528 -6.20823e-10
1525 1529 -2.60878e-13
1527 1529 -2.0157e-28
1528 1529 -0.00106849
1529 1529 0.000715112
1530 1529 -4.02416e-09
1534 1529 4.38897e-09
1559 1529 -2.0023e-10
1813 1529 -3.72438e-09
1530 1530 0.00201978
1534 1530 -0.499752
1813 1530 -0.499752
1531 1531 0.00588063
1813 1531 -1.70264e-10
1532 1532 0.00125781
1533 1532 -2.68935e-11
1813 1532 -0.999205
1531 1533 6.68999e-13
1532 1533 -3.38267e-14
1533 1533 0.000680777
1534 1533 -0.998531
1535 1533 -2.58098e-11
1813 1533 -5.03464e-09
1525 1534 -4.06129e-15
1530 1534 -0.00100939
1533 1534 -0.000679777
1534 1534 0.000506943
1535 1534 -3.46092e-11
1813 1534 -0.995072
1518 1535 -4.06129e-15
1519 1535 -0.00100939
1533 1535 -1.75707e-14
1534 1535 -1.75449e-14
1535 1535 0.000505945
1813 1535 -0.997036
1536 1536 0.00125781
1544 1536 -2.68935e-11
1813 1536 -0.999205
1537 1537 0.00230983
1540 1537 -1.43952e-10
1538 1538 0.00588063
1813 1538 -1.70264e-10
1539 1539 0.00201978
1540 1539 -0.499752
1813 1539 -0.499752
1537 1540 -4.06129e-15
1539 1540 -0.00100939
1540 1540 0.000505945
1544 1540 -3.47286e-11
1813 1540 -0.997036
1541 1541 0.00230983
1543 1541 -1.43952e-10
1542 1542 0.00201978
1543 1542 -0.499752
1813 1542 -0.499752
1541 1543 -4.06129e-15
1542 1543 -0.00100939
1543 1543 0.00118572
1544 1543 -0.573302
1813 1543 -0.425433
1536 1544 -3.38267e-14
1538 1544 6.68999e-13
1540 1544 -1.75707e-14
1543 1544 -0.000679777
1544 1544 0.000291059
1813 1544 -0.99361
1545 1545 1.00046e-06
1546 1545 -0.000456811
1555 1545 -0
1545 1546 -2.34755e-10
1546 1546 1.00092e-06
1555 1546 0
1556 1546 -0.000679126
1547 1547 0.00158095
1553 1547 1.42785e-09
1813 1547 -1.74748e-09
1548 1548 0.00230983
1549 1548 8.77661e-33
1558 1548 -8.72661e-26
1813 1548 -8.65891e-10
1548 1549 7.39313e-35
1549 1549 0.00384937
1553 1549 3.94457e-11
1555 1549 7.28281e-11
1558 1549 -0.277576
1813 1549 -5.92406e-10
1550 1550 0.00316089
1552 1550 -0.499842
1551 1551 0.00230983
1552 1551 8.77661e-33
1557 1551 -8.72661e-26
1813 1551 -8.65891e-10
1550 1552 -0.00157995
1551 1552 2.21807e-34
1552 1552 0.00185972
1553 1552 8.16474e-11
1554 1552 8.44534e-11
1557 1552 -0.574547
1813 1552 -1.69776e-09
1548 1553 7.49789e-13
1549 1553 -8.31858e-13
1551 1553 7.49789e-13
1552 1553 -8.31858e-13
1553 1553 0.000639615
1554 1553 1.09837e-19
1555 1553 9.47174e-20
1557 1553 5.49636e-10
1558 1553 9.35863e-10
1813 1553 -0.998437
1550 1554 -1.92127e-12
1552 1554 9.97802e-13
1553 1554 -8.1468e-23
1554 1554 0.000664973
1555 1554 1.16049e-38
1556 1554 -0
1557 1554 8.62116e-10
1558 1554 1.14656e-28
1813 1554 -0.998496
1545 1555 -0
1546 1555 0
1549 1555 1.45861e-12
1550 1555 1.92127e-12
1552 1555 9.97195e-13
1553 1555 -1.38954e-22
1554 1555 -8.42165e-23
1555 1555 0.000630738
1556 1555 0
1557 1555 9.08356e-10
1558 1555 6.41909e-10
1813 1555 -0.998415
1546 1556 -1.22897e-11
1554 1556 -0
1555 1556 0
1556 1556 0.000270407
1557 1556 0
1558 1556 0
1813 1556 -0.996302
1537 1557 -2.60878e-13
1539 1557 -1.15179e-12
1540 1557 8.37056e-13
1544 1557 2.90698e-23
1551 1557 -2.0157e-28
1552 1557 -0.00106849
1553 1557 -1.06308e-13
1554 1557 9.0238e-14
1555 1557 1.00692e-32
1556 1557 0
1557 1557 0.000455594
1558 1557 2.18373e-19
1813 1557 -7.83837e-09
1541 1558 -2.60878e-13
1542 1558 -2.87771e-12
1543 1558 1.70044e-12
1544 1558 9.74869e-13
1548 1558 -2.0157e-28
1549 1558 -0.00106849
1553 1558 -1.514e-13
1554 1558 1.66293e-32
1555 1558 7.78164e-14
1556 1558 0
1557 1558 1.25298e-23
1558 1558 0.000772905
1813 1558 -3.17313e-09
1520 1559 7.49789e-13
1521 1559 -8.31858e-13
1524 1559 5.53598e-13
1527 1559 7.49789e-13
1528 1559 -8.31858e-13
1529 1559 5.53598e-13
1530 1559 2.22777e-21
1534 1559 -1.31639e-21
1535 1559 -6.48001e-22
1559 1559 0.000639615
1813 1559 -0.998437
1560 1560 0.00278088
1561 1560 5.68319e-18
1585 1560 1.03907e-32
1805 1560 -5.68319e-18
1813 1560 -3.59625e-10
1561 1561 0.00278088
1585 1561 -0.99964
1676 1561 1.33997e-09
1805 1561 -8.89483e-12
1813 1561 -1.75512e-09
1562 1562 0.00807984
1795 1562 -0.499938
1563 1563 0.00290329
1567 1563 -0.455463
1564 1564 0.00489816
1567 1564 -0.269967
1565 1565 1e-06
1567 1565 -3.82167e-08
1813 1565 -2.05475e-06
1566 1566 1e-06
1567 1566 -3.84575e-08
1813 1566 -3.11841e-06
1563 1567 -0.00132234
1564 1567 -0.00132234
1565 1567 -1.12347e-16
1566 1567 -1.13048e-16
1567 1567 0.00168642
1572 1567 1.66894e-09
1813 1567 -2.56153e-09
1568 1568 0.000352093
1569 1568 2.08314e-09
1813 1568 -0.99716
1569 1569 0.00430315
1570 1569 -7.72967e-11
1813 1569 -4.64802e-10
1562 1570 -1.06043e-12
1569 1570 -4.29973e-14
1570 1570 0.000845528
1572 1570 -0.998817
1795 1570 7.71832e-10
1813 1570 -2.56036e-09
1571 1571 0.00404042
1573 1571 7.94819e-11
1574 1571 1.78894e-32
1585 1571 -7.94819e-11
1813 1571 -2.47525e-10
1570 1572 -0.000844528
1571 1572 3.8021e-13
1572 1572 0.000846526
1573 1572 -4.35464e-11
1574 1572 -2.13536e-09
1585 1572 2.17891e-09
1795 1572 7.7001e-10
1813 1572 -0.997639
1569 1573 2.9173e-14
1570 1573 -2.9173e-14
1572 1573 -2.91385e-14
1573 1573 0.000845528
1574 1573 -7.35888e-20
1585 1573 -6.40883e-11
1795 1573 5.31663e-20
1813 1573 -0.998817
1569 1574 -2.60878e-13
1570 1574 1.42028e-12
1572 1574 2.59198e-13
1573 1574 1.12871e-23
1574 1574 0.00556076
1585 1574 -0.49991
1795 1574 -2.33027e-19
1813 1574 -3.13187e-10
1575 1575 0.00230983
1576 1575 -9.30386e-11
1577 1575 1.39032e-10
1578 1575 -1.39032e-10
1580 1575 9.30386e-11
1813 1575 -4.32959e-10
1573 1576 1.48234e-12
1574 1576 1.09084e-31
1576 1576 0.00278088
1577 1576 1.1414e-09
1578 1576 -0.99964
1580 1576 -9.86038e-11
1585 1576 3.41622e-20
1795 1576 -2.83402e-29
1813 1576 -1.38616e-09
1574 1577 2.56727e-12
1576 1577 1.55758e-14
1577 1577 0.000352093
1578 1577 3.00208e-11
1580 1577 -2.36894e-08
1585 1577 3.64507e-09
1795 1577 1.6991e-27
1813 1577 -0.99716
1576 1578 -0.00277988
1577 1578 2.76361e-12
1578 1578 0.00278188
1580 1578 -9.85329e-11
1581 1578 -9.85683e-11
1584 1578 -0.999281
1585 1578 -3.58699e-18
1795 1578 -2.83199e-29
1813 1578 -3.94556e-10
1578 1579 -2.14903e-13
1579 1579 0.00230983
1580 1579 9.30387e-11
1581 1579 9.30387e-11
1584 1579 -1.8601e-10
1585 1579 -3.33729e-28
1795 1579 -2.63476e-39
1813 1579 -4.32959e-10
1576 1580 -3.40391e-15
1577 1580 -4.58004e-10
1578 1580 -3.40267e-15
1580 1580 1.00067e-06
1581 1580 -0.000206187
1584 1580 -6.7996e-09
1585 1580 1.66834e-12
1795 1580 7.77675e-31
1813 1580 -0.000456398
1578 1581 -3.40391e-15
1580 1581 -2.06325e-10
1581 1581 1.00067e-06
1582 1581 -3.40164e-09
1584 1581 -3.4006e-09
1585 1581 3.4399e-16
1795 1581 1.6025e-34
1806 1581 -0.000457698
1813 1581 -9.41035e-08
1581 1582 -2.74205e-13
1582 1582 0.0068203
1584 1582 -0.407589
1585 1582 1.38299e-26
1795 1582 0
1806 1582 -1.84014e-14
1813 1582 -1.46642e-10
1581 1583 -4.01419e-10
1582 1583 -3.65014e-13
1583 1583 0.000352093
1584 1583 6.14144e-10
1585 1583 3.92181e-22
1795 1583 1.83075e-40
1806 1583 1.13957e-06
1813 1583 -0.99716
1578 1584 -0.00277988
1580 1584 -5.48115e-13
1581 1584 -2.74121e-13
1582 1584 -0.00277988
1584 1584 0.00164983
1585 1584 -6.04335e-18
1795 1584 -4.77175e-29
1806 1584 -2.48211e-10
1813 1584 -9.12043e-10
1561 1585 -0.00277988
1573 1585 -4.09474e-13
1574 1585 -0.00277988
1585 1585 0.00139219
1676 1585 2.67561e-09
1795 1585 -4.653e-19
1805 1585 -1.77609e-11
1813 1585 -6.57859e-09
1586 1586 0.00278088
1587 1586 5.68319e-18
1611 1586 1.03907e-32
1805 1586 -5.68319e-18
1813 1586 -3.59625e-10
1587 1587 0.00278088
1611 1587 -0.99964
1779 1587 1.33997e-09
1805 1587 -8.89483e-12
1813 1587 -1.75512e-09
1588 1588 0.00489816
1592 1588 -0.269967
1589 1589 0.00290329
1592 1589 -0.455463
1590 1590 1e-06
1592 1590 -3.82167e-08
1813 1590 -2.05475e-06
1591 1591 1e-06
1592 1591 -3.84575e-08
1813 1591 -3.11841e-06
1588 1592 -0.00132234
1589 1592 -0.00132234
1590 1592 -1.12347e-16
1591 1592 -1.13048e-16
1592 1592 0.00168642
1598 1592 1.66894e-09
1813 1592 -2.56153e-09
1593 1593 0.00807984
1781 1593 -0.499938
1594 1594 0.000352093
1595 1594 2.08314e-09
1813 1594 -0.99716
1595 1595 0.00430315
1596 1595 -7.72967e-11
1813 1595 -4.64802e-10
1593 1596 -1.06043e-12
1595 1596 -4.29973e-14
1596 1596 0.000845528
1598 1596 -0.998817
1781 1596 7.71832e-10
1813 1596 -2.56036e-09
1597 1597 0.00404042
1599 1597 7.94819e-11
1600 1597 1.78894e-32
1611 1597 -7.94819e-11
1813 1597 -2.47525e-10
1596 1598 -0.000844528
1597 1598 3.8021e-13
1598 1598 0.000846526
1599 1598 -4.35464e-11
1600 1598 -2.13536e-09
1611 1598 2.17891e-09
1781 1598 7.7001e-10
1813 1598 -0.997639
1595 1599 2.9173e-14
1596 1599 -2.9173e-14
1598 1599 -2.91385e-14
1599 1599 0.000845528
1600 1599 -7.35888e-20
1611 1599 -6.40883e-11
1781 1599 5.31663e-20
1813 1599 -0.998817
1595 1600 -2.60878e-13
1596 1600 1.42028e-12
1598 1600 2.59198e-13
1599 1600 1.12871e-23
1600 1600 0.00556076
1611 1600 -0.49991
1781 1600 -2.33027e-19
1813 1600 -3.13187e-10
1599 1601 1.48234e-12
1600 1601 1.09084e-31
1601 1601 0.00278088
1603 1601 1.1414e-09
1604 1601 -9.86038e-11
1606 1601 -0.99964
1611 1601 3.41622e-20
1781 1601 -2.83402e-29
1813 1601 -1.38616e-09
1601 1602 -2.14903e-13
1602 1602 0.00230983
1603 1602 1.39032e-10
1604 1602 9.30386e-11
1606 1602 -2.32037e-10
1611 1602 3.1784e-30
1781 1602 -2.63658e-39
1813 1602 -4.32959e-10
1600 1603 2.56727e-12
1601 1603 1.55758e-14
1603 1603 0.000352093
1604 1603 -2.36894e-08
1606 1603 3.00208e-11
1611 1603 3.64507e-09
1781 1603 1.6991e-27
1813 1603 -0.99716
1601 1604 -3.40391e-15
1603 1604 -4.58004e-10
1604 1604 1.00067e-06
1606 1604 -3.4004e-09
1607 1604 -0.000206187
1610 1604 -3.40164e-09
1611 1604 1.66834e-12
1781 1604 7.77675e-31
1813 1604 -0.000456398
1604 1605 2.14903e-13
1605 1605 0.00230983
1606 1605 -9.30387e-11
1607 1605 9.30578e-11
1610 1605 -9.30387e-11
1611 1605 -1.5522e-22
1781 1605 -7.21935e-41
1813 1605 -4.32916e-10
1601 1606 -0.00277988
1603 1606 2.76361e-12
1604 1606 -2.74107e-13
1606 1606 0.00278188
1607 1606 -9.85887e-11
1610 1606 -0.999281
1611 1606 -3.58683e-18
1781 1606 -2.83199e-29
1813 1606 -3.94601e-10
1604 1607 -2.06325e-10
1606 1607 -3.40461e-15
1607 1607 1.00067e-06
1609 1607 -3.40164e-09
1610 1607 -3.4006e-09
1611 1607 3.4399e-16
1781 1607 1.6025e-34
1806 1607 -0.000457698
1813 1607 -9.41035e-08
1607 1608 -4.01419e-10
1608 1608 0.000352093
1609 1608 -1.0367e-09
1610 1608 1.03669e-09
1611 1608 3.92181e-22
1781 1608 1.83075e-40
1806 1608 1.13957e-06
1813 1608 -0.99716
1607 1609 -2.74205e-13
1609 1609 0.0068203
1610 1609 -0.407589
1611 1609 1.38299e-26
1781 1609 0
1806 1609 -1.84014e-14
1813 1609 -1.46642e-10
1604 1610 -2.74205e-13
1606 1610 -0.00277988
1607 1610 -2.74121e-13
1609 1610 -0.00277988
1610 1610 0.00164983
1611 1610 -6.04335e-18
1781 1610 -4.77175e-29
1806 1610 -2.48211e-10
1813 1610 -9.12043e-10
1587 1611 -0.00277988
1599 1611 -4.09474e-13
1600 1611 -0.00277988
1611 1611 0.00139219
1779 1611 2.67561e-09
1781 1611 -4.653e-19
1805 1611 -1.77609e-11
1813 1611 -6.57859e-09
1612 1612 0.00530206
1778 1612 -1.18945e-10
1613 1613 0.000434078
1676 1613 7.53112e-26
1778 1613 -7.53112e-26
1813 1613 -0.997696
1614 1614 0.00158095
1675 1614 -2.03132e-10
1778 1614 2.03132e-10
1813 1614 -6.32578e-10
1615 1615 0.00278088
1616 1615 5.68319e-18
1640 1615 1.03907e-32
1805 1615 -5.68319e-18
1813 1615 -3.59625e-10
1616 1616 0.00278088
1640 1616 -0.99964
1782 1616 1.33997e-09
1805 1616 -8.89483e-12
1813 1616 -1.75512e-09
1617 1617 0.00807984
1675 1617 -0.499938
1618 1618 0.00290329
1622 1618 -0.455463
1619 1619 0.00489816
1622 1619 -0.269967
1620 1620 1e-06
1622 1620 -3.82167e-08
1813 1620 -2.05475e-06
1621 1621 1e-06
1622 1621 -3.84575e-08
1813 1621 -3.11841e-06
1618 1622 -0.00132234
1619 1622 -0.00132234
1620 1622 -1.12347e-16
1621 1622 -1.13048e-16
1622 1622 0.00168642
1627 1622 1.66894e-09
1813 1622 -2.56153e-09
1623 1623 0.000352093
1624 1623 2.08314e-09
1813 1623 -0.99716
1624 1624 0.00430315
1625 1624 -7.72967e-11
1813 1624 -4.64802e-10
1617 1625 -1.06043e-12
1624 1625 -4.29973e-14
1625 1625 0.000845528
1627 1625 -0.998817
1675 1625 7.71832e-10
1813 1625 -2.56036e-09
1626 1626 0.00404042
1628 1626 1.78894e-32
1629 1626 7.94819e-11
1640 1626 -7.94819e-11
1813 1626 -2.47525e-10
1625 1627 -0.000844528
1626 1627 3.8021e-13
1627 1627 0.000846526
1628 1627 -2.13536e-09
1629 1627 -4.35464e-11
1640 1627 2.17891e-09
1675 1627 7.7001e-10
1813 1627 -0.997639
1624 1628 -2.60878e-13
1625 1628 1.42028e-12
1627 1628 2.59198e-13
1628 1628 0.00556076
1629 1628 2.02978e-21
1640 1628 -0.49991
1675 1628 -2.33027e-19
1813 1628 -3.13187e-10
1624 1629 2.9173e-14
1625 1629 -2.9173e-14
1627 1629 -2.91385e-14
1628 1629 -6.22213e-23
1629 1629 0.000845528
1640 1629 -6.40883e-11
1675 1629 5.31663e-20
1813 1629 -0.998817
1630 1630 0.00230983
1631 1630 1.39032e-10
1632 1630 -9.30386e-11
1633 1630 -1.39032e-10
1635 1630 9.30386e-11
1813 1630 -4.32959e-10
1628 1631 2.56727e-12
1629 1631 -5.211e-33
1631 1631 0.000352093
1632 1631 4.42377e-11
1633 1631 -1.4201e-11
1635 1631 -2.36894e-08
1640 1631 3.64507e-09
1675 1631 1.6991e-27
1813 1631 -0.99716
1629 1632 1.48234e-12
1631 1632 3.17408e-12
1632 1632 0.00278088
1633 1632 -0.99964
1635 1632 -9.86038e-11
1640 1632 -4.1263e-18
1675 1632 -2.83402e-29
1813 1632 -2.48011e-10
1631 1633 -4.09329e-13
1632 1633 -0.00277988
1633 1633 0.00278188
1635 1633 -9.85329e-11
1636 1633 -9.85683e-11
1639 1633 -0.999281
1640 1633 -3.58699e-18
1675 1633 -2.83199e-29
1813 1633 -3.94556e-10
1633 1634 -2.14903e-13
1634 1634 0.00230983
1635 1634 9.30387e-11
1636 1634 9.30387e-11
1639 1634 -1.8601e-10
1640 1634 -3.33729e-28
1675 1634 -2.63476e-39
1813 1634 -4.32959e-10
1631 1635 -4.58004e-10
1632 1635 -3.40389e-15
1633 1635 -3.40267e-15
1635 1635 1.00067e-06
1636 1635 -0.000206187
1639 1635 -6.7996e-09
1640 1635 1.66834e-12
1675 1635 7.77675e-31
1813 1635 -0.000456398
1633 1636 -3.40391e-15
1635 1636 -2.06325e-10
1636 1636 1.00067e-06
1637 1636 -3.40164e-09
1639 1636 -3.4006e-09
1640 1636 3.4399e-16
1675 1636 1.6025e-34
1806 1636 -0.000457698
1813 1636 -9.41035e-08
1636 1637 -2.74205e-13
1637 1637 0.0068203
1639 1637 -0.407589
1640 1637 1.38299e-26
1675 1637 0
1806 1637 -1.84014e-14
1813 1637 -1.46642e-10
1636 1638 -4.01419e-10
1637 1638 -3.65014e-13
1638 1638 0.000352093
1639 1638 6.14144e-10
1640 1638 3.92181e-22
1675 1638 1.83075e-40
1806 1638 1.13957e-06
1813 1638 -0.99716
1633 1639 -0.00277988
1635 1639 -5.48115e-13
1636 1639 -2.74121e-13
1637 1639 -0.00277988
1639 1639 0.00164983
1640 1639 -6.04335e-18
1675 1639 -4.77175e-29
1806 1639 -2.48211e-10
1813 1639 -9.12043e-10
1616 1640 -0.00277988
1628 1640 -0.00277988
1629 1640 -4.09474e-13
1640 1640 0.00139219
1675 1640 -4.653e-19
1782 1640 2.67561e-09
1805 1640 -1.77609e-11
1813 1640 -6.57859e-09
1641 1641 0.00278088
1642 1641 5.68319e-18
1666 1641 1.03907e-32
1805 1641 -5.68319e-18
1813 1641 -3.59625e-10
1642 1642 0.00278088
1666 1642 -0.99964
1780 1642 1.33997e-09
1805 1642 -8.89483e-12
1813 1642 -1.75512e-09
1643 1643 0.00489816
1647 1643 -0.269967
1644 1644 0.00290329
1647 1644 -0.455463
1645 1645 1e-06
1647 1645 -3.82167e-08
1813 1645 -2.05475e-06
1646 1646 1e-06
1647 1646 -3.84575e-08
1813 1646 -3.11841e-06
1643 1647 -0.00132234
1644 1647 -0.00132234
1645 1647 -1.12347e-16
1646 1647 -1.13048e-16
1647 1647 0.00168642
1653 1647 1.66894e-09
1813 1647 -2.56153e-09
1648 1648 0.00807984
1777 1648 -0.499938
1649 1649 0.000352093
1650 1649 2.08314e-09
1813 1649 -0.99716
1650 1650 0.00430315
1651 1650 -7.72967e-11
1813 1650 -4.64802e-10
1648 1651 -1.06043e-12
1650 1651 -4.29973e-14
1651 1651 0.000845528
1653 1651 -0.998817
1777 1651 7.71832e-10
1813 1651 -2.56036e-09
1652 1652 0.00404042
1654 1652 1.78894e-32
1655 1652 7.94819e-11
1666 1652 -7.94819e-11
1813 1652 -2.47525e-10
1651 1653 -0.000844528
1652 1653 3.8021e-13
1653 1653 0.000846526
1654 1653 -2.13536e-09
1655 1653 -4.35464e-11
1666 1653 2.17891e-09
1777 1653 7.7001e-10
1813 1653 -0.997639
1650 1654 -2.60878e-13
1651 1654 1.42028e-12
1653 1654 2.59198e-13
1654 1654 0.00556076
1655 1654 2.02978e-21
1666 1654 -0.49991
1777 1654 -2.33027e-19
1813 1654 -3.13187e-10
1650 1655 2.9173e-14
1651 1655 -2.9173e-14
1653 1655 -2.91385e-14
1654 1655 -6.22213e-23
1655 1655 0.000845528
1666 1655 -6.40883e-11
1777 1655 5.31663e-20
1813 1655 -0.998817
1656 1656 0.00230983
1657 1656 1.39032e-10
1658 1656 -9.30386e-11
1659 1656 -1.39032e-10
1661 1656 9.30386e-11
1813 1656 -4.32959e-10
1654 1657 2.56727e-12
1655 1657 -5.211e-33
1657 1657 0.000352093
1658 1657 4.42377e-11
1659 1657 -1.4201e-11
1661 1657 -2.36894e-08
1666 1657 3.64507e-09
1777 1657 1.6991e-27
1813 1657 -0.99716
1655 1658 1.48234e-12
1657 1658 3.17408e-12
1658 1658 0.00278088
1659 1658 -0.99964
1661 1658 -9.86038e-11
1666 1658 -4.1263e-18
1777 1658 -2.83402e-29
1813 1658 -2.48011e-10
1657 1659 -4.09329e-13
1658 1659 -0.00277988
1659 1659 0.00278188
1661 1659 -9.85329e-11
1662 1659 -9.85683e-11
1665 1659 -0.999281
1666 1659 -3.58699e-18
1777 1659 -2.83199e-29
1813 1659 -3.94556e-10
1659 1660 -2.14903e-13
1660 1660 0.00230983
1661 1660 9.30387e-11
1662 1660 9.30387e-11
1665 1660 -1.8601e-10
1666 1660 -3.33729e-28
1777 1660 -2.63476e-39
1813 1660 -4.32959e-10
1657 1661 -4.58004e-10
1658 1661 -3.40389e-15
1659 1661 -3.40267e-15
1661 1661 1.00067e-06
1662 1661 -0.000206187
1665 1661 -6.7996e-09
1666 1661 1.66834e-12
1777 1661 7.77675e-31
1813 1661 -0.000456398
1659 1662 -3.40391e-15
1661 1662 -2.06325e-10
1662 1662 1.00067e-06
1664 1662 -3.40164e-09
1665 1662 -3.4006e-09
1666 1662 3.4399e-16
1777 1662 1.6025e-34
1806 1662 -0.000457698
1813 1662 -9.41035e-08
1662 1663 -4.01419e-10
1663 1663 0.000352093
1664 1663 -1.0367e-09
1665 1663 1.03669e-09
1666 1663 3.92181e-22
1777 1663 1.83075e-40
1806 1663 1.13957e-06
1813 1663 -0.99716
1662 1664 -2.74205e-13
1664 1664 0.0068203
1665 1664 -0.407589
1666 1664 1.38299e-26
1777 1664 0
1806 1664 -1.84014e-14
1813 1664 -1.46642e-10
1659 1665 -0.00277988
1661 1665 -5.48115e-13
1662 1665 -2.74121e-13
1664 1665 -0.00277988
1665 1665 0.00164983
1666 1665 -6.04335e-18
1777 1665 -4.77175e-29
1806 1665 -2.48211e-10
1813 1665 -9.12043e-10
1642 1666 -0.00277988
1654 1666 -0.00277988
1655 1666 -4.09474e-13
1666 1666 0.00139219
1777 1666 -4.653e-19
1780 1666 2.67561e-09
1805 1666 -1.77609e-11
1813 1666 -6.57859e-09
1667 1667 0.00330478
1669 1667 -0.999697
1783 1667 -1.4392e-10
1668 1668 0.00230947
1674 1668 -0.999567
1783 1668 -1.37169e-10
1667 1669 -0.00330378
1669 1669 0.00530229
1674 1669 -0.999623
1783 1669 -8.96743e-11
1670 1670 0.00178812
1673 1670 -0.999441
1783 1670 -1.35285e-10
1671 1671 0.00158069
1672 1671 -0.999367
1783 1671 -1.35876e-10
1671 1672 -0.00157969
1672 1672 0.00530229
1673 1672 -0.999623
1783 1672 -4.04808e-11
1670 1673 -0.00178712
1672 1673 -0.00530029
1673 1673 0.00530429
1674 1673 -0.999246
1783 1673 -8.60307e-11
1668 1674 -0.00230847
1669 1674 -0.00530029
1673 1674 -0.00530029
1674 1674 7.99214e-06
1783 1674 -1.56146e-07
1612 1675 -4.94722e-13
1613 1675 7.78198e-13
1617 1675 -0.00403942
1671 1675 -1.68532e-13
1672 1675 -1.68425e-13
1673 1675 -1.68362e-13
1674 1675 -1.68235e-13
1675 1675 0.00202096
1676 1675 -8.61513e-10
1778 1675 9.03695e-10
1783 1675 8.33918e-11
1813 1675 -1.39829e-09
1612 1676 1.36461e-15
1614 1676 4.02792e-13
1671 1676 2.80007e-16
1672 1676 -1.9915e-16
1673 1676 -1.02054e-19
1674 1676 -1.01977e-19
1675 1676 3.68631e-14
1676 1676 0.00189614
1778 1676 -0.445392
1783 1676 -1.61382e-21
1813 1676 -0.554081
1677 1677 0.00230983
1680 1677 -1.43952e-10
1678 1678 0.00588063
1813 1678 -1.70264e-10
1679 1679 0.00201978
1680 1679 -0.499752
1813 1679 -0.499752
1677 1680 -4.06129e-15
1679 1680 -0.00100939
1680 1680 0.000505945
1685 1680 -3.47286e-11
1813 1680 -0.997036
1681 1681 0.00125781
1685 1681 -2.68935e-11
1813 1681 -0.999205
1682 1682 0.00230983
1684 1682 -1.43952e-10
1683 1683 0.00201978
1684 1683 -0.499752
1813 1683 -0.499752
1682 1684 -4.06129e-15
1683 1684 -0.00100939
1684 1684 0.00118572
1685 1684 -0.573302
1813 1684 -0.425433
1678 1685 6.68999e-13
1680 1685 -1.75707e-14
1681 1685 -3.38267e-14
1684 1685 -0.000679777
1685 1685 0.000291059
1813 1685 -0.99361
1686 1686 1.00098e-06
1689 1686 -0.000972139
1699 1686 -0
1687 1687 1.00117e-06
1688 1687 -0.00116349
1699 1687 -0
1687 1688 -9.45262e-10
1688 1688 1.00409e-06
1689 1688 -0.00313233
1699 1688 0
1686 1689 -7.52966e-10
1688 1689 -2.48472e-09
1689 1689 1.00599e-06
1699 1689 0
1700 1689 -0.00274399
1690 1690 1.00059e-06
1699 1690 -0
1700 1690 -0.000585057
1691 1691 0.00158095
1697 1691 1.42785e-09
1813 1691 -1.74748e-09
1692 1692 0.00230983
1693 1692 8.77661e-33
1702 1692 -8.72661e-26
1813 1692 -8.65891e-10
1692 1693 7.39313e-35
1693 1693 0.00384937
1697 1693 3.94457e-11
1699 1693 1.09239e-10
1702 1693 -0.277576
1813 1693 -6.28817e-10
1694 1694 0.00316089
1696 1694 -0.499842
1695 1695 0.00230983
1696 1695 8.77661e-33
1701 1695 -8.72661e-26
1813 1695 -8.65891e-10
1694 1696 -0.00157995
1695 1696 2.21807e-34
1696 1696 0.00185972
1697 1696 8.16474e-11
1698 1696 1.49262e-09
1701 1696 -0.574547
1813 1696 -3.10593e-09
1692 1697 7.49789e-13
1693 1697 -8.31858e-13
1695 1697 7.49789e-13
1696 1697 -8.31858e-13
1697 1697 0.000639615
1698 1697 1.94125e-18
1699 1697 1.42072e-19
1701 1697 5.49636e-10
1702 1697 9.35863e-10
1813 1697 -0.998437
1694 1698 -1.92127e-12
1696 1698 9.97803e-13
1697 1698 -8.1468e-23
1698 1698 0.000664973
1699 1698 1.74063e-38
1700 1698 -6.07479e-08
1701 1698 8.62116e-10
1702 1698 1.14656e-28
1813 1698 -0.998496
1686 1699 -0
1687 1699 -0
1688 1699 0
1689 1699 0
1690 1699 -0
1693 1699 1.45861e-12
1694 1699 1.92127e-12
1696 1699 9.97194e-13
1697 1699 -1.38954e-22
1698 1699 -1.48844e-21
1699 1699 0.000630738
1700 1699 -1.43355e-25
1701 1699 9.08356e-10
1702 1699 6.41909e-10
1813 1699 -0.998415
1689 1700 -1.3275e-09
1690 1700 -3.63816e-10
1698 1700 -2.24376e-09
1699 1700 0
1700 1700 1.00394e-06
1701 1700 1.9268e-12
1702 1700 2.56251e-31
1813 1700 -0.0022316
1677 1701 -2.60878e-13
1679 1701 -1.15179e-12
1680 1701 8.37056e-13
1685 1701 2.90698e-23
1695 1701 -2.0157e-28
1696 1701 -0.00106849
1697 1701 -1.06308e-13
1698 1701 1.59486e-12
1699 1701 1.51034e-32
1700 1701 9.68843e-20
1701 1701 0.000455594
1702 1701 2.18373e-19
1813 1701 -7.84333e-09
1682 1702 -2.60878e-13
1683 1702 -2.87771e-12
1684 1702 1.70044e-12
1685 1702 9.74869e-13
1692 1702 -2.0157e-28
1693 1702 -0.00106849
1697 1702 -1.514e-13
1698 1702 2.93905e-31
1699 1702 1.16722e-13
1700 1702 3.45867e-38
1701 1702 -2.28099e-23
1702 1702 0.000772905
1813 1702 -3.17321e-09
1703 1703 0.00530206
1776 1703 -1.18945e-10
1704 1704 0.00158095
1776 1704 2.03132e-10
1777 1704 -2.03132e-10
1813 1704 -6.32578e-10
1705 1705 0.000434078
1776 1705 -7.53112e-26
1782 1705 7.53112e-26
1813 1705 -0.997696
1706 1706 0.00530206
1774 1706 -1.18945e-10
1707 1707 0.00158095
1774 1707 2.03132e-10
1786 1707 -2.03132e-10
1813 1707 -6.32578e-10
1708 1708 0.000434078
1774 1708 -7.53112e-26
1779 1708 7.53112e-26
1813 1708 -0.997696
1709 1709 0.00158095
1720 1709 6.8528e-10
1813 1709 -1.00491e-09
1710 1710 0.00230983
1717 1710 -1.43952e-10
1710 1711 -2.60878e-13
1711 1711 0.00178841
1712 1711 -1.60955e-09
1717 1711 1.75542e-09
1813 1711 -5.59183e-10
1712 1712 0.00201978
1717 1712 -0.499752
1813 1712 -0.499752
1713 1713 0.00461866
1716 1713 -0.499892
1714 1714 0.00588063
1813 1714 -1.70264e-10
1715 1715 0.00125781
1716 1715 -6.07827e-11
1813 1715 -0.999205
1713 1716 -0.00230883
1715 1716 -2.25621e-16
1716 1716 0.00115566
1718 1716 -1.67576e-10
1813 1716 -1.7308e-09
1710 1717 -4.06128e-15
1712 1717 -0.00100939
1717 1717 0.00118572
1718 1717 -0.573302
1813 1717 -0.425433
1714 1718 6.68999e-13
1716 1718 -4.12974e-14
1717 1718 -0.000679777
1718 1718 0.000291059
1719 1718 -1.16219e-10
1813 1718 -0.99361
1718 1719 -3.38268e-14
1719 1719 0.00125781
1813 1719 -0.999205
1711 1720 3.90589e-13
1712 1720 6.28673e-22
1713 1720 -7.34932e-13
1715 1720 -5.73171e-14
1716 1720 4.24863e-13
1717 1720 -3.71468e-22
1718 1720 -1.41766e-22
1719 1720 -1.6476e-32
1720 1720 0.000639615
1813 1720 -0.998437
1721 1721 1.00092e-06
1722 1721 -0.000342102
1729 1721 -0.000573156
1721 1722 -6.81082e-10
1722 1722 1.00068e-06
1729 1722 -3.901e-07
1784 1722 -0
1723 1723 0.00530206
1728 1723 -1.18945e-10
1724 1724 0.00158095
1728 1724 2.03132e-10
1781 1724 -2.03132e-10
1813 1724 -6.32578e-10
1725 1725 0.000434078
1728 1725 -7.53112e-26
1780 1725 7.53112e-26
1813 1725 -0.997696
1726 1726 0.00158095
1775 1726 1.42785e-09
1813 1726 -1.74748e-09
1727 1727 1.00024e-06
1729 1727 -0.000116677
1784 1727 -0.000116677
1723 1728 -7.70349e-15
1726 1728 3.96112e-13
1727 1728 -1.02315e-10
1728 1728 0.000845528
1729 1728 1.20993e-07
1775 1728 -6.68918e-19
1780 1728 -0.998817
1781 1728 -6.40883e-11
1784 1728 -1.41187e-11
1813 1728 -2.43535e-09
1721 1729 -1.05003e-11
1722 1729 -3.59216e-15
1727 1729 -2.17016e-12
1729 1729 0.000270407
1784 1729 -9.36399e-13
1813 1729 -0.996302
1730 1730 0.00316089
1749 1730 -0.499842
1731 1731 1.00046e-06
1732 1731 -0.000456811
1734 1731 -0
1731 1732 -2.34755e-10
1732 1732 1.00092e-06
1733 1732 -0.000679127
1734 1732 0
1730 1733 -1.92127e-12
1732 1733 -1.22897e-11
1733 1733 0.000419157
1734 1733 0
1749 1733 2.3805e-09
1813 1733 -0.997614
1730 1734 1.92127e-12
1731 1734 -0
1732 1734 0
1733 1734 0
1734 1734 0.000384921
1748 1734 3.78938e-09
1749 1734 2.59064e-09
1813 1734 -0.997402
1735 1735 0.00230983
1747 1735 -1.43952e-10
1736 1736 0.00230983
1737 1736 -8.72661e-26
1749 1736 8.77661e-33
1813 1736 -8.65891e-10
1735 1737 -2.60878e-13
1736 1737 -2.0157e-28
1737 1737 0.00106949
1738 1737 -1.07694e-09
1747 1737 1.32087e-09
1749 1737 -0.999065
1775 1737 -1.80971e-10
1813 1737 -1.87004e-09
1738 1738 0.00201978
1747 1738 -0.499752
1813 1738 -0.499752
1739 1739 0.00230983
1746 1739 -1.43952e-10
1740 1740 0.00230983
1741 1740 -8.72661e-26
1748 1740 8.7766e-33
1813 1740 -8.65891e-10
1739 1741 -2.60878e-13
1740 1741 -2.0157e-28
1741 1741 0.00106949
1742 1741 -2.69072e-09
1746 1741 2.93465e-09
1748 1741 -0.999065
1775 1741 -1.80971e-10
1813 1741 -1.87004e-09
1742 1742 0.00201978
1746 1742 -0.499752
1813 1742 -0.499752
1743 1743 0.00588063
1813 1743 -1.70264e-10
1744 1744 0.00125781
1745 1744 -2.68935e-11
1813 1744 -0.999205
1743 1745 6.68999e-13
1744 1745 -3.38267e-14
1745 1745 0.000680777
1746 1745 -0.998531
1747 1745 -2.58098e-11
1813 1745 -5.03464e-09
1739 1746 -4.06129e-15
1742 1746 -0.00100939
1745 1746 -0.000679777
1746 1746 0.000506943
1747 1746 -3.46092e-11
1813 1746 -0.995072
1735 1747 -4.06129e-15
1738 1747 -0.00100939
1745 1747 -1.75707e-14
1746 1747 -1.75449e-14
1747 1747 0.000505945
1813 1747 -0.997036
1734 1748 2.29914e-13
1740 1748 7.39312e-35
1741 1748 -0.00106849
1742 1748 -2.87502e-12
1746 1748 1.69885e-12
1747 1748 5.8796e-23
1748 1748 0.00278188
1749 1748 -2.14109e-19
1775 1748 -1.49271e-11
1813 1748 -1.34625e-09
1730 1749 -0.00157995
1733 1749 1.6816e-12
1734 1749 0
1736 1749 2.21807e-34
1737 1749 -0.00106849
1738 1749 -1.15071e-12
1747 1749 8.36274e-13
1748 1749 0
1749 1749 0.000792222
1775 1749 -5.24164e-11
1813 1749 -5.98785e-09
1750 1750 0.00230983
1753 1750 -1.43952e-10
1751 1751 0.00588063
1813 1751 -1.70264e-10
1752 1752 0.00201978
1753 1752 -0.499752
1813 1752 -0.499752
1750 1753 -4.06129e-15
1752 1753 -0.00100939
1753 1753 0.000505945
1758 1753 -3.47286e-11
1813 1753 -0.997036
1754 1754 0.00125781
1758 1754 -2.68935e-11
1813 1754 -0.999205
1755 1755 0.00230983
1757 1755 -1.43952e-10
1756 1756 0.00201978
1757 1756 -0.499752
1813 1756 -0.499752
1755 1757 -4.06129e-15
1756 1757 -0.00100939
1757 1757 0.00118572
1758 1757 -0.573302
1813 1757 -0.425433
1751 1758 6.68999e-13
1753 1758 -1.75707e-14
1754 1758 -3.38267e-14
1757 1758 -0.000679777
1758 1758 0.000291059
1813 1758 -0.99361
1759 1759 0.00158095
1765 1759 1.42785e-09
1813 1759 -1.74748e-09
1760 1760 0.00230983
1761 1760 8.7766e-33
1773 1760 -8.72661e-26
1813 1760 -8.65891e-10
1760 1761 7.39312e-35
1761 1761 0.00384937
1765 1761 3.94457e-11
1770 1761 7.28263e-11
1773 1761 -0.277576
1813 1761 -5.92404e-10
1762 1762 0.00316089
1764 1762 -0.499842
1763 1763 0.00230983
1764 1763 8.77661e-33
1772 1763 -8.72661e-26
1813 1763 -8.65891e-10
1762 1764 -0.00157995
1763 1764 2.21807e-34
1764 1764 0.00185972
1765 1764 8.16474e-11
1771 1764 1.03243e-09
1772 1764 -0.574547
1813 1764 -2.64574e-09
1760 1765 7.49789e-13
1761 1765 -8.31858e-13
1763 1765 7.49789e-13
1764 1765 -8.31858e-13
1765 1765 0.000639615
1770 1765 9.47149e-20
1771 1765 1.34274e-18
1772 1765 5.49636e-10
1773 1765 9.35863e-10
1813 1765 -0.998437
1766 1766 1.00055e-06
1769 1766 -0.00054393
1770 1766 -0
1767 1767 1.00079e-06
1768 1767 -0.000791386
1770 1767 -0
1767 1768 -5.71292e-10
1768 1768 1.00207e-06
1769 1768 -0.00149274
1770 1768 0
1766 1769 -3.22439e-10
1768 1769 -8.31558e-10
1769 1769 1.00262e-06
1770 1769 0
1771 1769 -0.00146041
1761 1770 1.45861e-12
1762 1770 1.92127e-12
1764 1770 9.97195e-13
1765 1770 -1.38954e-22
1766 1770 -0
1767 1770 -0
1768 1770 0
1769 1770 0
1770 1770 0.000630738
1771 1770 -1.63227e-18
1772 1770 9.08356e-10
1773 1770 6.41909e-10
1813 1770 -0.998415
1762 1771 -1.92127e-12
1764 1771 9.97802e-13
1765 1771 -8.1468e-23
1769 1771 -2.63932e-11
1770 1771 7.71555e-42
1771 1771 0.000664973
1772 1771 8.62116e-10
1773 1771 1.14656e-28
1813 1771 -0.998496
1750 1772 -2.60878e-13
1752 1772 -1.15179e-12
1753 1772 8.37056e-13
1758 1772 2.90698e-23
1763 1772 -2.0157e-28
1764 1772 -0.00106849
1765 1772 -1.06308e-13
1770 1772 1.00689e-32
1771 1772 1.10315e-12
1772 1772 0.000455594
1773 1772 2.18373e-19
1813 1772 -7.84171e-09
1755 1773 -2.60878e-13
1756 1773 -2.87771e-12
1757 1773 1.70044e-12
1758 1773 9.74869e-13
1760 1773 -2.0157e-28
1761 1773 -0.00106849
1765 1773 -1.514e-13
1770 1773 7.78144e-14
1771 1773 3.30305e-31
1772 1773 1.25317e-23
1773 1773 0.000772905
1813 1773 -3.17313e-09
1706 1774 -7.70349e-15
1709 1774 3.96112e-13
1720 1774 -2.71447e-22
1727 1774 -1.02315e-10
1729 1774 -1.19378e-14
1774 1774 0.000845528
1779 1774 -0.998817
1784 1774 1.20993e-07
1786 1774 -6.40883e-11
1813 1774 -2.44942e-09
1736 1775 7.49789e-13
1737 1775 8.29496e-13
1738 1775 8.93322e-22
1740 1775 7.49789e-13
1741 1775 8.29496e-13
1742 1775 2.23194e-21
1746 1775 -1.31886e-21
1747 1775 -6.49219e-22
1748 1775 -3.13703e-15
1749 1775 -3.13698e-15
1775 1775 0.000639615
1813 1775 -0.998437
1703 1776 -7.70349e-15
1721 1776 -5.02836e-10
1722 1776 -1.72021e-13
1729 1776 5.02548e-10
1759 1776 3.96112e-13
1765 1776 -5.65588e-22
1770 1776 5.35702e-41
1771 1776 7.59438e-40
1772 1776 3.10868e-31
1773 1776 5.29313e-31
1776 1776 0.000845528
1777 1776 -6.40883e-11
1782 1776 -0.998817
1784 1776 5.56559e-19
1813 1776 5.89727e-07
1648 1777 -0.00403942
1670 1777 -1.89824e-13
1673 1777 -1.89718e-13
1674 1777 -1.89575e-13
1687 1777 -0
1688 1777 -0
1689 1777 0
1699 1777 0
1700 1777 0
1701 1777 0
1702 1777 0
1703 1777 -4.94722e-13
1705 1777 7.78198e-13
1776 1777 1.82633e-12
1777 1777 0.00202096
1782 1777 4.11132e-11
1783 1777 9.39277e-11
1784 1777 -5.0296e-28
1813 1777 -1.39829e-09
1612 1778 -7.70349e-15
1675 1778 -5.41884e-14
1676 1778 -0.000844528
1691 1778 3.96112e-13
1697 1778 -5.65588e-22
1698 1778 1.09795e-39
1699 1778 8.03547e-41
1700 1778 0
1701 1778 3.10868e-31
1702 1778 5.29313e-31
1721 1778 3.01943e-10
1722 1778 -3.0184e-10
1729 1778 1.72943e-13
1778 1778 0.000469382
1783 1778 6.72365e-21
1784 1778 3.45015e-22
1813 1778 -0.996921
1667 1779 8.3656e-16
1669 1779 -2.53157e-19
1674 1779 -2.53062e-19
1690 1779 -1.97346e-10
1698 1779 1.96615e-09
1699 1779 0
1700 1779 -1.76892e-09
1701 1779 -1.69165e-18
1702 1779 1.44432e-37
1706 1779 1.36461e-15
1707 1779 4.02792e-13
1731 1779 -1.97986e-10
1732 1779 -3.97774e-10
1733 1779 5.954e-10
1734 1779 0
1748 1779 0
1749 1779 -1.41735e-18
1766 1779 -1.97536e-10
1769 1779 -1.08568e-09
1770 1779 0
1771 1779 1.28152e-09
1772 1779 -1.10482e-18
1773 1779 9.43293e-38
1774 1779 -0.000844528
1775 1779 -7.42923e-29
1779 1779 0.00105262
1783 1779 7.68184e-23
1784 1779 9.70739e-08
1786 1779 -1.63984e-11
1813 1779 -0.998098
1668 1780 4.99025e-16
1669 1780 4.91689e-16
1674 1780 -4.01547e-19
1686 1780 -1.95989e-10
1689 1780 -1.08098e-09
1699 1780 0
1700 1780 1.27381e-09
1701 1780 -2.45437e-21
1702 1780 2.09553e-40
1723 1780 1.36461e-15
1724 1780 4.02792e-13
1728 1780 -0.000844528
1729 1780 1.02182e-10
1767 1780 -1.96545e-10
1768 1780 -3.95521e-10
1769 1780 5.9132e-10
1770 1780 0
1771 1780 8.6357e-13
1772 1780 -7.44498e-22
1773 1780 6.35657e-41
1775 1780 -5.64919e-22
1780 1780 0.00105262
1781 1780 -1.63984e-11
1783 1780 4.73514e-23
1784 1780 -1.13277e-11
1813 1780 -0.998101
1593 1781 -0.00403942
1668 1781 -2.48581e-13
1669 1781 2.60413e-24
1674 1781 -2.48473e-13
1686 1781 -0
1689 1781 -0
1699 1781 0
1700 1781 0
1701 1781 0
1702 1781 0
1723 1781 -4.94722e-13
1725 1781 7.78198e-13
1728 1781 1.82633e-12
1729 1781 -2.20973e-19
1767 1781 -0
1768 1781 -0
1769 1781 0
1770 1781 0
1771 1781 0
1772 1781 0
1773 1781 0
1775 1781 1.22167e-30
1780 1781 8.30883e-14
1781 1781 0.00202096
1783 1781 1.23001e-10
1784 1781 1.32248e-20
1813 1781 -1.35725e-09
1670 1782 3.38415e-16
1673 1782 -4.25942e-16
1674 1782 1.31714e-19
1687 1782 -1.95496e-10
1688 1782 -3.93043e-10
1689 1782 5.8708e-10
1699 1782 0
1700 1782 1.61095e-12
1701 1782 -3.10397e-24
1702 1782 2.64845e-43
1703 1782 1.36461e-15
1704 1782 4.02792e-13
1776 1782 -0.000844528
1777 1782 -1.72612e-14
1782 1782 0.00105262
1783 1782 1.56848e-21
1784 1782 4.46534e-19
1813 1782 -0.998101
1497 1783 -2.60471e-13
1498 1783 -4.07433e-14
1499 1783 1.71025e-13
1506 1783 -1.45411e-22
1667 1783 -5.81209e-15
1668 1783 -3.87072e-15
1669 1783 -5.81033e-15
1670 1783 -2.95488e-15
1671 1783 -2.62282e-15
1672 1783 -2.62116e-15
1673 1783 -5.5734e-15
1674 1783 -1.52464e-14
1783 1783 0.000779487
1793 1783 4.86154e-10
1797 1783 0
1800 1783 0
1813 1783 -0.998717
1495 1784 1.69605e-14
1496 1784 1.0145e-12
1506 1784 0
1722 1784 -0
1727 1784 -2.17016e-12
1729 1784 -2.53209e-16
1783 1784 0
1784 1784 0.000994277
1791 1784 3.81132e-10
1793 1784 0
1797 1784 0
1800 1784 0
1813 1784 -0.998994
162 1785 1.17364e-15
163 1785 5.20942e-13
165 1785 -5.35378e-22
176 1785 -3.35235e-14
177 1785 2.36762e-13
182 1785 -4.73923e-25
184 1785 -1.76845e-37
186 1785 1.1737e-15
187 1785 5.20942e-13
381 1785 -1.53312e-22
388 1785 -4.61572e-14
389 1785 5.18962e-13
613 1785 -8.93225e-22
617 1785 1.17364e-15
618 1785 5.20942e-13
813 1785 -1.53312e-22
816 1785 -5.00645e-22
818 1785 -4.42922e-22
1017 1785 -1.3076e-22
1018 1785 -5.61171e-22
1228 1785 1.17077e-15
1229 1785 5.20942e-13
1238 1785 -1.3076e-22
1247 1785 -4.42922e-22
1467 1785 1.17002e-15
1468 1785 5.20943e-13
1477 1785 -1.53312e-22
1489 1785 6.35695e-32
1492 1785 -3.18731e-22
1493 1785 1.1747e-31
1498 1785 1.17367e-15
1499 1785 5.20942e-13
1503 1785 1.17366e-15
1504 1785 5.20942e-13
1505 1785 -3.83798e-22
1506 1785 -4.42922e-22
1783 1785 -1.3076e-22
1785 1785 1
1793 1785 6.35696e-32
1797 1785 -1.53308e-22
1800 1785 -5.02047e-22
1802 1785 0
1803 1785 0
1813 1785 3.79479e-14
1361 1786 -0.00403942
1667 1786 -3.73185e-13
1669 1786 -3.73072e-13
1674 1786 -3.72931e-13
1690 1786 -0
1698 1786 0
1699 1786 0
1700 1786 0
1701 1786 0
1702 1786 0
1706 1786 -4.94722e-13
1708 1786 7.78198e-13
1731 1786 -0
1732 1786 -0
1733 1786 0
1734 1786 0
1748 1786 0
1749 1786 0
1766 1786 -0
1769 1786 -0
1770 1786 0
1771 1786 0
1772 1786 0
1773 1786 0
1774 1786 1.82633e-12
1775 1786 0
1779 1786 8.30883e-14
1783 1786 3.73185e-13
1784 1786 -2.29039e-19
1786 1786 0.00202096
1791 1786 4.31943e-26
1793 1786 -8.97718e-20
1797 1786 0
1800 1786 0
1813 1786 -1.17283e-09
54 1787 -2.47355e-14
61 1787 8.73153e-13
62 1787 -1.8189e-21
63 1787 -1.40595e-31
65 1787 -1.40429e-31
66 1787 -2.99867e-40
67 1787 -6.11527e-42
74 1787 -3.21141e-13
75 1787 8.73153e-13
76 1787 -5.35698e-13
77 1787 2.14904e-13
78 1787 -2.47266e-14
80 1787 -2.47355e-14
87 1787 8.73153e-13
88 1787 -1.8189e-21
89 1787 -1.40595e-31
91 1787 -1.40429e-31
92 1787 -6.11527e-42
93 1787 -2.99867e-40
100 1787 2.14903e-13
101 1787 8.73153e-13
102 1787 -2.14903e-13
103 1787 -4.08733e-13
104 1787 -2.47266e-14
154 1787 -1.15053e-32
193 1787 8.73153e-13
194 1787 -1.8189e-21
195 1787 -1.40595e-31
197 1787 -1.40429e-31
198 1787 1.26166e-40
199 1787 6.07042e-42
200 1787 -6.11527e-42
207 1787 2.14903e-13
208 1787 8.73153e-13
209 1787 -2.14903e-13
210 1787 -4.08733e-13
222 1787 8.73153e-13
223 1787 -1.8189e-21
224 1787 -1.40595e-31
226 1787 -1.40429e-31
227 1787 -1.20051e-40
228 1787 -6.11527e-42
235 1787 2.14903e-13
236 1787 8.73153e-13
237 1787 -2.14903e-13
238 1787 -4.08733e-13
239 1787 -4.41294e-29
240 1787 2.2363e-40
251 1787 8.73153e-13
252 1787 -1.8189e-21
253 1787 -1.40595e-31
255 1787 -1.40429e-31
256 1787 1.26166e-40
257 1787 6.07042e-42
258 1787 -6.11527e-42
265 1787 2.14903e-13
266 1787 8.73153e-13
267 1787 -2.14903e-13
268 1787 -4.08733e-13
274 1787 8.73153e-13
275 1787 -1.8189e-21
276 1787 -1.40595e-31
278 1787 -1.40429e-31
279 1787 1.26166e-40
280 1787 6.07042e-42
281 1787 -6.11527e-42
288 1787 -3.21141e-13
289 1787 8.73153e-13
290 1787 -5.35698e-13
291 1787 2.14904e-13
374 1787 2.2363e-40
375 1787 1.182e-37
376 1787 1.182e-37
377 1787 2.2363e-40
378 1787 5.26455e-38
379 1787 1.182e-37
380 1787 0
381 1787 0
401 1787 8.73153e-13
402 1787 -1.8189e-21
403 1787 -1.40595e-31
405 1787 -1.40429e-31
406 1787 -6.11527e-42
407 1787 -1.20051e-40
414 1787 2.14903e-13
415 1787 8.73153e-13
416 1787 -2.14903e-13
417 1787 -4.08733e-13
418 1787 -4.41294e-29
454 1787 -3.73139e-19
455 1787 -1.37722e-13
456 1787 2.26704e-15
457 1787 6.86281e-13
458 1787 7.98305e-13
466 1787 -7.07894e-22
482 1787 8.73153e-13
483 1787 -1.8189e-21
484 1787 -1.40595e-31
487 1787 -1.40429e-31
494 1787 -3.21141e-13
495 1787 8.73153e-13
496 1787 -5.35698e-13
497 1787 2.14904e-13
509 1787 -2.14903e-13
510 1787 8.73153e-13
511 1787 2.14903e-13
512 1787 -0.00277988
514 1787 3.67512e-12
515 1787 -3.33083e-13
605 1787 -2.30135e-21
606 1787 1.68497e-30
607 1787 1.182e-37
608 1787 1.39963e-40
609 1787 1.55681e-40
610 1787 -1.86339e-37
611 1787 5.26455e-38
612 1787 2.2363e-40
613 1787 -3.56846e-36
624 1787 8.73153e-13
625 1787 -1.8189e-21
626 1787 -1.40595e-31
628 1787 -1.40429e-31
629 1787 -6.11527e-42
630 1787 -1.20051e-40
637 1787 2.14903e-13
638 1787 -2.14903e-13
639 1787 8.73153e-13
640 1787 -4.08733e-13
652 1787 8.73153e-13
653 1787 -1.8189e-21
654 1787 -1.40595e-31
656 1787 -1.40429e-31
657 1787 1.26166e-40
658 1787 -6.11527e-42
659 1787 6.07042e-42
666 1787 2.14903e-13
667 1787 8.73153e-13
668 1787 -2.14903e-13
669 1787 -4.08733e-13
670 1787 2.2363e-40
671 1787 -4.41294e-29
677 1787 8.73153e-13
678 1787 -1.8189e-21
679 1787 -1.40595e-31
681 1787 -1.40429e-31
682 1787 1.26166e-40
683 1787 6.07042e-42
684 1787 -6.11527e-42
691 1787 -3.21141e-13
692 1787 8.73153e-13
693 1787 -5.35698e-13
694 1787 2.14904e-13
705 1787 8.73153e-13
706 1787 -1.8189e-21
707 1787 -1.40595e-31
709 1787 -1.40429e-31
710 1787 1.26166e-40
711 1787 -6.11527e-42
712 1787 6.07042e-42
719 1787 2.14903e-13
720 1787 -2.14903e-13
721 1787 8.73153e-13
722 1787 -4.08733e-13
806 1787 2.2363e-40
807 1787 1.182e-37
808 1787 1.182e-37
809 1787 2.2363e-40
810 1787 5.26455e-38
811 1787 1.182e-37
812 1787 0
813 1787 0
814 1787 2.2363e-40
815 1787 -1.12104e-44
816 1787 0
817 1787 2.2363e-40
818 1787 0
819 1787 -1.12104e-44
830 1787 8.73153e-13
831 1787 -1.8189e-21
832 1787 -1.40595e-31
834 1787 -1.40429e-31
835 1787 1.26166e-40
836 1787 6.07042e-42
837 1787 -6.11527e-42
844 1787 2.14903e-13
845 1787 -2.14903e-13
846 1787 8.73153e-13
847 1787 -4.08733e-13
856 1787 8.73153e-13
857 1787 -1.8189e-21
858 1787 -1.40595e-31
860 1787 -1.40429e-31
861 1787 1.26166e-40
862 1787 -6.11527e-42
863 1787 6.07042e-42
870 1787 2.14903e-13
871 1787 -2.14903e-13
872 1787 8.73153e-13
873 1787 -4.08733e-13
874 1787 8.73153e-13
875 1787 -1.8189e-21
892 1787 2.14903e-13
893 1787 -2.14903e-13
894 1787 8.73153e-13
895 1787 -4.08733e-13
901 1787 8.73153e-13
902 1787 -1.8189e-21
903 1787 -1.40595e-31
905 1787 -1.40429e-31
906 1787 1.26166e-40
907 1787 -6.11527e-42
908 1787 6.07042e-42
915 1787 2.14903e-13
916 1787 8.73153e-13
917 1787 -2.14903e-13
918 1787 -4.08733e-13
926 1787 2.2363e-40
927 1787 1.182e-37
928 1787 0
1007 1787 2.2363e-40
1008 1787 1.182e-37
1009 1787 1.182e-37
1010 1787 2.2363e-40
1011 1787 1.182e-37
1012 1787 5.26455e-38
1013 1787 5.26455e-38
1014 1787 -6.72623e-44
1015 1787 2.2363e-40
1016 1787 -1.12104e-44
1017 1787 0
1018 1787 0
1019 1787 -1.27938e-31
1021 1787 -2.47355e-14
1028 1787 8.73153e-13
1029 1787 -1.8189e-21
1030 1787 -1.40595e-31
1032 1787 -1.40429e-31
1033 1787 -6.11527e-42
1034 1787 -2.99867e-40
1041 1787 2.14903e-13
1042 1787 -2.14903e-13
1043 1787 8.73153e-13
1044 1787 -4.08733e-13
1045 1787 -2.47266e-14
1049 1787 2.56714e-12
1057 1787 6.90392e-23
1082 1787 2.56714e-12
1098 1787 2.56714e-12
1099 1787 6.90392e-23
1110 1787 6.89378e-23
1111 1787 4.16777e-33
1123 1787 2.56714e-12
1127 1787 6.90392e-23
1147 1787 -2.47355e-14
1154 1787 8.73153e-13
1155 1787 -1.8189e-21
1156 1787 -1.40595e-31
1158 1787 -1.40429e-31
1159 1787 -6.11527e-42
1160 1787 -2.99867e-40
1167 1787 2.14903e-13
1168 1787 -2.14903e-13
1169 1787 8.73153e-13
1170 1787 -4.08733e-13
1171 1787 -2.47266e-14
1173 1787 -2.47355e-14
1180 1787 8.73153e-13
1181 1787 -1.8189e-21
1182 1787 -1.40595e-31
1184 1787 -1.40429e-31
1185 1787 -2.99867e-40
1186 1787 -6.11527e-42
1193 1787 2.14903e-13
1194 1787 8.73153e-13
1195 1787 -2.14903e-13
1196 1787 -4.08733e-13
1197 1787 -2.47266e-14
1202 1787 -2.47355e-14
1209 1787 8.73153e-13
1210 1787 -1.8189e-21
1211 1787 -1.40595e-31
1213 1787 -1.40429e-31
1214 1787 -6.11527e-42
1215 1787 -2.99867e-40
1222 1787 2.14903e-13
1223 1787 8.73153e-13
1224 1787 -2.14903e-13
1225 1787 -4.08733e-13
1226 1787 -2.47266e-14
1239 1787 -1.15053e-32
1240 1787 9.93035e-23
1241 1787 9.93035e-23
1242 1787 -9.87686e-33
1243 1787 -1.15053e-32
1244 1787 9.93035e-23
1245 1787 1.03976e-41
1246 1787 9.93035e-23
1247 1787 0
1248 1787 1.62842e-33
1249 1787 -9.63865e-30
1279 1787 2.56714e-12
1280 1787 6.90392e-23
1281 1787 1.78189e-33
1282 1787 6.89378e-23
1298 1787 2.56714e-12
1299 1787 6.90392e-23
1300 1787 6.89378e-23
1301 1787 4.16777e-33
1316 1787 2.56714e-12
1324 1787 6.90392e-23
1339 1787 2.56714e-12
1347 1787 6.90392e-23
1360 1787 -2.47355e-14
1367 1787 8.73153e-13
1368 1787 -1.8189e-21
1369 1787 -1.40595e-31
1371 1787 -1.40429e-31
1372 1787 -6.11527e-42
1373 1787 -2.99867e-40
1380 1787 2.14903e-13
1381 1787 -2.14903e-13
1382 1787 8.73153e-13
1383 1787 -4.08733e-13
1384 1787 -2.47266e-14
1389 1787 -2.47355e-14
1396 1787 8.73153e-13
1397 1787 -1.8189e-21
1398 1787 -1.40595e-31
1400 1787 -1.40429e-31
1401 1787 -6.11527e-42
1402 1787 -2.99867e-40
1409 1787 2.14903e-13
1410 1787 8.73153e-13
1411 1787 -2.14903e-13
1412 1787 -4.08733e-13
1413 1787 -2.47266e-14
1415 1787 -2.47355e-14
1422 1787 8.73153e-13
1423 1787 -1.8189e-21
1424 1787 -1.40595e-31
1426 1787 -1.40429e-31
1427 1787 -6.11527e-42
1428 1787 -2.99867e-40
1435 1787 2.14903e-13
1436 1787 -2.14903e-13
1437 1787 8.73153e-13
1438 1787 -4.08733e-13
1439 1787 -2.47266e-14
1441 1787 -2.47355e-14
1448 1787 8.73153e-13
1449 1787 -1.8189e-21
1450 1787 -1.40595e-31
1452 1787 -1.40429e-31
1453 1787 -6.11527e-42
1454 1787 -2.99867e-40
1461 1787 2.14903e-13
1462 1787 8.73153e-13
1463 1787 -2.14903e-13
1464 1787 -4.08733e-13
1465 1787 -2.47266e-14
1478 1787 -1.15053e-32
1479 1787 9.93035e-23
1480 1787 9.93035e-23
1481 1787 -1.34358e-32
1482 1787 -1.88559e-34
1483 1787 4.4229e-23
1484 1787 -1.15053e-32
1485 1787 9.93035e-23
1486 1787 0
1487 1787 9.93035e-23
1488 1787 4.4229e-23
1489 1787 0
1490 1787 -9.87686e-33
1491 1787 3.6736e-39
1492 1787 0
1493 1787 0
1494 1787 -9.63865e-30
1532 1787 2.56714e-12
1533 1787 6.90392e-23
1534 1787 6.89378e-23
1535 1787 4.16777e-33
1536 1787 2.56714e-12
1544 1787 6.90392e-23
1561 1787 -2.47355e-14
1568 1787 8.73153e-13
1569 1787 -1.8189e-21
1570 1787 -1.40595e-31
1572 1787 -1.40429e-31
1573 1787 -6.11527e-42
1574 1787 -2.99867e-40
1581 1787 2.14903e-13
1582 1787 -2.14903e-13
1583 1787 8.73153e-13
1584 1787 -4.08733e-13
1585 1787 -2.47266e-14
1587 1787 -2.47355e-14
1594 1787 8.73153e-13
1595 1787 -1.8189e-21
1596 1787 -1.40595e-31
1598 1787 -1.40429e-31
1599 1787 -6.11527e-42
1600 1787 -2.99867e-40
1607 1787 2.14903e-13
1608 1787 8.73153e-13
1609 1787 -2.14903e-13
1610 1787 -4.08733e-13
1611 1787 -2.47266e-14
1616 1787 -2.47355e-14
1623 1787 8.73153e-13
1624 1787 -1.8189e-21
1625 1787 -1.40595e-31
1627 1787 -1.40429e-31
1628 1787 -2.99867e-40
1629 1787 -6.11527e-42
1636 1787 2.14903e-13
1637 1787 -2.14903e-13
1638 1787 8.73153e-13
1639 1787 -4.08733e-13
1640 1787 -2.47266e-14
1642 1787 -2.47355e-14
1649 1787 8.73153e-13
1650 1787 -1.8189e-21
1651 1787 -1.40595e-31
1653 1787 -1.40429e-31
1654 1787 -2.99867e-40
1655 1787 -6.11527e-42
1662 1787 2.14903e-13
1663 1787 8.73153e-13
1664 1787 -2.14903e-13
1665 1787 -4.08733e-13
1666 1787 -2.47266e-14
1675 1787 -1.15053e-32
1676 1787 9.93035e-23
1681 1787 2.56714e-12
1685 1787 6.90392e-23
1719 1787 2.56714e-12
1744 1787 2.56714e-12
1745 1787 6.90392e-23
1746 1787 6.89378e-23
1747 1787 4.16777e-33
1754 1787 2.56714e-12
1758 1787 6.90392e-23
1777 1787 -1.15053e-32
1778 1787 4.4229e-23
1779 1787 9.93035e-23
1780 1787 9.93035e-23
1781 1787 -9.87686e-33
1782 1787 9.93035e-23
1783 1787 2.95113e-42
1784 1787 -9.63865e-30
1786 1787 -9.87686e-33
1787 1787 1
1790 1787 0
1791 1787 3.6736e-39
1793 1787 0
1794 1787 9.93034e-23
1795 1787 -1.15053e-32
1797 1787 1.0762e-42
1798 1787 9.93034e-23
1799 1787 0
1800 1787 0
1801 1787 -1.15053e-32
1802 1787 0
1803 1787 0
1805 1787 2.99513e-06
1806 1787 8.99465e-12
1807 1787 5.98214e-42
1813 1787 1.96615e-11
8 1788 2.23293e-13
9 1788 3.33318e-16
11 1788 4.6052e-13
17 1788 -6.91018e-22
27 1788 -3.97022e-22
28 1788 3.38974e-41
29 1788 1.45657e-12
30 1788 8.93978e-12
47 1788 4.60542e-13
48 1788 2.05509e-31
49 1788 2.66373e-41
108 1788 2.96355e-13
109 1788 9.28279e-16
110 1788 2.54719e-18
119 1788 1.77964e-16
120 1788 2.94445e-23
152 1788 2.94334e-23
184 1788 1.45076e-12
215 1788 6.24004e-15
313 1788 2.23293e-13
314 1788 3.33318e-16
315 1788 9.71014e-13
316 1788 5.62951e-12
319 1788 9.45061e-13
320 1788 6.43215e-16
321 1788 4.27894e-12
344 1788 1.5182e-13
345 1788 2.7303e-12
346 1788 4.40982e-13
347 1788 -7.6419e-21
348 1788 -1.67105e-21
353 1788 2.96355e-13
354 1788 9.28279e-16
369 1788 8.13878e-12
370 1788 1.45652e-12
371 1788 3.04161e-18
380 1788 6.23769e-15
381 1788 1.84558e-12
394 1788 1.08861e-12
525 1788 2.2571e-13
540 1788 3.90073e-12
541 1788 2.83288e-12
542 1788 2.95153e-16
562 1788 1.52668e-13
571 1788 2.09763e-12
572 1788 1.14294e-12
575 1788 -2.18537e-21
576 1788 -1.05799e-30
578 1788 9.29912e-13
579 1788 1.69269e-15
580 1788 3.73756e-12
581 1788 1.77964e-12
584 1788 2.50773e-13
600 1788 6.01247e-12
601 1788 2.58667e-19
602 1788 3.62004e-12
603 1788 2.04342e-13
610 1788 9.32134e-13
613 1788 1.07937e-11
645 1788 6.24004e-15
744 1788 2.23293e-13
745 1788 3.33318e-16
746 1788 9.71014e-13
747 1788 5.62951e-12
753 1788 9.45061e-13
754 1788 6.43217e-16
755 1788 4.27896e-12
775 1788 1.5182e-13
776 1788 2.7303e-12
777 1788 4.40982e-13
778 1788 -7.6419e-21
779 1788 -1.67105e-21
784 1788 2.96355e-13
785 1788 9.28279e-16
800 1788 8.13878e-12
801 1788 1.45652e-12
802 1788 3.04161e-18
812 1788 6.23769e-15
813 1788 1.84558e-12
815 1788 1.38457e-12
816 1788 1.40399e-12
818 1788 1.05149e-12
819 1788 1.38457e-12
824 1788 9.45061e-13
924 1788 6.24004e-15
925 1788 6.23769e-15
928 1788 6.23298e-15
959 1788 1.5182e-13
960 1788 2.7303e-12
961 1788 4.40982e-13
962 1788 -7.6419e-21
963 1788 -1.67105e-21
980 1788 2.23293e-13
981 1788 3.33318e-16
982 1788 9.71014e-13
983 1788 5.62951e-12
986 1788 2.96355e-13
987 1788 9.28278e-16
1002 1788 8.13878e-12
1003 1788 1.45652e-12
1004 1788 3.04161e-18
1014 1788 4.27896e-12
1016 1788 1.38457e-12
1017 1788 1.5741e-12
1018 1788 1.75047e-12
1067 1788 2.23293e-13
1068 1788 3.33318e-16
1069 1788 9.71014e-13
1070 1788 5.62951e-12
1071 1788 -5.73531e-21
1072 1788 -6.23302e-22
1084 1788 9.45061e-13
1091 1788 4.27899e-12
1094 1788 1.5182e-13
1095 1788 2.7303e-12
1096 1788 4.40982e-13
1112 1788 -1.67105e-21
1113 1788 -7.6419e-21
1130 1788 2.96355e-13
1131 1788 9.28279e-16
1140 1788 8.13878e-12
1141 1788 1.45652e-12
1142 1788 3.04161e-18
1143 1788 -8.33962e-21
1144 1788 -9.34953e-22
1235 1788 6.3741e-15
1236 1788 6.37169e-15
1237 1788 6.36689e-15
1238 1788 1.5741e-12
1247 1788 1.05149e-12
1249 1788 1.38457e-12
1254 1788 9.45061e-13
1255 1788 6.43224e-16
1262 1788 4.27899e-12
1284 1788 1.5182e-13
1286 1788 4.60496e-13
1287 1788 5.49465e-12
1302 1788 9.71039e-13
1303 1788 -2.22619e-21
1306 1788 2.23293e-13
1307 1788 3.33318e-16
1315 1788 4.6052e-13
1325 1788 -3.97022e-22
1326 1788 3.38974e-41
1327 1788 1.45657e-12
1328 1788 8.93978e-12
1330 1788 -1.50209e-31
1338 1788 4.60542e-13
1348 1788 -3.97041e-22
1349 1788 3.38988e-41
1353 1788 2.96355e-13
1354 1788 9.28281e-16
1355 1788 2.5472e-18
1474 1788 6.23992e-15
1475 1788 6.23757e-15
1476 1788 6.23286e-15
1477 1788 1.84558e-12
1482 1788 1.23644e-11
1486 1788 1.9421e-12
1489 1788 -7.65254e-22
1491 1788 -5.27706e-22
1492 1788 1.50364e-12
1493 1788 -5.54172e-22
1494 1788 1.38457e-12
1505 1788 7.01993e-13
1506 1788 1.05149e-12
1508 1788 3.85068e-14
1509 1788 1.64928e-20
1516 1788 2.78379e-12
1517 1788 1.38649e-12
1546 1788 1.5182e-13
1554 1788 4.60496e-13
1555 1788 9.71039e-13
1556 1788 5.49465e-12
1557 1788 -1.27905e-21
1558 1788 -6.23318e-22
1672 1788 6.23946e-15
1673 1788 6.2371e-15
1674 1788 6.2324e-15
1688 1788 2.96355e-13
1689 1788 9.28279e-16
1698 1788 8.13878e-12
1699 1788 1.45652e-12
1700 1788 3.04161e-18
1701 1788 -8.33962e-21
1702 1788 -9.34953e-22
1722 1788 9.45061e-13
1729 1788 4.27899e-12
1732 1788 1.5182e-13
1733 1788 2.7303e-12
1734 1788 4.40982e-13
1748 1788 -1.67105e-21
1749 1788 -7.6419e-21
1768 1788 2.23293e-13
1769 1788 3.33318e-16
1770 1788 9.71014e-13
1771 1788 5.62951e-12
1772 1788 -5.73531e-21
1773 1788 -6.23302e-22
1775 1788 -4.25505e-31
1783 1788 1.5741e-12
1784 1788 1.38457e-12
1788 1788 1
1790 1788 1.23643e-11
1791 1788 -5.27706e-22
1793 1788 -7.65255e-22
1797 1788 1.84554e-12
1799 1788 1.9421e-12
1800 1788 1.40098e-12
1802 1788 -2.72507e-21
1803 1788 1.32166e-31
1813 1788 -1.80861e-11
22 1789 2.56714e-12
26 1789 6.90392e-23
124 1789 2.03711e-12
126 1789 -2.47355e-14
133 1789 8.73153e-13
134 1789 -1.8189e-21
135 1789 -1.40595e-31
137 1789 -1.40429e-31
138 1789 -2.47266e-14
139 1789 -3.63959e-24
140 1789 -2.47088e-14
147 1789 2.14903e-13
148 1789 -2.14903e-13
149 1789 8.73153e-13
150 1789 -4.08733e-13
151 1789 -1.11726e-32
152 1789 7.00649e-45
153 1789 9.93035e-23
154 1789 -1.93057e-33
456 1789 -1.43113e-13
457 1789 -6.95197e-13
458 1789 6.51864e-13
466 1789 -5.78038e-22
506 1789 8.73153e-13
507 1789 -2.14903e-13
508 1789 3.2114e-13
509 1789 -5.35967e-13
511 1789 2.14904e-13
512 1789 -5.35581e-13
514 1789 -7.87779e-23
515 1789 4.43104e-17
605 1789 -1.0658e-30
606 1789 8.27174e-40
608 1789 6.60572e-41
609 1789 1.27123e-40
610 1789 0
613 1789 -1.4013e-45
816 1789 0
818 1789 0
1018 1789 0
1492 1789 0
1493 1789 0
1789 1789 1
1790 1789 -1.88557e-34
1796 1789 0
1797 1789 5.52112e-43
1799 1789 0
1800 1789 0
1802 1789 0
1803 1789 0
1804 1789 -6.46938e-33
1805 1789 -5.35004e-13
1806 1789 3.21238e-13
1807 1789 4.42289e-23
1813 1789 1.65285e-12
47 1790 -0
48 1790 0
49 1790 0
110 1790 -4.03957e-11
1790 1790 0.000270407
1799 1790 0
1813 1790 -0.996302
11 1791 0
17 1791 0
27 1791 0
28 1791 0
29 1791 0
30 1791 0
47 1791 0
48 1791 0
49 1791 0
1522 1791 1.22313e-12
1523 1791 7.35539e-13
1524 1791 -2.05868e-21
1535 1791 2.40973e-30
1554 1791 0
1555 1791 0
1556 1791 0
1557 1791 0
1558 1791 0
1559 1791 -1.19656e-31
1722 1791 -0
1729 1791 0
1784 1791 2.95273e-13
1790 1791 0
1791 1791 0.010091
1793 1791 0
1797 1791 0
1799 1791 0
1800 1791 0
1813 1791 -8.75609e-11
50 1792 -7.70349e-15
1514 1792 -1.02315e-10
1516 1792 1.02303e-10
1517 1792 -1.19378e-14
1547 1792 3.96112e-13
1553 1792 -5.65588e-22
1554 1792 6.21224e-41
1555 1792 5.35716e-41
1556 1792 0
1557 1792 3.10868e-31
1558 1792 5.29313e-31
1783 1792 0
1792 1792 0.000845528
1793 1792 0
1794 1792 -0.998817
1797 1792 0
1800 1792 0
1801 1792 -6.40883e-11
1813 1792 1.18096e-07
29 1793 0
30 1793 -0
1522 1793 -1.22313e-12
1523 1793 7.3728e-13
1524 1793 -2.06355e-21
1526 1793 7.89395e-13
1528 1793 -6.21658e-21
1529 1793 -2.06182e-21
1530 1793 -8.29709e-30
1534 1793 4.90277e-30
1535 1793 2.41543e-30
1555 1793 0
1556 1793 -0
1557 1793 0
1558 1793 0
1559 1793 -2.39778e-31
1783 1793 4.54449e-13
1790 1793 -0
1793 1793 0.010091
1797 1793 0
1799 1793 0
1800 1793 0
1813 1793 -7.52869e-11
7 1794 -1.96545e-10
8 1794 -3.95521e-10
9 1794 5.9132e-10
29 1794 0
30 1794 8.6357e-13
50 1794 1.36461e-15
52 1794 4.02792e-13
106 1794 -1.95989e-10
109 1794 -1.08098e-09
110 1794 1.27381e-09
115 1794 4.77587e-16
116 1794 4.43117e-16
152 1794 -3.73859e-19
1790 1794 2.84692e-12
1792 1794 -0.000844528
1793 1794 0
1794 1794 0.00105262
1797 1794 3.86043e-23
1799 1794 0
1800 1794 0
1801 1794 -1.63984e-11
1813 1794 -0.998101
6 1795 -0
9 1795 -0
29 1795 0
30 1795 0
105 1795 -0
110 1795 -0
114 1795 -3.71659e-13
116 1795 -3.71547e-13
152 1795 -3.71406e-13
1510 1795 -4.94722e-13
1512 1795 7.78198e-13
1515 1795 1.82633e-12
1516 1795 2.57855e-23
1517 1795 -2.20973e-19
1545 1795 -0
1546 1795 -0
1555 1795 0
1556 1795 0
1557 1795 0
1558 1795 0
1559 1795 1.22167e-30
1562 1795 -0.00403942
1783 1795 0
1790 1795 0
1793 1795 0
1795 1795 0.00202096
1797 1795 1.83902e-10
1798 1795 4.11132e-11
1799 1795 0
1800 1795 0
1813 1795 -1.39829e-09
118 1796 1.66323e-15
119 1796 -4.86904e-15
120 1796 3.20581e-15
121 1796 1.21152e-19
122 1796 7.78198e-13
151 1796 -6.74429e-23
152 1796 3.2046e-15
1796 1796 0.0091866
1797 1796 9.68219e-20
1804 1796 -0.302601
1813 1796 -1.98671e-10
114 1797 -5.78844e-15
115 1797 -3.85497e-15
116 1797 -5.78669e-15
117 1797 -2.94285e-15
118 1797 -2.49133e-15
119 1797 -5.18115e-23
120 1797 -2.94121e-15
152 1797 -1.25779e-14
1502 1797 -2.60471e-13
1503 1797 -4.07433e-14
1504 1797 1.71025e-13
1505 1797 -1.26e-22
1506 1797 0
1783 1797 0
1793 1797 0
1797 1797 0.000664973
1799 1797 0
1800 1797 0
1813 1797 -0.998496
6 1798 -1.97536e-10
9 1798 -1.08568e-09
29 1798 0
30 1798 1.28152e-09
105 1798 -1.97346e-10
110 1798 -1.76892e-09
114 1798 8.13846e-16
116 1798 -2.46275e-19
152 1798 -2.46182e-19
1510 1798 1.36461e-15
1511 1798 4.02792e-13
1515 1798 -0.000844528
1516 1798 -1.19237e-14
1517 1798 1.02182e-10
1545 1798 -1.97986e-10
1546 1798 -3.97774e-10
1555 1798 0
1556 1798 5.954e-10
1557 1798 0
1558 1798 0
1559 1798 -5.64919e-22
1783 1798 0
1790 1798 1.9622e-09
1793 1798 0
1795 1798 -1.72612e-14
1797 1798 3.24873e-24
1798 1798 0.00105262
1799 1798 0
1800 1798 0
1813 1798 -0.998097
41 1799 7.35994e-13
43 1799 1.15303e-12
45 1799 6.13197e-13
46 1799 1.57863e-22
47 1799 -1.21733e-22
48 1799 -2.96557e-22
49 1799 -1.01274e-22
105 1799 -0
106 1799 -0
107 1799 -0
108 1799 0
109 1799 0
110 1799 0
1790 1799 0
1799 1799 0.000630738
1813 1799 -0.998415
21 1800 -2.3221e-20
25 1800 1.88402e-29
26 1800 2.3221e-20
34 1800 0
38 1800 -1.18781e-12
39 1800 5.53959e-13
1018 1800 -0
1247 1800 -0
1466 1800 2.60471e-13
1467 1800 -4.07477e-14
1468 1800 1.70938e-13
1477 1800 -5.03066e-23
1489 1800 0
1492 1800 0
1493 1800 0
1506 1800 -0
1533 1800 2.32212e-20
1534 1800 2.31871e-20
1535 1800 -2.32212e-20
1540 1800 -2.3221e-20
1543 1800 1.88402e-29
1544 1800 2.3221e-20
1680 1800 -2.3221e-20
1684 1800 1.88402e-29
1685 1800 2.3221e-20
1716 1800 2.9173e-14
1717 1800 1.88492e-29
1718 1800 -2.9173e-14
1719 1800 -3.39046e-24
1745 1800 2.3221e-20
1746 1800 2.31869e-20
1747 1800 -2.3221e-20
1753 1800 -2.3221e-20
1757 1800 1.88402e-29
1758 1800 2.3221e-20
1783 1800 0
1793 1800 0
1797 1800 0
1799 1800 0
1800 1800 0.00107269
1802 1800 0
1803 1800 0
1808 1800 3.57123e-10
1813 1800 -0.999068
7 1801 -0
8 1801 -0
9 1801 0
29 1801 0
30 1801 0
50 1801 -4.94722e-13
51 1801 7.78198e-13
81 1801 -0.00403942
106 1801 -0
109 1801 -0
110 1801 0
115 1801 -2.47565e-13
116 1801 2.33704e-24
152 1801 -2.47458e-13
1790 1801 0
1792 1801 1.82633e-12
1793 1801 0
1794 1801 8.30883e-14
1797 1801 2.47565e-13
1799 1801 0
1800 1801 0
1801 1801 0.00202096
1802 1801 0
1803 1801 0
1808 1801 0
1813 1801 -1.23494e-09
20 1802 1.15179e-12
21 1802 5.75608e-13
22 1802 0
24 1802 2.87771e-12
25 1802 1.43814e-12
26 1802 8.2449e-13
33 1802 1.98959e-16
34 1802 1.17896e-26
35 1802 -3.85473e-20
37 1802 1.98959e-16
38 1802 1.17896e-26
39 1802 3.85474e-20
1049 1802 0
1052 1802 1.15179e-12
1053 1802 5.75608e-13
1055 1802 2.87769e-12
1056 1802 1.43813e-12
1057 1802 8.24485e-13
1075 1802 2.87851e-12
1078 1802 2.57446e-16
1079 1802 1.56482e-26
1080 1802 1.43854e-12
1081 1802 8.24719e-13
1082 1802 9.58483e-23
1098 1802 0
1099 1802 0
1103 1802 1.15179e-12
1108 1802 2.87769e-12
1110 1802 1.43813e-12
1111 1802 5.75608e-13
1121 1802 1.15179e-12
1122 1802 5.75608e-13
1123 1802 0
1125 1802 2.87769e-12
1126 1802 1.43813e-12
1127 1802 8.24485e-13
1268 1802 2.87769e-12
1271 1802 1.15179e-12
1279 1802 0
1280 1802 0
1281 1802 5.75608e-13
1282 1802 1.43813e-12
1291 1802 1.15179e-12
1296 1802 2.87769e-12
1298 1802 0
1299 1802 0
1300 1802 1.43813e-12
1301 1802 5.75608e-13
1316 1802 0
1319 1802 1.15179e-12
1320 1802 5.75608e-13
1322 1802 2.87769e-12
1323 1802 1.43813e-12
1324 1802 8.24485e-13
1339 1802 0
1342 1802 1.15179e-12
1343 1802 5.75608e-13
1345 1802 2.87769e-12
1346 1802 1.43813e-12
1347 1802 8.24485e-13
1519 1802 1.15179e-12
1530 1802 2.87773e-12
1532 1802 0
1533 1802 0
1534 1802 1.43815e-12
1535 1802 5.75608e-13
1536 1802 0
1539 1802 1.15179e-12
1540 1802 5.75608e-13
1542 1802 2.87771e-12
1543 1802 1.43814e-12
1544 1802 8.2449e-13
1679 1802 1.15179e-12
1680 1802 5.75608e-13
1681 1802 0
1683 1802 2.87771e-12
1684 1802 1.43814e-12
1685 1802 8.2449e-13
1712 1802 2.87853e-12
1715 1802 2.57446e-16
1716 1802 1.56482e-26
1717 1802 1.43855e-12
1718 1802 8.24727e-13
1719 1802 9.58492e-23
1738 1802 1.15179e-12
1742 1802 2.87771e-12
1744 1802 0
1745 1802 0
1746 1802 1.43814e-12
1747 1802 5.75608e-13
1752 1802 1.15179e-12
1753 1802 5.75608e-13
1754 1802 0
1756 1802 2.87771e-12
1757 1802 1.43814e-12
1758 1802 8.2449e-13
1802 1802 0.00798543
1813 1802 -2.70402e-10
18 1803 7.58076e-16
21 1803 1.09127e-25
22 1803 -5.49172e-20
23 1803 7.58076e-16
25 1803 1.09127e-25
26 1803 5.49173e-20
31 1803 7.34351e-13
34 1803 3.67096e-13
35 1803 0
36 1803 1.83569e-12
38 1803 9.17647e-13
39 1803 4.89685e-13
1049 1803 -5.49169e-20
1050 1803 7.58076e-16
1053 1803 1.09127e-25
1054 1803 7.58076e-16
1056 1803 1.09127e-25
1057 1803 5.49169e-20
1073 1803 7.58076e-16
1076 1803 7.34932e-13
1079 1803 3.67387e-13
1080 1803 1.09127e-25
1081 1803 5.49997e-20
1082 1803 -5.49381e-20
1098 1803 -5.49169e-20
1099 1803 5.49169e-20
1100 1803 7.58076e-16
1105 1803 7.58076e-16
1110 1803 5.48363e-20
1111 1803 1.0913e-25
1119 1803 7.58076e-16
1122 1803 1.09127e-25
1123 1803 -5.49169e-20
1124 1803 7.58076e-16
1126 1803 1.09127e-25
1127 1803 5.49169e-20
1263 1803 7.58076e-16
1270 1803 7.58076e-16
1279 1803 -5.49168e-20
1280 1803 5.49168e-20
1281 1803 1.09128e-25
1282 1803 5.48362e-20
1288 1803 7.58076e-16
1292 1803 7.58076e-16
1298 1803 -5.49169e-20
1299 1803 5.49169e-20
1300 1803 5.48363e-20
1301 1803 1.0913e-25
1316 1803 -5.49169e-20
1317 1803 7.58076e-16
1320 1803 1.09127e-25
1321 1803 7.58076e-16
1323 1803 1.09127e-25
1324 1803 5.49169e-20
1339 1803 -5.49169e-20
1340 1803 7.58076e-16
1343 1803 1.09127e-25
1344 1803 7.58076e-16
1346 1803 1.09127e-25
1347 1803 5.49169e-20
1518 1803 7.58076e-16
1525 1803 7.58076e-16
1532 1803 -5.49177e-20
1533 1803 5.49177e-20
1534 1803 5.48371e-20
1535 1803 1.0913e-25
1536 1803 -5.49172e-20
1537 1803 7.58076e-16
1540 1803 1.09127e-25
1541 1803 7.58076e-16
1543 1803 1.09127e-25
1544 1803 5.49173e-20
1677 1803 7.58076e-16
1680 1803 1.09127e-25
1681 1803 -5.49172e-20
1682 1803 7.58076e-16
1684 1803 1.09127e-25
1685 1803 5.49173e-20
1710 1803 7.58076e-16
1713 1803 7.34932e-13
1716 1803 3.67387e-13
1717 1803 1.09127e-25
1718 1803 5.50003e-20
1719 1803 -5.49386e-20
1735 1803 7.58076e-16
1739 1803 7.58076e-16
1744 1803 -5.49172e-20
1745 1803 5.49172e-20
1746 1803 5.48367e-20
1747 1803 1.0913e-25
1750 1803 7.58076e-16
1753 1803 1.09127e-25
1754 1803 -5.49172e-20
1755 1803 7.58076e-16
1757 1803 1.09127e-25
1758 1803 5.49173e-20
1803 1803 0.00454617
1813 1803 -0.99978
42 1804 8.20264e-13
46 1804 -1.36028e-21
47 1804 8.83238e-42
48 1804 4.44319e-31
49 1804 4.44319e-31
121 1804 -5.95535e-14
151 1804 -0.00277988
152 1804 1.8556e-15
1508 1804 -3.35932e-13
1509 1804 3.35932e-13
1516 1804 7.80259e-17
1517 1804 -2.10719e-19
1783 1804 0
1790 1804 0
1793 1804 0
1796 1804 -0.00277988
1797 1804 9.2672e-14
1799 1804 8.96971e-42
1800 1804 0
1802 1804 0
1803 1804 0
1804 1804 0.0031099
1808 1804 0
1813 1804 -1.26135e-09
1805 1805 1
1806 1806 1
13 1807 3.96112e-13
16 1807 -5.65588e-22
17 1807 -7.35581e-31
27 1807 3.10868e-31
28 1807 5.29313e-31
29 1807 4.18988e-43
30 1807 0
111 1807 -7.70349e-15
153 1807 -0.000844528
154 1807 -3.77699e-14
1509 1807 -2.03657e-10
1516 1807 2.0361e-10
1517 1807 1.8998e-22
1783 1807 0
1790 1807 1.60359e-15
1793 1807 0
1797 1807 3.54128e-24
1799 1807 0
1800 1807 0
1802 1807 0
1803 1807 0
1807 1807 0.000469382
1808 1807 0
1813 1807 -0.99692
21 1808 0
25 1808 -1.75349e-12
26 1808 7.48209e-13
34 1808 -1.17921e-20
38 1808 6.85794e-35
39 1808 1.17921e-20
1533 1808 1.7535e-12
1534 1808 -2.57574e-15
1535 1808 4.51683e-23
1540 1808 0
1543 1808 -1.75349e-12
1544 1808 7.48209e-13
1680 1808 0
1684 1808 -1.75349e-12
1685 1808 7.48209e-13
1716 1808 -1.51841e-13
1717 1808 -1.75433e-12
1718 1808 9.00408e-13
1719 1808 1.04645e-22
1745 1808 1.75349e-12
1746 1808 -2.57574e-15
1747 1808 4.5168e-23
1753 1808 0
1757 1808 -1.75349e-12
1758 1808 7.48209e-13
1808 1808 0.00640673
1813 1808 -1.3536e-10
1809 1809 1
1810 1810 1
35 1811 7.41511e-13
39 1811 3.48893e-24
55 1811 -2.09843e-14
56 1811 -1.00801e-14
57 1811 -2.83676e-14
58 1811 -2.83921e-14
59 1811 8.39215e-13
65 1811 -1.4006e-21
66 1811 -2.99079e-30
67 1811 -6.0991e-32
68 1811 3.82692e-13
69 1811 4.01419e-10
70 1811 3.61948e-13
71 1811 -4.01419e-10
72 1811 3.82692e-13
73 1811 3.63349e-13
74 1811 -5.39415e-15
76 1811 7.41441e-13
77 1811 -8.42366e-12
78 1811 -1.46253e-18
82 1811 -1.00801e-14
83 1811 -2.09843e-14
84 1811 -2.83921e-14
85 1811 -2.83676e-14
86 1811 8.39215e-13
91 1811 -1.4006e-21
92 1811 -6.0991e-32
93 1811 -2.99079e-30
94 1811 3.82692e-13
95 1811 3.61948e-13
96 1811 4.01419e-10
97 1811 -4.01419e-10
98 1811 3.82692e-13
99 1811 3.63349e-13
100 1811 -8.42366e-12
102 1811 7.46829e-13
103 1811 2.99005e-13
104 1811 -1.46253e-18
128 1811 -2.09843e-14
129 1811 -1.00801e-14
130 1811 -2.83676e-14
131 1811 -2.83921e-14
132 1811 8.39215e-13
137 1811 -1.4006e-21
138 1811 3.05178e-30
139 1811 -6.0991e-32
140 1811 5.87971e-32
141 1811 3.61948e-13
142 1811 3.82692e-13
143 1811 4.01419e-10
144 1811 -4.01419e-10
145 1811 3.82692e-13
146 1811 3.63349e-13
147 1811 -8.42366e-12
148 1811 7.46829e-13
150 1811 2.99005e-13
151 1811 1.04729e-30
152 1811 -6.99248e-43
153 1811 3.91315e-27
154 1811 1.07847e-30
188 1811 -1.00801e-14
189 1811 -2.09843e-14
190 1811 -2.83921e-14
191 1811 -2.83676e-14
192 1811 8.39215e-13
197 1811 -1.4006e-21
198 1811 1.25834e-30
199 1811 6.05384e-32
200 1811 -6.0991e-32
201 1811 4.01419e-10
202 1811 3.82692e-13
203 1811 3.61948e-13
204 1811 3.6335e-13
205 1811 3.82692e-13
206 1811 -4.01419e-10
207 1811 -8.42366e-12
209 1811 7.46829e-13
210 1811 2.99005e-13
217 1811 -1.00801e-14
218 1811 -2.09843e-14
219 1811 -2.83921e-14
220 1811 -2.83676e-14
221 1811 8.39215e-13
226 1811 -1.4006e-21
227 1811 -1.19735e-30
228 1811 -6.0991e-32
229 1811 3.82692e-13
230 1811 4.01419e-10
231 1811 3.61948e-13
232 1811 3.6335e-13
233 1811 3.82692e-13
234 1811 -4.01419e-10
235 1811 -8.42366e-12
237 1811 7.46829e-13
238 1811 2.99005e-13
239 1811 -8.45014e-19
240 1811 1.22337e-30
246 1811 -1.00801e-14
247 1811 -2.09843e-14
248 1811 -2.83921e-14
249 1811 -2.83676e-14
250 1811 8.39215e-13
255 1811 -1.4006e-21
256 1811 1.25834e-30
257 1811 6.05384e-32
258 1811 -6.0991e-32
259 1811 3.82692e-13
260 1811 4.01419e-10
261 1811 3.61948e-13
262 1811 3.6335e-13
263 1811 3.82692e-13
264 1811 -4.01419e-10
265 1811 -8.42366e-12
267 1811 7.46829e-13
268 1811 2.99005e-13
269 1811 -1.00801e-14
270 1811 -2.09843e-14
271 1811 -2.83921e-14
272 1811 -2.83676e-14
273 1811 8.39215e-13
278 1811 -1.4006e-21
279 1811 1.25834e-30
280 1811 6.05384e-32
281 1811 -6.0991e-32
282 1811 3.82692e-13
283 1811 4.01419e-10
284 1811 3.61948e-13
285 1811 3.6335e-13
286 1811 3.82692e-13
287 1811 -4.01419e-10
288 1811 -5.39417e-15
290 1811 7.41441e-13
291 1811 -8.42366e-12
374 1811 1.22337e-30
375 1811 2.26337e-27
376 1811 2.26337e-27
377 1811 1.22337e-30
378 1811 1.00809e-27
379 1811 2.26337e-27
380 1811 1.18509e-40
381 1811 -1.15894e-40
396 1811 -1.00801e-14
397 1811 -2.09843e-14
398 1811 -2.83921e-14
399 1811 -2.83676e-14
400 1811 8.39215e-13
405 1811 -1.4006e-21
406 1811 -6.0991e-32
407 1811 -1.19735e-30
408 1811 3.82692e-13
409 1811 3.61948e-13
410 1811 4.01419e-10
411 1811 3.6335e-13
412 1811 3.82692e-13
413 1811 -4.01419e-10
414 1811 -8.42366e-12
416 1811 7.46829e-13
417 1811 2.99005e-13
418 1811 -8.45014e-19
421 1811 -2.09843e-14
422 1811 -1.00801e-14
423 1811 -2.83921e-14
424 1811 -2.83676e-14
425 1811 8.39215e-13
427 1811 3.82692e-13
428 1811 -4.76003e-22
430 1811 -8.23643e-22
431 1811 2.6554e-40
432 1811 3.59089e-32
433 1811 -3.59089e-32
435 1811 -1.33769e-14
439 1811 3.63481e-13
440 1811 3.82692e-13
441 1811 4.94051e-16
442 1811 3.59752e-13
443 1811 7.4118e-13
444 1811 3.82692e-13
445 1811 -4.09761e-10
446 1811 3.81816e-13
447 1811 3.82692e-13
448 1811 -4.09762e-10
449 1811 3.82692e-13
450 1811 1.52156e-13
451 1811 4.59008e-13
453 1811 -8.35199e-14
459 1811 3.82692e-13
460 1811 -4.76278e-22
461 1811 -2.37964e-22
466 1811 -3.77995e-32
467 1811 3.34427e-13
468 1811 -3.82281e-17
469 1811 -1.00801e-14
470 1811 -1.00801e-14
472 1811 4.32701e-13
473 1811 4.47968e-16
474 1811 -2.83921e-14
475 1811 4.79194e-13
476 1811 4.32701e-13
477 1811 -2.83921e-14
478 1811 4.47968e-16
479 1811 4.79194e-13
487 1811 -7.99746e-22
488 1811 3.82692e-13
489 1811 3.61948e-13
490 1811 4.01419e-10
491 1811 3.6335e-13
492 1811 3.82692e-13
493 1811 -4.01419e-10
494 1811 -5.39414e-15
496 1811 7.41441e-13
497 1811 -8.42366e-12
499 1811 3.82692e-13
500 1811 -2.82541e-22
501 1811 -1.78451e-32
512 1811 3.6501e-13
513 1811 3.82692e-13
514 1811 4.01419e-10
515 1811 -4.01419e-10
605 1811 3.02174e-31
606 1811 -2.08412e-40
607 1811 2.26337e-27
608 1811 -1.15757e-34
609 1811 5.1639e-31
610 1811 1.77868e-28
611 1811 1.00809e-27
612 1811 6.98546e-31
613 1811 -7.54923e-36
619 1811 -2.09843e-14
620 1811 -1.00801e-14
621 1811 -2.83921e-14
622 1811 -2.83676e-14
623 1811 8.39215e-13
628 1811 -1.4006e-21
629 1811 -6.0991e-32
630 1811 -1.19735e-30
631 1811 3.82692e-13
632 1811 3.61948e-13
633 1811 4.01419e-10
634 1811 3.6335e-13
635 1811 3.82692e-13
636 1811 -4.01419e-10
637 1811 -8.42366e-12
638 1811 7.46829e-13
640 1811 2.99005e-13
647 1811 -2.09843e-14
648 1811 -1.00801e-14
649 1811 -2.83921e-14
650 1811 -2.83676e-14
651 1811 8.39215e-13
656 1811 -1.4006e-21
657 1811 1.25834e-30
658 1811 -6.0991e-32
659 1811 6.05384e-32
660 1811 3.61948e-13
661 1811 3.82692e-13
662 1811 4.01419e-10
663 1811 3.6335e-13
664 1811 3.82692e-13
665 1811 -4.01419e-10
666 1811 -8.42366e-12
668 1811 7.46829e-13
669 1811 2.99005e-13
670 1811 1.22337e-30
671 1811 -8.45014e-19
672 1811 -2.09843e-14
673 1811 -1.00801e-14
674 1811 -2.83676e-14
675 1811 -2.83921e-14
676 1811 8.39215e-13
681 1811 -1.4006e-21
682 1811 1.25834e-30
683 1811 6.05384e-32
684 1811 -6.0991e-32
685 1811 3.82692e-13
686 1811 4.01419e-10
687 1811 3.61948e-13
688 1811 -4.01419e-10
689 1811 3.82692e-13
690 1811 3.63349e-13
691 1811 -5.39415e-15
693 1811 7.41441e-13
694 1811 -8.42366e-12
700 1811 -2.09843e-14
701 1811 -1.00801e-14
702 1811 -2.83676e-14
703 1811 -2.83921e-14
704 1811 8.39215e-13
709 1811 -1.4006e-21
710 1811 1.25834e-30
711 1811 -6.0991e-32
712 1811 6.05384e-32
713 1811 3.61948e-13
714 1811 3.82692e-13
715 1811 4.01419e-10
716 1811 3.6335e-13
717 1811 3.82692e-13
718 1811 -4.01419e-10
719 1811 -8.42366e-12
720 1811 7.46829e-13
722 1811 2.99005e-13
806 1811 1.22337e-30
807 1811 2.26337e-27
808 1811 2.26337e-27
809 1811 1.22337e-30
810 1811 1.00809e-27
811 1811 2.26337e-27
812 1811 1.18509e-40
813 1811 -1.15894e-40
814 1811 1.22337e-30
815 1811 -2.19688e-34
816 1811 0
817 1811 1.22337e-30
818 1811 0
819 1811 -2.19688e-34
825 1811 -2.09843e-14
826 1811 -1.00801e-14
827 1811 -2.83921e-14
828 1811 -2.83676e-14
829 1811 8.39215e-13
834 1811 -1.4006e-21
835 1811 1.25834e-30
836 1811 6.05384e-32
837 1811 -6.0991e-32
838 1811 3.82692e-13
839 1811 4.01419e-10
840 1811 3.61948e-13
841 1811 3.6335e-13
842 1811 3.82692e-13
843 1811 -4.01419e-10
844 1811 -8.42366e-12
845 1811 7.46829e-13
847 1811 2.99005e-13
851 1811 -2.09843e-14
852 1811 -1.00801e-14
853 1811 -2.83676e-14
854 1811 -2.83921e-14
855 1811 8.39215e-13
860 1811 -1.4006e-21
861 1811 1.25834e-30
862 1811 -6.0991e-32
863 1811 6.05384e-32
864 1811 3.82692e-13
865 1811 3.61948e-13
866 1811 4.01419e-10
867 1811 3.6335e-13
868 1811 3.82692e-13
869 1811 -4.01419e-10
870 1811 -8.42366e-12
871 1811 7.46829e-13
873 1811 2.99005e-13
876 1811 -2.09843e-14
877 1811 -1.00801e-14
878 1811 -2.83921e-14
879 1811 -2.83676e-14
880 1811 8.39215e-13
882 1811 -1.4006e-21
883 1811 6.30285e-31
884 1811 -3.05496e-32
885 1811 3.0323e-32
886 1811 3.82692e-13
887 1811 3.61948e-13
888 1811 4.01419e-10
889 1811 3.6335e-13
890 1811 3.82692e-13
891 1811 -4.01419e-10
892 1811 -8.42366e-12
893 1811 7.46829e-13
895 1811 2.99005e-13
896 1811 -2.09843e-14
897 1811 -1.00801e-14
898 1811 -2.83921e-14
899 1811 -2.83676e-14
900 1811 8.39215e-13
905 1811 -1.4006e-21
906 1811 1.25834e-30
907 1811 -6.0991e-32
908 1811 6.05384e-32
909 1811 3.82692e-13
910 1811 3.61948e-13
911 1811 4.01419e-10
912 1811 -4.01419e-10
913 1811 3.82692e-13
914 1811 3.63349e-13
915 1811 -8.42366e-12
917 1811 7.46829e-13
918 1811 2.99005e-13
926 1811 1.22337e-30
927 1811 2.26337e-27
928 1811 3.22467e-41
1007 1811 1.22337e-30
1008 1811 2.26337e-27
1009 1811 2.26337e-27
1010 1811 1.22337e-30
1011 1811 2.26337e-27
1012 1811 1.00808e-27
1013 1811 1.00808e-27
1014 1811 -1.29936e-33
1015 1811 1.22337e-30
1016 1811 -2.19688e-34
1017 1811 -1.87153e-40
1018 1811 0
1019 1811 -6.99885e-22
1023 1811 -1.00801e-14
1024 1811 -2.09843e-14
1025 1811 -2.83921e-14
1026 1811 -2.83676e-14
1027 1811 8.39215e-13
1032 1811 -1.4006e-21
1033 1811 -6.0991e-32
1034 1811 -2.99079e-30
1035 1811 3.61948e-13
1036 1811 3.82692e-13
1037 1811 4.01419e-10
1038 1811 -4.01419e-10
1039 1811 3.82692e-13
1040 1811 3.63349e-13
1041 1811 -8.42366e-12
1042 1811 7.46829e-13
1044 1811 2.99005e-13
1045 1811 -1.46253e-18
1148 1811 -1.00801e-14
1149 1811 -2.09843e-14
1150 1811 -2.83921e-14
1151 1811 -2.83676e-14
1152 1811 8.39215e-13
1158 1811 -1.4006e-21
1159 1811 -6.0991e-32
1160 1811 -2.99079e-30
1161 1811 3.82692e-13
1162 1811 3.61948e-13
1163 1811 4.01419e-10
1164 1811 3.6335e-13
1165 1811 3.82692e-13
1166 1811 -4.01419e-10
1167 1811 -8.42366e-12
1168 1811 7.46829e-13
1170 1811 2.99005e-13
1171 1811 -1.46253e-18
1174 1811 -2.09843e-14
1175 1811 -1.00801e-14
1176 1811 -2.83921e-14
1177 1811 -2.83676e-14
1178 1811 8.39215e-13
1184 1811 -1.4006e-21
1185 1811 -2.99079e-30
1186 1811 -6.0991e-32
1187 1811 4.01419e-10
1188 1811 3.82692e-13
1189 1811 3.61948e-13
1190 1811 -4.01419e-10
1191 1811 3.82692e-13
1192 1811 3.63349e-13
1193 1811 -8.42366e-12
1195 1811 7.46829e-13
1196 1811 2.99005e-13
1197 1811 -1.46253e-18
1204 1811 -1.00801e-14
1205 1811 -2.09843e-14
1206 1811 -2.83921e-14
1207 1811 -2.83676e-14
1208 1811 8.39215e-13
1213 1811 -1.4006e-21
1214 1811 -6.0991e-32
1215 1811 -2.99079e-30
1216 1811 3.82692e-13
1217 1811 3.61948e-13
1218 1811 4.01419e-10
1219 1811 -4.01419e-10
1220 1811 3.82692e-13
1221 1811 3.63349e-13
1222 1811 -8.42366e-12
1224 1811 7.46829e-13
1225 1811 2.99005e-13
1226 1811 -1.46253e-18
1239 1811 1.07847e-30
1240 1811 3.91315e-27
1241 1811 3.91315e-27
1242 1811 1.07847e-30
1243 1811 1.07847e-30
1244 1811 3.91315e-27
1245 1811 -9.74611e-40
1246 1811 3.91315e-27
1247 1811 0
1248 1811 1.07847e-30
1249 1811 -3.79821e-34
1362 1811 -2.09843e-14
1363 1811 -1.00801e-14
1364 1811 -2.83676e-14
1365 1811 -2.83921e-14
1366 1811 8.39215e-13
1371 1811 -1.4006e-21
1372 1811 -6.0991e-32
1373 1811 -2.99079e-30
1374 1811 3.82692e-13
1375 1811 3.61948e-13
1376 1811 4.01419e-10
1377 1811 3.6335e-13
1378 1811 3.82692e-13
1379 1811 -4.01419e-10
1380 1811 -8.42366e-12
1381 1811 7.46829e-13
1383 1811 2.99005e-13
1384 1811 -1.46253e-18
1391 1811 -2.09843e-14
1392 1811 -1.00801e-14
1393 1811 -2.83921e-14
1394 1811 -2.83676e-14
1395 1811 8.39215e-13
1400 1811 -1.4006e-21
1401 1811 -6.0991e-32
1402 1811 -2.99079e-30
1403 1811 3.61948e-13
1404 1811 3.82692e-13
1405 1811 4.01419e-10
1406 1811 -4.01419e-10
1407 1811 3.82692e-13
1408 1811 3.63349e-13
1409 1811 -8.42366e-12
1411 1811 7.46829e-13
1412 1811 2.99005e-13
1413 1811 -1.46253e-18
1417 1811 -1.00801e-14
1418 1811 -2.09843e-14
1419 1811 -2.83921e-14
1420 1811 -2.83676e-14
1421 1811 8.39215e-13
1426 1811 -1.4006e-21
1427 1811 -6.0991e-32
1428 1811 -2.99079e-30
1429 1811 3.82692e-13
1430 1811 3.61948e-13
1431 1811 4.01419e-10
1432 1811 3.6335e-13
1433 1811 3.82692e-13
1434 1811 -4.01419e-10
1435 1811 -8.42366e-12
1436 1811 7.46829e-13
1438 1811 2.99005e-13
1439 1811 -1.46253e-18
1443 1811 -2.09843e-14
1444 1811 -1.00801e-14
1445 1811 -2.83676e-14
1446 1811 -2.83921e-14
1447 1811 8.39215e-13
1452 1811 -1.4006e-21
1453 1811 -6.0991e-32
1454 1811 -2.99079e-30
1455 1811 3.82692e-13
1456 1811 3.61948e-13
1457 1811 4.01419e-10
1458 1811 3.6335e-13
1459 1811 3.82692e-13
1460 1811 -4.01419e-10
1461 1811 -8.42366e-12
1463 1811 7.46829e-13
1464 1811 2.99005e-13
1465 1811 -1.46253e-18
1478 1811 1.07847e-30
1479 1811 3.91315e-27
1480 1811 3.91315e-27
1481 1811 1.07847e-30
1482 1811 -7.43036e-39
1483 1811 1.74289e-27
1484 1811 1.07847e-30
1485 1811 3.91315e-27
1486 1811 0
1487 1811 3.91315e-27
1488 1811 1.74289e-27
1489 1811 0
1490 1811 1.07847e-30
1491 1811 1.44334e-43
1492 1811 0
1493 1811 0
1494 1811 -3.79821e-34
1563 1811 -1.00801e-14
1564 1811 -2.09843e-14
1565 1811 -2.83921e-14
1566 1811 -2.83676e-14
1567 1811 8.39215e-13
1572 1811 -1.4006e-21
1573 1811 -6.0991e-32
1574 1811 -2.99079e-30
1575 1811 3.82692e-13
1576 1811 3.61948e-13
1577 1811 4.01419e-10
1578 1811 3.6335e-13
1579 1811 3.82692e-13
1580 1811 -4.01419e-10
1581 1811 -8.42366e-12
1582 1811 7.46829e-13
1584 1811 2.99005e-13
1585 1811 -1.46253e-18
1588 1811 -2.09843e-14
1589 1811 -1.00801e-14
1590 1811 -2.83921e-14
1591 1811 -2.83676e-14
1592 1811 8.39215e-13
1598 1811 -1.4006e-21
1599 1811 -6.0991e-32
1600 1811 -2.99079e-30
1601 1811 3.61948e-13
1602 1811 3.82692e-13
1603 1811 4.01419e-10
1604 1811 -4.01419e-10
1605 1811 3.82692e-13
1606 1811 3.63349e-13
1607 1811 -8.42366e-12
1609 1811 7.46829e-13
1610 1811 2.99005e-13
1611 1811 -1.46253e-18
1618 1811 -1.00801e-14
1619 1811 -2.09843e-14
1620 1811 -2.83921e-14
1621 1811 -2.83676e-14
1622 1811 8.39215e-13
1627 1811 -1.4006e-21
1628 1811 -2.99079e-30
1629 1811 -6.0991e-32
1630 1811 3.82692e-13
1631 1811 4.01419e-10
1632 1811 3.61948e-13
1633 1811 3.6335e-13
1634 1811 3.82692e-13
1635 1811 -4.01419e-10
1636 1811 -8.42366e-12
1637 1811 7.46829e-13
1639 1811 2.99005e-13
1640 1811 -1.46253e-18
1643 1811 -2.09843e-14
1644 1811 -1.00801e-14
1645 1811 -2.83921e-14
1646 1811 -2.83676e-14
1647 1811 8.39215e-13
1653 1811 -1.4006e-21
1654 1811 -2.99079e-30
1655 1811 -6.0991e-32
1656 1811 3.82692e-13
1657 1811 4.01419e-10
1658 1811 3.61948e-13
1659 1811 3.6335e-13
1660 1811 3.82692e-13
1661 1811 -4.01419e-10
1662 1811 -8.42366e-12
1664 1811 7.46829e-13
1665 1811 2.99005e-13
1666 1811 -1.46253e-18
1675 1811 1.07847e-30
1676 1811 3.91315e-27
1777 1811 1.07847e-30
1778 1811 1.74289e-27
1779 1811 3.91315e-27
1780 1811 3.91315e-27
1781 1811 1.07847e-30
1782 1811 3.91315e-27
1783 1811 -3.23888e-40
1784 1811 -3.79821e-34
1786 1811 1.07847e-30
1790 1811 -7.4303e-39
1791 1811 1.44334e-43
1793 1811 0
1794 1811 3.91315e-27
1795 1811 1.07847e-30
1796 1811 6.9354e-23
1797 1811 -3.40848e-40
1798 1811 3.91315e-27
1799 1811 0
1800 1811 0
1801 1811 1.07847e-30
1802 1811 0
1803 1811 0
1804 1811 2.09866e-23
1805 1811 -3.96021e-16
1806 1811 1.1251e-09
1807 1811 1.74289e-27
1808 1811 0
1811 1811 1
1813 1811 1.20002e-08
11 1812 -0.000663973
12 1812 -2.01564e-12
13 1812 -1.01203e-12
14 1812 -2.01564e-12
15 1812 -2.01303e-12
16 1812 -0.000638615
17 1812 -2.90827e-12
19 1812 -1.32185e-12
20 1812 -0.00100939
21 1812 -0.000504445
22 1812 -0.00125681
24 1812 -0.00100939
25 1812 -0.000504445
26 1812 -0.000289199
27 1812 -2.84274e-12
28 1812 -1.96111e-12
29 1812 -0.000629738
30 1812 -0.000269407
32 1812 -0.00605905
33 1812 -0.00100939
34 1812 -2.045e-12
35 1812 -2.05754e-12
37 1812 -0.00100939
38 1812 -2.045e-12
39 1812 -4.09127e-12
40 1812 -0.000351093
41 1812 -2.0043e-12
42 1812 -0.000228782
44 1812 -0.000351093
45 1812 -3.06529e-12
46 1812 -6.48025e-13
47 1812 -0.000663973
48 1812 -0.000231294
49 1812 -0.000231294
51 1812 -0.000433078
52 1812 -1.0187e-12
53 1812 -6.38724e-13
54 1812 -1.27737e-12
57 1812 -3.1284e-12
58 1812 -2.06446e-12
59 1812 -1.981e-12
60 1812 1.06043e-12
61 1812 -0.000351093
62 1812 -1.28826e-12
63 1812 -1.15699e-12
64 1812 -1.02742e-12
65 1812 -0.000844528
66 1812 -3.84038e-12
67 1812 -0.000844528
68 1812 -1.01564e-12
69 1812 -0.000351093
70 1812 -1.0001e-12
71 1812 -8.31717e-12
72 1812 -1.01564e-12
73 1812 -1.00473e-12
74 1812 -1.00401e-12
75 1812 -0.000351093
76 1812 -2.04033e-12
77 1812 -4.0028e-10
78 1812 -3.84142e-12
79 1812 -6.38724e-13
80 1812 -1.27737e-12
81 1812 1.06043e-12
84 1812 -2.06446e-12
85 1812 -3.1284e-12
86 1812 -1.981e-12
87 1812 -0.000351093
88 1812 -1.28826e-12
89 1812 -1.15699e-12
90 1812 -1.02742e-12
91 1812 -0.000844528
92 1812 -0.000844528
93 1812 -3.84038e-12
94 1812 -1.01564e-12
95 1812 -1.01564e-12
96 1812 -0.000351093
97 1812 -8.31717e-12
98 1812 -1.01564e-12
99 1812 -1.00473e-12
100 1812 -1.71489e-15
101 1812 -0.000351093
102 1812 -1.40099e-12
103 1812 -1.21106e-12
104 1812 -3.84142e-12
112 1812 -0.000433078
113 1812 -1.0187e-12
122 1812 -0.000433078
123 1812 -0.000433078
124 1812 -1e-12
125 1812 -6.38724e-13
126 1812 -1.27737e-12
127 1812 1.0227e-12
130 1812 -3.1284e-12
131 1812 -2.06446e-12
132 1812 -1.981e-12
133 1812 -0.000351093
134 1812 -1.28826e-12
135 1812 -1.15699e-12
136 1812 -1.02742e-12
137 1812 -0.000844528
138 1812 -3.14721e-12
139 1812 -0.000844528
140 1812 -7.03942e-12
141 1812 -1.01564e-12
142 1812 -1.01564e-12
143 1812 -0.000351093
144 1812 -8.31717e-12
145 1812 -1.01564e-12
146 1812 -1.00473e-12
147 1812 -1.71489e-15
148 1812 -1.03701e-12
149 1812 -0.000351093
150 1812 -1.21106e-12
151 1812 -1.94298e-12
152 1812 1.29696e-24
153 1812 -0.00105062
154 1812 -1.91024e-12
155 1812 1.06043e-12
156 1812 -3.56984e-11
157 1812 -3.5287e-11
158 1812 6.59145e-11
159 1812 -1.01543e-12
160 1812 -1.01192e-12
162 1812 -3.17012e-12
163 1812 -1.9731e-12
164 1812 -0.000433078
165 1812 -0.000433078
166 1812 -3.58029e-11
167 1812 3.2777e-11
168 1812 -0.00193071
169 1812 -2.16292e-12
170 1812 -2.13214e-12
171 1812 -9.711e-13
172 1812 -6.22437e-13
173 1812 -1.02929e-12
175 1812 -2.13307e-12
176 1812 -2.07471e-12
177 1812 -7.85684e-13
178 1812 -1.01341e-12
181 1812 -1.0187e-12
182 1812 -1.36377e-23
183 1812 -2.02013e-12
184 1812 -0.000635864
186 1812 -3.17012e-12
187 1812 -1.9731e-12
190 1812 -2.06446e-12
191 1812 -3.1284e-12
192 1812 -1.981e-12
193 1812 -0.000351093
194 1812 -1.28826e-12
195 1812 -1.15699e-12
196 1812 -1.02742e-12
197 1812 -0.000844528
198 1812 -1.22907e-12
199 1812 -3.98761e-12
200 1812 -0.000844528
201 1812 -0.000351093
202 1812 -1.01564e-12
203 1812 -1.0001e-12
204 1812 -1.00473e-12
205 1812 -1.01564e-12
206 1812 -8.31717e-12
207 1812 -1.71489e-15
208 1812 -0.000351093
209 1812 -1.40099e-12
210 1812 -1.21106e-12
212 1812 -1.0187e-12
213 1812 -0.000433078
216 1812 -0.00105062
219 1812 -2.06446e-12
220 1812 -3.1284e-12
221 1812 -1.981e-12
222 1812 -0.000351093
223 1812 -1.28826e-12
224 1812 -1.15699e-12
225 1812 -1.02742e-12
226 1812 -0.000844528
227 1812 -2.75898e-12
228 1812 -0.000844528
229 1812 -1.01564e-12
230 1812 -0.000351093
231 1812 -1.0001e-12
232 1812 -1.00473e-12
233 1812 -1.01564e-12
234 1812 -8.31717e-12
235 1812 -1.71489e-15
236 1812 -0.000351093
237 1812 -1.40099e-12
238 1812 -1.21106e-12
239 1812 -1.92302e-12
240 1812 -1.27684e-12
248 1812 -2.06446e-12
249 1812 -3.1284e-12
250 1812 -1.981e-12
251 1812 -0.000351093
252 1812 -1.28826e-12
253 1812 -1.15699e-12
254 1812 -1.02742e-12
255 1812 -0.000844528
256 1812 -1.22907e-12
257 1812 -3.98761e-12
258 1812 -0.000844528
259 1812 -1.01564e-12
260 1812 -0.000351093
261 1812 -1.0001e-12
262 1812 -1.00473e-12
263 1812 -1.01564e-12
264 1812 -8.31717e-12
265 1812 -1.71489e-15
266 1812 -0.000351093
267 1812 -1.40099e-12
268 1812 -1.21106e-12
271 1812 -2.06446e-12
272 1812 -3.1284e-12
273 1812 -1.981e-12
274 1812 -0.000351093
275 1812 -1.28826e-12
276 1812 -1.15699e-12
277 1812 -1.02742e-12
278 1812 -0.000844528
279 1812 -1.22907e-12
280 1812 -3.98761e-12
281 1812 -0.000844528
282 1812 -1.01564e-12
283 1812 -0.000351093
284 1812 -1.0001e-12
285 1812 -1.00473e-12
286 1812 -1.01564e-12
287 1812 -8.31717e-12
288 1812 -1.00401e-12
289 1812 -0.000351093
290 1812 -2.04033e-12
291 1812 -4.0028e-10
293 1812 -0.000433078
294 1812 -1.0187e-12
296 1812 -0.000433078
297 1812 -1.0187e-12
298 1812 -2.57513e-12
299 1812 -1.14192e-12
300 1812 -0.000679777
301 1812 -0.000679777
302 1812 -1.01203e-12
303 1812 -2.01564e-12
304 1812 -2.01303e-12
306 1812 -2.01564e-12
307 1812 -3.07402e-12
308 1812 -0.000638615
309 1812 -1.96111e-12
310 1812 -3.41516e-12
315 1812 -0.000629738
316 1812 -0.000663973
318 1812 -1.03701e-12
319 1812 0
320 1812 0
321 1812 -0.000269407
323 1812 -1.0187e-12
324 1812 -0.000433078
325 1812 -2.57513e-12
326 1812 -1.15304e-12
327 1812 -2.01711e-12
328 1812 -1.01564e-12
329 1812 -0.000679777
330 1812 -0.000638615
331 1812 -1.01203e-12
332 1812 -1.01203e-12
333 1812 -2.01564e-12
334 1812 -2.01564e-12
335 1812 -2.57513e-12
336 1812 -1.14192e-12
337 1812 -0.000679777
338 1812 -0.000679777
339 1812 -2e-12
340 1812 -2e-12
341 1812 -0.000638615
345 1812 -0.000418157
346 1812 -0.000383921
347 1812 -3.08525e-12
348 1812 -2.55947e-12
349 1812 -7.15041e-13
350 1812 -7.15041e-13
356 1812 -1.01203e-12
358 1812 -2.01564e-12
359 1812 -3.07402e-12
360 1812 -2.01564e-12
361 1812 -2.01303e-12
362 1812 -2.57513e-12
363 1812 -1.14192e-12
364 1812 -0.000679777
365 1812 -0.000679777
366 1812 -2.55877e-12
367 1812 -3.76617e-12
368 1812 -0.000638615
369 1812 -0.000663973
370 1812 -0.000629738
371 1812 -4.03349e-11
372 1812 -7.15041e-13
373 1812 -1.0187e-12
374 1812 -1.29726e-12
375 1812 -0.00105062
376 1812 -0.00105062
377 1812 -1.31449e-12
378 1812 -0.000467936
379 1812 -0.00105062
380 1812 -1.26413e-18
381 1812 -0.000663973
382 1812 -1.01203e-12
383 1812 -3.58029e-11
384 1812 3.2777e-11
385 1812 -2.12084e-12
386 1812 -9.8175e-13
388 1812 -3.31325e-12
389 1812 -1.94058e-12
391 1812 -1.0187e-12
392 1812 -0.000433078
395 1812 -0.00105062
398 1812 -2.06446e-12
399 1812 -3.1284e-12
400 1812 -1.981e-12
401 1812 -0.000351093
402 1812 -1.28826e-12
403 1812 -1.15699e-12
404 1812 -1.02742e-12
405 1812 -0.000844528
406 1812 -0.000844528
407 1812 -2.75898e-12
408 1812 -1.01564e-12
409 1812 -1.01564e-12
410 1812 -0.000351093
411 1812 -1.00473e-12
412 1812 -1.01564e-12
413 1812 -8.31717e-12
414 1812 -1.71489e-15
415 1812 -0.000351093
416 1812 -1.40099e-12
417 1812 -1.21106e-12
418 1812 -1.92302e-12
419 1812 -2.12329e-12
420 1812 -1.41617e-12
423 1812 -2.06446e-12
424 1812 -3.1284e-12
425 1812 -1.981e-12
426 1812 -1.14188e-12
427 1812 -1.01564e-12
428 1812 -0.000679777
429 1812 -1.02742e-12
430 1812 -0.000844528
431 1812 -0.000844528
432 1812 -1.98801e-12
433 1812 -0.000422014
434 1812 -6.38724e-13
435 1812 -0.000281065
436 1812 -1.01564e-12
437 1812 -1.01564e-12
438 1812 -0.000351093
439 1812 -1.00473e-12
440 1812 -1.01564e-12
441 1812 -8.31716e-12
442 1812 -1.00401e-12
443 1812 -2.03994e-12
444 1812 -1.01564e-12
445 1812 -1.71489e-15
446 1812 -1.03701e-12
447 1812 -1.01564e-12
448 1812 5.28013e-23
449 1812 -1.01564e-12
450 1812 -4.22673e-13
451 1812 -2.6537e-13
452 1812 -1.01564e-12
453 1812 1.50861e-22
454 1812 -0.000679777
457 1812 -0.0018539
458 1812 -0.000836837
459 1812 -1.01564e-12
460 1812 -0.000679777
461 1812 -0.000339639
462 1812 -0.000638615
463 1812 -0.000844528
464 1812 -1.28259e-12
465 1812 -4.04169e-12
466 1812 -1.2999e-12
467 1812 -1.20898e-12
468 1812 -0.000351093
471 1812 -0.000844528
473 1812 -3.1284e-12
474 1812 -2.06446e-12
475 1812 -1.981e-12
477 1812 -2.06446e-12
478 1812 -3.1284e-12
479 1812 -1.981e-12
480 1812 -1.02742e-12
481 1812 -1.98782e-12
482 1812 -0.000351093
483 1812 -1.28826e-12
484 1812 -1.15699e-12
485 1812 -0.000844528
486 1812 -4.07822e-12
487 1812 -0.000844528
488 1812 -1.01564e-12
489 1812 -1.01564e-12
490 1812 -0.000351093
491 1812 -1.00473e-12
492 1812 -1.01564e-12
493 1812 -8.31717e-12
494 1812 -1.00401e-12
495 1812 -0.000351093
496 1812 -2.04033e-12
497 1812 -4.0028e-10
499 1812 -1.01564e-12
500 1812 -0.000679777
501 1812 -2.03329e-12
502 1812 -0.000638615
503 1812 -0.000844528
504 1812 -0.000422014
505 1812 -2.04202e-12
506 1812 -0.000351093
507 1812 -6.54718e-13
508 1812 -0.000351093
509 1812 -1.00486e-12
510 1812 -0.000351093
511 1812 -4.08596e-10
512 1812 -1.0044e-12
513 1812 -1.01564e-12
514 1812 -0.000844528
515 1812 -8.41521e-12
517 1812 -2.02263e-10
519 1812 0
520 1812 0
522 1812 -1.0187e-12
523 1812 -0.000433078
526 1812 -2.00067e-10
528 1812 -2.57513e-12
529 1812 -1.14841e-12
530 1812 -0.000679777
531 1812 -0.000679777
532 1812 -2.01564e-12
533 1812 -2e-12
534 1812 -4.01116e-12
535 1812 -2.01564e-12
536 1812 -2e-12
537 1812 -5.07215e-12
538 1812 -0.000638615
539 1812 -1.01203e-12
540 1812 -0.000663972
541 1812 -0.000629737
542 1812 -8.29557e-10
544 1812 -1.0187e-12
545 1812 -1.0187e-12
546 1812 -3.58029e-11
547 1812 3.2777e-11
548 1812 -0.0107435
549 1812 -1.22644e-12
550 1812 -0.000679777
551 1812 -4.03115e-12
552 1812 -1.01564e-12
553 1812 -0.000638615
554 1812 -1.01203e-12
555 1812 -2.0318e-10
556 1812 -0.000433078
557 1812 -6.15912e-13
558 1812 -0.000844527
559 1812 -2.03085e-10
560 1812 -0.000228782
561 1812 -2.00067e-10
562 1812 -3.99729e-10
564 1812 -0.0107435
565 1812 -1.26579e-12
566 1812 -2.02929e-12
567 1812 -4.02874e-12
568 1812 -0.000351093
569 1812 -0.000231294
570 1812 -3.07605e-12
571 1812 -0.000418156
572 1812 -0.000383921
573 1812 -1.12897e-12
574 1812 -0.000351093
575 1812 -1.28098e-12
576 1812 -6.52714e-13
577 1812 -1.03701e-12
578 1812 0
579 1812 0
580 1812 -0.000269407
581 1812 -0.000993277
582 1812 -1.97564e-12
586 1812 -2.00069e-10
588 1812 -2.57513e-12
589 1812 -1.14841e-12
590 1812 -0.000679777
591 1812 -0.000679777
592 1812 -2.01564e-12
593 1812 -2e-12
594 1812 -4.01116e-12
595 1812 -2.01564e-12
596 1812 -2e-12
597 1812 -5.07215e-12
598 1812 -0.000638615
599 1812 -1.01203e-12
600 1812 -0.000663972
601 1812 -1.41664e-09
602 1812 -0.000629737
603 1812 -2.42786e-12
604 1812 -7.15041e-13
605 1812 -1.31452e-12
606 1812 -0.00105062
607 1812 -0.00105062
608 1812 -0.00105062
609 1812 -1.31512e-12
610 1812 -8.25647e-05
611 1812 -0.000467936
612 1812 -1.31449e-12
613 1812 -0.00066397
614 1812 -3.58029e-11
615 1812 3.2777e-11
617 1812 -3.17012e-12
618 1812 -1.9731e-12
621 1812 -2.06446e-12
622 1812 -3.1284e-12
623 1812 -1.981e-12
624 1812 -0.000351093
625 1812 -1.28826e-12
626 1812 -1.15699e-12
627 1812 -1.02742e-12
628 1812 -0.000844528
629 1812 -0.000844528
630 1812 -2.75898e-12
631 1812 -1.01564e-12
632 1812 -1.01564e-12
633 1812 -0.000351093
634 1812 -1.00473e-12
635 1812 -1.01564e-12
636 1812 -8.31717e-12
637 1812 -1.71489e-15
638 1812 -1.03701e-12
639 1812 -0.000351093
640 1812 -1.21106e-12
642 1812 -1.0187e-12
643 1812 -0.000433078
646 1812 -0.00105062
649 1812 -2.06446e-12
650 1812 -3.1284e-12
651 1812 -1.981e-12
652 1812 -0.000351093
653 1812 -1.28826e-12
654 1812 -1.15699e-12
655 1812 -1.02742e-12
656 1812 -0.000844528
657 1812 -1.22907e-12
658 1812 -0.000844528
659 1812 -4.04171e-12
660 1812 -1.01564e-12
661 1812 -1.01564e-12
662 1812 -0.000351093
663 1812 -1.00473e-12
664 1812 -1.01564e-12
665 1812 -8.31717e-12
666 1812 -1.71489e-15
667 1812 -0.000351093
668 1812 -1.40099e-12
669 1812 -1.21106e-12
670 1812 -1.27684e-12
671 1812 -1.92302e-12
674 1812 -3.1284e-12
675 1812 -2.06446e-12
676 1812 -1.981e-12
677 1812 -0.000351093
678 1812 -1.28826e-12
679 1812 -1.15699e-12
680 1812 -1.02742e-12
681 1812 -0.000844528
682 1812 -1.22907e-12
683 1812 -3.98761e-12
684 1812 -0.000844528
685 1812 -1.01564e-12
686 1812 -0.000351093
687 1812 -1.0001e-12
688 1812 -8.31717e-12
689 1812 -1.01564e-12
690 1812 -1.00473e-12
691 1812 -1.00401e-12
692 1812 -0.000351093
693 1812 -2.04033e-12
694 1812 -4.0028e-10
702 1812 -3.1284e-12
703 1812 -2.06446e-12
704 1812 -1.981e-12
705 1812 -0.000351093
706 1812 -1.28826e-12
707 1812 -1.15699e-12
708 1812 -1.02742e-12
709 1812 -0.000844528
710 1812 -1.22907e-12
711 1812 -0.000844528
712 1812 -4.04171e-12
713 1812 -1.01564e-12
714 1812 -1.01564e-12
715 1812 -0.000351093
716 1812 -1.00473e-12
717 1812 -1.01564e-12
718 1812 -8.31717e-12
719 1812 -1.71489e-15
720 1812 -1.03701e-12
721 1812 -0.000351093
722 1812 -1.21106e-12
724 1812 -0.000433078
725 1812 -1.0187e-12
727 1812 -0.000433078
728 1812 -1.0187e-12
729 1812 -2.57513e-12
730 1812 -1.14192e-12
731 1812 -0.000679777
732 1812 -0.000679777
733 1812 -1.01203e-12
734 1812 -2.01564e-12
735 1812 -2.01303e-12
737 1812 -2.01564e-12
738 1812 -3.07402e-12
739 1812 -0.000638615
740 1812 -1.96111e-12
741 1812 -3.41516e-12
746 1812 -0.000629738
747 1812 -0.000663973
749 1812 -1.0187e-12
750 1812 -0.000433078
752 1812 -1.03701e-12
753 1812 0
754 1812 0
755 1812 -0.000269407
756 1812 -2.57513e-12
757 1812 -1.15304e-12
758 1812 -0.000679777
759 1812 -2.07012e-12
760 1812 -1.01564e-12
761 1812 -0.000638615
762 1812 -1.01203e-12
763 1812 -1.01203e-12
764 1812 -2.01564e-12
765 1812 -2.01564e-12
766 1812 -2.57513e-12
767 1812 -1.14192e-12
768 1812 -0.000679777
769 1812 -0.000679777
770 1812 -2e-12
771 1812 -2e-12
772 1812 -0.000638615
776 1812 -0.000418157
777 1812 -0.000383921
778 1812 -3.08525e-12
779 1812 -2.55947e-12
780 1812 -7.15041e-13
781 1812 -7.15041e-13
787 1812 -2.57513e-12
788 1812 -1.14192e-12
789 1812 -0.000679777
790 1812 -0.000679777
791 1812 -1.01203e-12
792 1812 -2.01564e-12
793 1812 -2.01303e-12
795 1812 -2.01564e-12
796 1812 -3.07402e-12
797 1812 -0.000638615
798 1812 -1.96111e-12
799 1812 -3.41516e-12
800 1812 -0.000663973
801 1812 -0.000629738
802 1812 -4.03349e-11
803 1812 -7.15041e-13
804 1812 -0.000844528
805 1812 -1.0187e-12
806 1812 -1.29726e-12
807 1812 -0.00105062
808 1812 -0.00105062
809 1812 -1.31449e-12
810 1812 -0.000467936
811 1812 -0.00105062
812 1812 -1.26433e-18
813 1812 -0.000663973
814 1812 -1.31449e-12
815 1812 -0.000993277
816 1812 -0.00107169
817 1812 -1.31449e-12
818 1812 -0.00107169
819 1812 -0.000993277
821 1812 -3.58029e-11
822 1812 -1.03701e-12
823 1812 3.2777e-11
824 1812 0
827 1812 -2.06446e-12
828 1812 -3.1284e-12
829 1812 -1.981e-12
830 1812 -0.000351093
831 1812 -1.28826e-12
832 1812 -1.15699e-12
833 1812 -1.02742e-12
834 1812 -0.000844528
835 1812 -1.22907e-12
836 1812 -3.98761e-12
837 1812 -0.000844528
838 1812 -1.01564e-12
839 1812 -0.000351093
840 1812 -1.0001e-12
841 1812 -1.00473e-12
842 1812 -1.01564e-12
843 1812 -8.31717e-12
844 1812 -1.71489e-15
845 1812 -1.03701e-12
846 1812 -0.000351093
847 1812 -1.21106e-12
853 1812 -3.1284e-12
854 1812 -2.06446e-12
855 1812 -1.981e-12
856 1812 -0.000351093
857 1812 -1.28826e-12
858 1812 -1.15699e-12
859 1812 -1.02742e-12
860 1812 -0.000844528
861 1812 -1.22907e-12
862 1812 -0.000844528
863 1812 -4.04171e-12
864 1812 -1.01564e-12
865 1812 -1.01564e-12
866 1812 -0.000351093
867 1812 -1.00473e-12
868 1812 -1.01564e-12
869 1812 -8.31717e-12
870 1812 -1.71489e-15
871 1812 -1.03701e-12
872 1812 -0.000351093
873 1812 -1.21106e-12
874 1812 -0.000351093
875 1812 -1.28826e-12
878 1812 -2.06446e-12
879 1812 -3.1284e-12
880 1812 -1.981e-12
881 1812 -1.02742e-12
882 1812 -0.000844528
883 1812 -1.60777e-12
884 1812 -0.000844528
885 1812 -4.05993e-12
886 1812 -1.01564e-12
887 1812 -1.01564e-12
888 1812 -0.000351093
889 1812 -1.00473e-12
890 1812 -1.01564e-12
891 1812 -8.31717e-12
892 1812 -1.71489e-15
893 1812 -1.03701e-12
894 1812 -0.000351093
895 1812 -1.21106e-12
898 1812 -2.06446e-12
899 1812 -3.1284e-12
900 1812 -1.981e-12
901 1812 -0.000351093
902 1812 -1.28826e-12
903 1812 -1.15699e-12
904 1812 -1.02742e-12
905 1812 -0.000844528
906 1812 -1.22907e-12
907 1812 -0.000844528
908 1812 -4.04171e-12
909 1812 -1.01564e-12
910 1812 -1.01564e-12
911 1812 -0.000351093
912 1812 -8.31717e-12
913 1812 -1.01564e-12
914 1812 -1.00473e-12
915 1812 -1.71489e-15
916 1812 -0.000351093
917 1812 -1.40099e-12
918 1812 -1.21106e-12
920 1812 -0.000433078
921 1812 -1.0187e-12
926 1812 -1.29726e-12
927 1812 -0.00105062
928 1812 -5.66324e-20
930 1812 -1.0187e-12
931 1812 -0.000433078
933 1812 -0.000433078
934 1812 -1.0187e-12
935 1812 -1.53878e-12
936 1812 -1.15304e-12
937 1812 -0.000679777
938 1812 -2.07012e-12
939 1812 -1.01564e-12
940 1812 -0.000638615
941 1812 -1.01203e-12
943 1812 -0.000433078
944 1812 -1.0187e-12
946 1812 -7.15041e-13
947 1812 -1.01203e-12
948 1812 -2.01564e-12
949 1812 -2.01564e-12
950 1812 -1.53878e-12
951 1812 -1.14192e-12
952 1812 -0.000679777
953 1812 -0.000679777
954 1812 -2e-12
955 1812 -2e-12
956 1812 -0.000638615
960 1812 -0.000418157
961 1812 -0.000383921
962 1812 -3.08525e-12
963 1812 -2.55947e-12
964 1812 -7.15041e-13
965 1812 -1.53878e-12
966 1812 -1.14192e-12
967 1812 -0.000679777
968 1812 -0.000679777
969 1812 -1.01203e-12
970 1812 -2.01564e-12
971 1812 -2.01303e-12
973 1812 -2.01564e-12
974 1812 -3.07402e-12
975 1812 -0.000638615
976 1812 -1.96111e-12
977 1812 -3.41516e-12
982 1812 -0.000629738
983 1812 -0.000663973
989 1812 -1.53878e-12
990 1812 -1.14192e-12
991 1812 -0.000679777
992 1812 -0.000679777
993 1812 -1.01203e-12
994 1812 -2.01564e-12
995 1812 -2.01303e-12
997 1812 -2.01564e-12
998 1812 -3.07402e-12
999 1812 -0.000638615
1000 1812 -1.96111e-12
1001 1812 -3.41516e-12
1002 1812 -0.000663973
1003 1812 -0.000629738
1004 1812 -4.03349e-11
1005 1812 -0.00125681
1006 1812 -1.02205e-12
1007 1812 -1.29726e-12
1008 1812 -0.00105062
1009 1812 -0.00105062
1010 1812 -1.27684e-12
1011 1812 -0.00105062
1012 1812 -0.000467936
1013 1812 -0.000467936
1014 1812 -0.000269407
1015 1812 -1.31449e-12
1016 1812 -0.000993277
1017 1812 -0.000778487
1018 1812 -0.00107169
1019 1812 -0.000422014
1020 1812 -6.38724e-13
1021 1812 -1.27737e-12
1022 1812 1.06043e-12
1025 1812 -2.06446e-12
1026 1812 -3.1284e-12
1027 1812 -1.981e-12
1028 1812 -0.000351093
1029 1812 -1.28826e-12
1030 1812 -1.15699e-12
1031 1812 -1.02742e-12
1032 1812 -0.000844528
1033 1812 -0.000844528
1034 1812 -3.84038e-12
1035 1812 -1.01564e-12
1036 1812 -1.01564e-12
1037 1812 -0.000351093
1038 1812 -8.31717e-12
1039 1812 -1.01564e-12
1040 1812 -1.00473e-12
1041 1812 -1.71489e-15
1042 1812 -1.03701e-12
1043 1812 -0.000351093
1044 1812 -1.21106e-12
1045 1812 -3.84142e-12
1047 1812 -1.0187e-12
1048 1812 -0.000433078
1049 1812 -0.00125681
1051 1812 -1.53878e-12
1052 1812 -0.00100939
1053 1812 -0.000504445
1055 1812 -0.00100939
1056 1812 -0.000504445
1057 1812 -0.000289199
1058 1812 -1.01203e-12
1059 1812 -2.01564e-12
1060 1812 -2.01303e-12
1062 1812 -2.01564e-12
1063 1812 -3.07402e-12
1064 1812 -0.000638615
1069 1812 -0.000629738
1070 1812 -0.000663973
1071 1812 -2.27071e-12
1072 1812 -1.55688e-12
1074 1812 -1.01303e-12
1075 1812 -0.00100939
1077 1812 -1.53878e-12
1078 1812 -0.00125681
1079 1812 -2.04783e-12
1080 1812 -0.000504445
1081 1812 -0.000289199
1082 1812 -0.00125681
1086 1812 -0.000433078
1087 1812 -1.0187e-12
1088 1812 -1.01203e-12
1090 1812 -7.15041e-13
1091 1812 -0.000269407
1095 1812 -0.000418157
1096 1812 -0.000383921
1097 1812 -1.53878e-12
1098 1812 -0.00125681
1099 1812 -1.75595e-12
1101 1812 -2.01564e-12
1102 1812 -2e-12
1103 1812 -0.00100939
1104 1812 -1.01203e-12
1106 1812 -2.01564e-12
1107 1812 -2e-12
1108 1812 -0.00100939
1109 1812 -0.000638615
1110 1812 -0.000504445
1111 1812 -0.000504445
1112 1812 -2.55947e-12
1113 1812 -3.08525e-12
1114 1812 -0.000638615
1115 1812 -7.15041e-13
1117 1812 -1.0187e-12
1118 1812 -0.000433078
1120 1812 -1.53878e-12
1121 1812 -0.00100939
1122 1812 -0.000504445
1123 1812 -0.00125681
1125 1812 -0.00100939
1126 1812 -0.000504445
1127 1812 -0.000289199
1133 1812 -2.01564e-12
1134 1812 -2.01303e-12
1135 1812 -1.01203e-12
1137 1812 -2.01564e-12
1138 1812 -3.07402e-12
1139 1812 -0.000638615
1140 1812 -0.000663973
1141 1812 -0.000629738
1142 1812 -4.03349e-11
1143 1812 -2.27071e-12
1144 1812 -1.55688e-12
1145 1812 -7.15041e-13
1146 1812 -6.38724e-13
1147 1812 -1.27737e-12
1150 1812 -2.06446e-12
1151 1812 -3.1284e-12
1152 1812 -1.981e-12
1153 1812 1.06043e-12
1154 1812 -0.000351093
1155 1812 -1.28826e-12
1156 1812 -1.15699e-12
1157 1812 -1.02742e-12
1158 1812 -0.000844528
1159 1812 -0.000844528
1160 1812 -3.84038e-12
1161 1812 -1.01564e-12
1162 1812 -1.01564e-12
1163 1812 -0.000351093
1164 1812 -1.00473e-12
1165 1812 -1.01564e-12
1166 1812 -8.31717e-12
1167 1812 -1.71489e-15
1168 1812 -1.03701e-12
1169 1812 -0.000351093
1170 1812 -1.21106e-12
1171 1812 -3.84142e-12
1172 1812 -6.38724e-13
1173 1812 -1.27737e-12
1176 1812 -2.06446e-12
1177 1812 -3.1284e-12
1178 1812 -1.981e-12
1179 1812 1.06043e-12
1180 1812 -0.000351093
1181 1812 -1.28826e-12
1182 1812 -1.15699e-12
1183 1812 -1.02742e-12
1184 1812 -0.000844528
1185 1812 -3.84038e-12
1186 1812 -0.000844528
1187 1812 -0.000351093
1188 1812 -1.01564e-12
1189 1812 -1.0001e-12
1190 1812 -8.31717e-12
1191 1812 -1.01564e-12
1192 1812 -1.00473e-12
1193 1812 -1.71489e-15
1194 1812 -0.000351093
1195 1812 -1.40099e-12
1196 1812 -1.21106e-12
1197 1812 -3.84142e-12
1199 1812 -0.000433078
1200 1812 -1.0187e-12
1201 1812 -6.38724e-13
1202 1812 -1.27737e-12
1203 1812 1.06043e-12
1206 1812 -2.06446e-12
1207 1812 -3.1284e-12
1208 1812 -1.981e-12
1209 1812 -0.000351093
1210 1812 -1.28826e-12
1211 1812 -1.15699e-12
1212 1812 -1.02742e-12
1213 1812 -0.000844528
1214 1812 -0.000844528
1215 1812 -3.84038e-12
1216 1812 -1.01564e-12
1217 1812 -1.01564e-12
1218 1812 -0.000351093
1219 1812 -8.31717e-12
1220 1812 -1.01564e-12
1221 1812 -1.00473e-12
1222 1812 -1.71489e-15
1223 1812 -0.000351093
1224 1812 -1.40099e-12
1225 1812 -1.21106e-12
1226 1812 -3.84142e-12
1228 1812 -3.17012e-12
1229 1812 -1.9731e-12
1238 1812 -0.000778487
1239 1812 -1.93066e-12
1240 1812 -0.00105062
1241 1812 -0.00105062
1242 1812 -1.94789e-12
1243 1812 -1.93066e-12
1244 1812 -0.00105062
1245 1812 -7.15041e-13
1246 1812 -0.00105062
1247 1812 -0.00107169
1248 1812 -1.94789e-12
1249 1812 -0.000993277
1251 1812 -0.000433078
1252 1812 -1.0187e-12
1253 1812 -1.03701e-12
1254 1812 0
1255 1812 0
1257 1812 -1.0187e-12
1258 1812 -0.000433078
1259 1812 -1.01203e-12
1261 1812 -7.15041e-13
1262 1812 -0.000269407
1264 1812 -0.000188452
1265 1812 -2.01564e-12
1266 1812 -5.28946e-13
1267 1812 -2.17543e-12
1268 1812 -0.00100939
1269 1812 -1.01203e-12
1271 1812 -0.00100939
1272 1812 -0.000351093
1273 1812 -0.000175297
1274 1812 -2.01564e-12
1275 1812 -5.33723e-13
1276 1812 -2.17702e-12
1277 1812 -0.000638615
1278 1812 -1.32185e-12
1279 1812 -0.00125681
1280 1812 -1.75595e-12
1281 1812 -0.000504445
1282 1812 -0.000504445
1286 1812 -0.000663973
1287 1812 -0.000269407
1289 1812 -2.01564e-12
1290 1812 -2e-12
1291 1812 -0.00100939
1293 1812 -2.01564e-12
1294 1812 -2.01303e-12
1295 1812 -2.55877e-12
1296 1812 -0.00100939
1297 1812 -1.32185e-12
1298 1812 -0.00125681
1299 1812 -1.75595e-12
1300 1812 -0.000504445
1301 1812 -0.000504445
1302 1812 -0.000629738
1303 1812 -3.08023e-12
1308 1812 -2.01564e-12
1309 1812 -2.01303e-12
1310 1812 -1.01203e-12
1312 1812 -2.01564e-12
1313 1812 -3.07402e-12
1314 1812 -0.000638615
1315 1812 -0.000663973
1316 1812 -0.00125681
1318 1812 -1.32185e-12
1319 1812 -0.00100939
1320 1812 -0.000504445
1322 1812 -0.00100939
1323 1812 -0.000504445
1324 1812 -0.000289199
1325 1812 -2.84274e-12
1326 1812 -1.96111e-12
1327 1812 -0.000629738
1328 1812 -0.000269407
1329 1812 -7.15041e-13
1330 1812 -0.000638615
1331 1812 -2.01564e-12
1332 1812 -2.01303e-12
1333 1812 -1.01203e-12
1335 1812 -2.01564e-12
1336 1812 -3.07402e-12
1337 1812 -0.000638615
1338 1812 -0.000663973
1339 1812 -0.00125681
1341 1812 -1.32185e-12
1342 1812 -0.00100939
1343 1812 -0.000504445
1345 1812 -0.00100939
1346 1812 -0.000504445
1347 1812 -0.000289199
1348 1812 -2.84274e-12
1349 1812 -1.96111e-12
1357 1812 -0.000433078
1358 1812 -1.0187e-12
1359 1812 -6.38724e-13
1360 1812 -1.27737e-12
1361 1812 1.06043e-12
1364 1812 -3.1284e-12
1365 1812 -2.06446e-12
1366 1812 -1.981e-12
1367 1812 -0.000351093
1368 1812 -1.28826e-12
1369 1812 -1.15699e-12
1370 1812 -1.02742e-12
1371 1812 -0.000844528
1372 1812 -0.000844528
1373 1812 -3.84038e-12
1374 1812 -1.01564e-12
1375 1812 -1.01564e-12
1376 1812 -0.000351093
1377 1812 -1.00473e-12
1378 1812 -1.01564e-12
1379 1812 -8.31717e-12
1380 1812 -1.71489e-15
1381 1812 -1.03701e-12
1382 1812 -0.000351093
1383 1812 -1.21106e-12
1384 1812 -3.84142e-12
1386 1812 -1.0187e-12
1387 1812 -0.000433078
1388 1812 -6.38724e-13
1389 1812 -1.27737e-12
1390 1812 1.06043e-12
1393 1812 -2.06446e-12
1394 1812 -3.1284e-12
1395 1812 -1.981e-12
1396 1812 -0.000351093
1397 1812 -1.28826e-12
1398 1812 -1.15699e-12
1399 1812 -1.02742e-12
1400 1812 -0.000844528
1401 1812 -0.000844528
1402 1812 -3.84038e-12
1403 1812 -1.01564e-12
1404 1812 -1.01564e-12
1405 1812 -0.000351093
1406 1812 -8.31717e-12
1407 1812 -1.01564e-12
1408 1812 -1.00473e-12
1409 1812 -1.71489e-15
1410 1812 -0.000351093
1411 1812 -1.40099e-12
1412 1812 -1.21106e-12
1413 1812 -3.84142e-12
1414 1812 -6.38724e-13
1415 1812 -1.27737e-12
1416 1812 1.06043e-12
1419 1812 -2.06446e-12
1420 1812 -3.1284e-12
1421 1812 -1.981e-12
1422 1812 -0.000351093
1423 1812 -1.28826e-12
1424 1812 -1.15699e-12
1425 1812 -1.02742e-12
1426 1812 -0.000844528
1427 1812 -0.000844528
1428 1812 -3.84038e-12
1429 1812 -1.01564e-12
1430 1812 -1.01564e-12
1431 1812 -0.000351093
1432 1812 -1.00473e-12
1433 1812 -1.01564e-12
1434 1812 -8.31717e-12
1435 1812 -1.71489e-15
1436 1812 -1.03701e-12
1437 1812 -0.000351093
1438 1812 -1.21106e-12
1439 1812 -3.84142e-12
1440 1812 -6.38724e-13
1441 1812 -1.27737e-12
1442 1812 1.06043e-12
1445 1812 -3.1284e-12
1446 1812 -2.06446e-12
1447 1812 -1.981e-12
1448 1812 -0.000351093
1449 1812 -1.28826e-12
1450 1812 -1.15699e-12
1451 1812 -1.02742e-12
1452 1812 -0.000844528
1453 1812 -0.000844528
1454 1812 -3.84038e-12
1455 1812 -1.01564e-12
1456 1812 -1.01564e-12
1457 1812 -0.000351093
1458 1812 -1.00473e-12
1459 1812 -1.01564e-12
1460 1812 -8.31717e-12
1461 1812 -1.71489e-15
1462 1812 -0.000351093
1463 1812 -1.40099e-12
1464 1812 -1.21106e-12
1465 1812 -3.84142e-12
1467 1812 -3.17013e-12
1468 1812 -1.9731e-12
1477 1812 -0.000663973
1478 1812 -1.93066e-12
1479 1812 -0.00105062
1480 1812 -0.00105062
1481 1812 -1.91024e-12
1482 1812 -0.000269407
1483 1812 -0.000467936
1484 1812 -1.93066e-12
1485 1812 -0.00105062
1486 1812 -0.000629738
1487 1812 -0.00105062
1488 1812 -0.000467936
1489 1812 -6.58543e-13
1490 1812 -1.94789e-12
1491 1812 -6.58438e-13
1492 1812 -0.00104519
1493 1812 -6.57808e-13
1494 1812 -0.000993277
1495 1812 -3.58029e-11
1496 1812 3.2777e-11
1498 1812 -3.17012e-12
1499 1812 -1.9731e-12
1500 1812 -3.58029e-11
1501 1812 3.2777e-11
1503 1812 -3.17012e-12
1504 1812 -1.9731e-12
1505 1812 -0.00107169
1506 1812 -0.00107169
1507 1812 -1.03701e-12
1508 1812 -5.06093e-23
1509 1812 -2.16765e-29
1511 1812 -1.0187e-12
1512 1812 -0.000433078
1513 1812 -1.01203e-12
1515 1812 -7.15041e-13
1516 1812 -0.000269407
1517 1812 -0.000993277
1519 1812 -0.00100939
1520 1812 -2.01564e-12
1521 1812 -2.01303e-12
1522 1812 -0.000351093
1523 1812 -0.000175297
1524 1812 -2.17702e-12
1526 1812 -0.000188452
1527 1812 -2.01564e-12
1528 1812 -5.28946e-13
1529 1812 -2.17543e-12
1530 1812 -0.00100939
1531 1812 -1.32185e-12
1532 1812 -0.00125681
1533 1812 -1.75593e-12
1534 1812 -0.000504445
1535 1812 -0.000504445
1536 1812 -0.00125681
1538 1812 -1.32185e-12
1539 1812 -0.00100939
1540 1812 -0.000504445
1542 1812 -0.00100939
1543 1812 -0.000504445
1544 1812 -0.000289199
1547 1812 -1.01203e-12
1548 1812 -2.01564e-12
1549 1812 -2.01303e-12
1551 1812 -2.01564e-12
1552 1812 -3.07402e-12
1553 1812 -0.000638615
1554 1812 -0.000663973
1555 1812 -0.000629738
1556 1812 -0.000269407
1557 1812 -2.27071e-12
1558 1812 -1.55688e-12
1559 1812 -0.000638615
1560 1812 -6.38724e-13
1561 1812 -1.27737e-12
1562 1812 1.06043e-12
1565 1812 -2.06446e-12
1566 1812 -3.1284e-12
1567 1812 -1.981e-12
1568 1812 -0.000351093
1569 1812 -1.28826e-12
1570 1812 -1.15699e-12
1571 1812 -1.02742e-12
1572 1812 -0.000844528
1573 1812 -0.000844528
1574 1812 -3.84038e-12
1575 1812 -1.01564e-12
1576 1812 -1.01564e-12
1577 1812 -0.000351093
1578 1812 -1.00473e-12
1579 1812 -1.01564e-12
1580 1812 -8.31717e-12
1581 1812 -1.71489e-15
1582 1812 -1.03701e-12
1583 1812 -0.000351093
1584 1812 -1.21106e-12
1585 1812 -3.84142e-12
1586 1812 -6.38724e-13
1587 1812 -1.27737e-12
1590 1812 -2.06446e-12
1591 1812 -3.1284e-12
1592 1812 -1.981e-12
1593 1812 1.06043e-12
1594 1812 -0.000351093
1595 1812 -1.28826e-12
1596 1812 -1.15699e-12
1597 1812 -1.02742e-12
1598 1812 -0.000844528
1599 1812 -0.000844528
1600 1812 -3.84038e-12
1601 1812 -1.01564e-12
1602 1812 -1.01564e-12
1603 1812 -0.000351093
1604 1812 -8.31717e-12
1605 1812 -1.01564e-12
1606 1812 -1.00473e-12
1607 1812 -1.71489e-15
1608 1812 -0.000351093
1609 1812 -1.40099e-12
1610 1812 -1.21106e-12
1611 1812 -3.84142e-12
1613 1812 -0.000433078
1614 1812 -1.0187e-12
1615 1812 -6.38724e-13
1616 1812 -1.27737e-12
1617 1812 1.06043e-12
1620 1812 -2.06446e-12
1621 1812 -3.1284e-12
1622 1812 -1.981e-12
1623 1812 -0.000351093
1624 1812 -1.28826e-12
1625 1812 -1.15699e-12
1626 1812 -1.02742e-12
1627 1812 -0.000844528
1628 1812 -3.84038e-12
1629 1812 -0.000844528
1630 1812 -1.01564e-12
1631 1812 -0.000351093
1632 1812 -1.0001e-12
1633 1812 -1.00473e-12
1634 1812 -1.01564e-12
1635 1812 -8.31717e-12
1636 1812 -1.71489e-15
1637 1812 -1.03701e-12
1638 1812 -0.000351093
1639 1812 -1.21106e-12
1640 1812 -3.84142e-12
1641 1812 -6.38724e-13
1642 1812 -1.27737e-12
1645 1812 -2.06446e-12
1646 1812 -3.1284e-12
1647 1812 -1.981e-12
1648 1812 1.06043e-12
1649 1812 -0.000351093
1650 1812 -1.28826e-12
1651 1812 -1.15699e-12
1652 1812 -1.02742e-12
1653 1812 -0.000844528
1654 1812 -3.84038e-12
1655 1812 -0.000844528
1656 1812 -1.01564e-12
1657 1812 -0.000351093
1658 1812 -1.0001e-12
1659 1812 -1.00473e-12
1660 1812 -1.01564e-12
1661 1812 -8.31717e-12
1662 1812 -1.71489e-15
1663 1812 -0.000351093
1664 1812 -1.40099e-12
1665 1812 -1.21106e-12
1666 1812 -3.84142e-12
1675 1812 -1.93066e-12
1676 1812 -0.00105062
1678 1812 -1.32185e-12
1679 1812 -0.00100939
1680 1812 -0.000504445
1681 1812 -0.00125681
1683 1812 -0.00100939
1684 1812 -0.000504445
1685 1812 -0.000289199
1691 1812 -1.01203e-12
1692 1812 -2.01564e-12
1693 1812 -2.01303e-12
1695 1812 -2.01564e-12
1696 1812 -3.07402e-12
1697 1812 -0.000638615
1698 1812 -0.000663973
1699 1812 -0.000629738
1700 1812 -4.03349e-11
1701 1812 -2.27071e-12
1702 1812 -1.55688e-12
1704 1812 -1.0187e-12
1705 1812 -0.000433078
1707 1812 -1.0187e-12
1708 1812 -0.000433078
1709 1812 -1.01203e-12
1711 1812 -1.01303e-12
1712 1812 -0.00100939
1714 1812 -1.32185e-12
1715 1812 -0.00125681
1716 1812 -2.04783e-12
1717 1812 -0.000504445
1718 1812 -0.000289199
1719 1812 -0.00125681
1720 1812 -0.000638615
1724 1812 -1.0187e-12
1725 1812 -0.000433078
1726 1812 -1.01203e-12
1728 1812 -7.15041e-13
1729 1812 -0.000269407
1733 1812 -0.000418157
1734 1812 -0.000383921
1736 1812 -2.01564e-12
1737 1812 -2e-12
1738 1812 -0.00100939
1740 1812 -2.01564e-12
1741 1812 -2e-12
1742 1812 -0.00100939
1743 1812 -1.32185e-12
1744 1812 -0.00125681
1745 1812 -1.75594e-12
1746 1812 -0.000504445
1747 1812 -0.000504445
1748 1812 -2.55633e-12
1749 1812 -3.08212e-12
1751 1812 -1.32185e-12
1752 1812 -0.00100939
1753 1812 -0.000504445
1754 1812 -0.00125681
1756 1812 -0.00100939
1757 1812 -0.000504445
1758 1812 -0.000289199
1759 1812 -1.01203e-12
1760 1812 -2.01564e-12
1761 1812 -2.01303e-12
1763 1812 -2.01564e-12
1764 1812 -3.07402e-12
1765 1812 -0.000638615
1770 1812 -0.000629738
1771 1812 -0.000663973
1772 1812 -2.27071e-12
1773 1812 -1.55688e-12
1774 1812 -7.15041e-13
1775 1812 -0.000638615
1776 1812 -7.15041e-13
1777 1812 -1.93066e-12
1778 1812 -0.000467936
1779 1812 -0.00105062
1780 1812 -0.00105062
1781 1812 -1.94789e-12
1782 1812 -0.00105062
1783 1812 -0.000778487
1784 1812 -0.000993277
1786 1812 -1.94789e-12
1790 1812 -0.000269407
1791 1812 -6.58438e-13
1792 1812 -7.15041e-13
1793 1812 -6.58543e-13
1794 1812 -0.00105062
1795 1812 -1.93066e-12
1796 1812 -1.34842e-12
1797 1812 -0.000663973
1798 1812 -0.00105062
1799 1812 -0.000629738
1800 1812 -0.00107169
1801 1812 -1.94789e-12
1802 1812 -1.31415e-12
1803 1812 -0.00454517
1804 1812 -2.8121e-12
1805 1812 -1.50083e-11
1806 1812 1.16017e-08
1807 1812 -0.000467936
1808 1812 -6.54282e-13
1812 1812 1
1813 1812 0.000562459
1813 1813 1
