%MatrixMarket matrix coordinate real general
1157 1157 3699
1 1 9.6980518331573409e-03
2 2 9.6980518331573409e-03
3 3 1.0000000000000000e+00
3 4 1.0000000000000000e+00
4 4 -1.0000000000000000e+00
5 5 1.0000000000000000e+00
5 6 1.0000000000000000e+00
6 6 -1.0000000000000000e+00
7 7 1.0000000000000000e+00
7 8 1.0000000000000000e+00
8 8 -1.0000000000000000e+00
9 9 1.0000000000000000e+00
9 10 1.0000000000000000e+00
10 10 -1.0000000000000000e+00
11 11 1.0000000000000000e+00
12 12 1.0000000000000000e+00
13 13 1.0000000000000000e+00
14 14 1.0000000000000000e+00
15 15 1.0485079120458469e-02
16 15 -1.0000000000000000e+00
18 15 -1.0485078120458470e-02
14 16 1.0000009999999999e-03
16 16 1.0000000000000000e+00
13 17 1.0000009999999999e-03
17 17 1.0000000000000000e+00
15 18 -1.0485078120458470e-02
16 18 1.0000000000000000e+00
17 18 -1.0000000000000000e+00
18 18 1.2051649592657490e-02
21 18 -1.5665704721990210e-03
19 19 1.0485079120458469e-02
20 19 1.0000000000000000e+00
21 19 -1.0485078120458470e-02
12 20 1.0000009999999999e-03
20 20 1.0000000000000000e+00
17 21 1.0000000000000000e+00
18 21 -1.5665704721990210e-03
19 21 -1.0485078120458470e-02
20 21 -1.0000000000000000e+00
21 21 1.2051649592657490e-02
22 22 1.0000000000000000e+00
23 23 1.0000000000000000e+00
24 24 1.0000000000000000e+00
25 25 1.0000000000000000e+00
26 26 1.0485079120458469e-02
27 26 -1.0000000000000000e+00
29 26 -1.0485078120458470e-02
25 27 1.0000009999999999e-03
27 27 1.0000000000000000e+00
24 28 1.0000009999999999e-03
28 28 1.0000000000000000e+00
26 29 -1.0485078120458470e-02
27 29 1.0000000000000000e+00
28 29 -1.0000000000000000e+00
29 29 1.2051649592657490e-02
32 29 -1.5665704721990210e-03
30 30 1.0485079120458469e-02
31 30 1.0000000000000000e+00
32 30 -1.0485078120458470e-02
23 31 1.0000009999999999e-03
31 31 1.0000000000000000e+00
28 32 1.0000000000000000e+00
29 32 -1.5665704721990210e-03
30 32 -1.0485078120458470e-02
31 32 -1.0000000000000000e+00
32 32 1.2051649592657490e-02
33 33 1.0000000000000000e+00
34 34 1.0000000000000000e+00
35 35 1.0000000000000000e+00
36 36 1.0000000000000000e+00
37 37 1.0485079120458469e-02
38 37 -1.0000000000000000e+00
40 37 -1.0485078120458470e-02
36 38 1.0000009999999999e-03
38 38 1.0000000000000000e+00
35 39 1.0000009999999999e-03
39 39 1.0000000000000000e+00
37 40 -1.0485078120458470e-02
38 40 1.0000000000000000e+00
39 40 -1.0000000000000000e+00
40 40 1.2051649592657490e-02
43 40 -1.5665704721990210e-03
41 41 1.0485079120458469e-02
42 41 1.0000000000000000e+00
43 41 -1.0485078120458470e-02
34 42 1.0000009999999999e-03
42 42 1.0000000000000000e+00
39 43 1.0000000000000000e+00
40 43 -1.5665704721990210e-03
41 43 -1.0485078120458470e-02
42 43 -1.0000000000000000e+00
43 43 1.2051649592657490e-02
44 44 1.0000000000000000e+00
45 45 1.0000000000000000e+00
46 46 1.0000000000000000e+00
47 47 1.0000000000000000e+00
48 48 1.0485079120458469e-02
49 48 -1.0000000000000000e+00
51 48 -1.0485078120458470e-02
47 49 1.0000009999999999e-03
49 49 1.0000000000000000e+00
46 50 1.0000009999999999e-03
50 50 1.0000000000000000e+00
48 51 -1.0485078120458470e-02
49 51 1.0000000000000000e+00
50 51 -1.0000000000000000e+00
51 51 1.1622315352036739e-02
54 51 -1.1372362315782700e-03
52 52 1.0485079120458469e-02
53 52 1.0000000000000000e+00
54 52 -1.0485078120458470e-02
45 53 1.0000009999999999e-03
53 53 1.0000000000000000e+00
50 54 1.0000000000000000e+00
51 54 -1.1372362315782700e-03
52 54 -1.0485078120458470e-02
53 54 -1.0000000000000000e+00
54 54 1.1622315352036739e-02
55 55 1.0000000000000000e+00
56 56 1.0000000000000000e+00
57 57 1.0000000000000000e+00
58 58 1.0000000000000000e+00
59 59 1.0000000000000000e+00
60 60 1.0485079120458469e-02
61 60 -1.0000000000000000e+00
63 60 -1.0485078120458470e-02
59 61 1.0000009999999999e-03
61 61 1.0000000000000000e+00
58 62 1.0000009999999999e-03
62 62 1.0000000000000000e+00
60 63 -1.0485078120458470e-02
61 63 1.0000000000000000e+00
62 63 -1.0000000000000000e+00
63 63 1.2051649592657490e-02
66 63 -1.5665704721990210e-03
64 64 1.0485079120458469e-02
65 64 1.0000000000000000e+00
66 64 -1.0485078120458470e-02
57 65 1.0000009999999999e-03
65 65 1.0000000000000000e+00
62 66 1.0000000000000000e+00
63 66 -1.5665704721990210e-03
64 66 -1.0485078120458470e-02
65 66 -1.0000000000000000e+00
66 66 1.2051649592657490e-02
67 67 1.0000000000000000e+00
68 68 1.0000000000000000e+00
69 69 1.0000000000000000e+00
69 70 1.0000009999999999e-03
70 70 1.0000000000000000e+00
71 71 1.0000000000000000e+00
71 72 1.0000009999999999e-03
72 72 1.0000000000000000e+00
70 73 1.0000000000000000e+00
72 73 -1.0000000000000000e+00
73 73 5.5048230740720201e-03
76 73 -1.0103196086486440e-03
77 73 -4.4945024654233761e-03
74 74 1.0000000000000000e+00
74 75 1.0000009999999999e-03
75 75 1.0000000000000000e+00
70 76 -1.0000000000000000e+00
73 76 -1.0103196086486440e-03
75 76 1.0000000000000000e+00
76 76 5.5048230740720201e-03
1067 76 -4.4945024654233761e-03
72 77 1.0000000000000000e+00
73 77 -4.4945024654233761e-03
77 77 6.4945042853829507e-03
1056 77 -2.0000018199595750e-03
78 78 1.0000000000000000e+00
78 79 1.0000009999999999e-03
79 79 1.0000000000000000e+00
80 80 1.0000000000000000e+00
80 81 1.0000009999999999e-03
81 81 1.0000000000000000e+00
79 82 1.0000000000000000e+00
81 82 -1.0000000000000000e+00
82 82 5.5016774321808059e-03
85 82 -1.0071739667574301e-03
86 82 -4.4945024654233761e-03
83 83 1.0000000000000000e+00
83 84 1.0000009999999999e-03
84 84 1.0000000000000000e+00
81 85 1.0000000000000000e+00
82 85 -1.0071739667574301e-03
84 85 -1.0000000000000000e+00
85 85 5.5016774321808059e-03
1067 85 -4.4945024654233761e-03
79 86 -1.0000000000000000e+00
82 86 -4.4945024654233761e-03
86 86 6.4945026707635559e-03
1057 86 -2.0000002053401798e-03
87 87 1.0000000000000000e+00
1053 87 -1.0000000000000000e+00
87 88 4.9460445594337816e-04
88 88 1.0000000000000000e+00
89 88 -4.9460445594337816e-04
87 89 -4.9460445594337816e-04
89 89 4.9460445594337816e-04
1064 89 -1.0000000000000000e+00
90 90 1.0000000000000000e+00
90 91 1.0000009999999999e-03
91 91 1.0000000000000000e+00
92 92 1.0000000000000000e+00
92 93 1.0000009999999999e-03
93 93 1.0000000000000000e+00
91 94 1.0000000000000000e+00
93 94 -1.0000000000000000e+00
94 94 5.5026736071722088e-03
97 94 -1.0081701417488319e-03
466 94 -4.4945024654233761e-03
95 95 1.0000000000000000e+00
95 96 1.0000009999999999e-03
96 96 1.0000000000000000e+00
93 97 1.0000000000000000e+00
94 97 -1.0081701417488319e-03
96 97 -1.0000000000000000e+00
97 97 5.5026736071722088e-03
107 97 -4.4945024654233761e-03
98 98 2.0096320396789782e+00
111 98 -2.0096320396789782e+00
99 99 1.0000000000000000e+00
99 100 1.0000009999999999e-03
100 100 1.0000000000000000e+00
101 101 1.0000000000000000e+00
101 102 1.0000009999999999e-03
102 102 1.0000000000000000e+00
100 103 1.0000000000000000e+00
102 103 -1.0000000000000000e+00
103 103 5.5109207606680120e-03
106 103 -1.0164172952446360e-03
107 103 -4.4945024654233761e-03
104 104 1.0000000000000000e+00
104 105 1.0000009999999999e-03
105 105 1.0000000000000000e+00
102 106 1.0000000000000000e+00
103 106 -1.0164172952446360e-03
105 106 -1.0000000000000000e+00
106 106 5.5109207606680120e-03
111 106 -4.4945024654233761e-03
96 107 1.0000000000000000e+00
97 107 -4.4945024654233761e-03
100 107 -1.0000000000000000e+00
103 107 -4.4945024654233761e-03
107 107 1.2989006743862800e-02
111 107 -2.0000009065080258e-03
466 107 -2.0000009065080258e-03
108 108 1.0000000000000000e+00
1043 108 -1.0000000000000000e+00
108 109 4.9460445594337816e-04
109 109 1.0000000000000000e+00
110 109 -4.9460445594337816e-04
108 110 -4.9460445594337816e-04
110 110 4.9460445594337816e-04
112 110 -1.0000000000000000e+00
110 111 -1.0000000000000000e+00
111 111 1.0000000000000000e+00
98 112 -2.0096320396789782e+00
105 112 1.0000000000000000e+00
106 112 -4.4945024654233761e-03
107 112 -2.0000009065080258e-03
111 112 2.0201265434589248e+00
112 112 1.0000000000000000e+00
466 112 -2.0000003626032110e-03
1057 112 -2.0000000454119819e-03
113 113 8.9928082898796020e-05
114 113 -8.9928082898796020e-05
113 114 -8.9928082898796020e-05
114 114 8.9928082898796020e-05
465 114 1.0000000000000000e+00
115 115 1.0000000000000000e+00
115 116 1.0000009999999999e-03
116 116 1.0000000000000000e+00
117 117 1.0000000000000000e+00
117 118 1.0000009999999999e-03
118 118 1.0000000000000000e+00
116 119 1.0000000000000000e+00
118 119 -1.0000000000000000e+00
119 119 1.2051649592657490e-02
122 119 -1.5665704721990210e-03
466 119 -1.0485078120458470e-02
120 120 1.0000000000000000e+00
120 121 1.0000009999999999e-03
121 121 1.0000000000000000e+00
116 122 -1.0000000000000000e+00
119 122 -1.5665704721990210e-03
121 122 1.0000000000000000e+00
122 122 1.2051649592657490e-02
123 122 -1.0485078120458470e-02
114 123 1.0000000000000000e+00
123 123 -1.0000000000000000e+00
124 124 1.0000000000000000e+00
124 125 1.0000009999999999e-03
125 125 1.0000000000000000e+00
126 126 1.0000000000000000e+00
126 127 1.0000009999999999e-03
127 127 1.0000000000000000e+00
125 128 1.0000000000000000e+00
127 128 -1.0000000000000000e+00
128 128 1.1577792913750551e-02
132 128 -1.0927137932920791e-03
462 128 -1.0485078120458470e-02
129 129 1.0000000000000000e+00
130 130 1.0485079120458469e-02
131 130 1.0000000000000000e+00
132 130 -1.0485078120458470e-02
129 131 1.0000009999999999e-03
131 131 1.0000000000000000e+00
127 132 1.0000000000000000e+00
128 132 -1.0927137932920791e-03
130 132 -1.0485078120458470e-02
131 132 -1.0000000000000000e+00
132 132 1.1577792913750551e-02
133 133 6.0023455626952802e-03
461 133 -1.0011725206099679e-03
462 133 -1.0011725206099679e-03
1056 133 -4.0000005214753456e-03
134 134 1.0000000000000000e+00
134 135 1.0000009999999999e-03
135 135 1.0000000000000000e+00
136 136 1.0000000000000000e+00
136 137 1.0000009999999999e-03
137 137 1.0000000000000000e+00
135 138 1.0000000000000000e+00
137 138 -1.0000000000000000e+00
138 138 1.1692234923259440e-02
141 138 -1.2071558028009699e-03
424 138 -1.0485078120458470e-02
139 139 1.0000000000000000e+00
139 140 1.0000009999999999e-03
140 140 1.0000000000000000e+00
137 141 1.0000000000000000e+00
138 141 -1.2071558028009699e-03
140 141 -1.0000000000000000e+00
141 141 1.1692234923259440e-02
233 141 -1.0485078120458470e-02
142 142 1.0000000000000000e+00
142 143 1.0000009999999999e-03
143 143 1.0000000000000000e+00
144 144 1.0000000000000000e+00
144 145 1.0000009999999999e-03
145 145 1.0000000000000000e+00
143 146 1.0000000000000000e+00
145 146 -1.0000000000000000e+00
146 146 1.1688858590209289e-02
149 146 -1.2037794697508141e-03
424 146 -1.0485078120458470e-02
147 147 1.0000000000000000e+00
147 148 1.0000009999999999e-03
148 148 1.0000000000000000e+00
145 149 1.0000000000000000e+00
146 149 -1.2037794697508141e-03
148 149 -1.0000000000000000e+00
149 149 1.1688858590209289e-02
232 149 -1.0485078120458470e-02
150 150 1.0000000000000000e+00
150 151 1.0000009999999999e-03
151 151 1.0000000000000000e+00
152 152 1.0000000000000000e+00
152 153 1.0000009999999999e-03
153 153 1.0000000000000000e+00
151 154 1.0000000000000000e+00
153 154 -1.0000000000000000e+00
154 154 1.1571541692564960e-02
157 154 -1.0864625721064909e-03
160 154 -1.0485078120458470e-02
155 155 1.0000000000000000e+00
155 156 1.0000009999999999e-03
156 156 1.0000000000000000e+00
153 157 1.0000000000000000e+00
154 157 -1.0864625721064909e-03
156 157 -1.0000000000000000e+00
157 157 1.1571541692564960e-02
185 157 -1.0485078120458470e-02
158 158 1.0000000000000000e+00
158 159 1.0000009999999999e-03
159 159 1.0000000000000000e+00
151 160 -1.0000000000000000e+00
154 160 -1.0485078120458470e-02
159 160 1.0000000000000000e+00
160 160 2.0970157240916949e-02
166 160 -1.0485078120458470e-02
161 161 1.0000000000000000e+00
161 162 1.0000009999999999e-03
162 162 1.0000000000000000e+00
163 163 1.0000000000000000e+00
163 164 1.0000009999999999e-03
164 164 1.0000000000000000e+00
162 165 1.0000000000000000e+00
164 165 -1.0000000000000000e+00
165 165 1.1571541692564960e-02
166 165 -1.0864625721064909e-03
424 165 -1.0485078120458470e-02
159 166 -1.0000000000000000e+00
160 166 -1.0485078120458470e-02
164 166 1.0000000000000000e+00
165 166 -1.0864625721064909e-03
166 166 1.1571541692564960e-02
167 167 1.0000000000000000e+00
167 168 1.0000009999999999e-03
168 168 1.0000000000000000e+00
169 169 1.0000000000000000e+00
169 170 1.0000009999999999e-03
170 170 1.0000000000000000e+00
168 171 1.0000000000000000e+00
170 171 -1.0000000000000000e+00
171 171 1.1571541692564960e-02
174 171 -1.0864625721064909e-03
185 171 -1.0485078120458470e-02
172 172 1.0000000000000000e+00
172 173 1.0000009999999999e-03
173 173 1.0000000000000000e+00
170 174 1.0000000000000000e+00
171 174 -1.0864625721064909e-03
173 174 -1.0000000000000000e+00
174 174 1.1571541692564960e-02
184 174 -1.0485078120458470e-02
175 175 1.0000000000000000e+00
175 176 1.0000009999999999e-03
176 176 1.0000000000000000e+00
177 177 1.0000000000000000e+00
177 178 1.0000009999999999e-03
178 178 1.0000000000000000e+00
176 179 1.0000000000000000e+00
178 179 -1.0000000000000000e+00
179 179 1.1513552801012491e-02
182 179 -1.0284736805540151e-03
184 179 -1.0485078120458470e-02
180 180 1.0000000000000000e+00
180 181 1.0000009999999999e-03
181 181 1.0000000000000000e+00
178 182 1.0000000000000000e+00
179 182 -1.0284736805540151e-03
181 182 -1.0000000000000000e+00
182 182 1.1513552801012491e-02
183 182 -1.0485078120458470e-02
181 183 1.0000000000000000e+00
182 183 -1.0485078120458470e-02
183 183 1.2485080308434100e-02
1056 183 -2.0000021879756301e-03
173 184 1.0000000000000000e+00
174 184 -1.0485078120458470e-02
176 184 -1.0000000000000000e+00
179 184 -1.0485078120458470e-02
184 184 2.2970158428892579e-02
1056 184 -2.0000021879756301e-03
156 185 1.0000000000000000e+00
157 185 -1.0485078120458470e-02
168 185 -1.0000000000000000e+00
171 185 -1.0485078120458470e-02
185 185 2.2970158428892579e-02
1056 185 -2.0000021879756301e-03
186 186 1.0000000000000000e+00
186 187 1.0000009999999999e-03
187 187 1.0000000000000000e+00
188 188 1.0000000000000000e+00
188 189 1.0000009999999999e-03
189 189 1.0000000000000000e+00
187 190 1.0000000000000000e+00
189 190 -1.0000000000000000e+00
190 190 1.1693096560792980e-02
193 190 -1.2080174403345119e-03
424 190 -1.0485078120458470e-02
191 191 1.0000000000000000e+00
191 192 1.0000009999999999e-03
192 192 1.0000000000000000e+00
189 193 1.0000000000000000e+00
190 193 -1.2080174403345119e-03
192 193 -1.0000000000000000e+00
193 193 1.1693096560792980e-02
231 193 -1.0485078120458470e-02
194 194 1.0000000000000000e+00
194 195 1.0000009999999999e-03
195 195 1.0000000000000000e+00
196 196 1.0000000000000000e+00
196 197 1.0000009999999999e-03
197 197 1.0000000000000000e+00
195 198 1.0000000000000000e+00
197 198 -1.0000000000000000e+00
198 198 1.1678607362301250e-02
201 198 -1.1935282418427760e-03
424 198 -1.0485078120458470e-02
199 199 1.0000000000000000e+00
199 200 1.0000009999999999e-03
200 200 1.0000000000000000e+00
197 201 1.0000000000000000e+00
198 201 -1.1935282418427760e-03
200 201 -1.0000000000000000e+00
201 201 1.1678607362301250e-02
234 201 -1.0485078120458470e-02
202 202 1.0000000000000000e+00
202 203 1.0000009999999999e-03
203 203 1.0000000000000000e+00
204 204 1.0000000000000000e+00
204 205 1.0000009999999999e-03
205 205 1.0000000000000000e+00
203 206 1.0000000000000000e+00
205 206 -1.0000000000000000e+00
206 206 1.1678607362301250e-02
209 206 -1.1935282418427760e-03
424 206 -1.0485078120458470e-02
207 207 1.0000000000000000e+00
207 208 1.0000009999999999e-03
208 208 1.0000000000000000e+00
205 209 1.0000000000000000e+00
206 209 -1.1935282418427760e-03
208 209 -1.0000000000000000e+00
209 209 1.1678607362301250e-02
234 209 -1.0485078120458470e-02
210 210 1.1574297171687810e-01
229 210 -6.9086256389454907e-23
230 210 -1.0000000010000000e-03
234 210 -1.1474297171587811e-01
211 211 1.1574297171687810e-01
227 211 -6.9086256389454907e-23
228 211 -1.0000000010000000e-03
234 211 -1.1474297171587811e-01
212 212 1.1574297171687810e-01
225 212 -6.9086256389454907e-23
226 212 -1.0000000010000000e-03
234 212 -1.1474297171587811e-01
213 213 1.1574297171687810e-01
223 213 -6.9086256389454907e-23
224 213 -1.0000000010000000e-03
234 213 -1.1474297171587811e-01
214 214 1.1574297171687810e-01
221 214 -6.9086256389454907e-23
222 214 -1.0000000010000000e-03
234 214 -1.1474297171587811e-01
215 215 1.1574297171687810e-01
219 215 -6.9086256389454907e-23
220 215 -1.0000000010000000e-03
234 215 -1.1474297171587811e-01
216 216 1.1574297171687810e-01
217 216 -6.9086256389454907e-23
218 216 -1.0000000010000000e-03
234 216 -1.1474297171587811e-01
216 217 -7.0207358387221697e-23
217 217 5.3410901468505252e-02
218 217 -1.0000000010000000e-03
1056 217 -5.2410901467505253e-02
216 218 -1.0000000010000000e-03
217 218 -1.0000000010000000e-03
218 218 5.9971575380030669e-03
1056 218 -3.9971575360030669e-03
215 219 -7.0207358387221697e-23
219 219 5.3410901468505252e-02
220 219 -1.0000000010000000e-03
1056 219 -5.2410901467505253e-02
215 220 -1.0000000010000000e-03
219 220 -1.0000000010000000e-03
220 220 5.9971575380030669e-03
1056 220 -3.9971575360030669e-03
214 221 -7.0207358387221697e-23
221 221 5.3410901468505252e-02
222 221 -1.0000000010000000e-03
1056 221 -5.2410901467505253e-02
214 222 -1.0000000010000000e-03
221 222 -1.0000000010000000e-03
222 222 5.9971575380030669e-03
1056 222 -3.9971575360030669e-03
213 223 -7.0207358387221697e-23
223 223 5.3410901468505252e-02
224 223 -1.0000000010000000e-03
1056 223 -5.2410901467505253e-02
213 224 -1.0000000010000000e-03
223 224 -1.0000000010000000e-03
224 224 5.9971575380030669e-03
1056 224 -3.9971575360030669e-03
212 225 -7.0207358387221697e-23
225 225 5.3410901468505252e-02
226 225 -1.0000000010000000e-03
1056 225 -5.2410901467505253e-02
212 226 -1.0000000010000000e-03
225 226 -1.0000000010000000e-03
226 226 5.9971575380030669e-03
1056 226 -3.9971575360030669e-03
211 227 -7.0207358387221697e-23
227 227 5.3410901468505252e-02
228 227 -1.0000000010000000e-03
1056 227 -5.2410901467505253e-02
211 228 -1.0000000010000000e-03
227 228 -1.0000000010000000e-03
228 228 5.9971575380030669e-03
1056 228 -3.9971575360030669e-03
210 229 -7.0207358387221697e-23
229 229 5.3410901468505252e-02
230 229 -1.0000000010000000e-03
1056 229 -5.2410901467505253e-02
210 230 -1.0000000010000000e-03
229 230 -1.0000000010000000e-03
230 230 5.9971575380030669e-03
1056 230 -3.9971575360030669e-03
192 231 1.0000000000000000e+00
193 231 -1.0485078120458470e-02
231 231 1.4520575366533450e-02
234 231 -3.0354970260749771e-03
1056 231 -1.0000002200000020e-03
148 232 1.0000000000000000e+00
149 232 -1.0485078120458470e-02
232 232 1.4520575366533450e-02
234 232 -3.0354970260749771e-03
1056 232 -1.0000002200000020e-03
140 233 1.0000000000000000e+00
141 233 -1.0485078120458470e-02
233 233 1.4520575366533450e-02
234 233 -3.0354970260749771e-03
1056 233 -1.0000002200000020e-03
200 234 1.0000000000000000e+00
201 234 -1.0485078120458470e-02
208 234 1.0000000000000000e+00
209 234 -1.0485078120458470e-02
210 234 -1.1474297171587811e-01
211 234 -1.1474297171587811e-01
212 234 -1.1474297171587811e-01
213 234 -1.1474297171587811e-01
214 234 -1.1474297171587811e-01
215 234 -1.1474297171587811e-01
216 234 -1.1474297171587811e-01
231 234 -3.0354970260749771e-03
232 234 -3.0354970260749771e-03
233 234 -3.0354970260749771e-03
234 234 8.3627744999028886e-01
1056 234 -3.0000006600000061e-03
235 235 4.0000003402111354e-03
424 235 -1.0000001658261651e-03
1057 235 -3.0000001743849692e-03
236 236 4.0000023814779394e-03
424 236 -1.0000011607831541e-03
1057 236 -3.0000012206947849e-03
237 237 4.0000001062839574e-03
424 237 -1.0000000467264461e-03
1057 237 -3.0000000595575109e-03
238 238 4.0000001701055669e-03
424 238 -1.0000000829130820e-03
1057 238 -3.0000000871924851e-03
239 239 4.0000006804222681e-03
424 239 -1.0000003316523300e-03
1057 239 -3.0000003487699392e-03
240 240 1.0000000000000000e+00
240 241 1.0000009999999999e-03
241 241 1.0000000000000000e+00
242 242 1.0000000000000000e+00
242 243 1.0000009999999999e-03
243 243 1.0000000000000000e+00
241 244 1.0000000000000000e+00
243 244 -1.0000000000000000e+00
244 244 4.5040002366860954e-03
247 244 -3.4960731895893678e-03
423 244 -1.0079260470967279e-03
245 245 1.0000000000000000e+00
245 246 1.0000009999999999e-03
246 246 1.0000000000000000e+00
241 247 -1.0000000000000000e+00
244 247 -3.4960731895893678e-03
246 247 1.0000000000000000e+00
247 247 6.9921473791787359e-03
253 247 -3.4960731895893678e-03
248 248 1.0000000000000000e+00
248 249 1.0000009999999999e-03
249 249 1.0000000000000000e+00
250 250 1.0000000000000000e+00
250 251 1.0000009999999999e-03
251 251 1.0000000000000000e+00
249 252 1.0000000000000000e+00
251 252 -1.0000000000000000e+00
252 252 4.5040002366860954e-03
253 252 -1.0079260470967279e-03
254 252 -3.4960731895893678e-03
246 253 -1.0000000000000000e+00
247 253 -3.4960731895893678e-03
251 253 1.0000000000000000e+00
252 253 -1.0079260470967279e-03
253 253 4.5040002366860954e-03
249 254 -1.0000000000000000e+00
252 254 -3.4960731895893678e-03
254 254 5.4960734481668220e-03
1057 254 -2.0000002585774542e-03
255 255 1.0000000000000000e+00
255 256 1.0000009999999999e-03
256 256 1.0000000000000000e+00
257 257 1.0000000000000000e+00
257 258 1.0000009999999999e-03
258 258 1.0000000000000000e+00
259 259 1.0000000000000000e+00
259 260 1.0000009999999999e-03
260 260 1.0000000000000000e+00
258 261 1.0000000000000000e+00
260 261 -1.0000000000000000e+00
261 261 7.1368611357444899e-03
264 261 -1.6439283944769221e-03
422 261 -5.4929317412675677e-03
262 262 1.0000000000000000e+00
262 263 1.0000009999999999e-03
263 263 1.0000000000000000e+00
260 264 1.0000000000000000e+00
261 264 -1.6439283944769221e-03
263 264 -1.0000000000000000e+00
264 264 7.1368611357444899e-03
273 264 -5.4929317412675677e-03
265 265 1.0000000000000000e+00
265 266 1.0000009999999999e-03
266 266 1.0000000000000000e+00
267 267 1.0000000000000000e+00
267 268 1.0000009999999999e-03
268 268 1.0000000000000000e+00
266 269 1.0000000000000000e+00
268 269 -1.0000000000000000e+00
269 269 7.1368611357444899e-03
272 269 -1.6439283944769221e-03
422 269 -5.4929317412675677e-03
270 270 1.0000000000000000e+00
270 271 1.0000009999999999e-03
271 271 1.0000000000000000e+00
268 272 1.0000000000000000e+00
269 272 -1.6439283944769221e-03
271 272 -1.0000000000000000e+00
272 272 7.1368611357444899e-03
273 272 -5.4929317412675677e-03
263 273 1.0000000000000000e+00
264 273 -5.4929317412675677e-03
271 273 1.0000000000000000e+00
272 273 -5.4929317412675677e-03
273 273 1.0985864482535130e-02
274 274 4.0000005103167013e-03
422 274 -1.0000002487392471e-03
1057 274 -3.0000002615774542e-03
275 275 4.0000005103167013e-03
421 275 -1.0000002487392471e-03
1057 275 -3.0000002615774542e-03
276 276 4.0000001701055669e-03
421 276 -1.0000000829130820e-03
1057 276 -3.0000000871924851e-03
277 277 4.0000003402111354e-03
421 277 -1.0000001658261651e-03
1057 277 -3.0000001743849692e-03
278 278 4.0000013608445370e-03
421 278 -1.0000006633046590e-03
1057 278 -3.0000006975398771e-03
279 279 4.0000006804222681e-03
421 279 -1.0000003316523300e-03
1057 279 -3.0000003487699392e-03
280 280 1.0000000000000000e+00
281 281 1.0000000000000000e+00
282 282 1.0000000000000000e+00
283 283 5.4929327412675680e-03
284 283 -1.0000000000000000e+00
286 283 -5.4929317412675677e-03
282 284 1.0000009999999999e-03
284 284 1.0000000000000000e+00
281 285 1.0000009999999999e-03
285 285 1.0000000000000000e+00
283 286 -5.4929317412675677e-03
284 286 1.0000000000000000e+00
285 286 -1.0000000000000000e+00
286 286 6.5415981048462394e-03
288 286 -1.0486653635786720e-03
280 287 1.0000009999999999e-03
287 287 1.0000000000000000e+00
285 288 1.0000000000000000e+00
286 288 -1.0486653635786720e-03
287 288 -1.0000000000000000e+00
288 288 6.5415981048462394e-03
324 288 -5.4929317412675677e-03
289 289 1.0000000000000000e+00
289 290 1.0000009999999999e-03
290 290 1.0000000000000000e+00
291 291 1.0000000000000000e+00
291 292 1.0000009999999999e-03
292 292 1.0000000000000000e+00
290 293 1.0000000000000000e+00
292 293 -1.0000000000000000e+00
293 293 7.1368611357444899e-03
304 293 -1.6439283944769221e-03
421 293 -5.4929317412675677e-03
294 294 1.0000000000000000e+00
294 295 1.0000009999999999e-03
295 295 1.0000000000000000e+00
296 296 1.0000000000000000e+00
296 297 1.0000009999999999e-03
297 297 1.0000000000000000e+00
298 298 1.0000000000000000e+00
298 299 1.0000009999999999e-03
299 299 1.0000000000000000e+00
297 300 1.0000000000000000e+00
299 300 -1.0000000000000000e+00
300 300 7.1368611357444899e-03
303 300 -1.6439283944769221e-03
421 300 -5.4929317412675677e-03
301 301 1.0000000000000000e+00
301 302 1.0000009999999999e-03
302 302 1.0000000000000000e+00
299 303 1.0000000000000000e+00
300 303 -1.6439283944769221e-03
302 303 -1.0000000000000000e+00
303 303 7.1368611357444899e-03
306 303 -5.4929317412675677e-03
292 304 1.0000000000000000e+00
293 304 -1.6439283944769221e-03
295 304 -1.0000000000000000e+00
304 304 7.1368611357444899e-03
306 304 -5.4929317412675677e-03
295 305 1.0000000000000000e+00
302 305 1.0000000000000000e+00
303 305 -5.4929317412675677e-03
304 305 -5.4929317412675677e-03
305 305 1.0000000000000000e+00
306 305 1.0985863482535141e-02
306 306 1.0000000000000000e+00
324 306 -1.0000000000000000e+00
307 307 1.0000000000000000e+00
307 308 1.0000009999999999e-03
308 308 1.0000000000000000e+00
309 309 1.0000000000000000e+00
309 310 1.0000009999999999e-03
310 310 1.0000000000000000e+00
308 311 1.0000000000000000e+00
310 311 -1.0000000000000000e+00
311 311 5.5048230740720201e-03
314 311 -4.4945024654233761e-03
322 311 -1.0103196086486440e-03
312 312 1.0000000000000000e+00
312 313 1.0000009999999999e-03
313 313 1.0000000000000000e+00
308 314 -1.0000000000000000e+00
311 314 -4.4945024654233761e-03
313 314 1.0000000000000000e+00
314 314 8.9890059308467534e-03
317 314 -4.4945024654233761e-03
315 315 1.0000000000000000e+00
315 316 1.0000009999999999e-03
316 316 1.0000000000000000e+00
313 317 -1.0000000000000000e+00
314 317 -4.4945024654233761e-03
316 317 1.0000000000000000e+00
317 317 5.5057895289262809e-03
323 317 -1.0112860635029040e-03
318 318 1.0000000000000000e+00
318 319 1.0000009999999999e-03
319 319 1.0000000000000000e+00
320 320 1.0000000000000000e+00
320 321 1.0000009999999999e-03
321 321 1.0000000000000000e+00
310 322 1.0000000000000000e+00
311 322 -1.0103196086486440e-03
319 322 -1.0000000000000000e+00
322 322 5.5048230740720201e-03
1056 322 -4.4945024654233761e-03
316 323 -1.0000000000000000e+00
317 323 -1.0112860635029040e-03
321 323 1.0000000000000000e+00
323 323 5.5057895289262809e-03
1056 323 -4.4945024654233761e-03
287 324 1.0000000000000000e+00
288 324 -5.4929317412675677e-03
305 324 -1.0000000000000000e+00
324 324 7.4929322486536219e-03
1056 324 -2.0000005073860551e-03
325 325 4.0000000263427371e-03
326 325 -1.0000000121713690e-03
1057 325 -3.0000000141713690e-03
325 326 -1.0000000121713690e-03
326 326 4.0000000263427371e-03
327 326 -1.0000000121713690e-03
1057 326 -2.0000000020000000e-03
326 327 -1.0000000121713690e-03
327 327 4.0000000263427371e-03
420 327 -1.0000000121713690e-03
1057 327 -2.0000000020000000e-03
328 328 2.0000010336915469e-03
351 328 -2.0000010336915469e-03
329 329 2.0000010336915469e-03
346 329 -2.0000010336915469e-03
330 330 2.0000005168457741e-03
341 330 -2.0000005168457741e-03
331 331 2.0000005168457741e-03
336 331 -2.0000005168457741e-03
332 332 -9.9999999999999995e-07
336 332 -1.0000000000000000e+00
1056 332 1.0000000000000000e+00
333 333 -9.9999999999999995e-07
336 333 -1.0000000000000000e+00
1056 333 1.0000000000000000e+00
334 334 -9.9999999999999995e-07
336 334 -1.0000000000000000e+00
1056 334 1.0000000000000000e+00
335 335 -9.9999999999999995e-07
336 335 -1.0000000000000000e+00
1056 335 1.0000000000000000e+00
331 336 -2.0000005168457741e-03
332 336 -1.0000000000000000e+00
333 336 -1.0000000000000000e+00
334 336 -1.0000000000000000e+00
335 336 -1.0000000000000000e+00
336 336 2.0000005168457728e-03
337 337 -9.9999999999999995e-07
341 337 -1.0000000000000000e+00
1056 337 1.0000000000000000e+00
338 338 -9.9999999999999995e-07
341 338 -1.0000000000000000e+00
1056 338 1.0000000000000000e+00
339 339 -9.9999999999999995e-07
341 339 -1.0000000000000000e+00
1056 339 1.0000000000000000e+00
340 340 -9.9999999999999995e-07
341 340 -1.0000000000000000e+00
1056 340 1.0000000000000000e+00
330 341 -2.0000005168457741e-03
337 341 -1.0000000000000000e+00
338 341 -1.0000000000000000e+00
339 341 -1.0000000000000000e+00
340 341 -1.0000000000000000e+00
341 341 2.0000005168457728e-03
342 342 -9.9999999999999995e-07
346 342 -1.0000000000000000e+00
1056 342 1.0000000000000000e+00
343 343 -9.9999999999999995e-07
346 343 -1.0000000000000000e+00
1056 343 1.0000000000000000e+00
344 344 -9.9999999999999995e-07
346 344 -1.0000000000000000e+00
1056 344 1.0000000000000000e+00
345 345 -9.9999999999999995e-07
346 345 -1.0000000000000000e+00
1056 345 1.0000000000000000e+00
329 346 -2.0000010336915469e-03
342 346 -1.0000000000000000e+00
343 346 -1.0000000000000000e+00
344 346 -1.0000000000000000e+00
345 346 -1.0000000000000000e+00
346 346 2.0000010336915469e-03
347 347 -9.9999999999999995e-07
351 347 -1.0000000000000000e+00
1056 347 1.0000000000000000e+00
348 348 -9.9999999999999995e-07
351 348 -1.0000000000000000e+00
1056 348 1.0000000000000000e+00
349 349 -9.9999999999999995e-07
351 349 -1.0000000000000000e+00
1056 349 1.0000000000000000e+00
350 350 -9.9999999999999995e-07
351 350 -1.0000000000000000e+00
1056 350 1.0000000000000000e+00
328 351 -2.0000010336915469e-03
347 351 -1.0000000000000000e+00
348 351 -1.0000000000000000e+00
349 351 -1.0000000000000000e+00
350 351 -1.0000000000000000e+00
351 351 2.0000010336915469e-03
352 352 1.0000000000000000e+00
353 352 -2.1929824561403510e+00
354 352 2.1929824561403510e+00
353 353 3.1929824561403510e+00
354 353 -2.1929824561403510e+00
1056 353 -1.0000000000000000e+00
354 354 1.0000000000000000e+00
1056 354 -1.0000000000000000e+00
355 355 4.0000002170871877e-03
419 355 -1.0000001075435941e-03
1056 355 -3.0000001095435930e-03
356 356 4.0000000991660886e-03
418 356 -1.0000000485830449e-03
1057 356 -3.0000000505830452e-03
357 357 4.0000002935875779e-03
417 357 -1.0000001457937890e-03
1056 357 -3.0000001477937890e-03
358 358 1.0000000000000000e+00
358 359 1.0000009999999999e-03
359 359 1.0000000000000000e+00
360 360 1.0000000000000000e+00
360 361 1.0000009999999999e-03
361 361 1.0000000000000000e+00
359 362 1.0000000000000000e+00
361 362 -1.0000000000000000e+00
362 362 1.1526260695714130e-02
365 362 -1.0411815752556549e-03
366 362 -1.0485078120458470e-02
363 363 1.0000000000000000e+00
363 364 1.0000009999999999e-03
364 364 1.0000000000000000e+00
361 365 1.0000000000000000e+00
362 365 -1.0411815752556549e-03
364 365 -1.0000000000000000e+00
365 365 1.1526260695714130e-02
1056 365 -1.0485078120458470e-02
359 366 -1.0000000000000000e+00
362 366 -1.0485078120458470e-02
366 366 1.2485078377196141e-02
370 366 -1.0000002537376730e-03
1056 366 -1.0000000030000000e-03
367 367 4.0000001722573474e-03
370 367 -1.0000001153990599e-03
1056 367 -3.0000000568582868e-03
368 368 4.0000000685688061e-03
369 368 -1.0000000121713690e-03
1057 368 -3.0000000563974380e-03
368 369 -1.0000000121713690e-03
369 369 4.0000559268619212e-03
1056 369 -2.0000559136905522e-03
1057 369 -1.0000000010000000e-03
366 370 -1.0000002537376730e-03
367 370 -1.0000001153990599e-03
370 370 8.0000004825500921e-03
1056 370 -2.0000000040000000e-03
1057 370 -4.0000001094133604e-03
371 371 4.0000023814779394e-03
416 371 -1.0000011607831541e-03
1057 371 -3.0000012206947849e-03
372 372 4.0000001701055669e-03
416 372 -1.0000000829130820e-03
1057 372 -3.0000000871924851e-03
373 373 4.0000003148231954e-03
416 373 -1.0000001821893741e-03
1057 373 -3.0000001326338198e-03
374 374 4.0000001062839574e-03
416 374 -1.0000000467264461e-03
1057 374 -3.0000000595575109e-03
375 375 4.0000003402111354e-03
416 375 -1.0000001658261651e-03
1057 375 -3.0000001743849692e-03
376 376 4.0000006804222681e-03
416 376 -1.0000003316523300e-03
1057 376 -3.0000003487699392e-03
377 377 1.1574297171687810e-01
414 377 -6.9086256389454907e-23
415 377 -1.0000000010000000e-03
416 377 -1.1474297171587811e-01
378 378 1.0000000000000000e+00
378 379 1.0000009999999999e-03
379 379 1.0000000000000000e+00
380 380 1.0000000000000000e+00
380 381 1.0000009999999999e-03
381 381 1.0000000000000000e+00
379 382 1.0000000000000000e+00
381 382 -1.0000000000000000e+00
382 382 1.1571541692564960e-02
385 382 -1.0864625721064909e-03
388 382 -1.0485078120458470e-02
383 383 1.0000000000000000e+00
383 384 1.0000009999999999e-03
384 384 1.0000000000000000e+00
381 385 1.0000000000000000e+00
382 385 -1.0864625721064909e-03
384 385 -1.0000000000000000e+00
385 385 1.1571541692564960e-02
413 385 -1.0485078120458470e-02
386 386 1.0000000000000000e+00
386 387 1.0000009999999999e-03
387 387 1.0000000000000000e+00
379 388 -1.0000000000000000e+00
382 388 -1.0485078120458470e-02
387 388 1.0000000000000000e+00
388 388 2.0970157240916949e-02
394 388 -1.0485078120458470e-02
389 389 1.0000000000000000e+00
389 390 1.0000009999999999e-03
390 390 1.0000000000000000e+00
391 391 1.0000000000000000e+00
391 392 1.0000009999999999e-03
392 392 1.0000000000000000e+00
390 393 1.0000000000000000e+00
392 393 -1.0000000000000000e+00
393 393 1.1571541692564960e-02
394 393 -1.0864625721064909e-03
416 393 -1.0485078120458470e-02
387 394 -1.0000000000000000e+00
388 394 -1.0485078120458470e-02
392 394 1.0000000000000000e+00
393 394 -1.0864625721064909e-03
394 394 1.1571541692564960e-02
395 395 1.0000000000000000e+00
395 396 1.0000009999999999e-03
396 396 1.0000000000000000e+00
397 397 1.0000000000000000e+00
397 398 1.0000009999999999e-03
398 398 1.0000000000000000e+00
396 399 1.0000000000000000e+00
398 399 -1.0000000000000000e+00
399 399 1.1571541692564960e-02
402 399 -1.0864625721064909e-03
413 399 -1.0485078120458470e-02
400 400 1.0000000000000000e+00
400 401 1.0000009999999999e-03
401 401 1.0000000000000000e+00
398 402 1.0000000000000000e+00
399 402 -1.0864625721064909e-03
401 402 -1.0000000000000000e+00
402 402 1.1571541692564960e-02
412 402 -1.0485078120458470e-02
403 403 1.0000000000000000e+00
403 404 1.0000009999999999e-03
404 404 1.0000000000000000e+00
405 405 1.0000000000000000e+00
405 406 1.0000009999999999e-03
406 406 1.0000000000000000e+00
404 407 1.0000000000000000e+00
406 407 -1.0000000000000000e+00
407 407 1.1513552801012491e-02
410 407 -1.0284736805540151e-03
412 407 -1.0485078120458470e-02
408 408 1.0000000000000000e+00
408 409 1.0000009999999999e-03
409 409 1.0000000000000000e+00
406 410 1.0000000000000000e+00
407 410 -1.0284736805540151e-03
409 410 -1.0000000000000000e+00
410 410 1.1513552801012491e-02
411 410 -1.0485078120458470e-02
409 411 1.0000000000000000e+00
410 411 -1.0485078120458470e-02
411 411 1.2485080308434100e-02
1056 411 -2.0000021879756301e-03
401 412 1.0000000000000000e+00
402 412 -1.0485078120458470e-02
404 412 -1.0000000000000000e+00
407 412 -1.0485078120458470e-02
412 412 2.2970158428892579e-02
1056 412 -2.0000021879756301e-03
384 413 1.0000000000000000e+00
385 413 -1.0485078120458470e-02
396 413 -1.0000000000000000e+00
399 413 -1.0485078120458470e-02
413 413 2.2970158428892579e-02
1056 413 -2.0000021879756301e-03
377 414 -7.0207358387221697e-23
414 414 5.3410901468505252e-02
415 414 -1.0000000010000000e-03
1056 414 -5.2410901467505253e-02
377 415 -1.0000000010000000e-03
414 415 -1.0000000010000000e-03
415 415 5.9971575380030669e-03
1056 415 -3.9971575360030669e-03
371 416 -1.0000011607831541e-03
372 416 -1.0000000829130820e-03
373 416 -1.0000001821893741e-03
374 416 -1.0000000467264461e-03
375 416 -1.0000001658261651e-03
376 416 -1.0000003316523300e-03
377 416 -1.1474297171587811e-01
390 416 -1.0000000000000000e+00
393 416 -1.0485078120458470e-02
416 416 1.3722805183042719e-01
1057 416 -6.0000000240000000e-03
357 417 -1.0000001457937890e-03
417 417 6.0000002459598776e-03
1056 417 -1.0000000010000000e-03
1057 417 -4.0000000991660886e-03
356 418 -1.0000000485830449e-03
418 418 6.0000003431706223e-03
1056 418 -4.0000002935875779e-03
1057 418 -1.0000000010000000e-03
355 419 -1.0000001075435941e-03
419 419 4.0000002013354944e-03
1056 419 -1.0000000010000000e-03
1057 419 -2.0000000927919009e-03
327 420 -1.0000000121713690e-03
420 420 4.0000001983398481e-03
1056 420 -2.0000001851684800e-03
1057 420 -1.0000000010000000e-03
275 421 -1.0000002487392471e-03
276 421 -1.0000000829130820e-03
277 421 -1.0000001658261651e-03
278 421 -1.0000006633046590e-03
279 421 -1.0000003316523300e-03
290 421 -1.0000000000000000e+00
293 421 -5.4929317412675677e-03
297 421 -1.0000000000000000e+00
300 421 -5.4929317412675677e-03
421 421 2.2985865101514211e-02
1056 421 -2.0000001085435939e-03
1057 421 -5.0000000180000009e-03
258 422 -1.0000000000000000e+00
261 422 -5.4929317412675677e-03
266 422 -1.0000000000000000e+00
269 422 -5.4929317412675677e-03
274 422 -1.0000002487392471e-03
422 422 1.4985863842817981e-02
1056 422 -2.0000001085435939e-03
1057 422 -1.0000000030000000e-03
243 423 1.0000000000000000e+00
244 423 -1.0079260470967279e-03
256 423 -1.0000000000000000e+00
423 423 4.5040002366860954e-03
1056 423 -3.4960731895893678e-03
135 424 -1.0000000000000000e+00
138 424 -1.0485078120458470e-02
143 424 -1.0000000000000000e+00
146 424 -1.0485078120458470e-02
162 424 -1.0000000000000000e+00
165 424 -1.0485078120458470e-02
187 424 -1.0000000000000000e+00
190 424 -1.0485078120458470e-02
195 424 -1.0000000000000000e+00
198 424 -1.0485078120458470e-02
203 424 -1.0000000000000000e+00
206 424 -1.0485078120458470e-02
235 424 -1.0000001658261651e-03
236 424 -1.0000011607831541e-03
237 424 -1.0000000467264461e-03
238 424 -1.0000000829130820e-03
239 424 -1.0000003316523300e-03
424 424 7.2910470532652011e-02
1057 424 -5.0000000220000009e-03
425 425 4.0000001963768333e-03
1056 425 -2.0000001467937890e-03
1057 425 -2.0000000495830452e-03
426 426 4.0000001963768333e-03
1056 426 -2.0000001467937890e-03
1057 426 -2.0000000495830452e-03
427 427 4.0000001963768333e-03
1056 427 -2.0000001467937890e-03
1057 427 -2.0000000495830452e-03
428 428 4.0000001963768333e-03
1056 428 -2.0000001467937890e-03
1057 428 -2.0000000495830452e-03
429 429 4.0000001963768333e-03
1056 429 -2.0000001467937890e-03
1057 429 -2.0000000495830452e-03
430 430 4.0000001963768333e-03
1056 430 -2.0000001467937890e-03
1057 430 -2.0000000495830452e-03
431 431 4.0000001963768333e-03
1056 431 -2.0000001467937890e-03
1057 431 -2.0000000495830452e-03
432 432 4.0000001963768333e-03
1056 432 -2.0000001467937890e-03
1057 432 -2.0000000495830452e-03
433 433 4.0000001963768333e-03
1056 433 -2.0000001467937890e-03
1057 433 -2.0000000495830452e-03
434 434 4.0000001963768333e-03
1056 434 -2.0000001467937890e-03
1057 434 -2.0000000495830452e-03
435 435 4.0000001963768333e-03
1056 435 -2.0000001467937890e-03
1057 435 -2.0000000495830452e-03
436 436 4.0000001963768333e-03
1056 436 -2.0000001467937890e-03
1057 436 -2.0000000495830452e-03
437 437 4.0000001963768333e-03
1056 437 -2.0000001467937890e-03
1057 437 -2.0000000495830452e-03
438 438 4.0000001963768333e-03
1056 438 -2.0000001467937890e-03
1057 438 -2.0000000495830452e-03
439 439 4.0000001963768333e-03
1056 439 -2.0000001467937890e-03
1057 439 -2.0000000495830452e-03
440 440 4.0000001963768333e-03
1056 440 -2.0000001467937890e-03
1057 440 -2.0000000495830452e-03
441 441 4.0000001963768333e-03
1056 441 -2.0000001467937890e-03
1057 441 -2.0000000495830452e-03
442 442 4.0000001963768333e-03
1056 442 -2.0000001467937890e-03
1057 442 -2.0000000495830452e-03
443 443 4.0000001963768333e-03
1056 443 -2.0000001467937890e-03
1057 443 -2.0000000495830452e-03
444 444 4.0000001963768333e-03
1056 444 -2.0000001467937890e-03
1057 444 -2.0000000495830452e-03
445 445 4.0000001963768333e-03
1056 445 -2.0000001467937890e-03
1057 445 -2.0000000495830452e-03
446 446 4.0000001963768333e-03
1056 446 -2.0000001467937890e-03
1057 446 -2.0000000495830452e-03
447 447 4.0000001963768333e-03
1056 447 -2.0000001467937890e-03
1057 447 -2.0000000495830452e-03
448 448 4.0000001963768333e-03
1056 448 -2.0000001467937890e-03
1057 448 -2.0000000495830452e-03
449 449 4.0000001963768333e-03
1056 449 -2.0000001467937890e-03
1057 449 -2.0000000495830452e-03
450 450 4.0000001963768333e-03
1056 450 -2.0000001467937890e-03
1057 450 -2.0000000495830452e-03
451 451 4.0000001963768333e-03
1056 451 -2.0000001467937890e-03
1057 451 -2.0000000495830452e-03
452 452 4.0000001963768333e-03
1056 452 -2.0000001467937890e-03
1057 452 -2.0000000495830452e-03
453 453 4.0000001963768333e-03
1056 453 -2.0000001467937890e-03
1057 453 -2.0000000495830452e-03
454 454 4.0000001963768333e-03
1056 454 -2.0000001467937890e-03
1057 454 -2.0000000495830452e-03
455 455 4.0000001963768333e-03
1056 455 -2.0000001467937890e-03
1057 455 -2.0000000495830452e-03
456 456 4.0000001963768333e-03
1056 456 -2.0000001467937890e-03
1057 456 -2.0000000495830452e-03
457 457 4.0000001963768333e-03
1056 457 -2.0000001467937890e-03
1057 457 -2.0000000495830452e-03
458 458 4.0000001963768333e-03
1056 458 -2.0000001467937890e-03
1057 458 -2.0000000495830452e-03
459 459 4.0000001963768333e-03
1056 459 -2.0000001467937890e-03
1057 459 -2.0000000495830452e-03
460 460 6.0000003471677270e-03
1056 460 -4.0000002707477039e-03
1057 460 -2.0000000764200231e-03
133 461 -1.0011725206099679e-03
461 461 4.0011727921456606e-03
1056 461 -1.0000000040000000e-03
1057 461 -2.0000002675356942e-03
125 462 -1.0000000000000000e+00
128 462 -1.0485078120458470e-02
133 462 -1.0011725206099679e-03
462 462 1.4486250912604130e-02
1056 462 -1.0000000040000000e-03
1057 462 -2.0000002675356942e-03
463 463 4.0000001963768333e-03
1056 463 -2.0000001467937890e-03
1057 463 -2.0000000495830452e-03
464 464 4.0000001963768333e-03
1056 464 -2.0000001467937890e-03
1057 464 -2.0000000495830452e-03
121 465 -1.0000000000000000e+00
122 465 -1.0485078120458470e-02
123 465 1.6485079089435719e-02
465 465 -1.0000000000000000e+00
1056 465 -2.0000005134753452e-03
1057 465 -4.0000004555018967e-03
91 466 -1.0000000000000000e+00
94 466 -4.4945024654233761e-03
107 466 -2.0000009065080258e-03
111 466 -2.0000003626032110e-03
118 466 1.0000000000000000e+00
119 466 -1.0485078120458470e-02
466 466 1.8979581854993079e-02
467 467 1.0000000000000000e+00
468 467 2.0000004435511880e-03
482 467 -2.0000004435511880e-03
468 468 1.0000000000000000e+00
472 468 -1.0000000000000000e+00
469 469 1.0000000000000000e+00
470 469 2.0000004435511880e-03
482 469 -2.0000004435511880e-03
470 470 1.0000000000000000e+00
471 470 -1.0000000000000000e+00
469 471 -1.0000000000000000e+00
471 471 2.0000010336915469e-03
1056 471 -2.0000010336915469e-03
467 472 -1.0000000000000000e+00
472 472 2.0000010336915469e-03
1056 472 -2.0000010336915469e-03
473 473 4.0000012333599403e-03
482 473 -2.0000001558797332e-03
1056 473 -2.0000010774802071e-03
474 474 4.0000008328654564e-03
482 474 -2.0000002858715478e-03
1056 474 -2.0000005469939068e-03
475 475 4.0000012333599403e-03
482 475 -2.0000001558797332e-03
1056 475 -2.0000010774802071e-03
476 476 2.0000011270590798e-03
478 476 -1.0000000000000000e+00
1056 476 -2.0000011270590798e-03
476 477 -1.0000000000000000e+00
477 477 1.0000000000000000e+00
477 478 4.0000010939878136e-03
478 478 1.0000000000000000e+00
479 478 -1.0000005449939070e-03
480 478 -1.0000005449939070e-03
1056 478 -2.0000000040000000e-03
477 479 -1.0000005449939070e-03
479 479 4.0000007687695013e-03
482 479 -2.0000002217755940e-03
1056 479 -1.0000000020000000e-03
477 480 -1.0000005449939070e-03
480 480 4.0000007687695013e-03
482 480 -2.0000002217755940e-03
1056 480 -1.0000000020000000e-03
481 481 4.0000008328654564e-03
482 481 -2.0000002858715478e-03
1056 481 -2.0000005469939068e-03
482 482 -1.0000000000000000e+00
1052 482 1.0000000000000000e+00
483 483 4.0000028587154814e-03
486 483 -1.0000002838715480e-03
490 483 -3.0000025748439319e-03
484 484 4.0000054699390738e-03
485 484 -1.0000005449939070e-03
1056 484 -3.0000049249451662e-03
484 485 -1.0000005449939070e-03
485 485 6.0000008536521578e-03
490 485 -4.0000003066582501e-03
1056 485 -1.0000000020000000e-03
483 486 -1.0000002838715480e-03
486 486 6.0000017386947933e-03
490 486 -1.0000000020000000e-03
1056 486 -4.0000014528232446e-03
487 487 4.0000009266160401e-03
490 487 -2.0000000207867018e-03
1056 487 -2.0000009058293378e-03
488 488 4.0000009266160401e-03
490 488 -2.0000000207867018e-03
1056 488 -2.0000009058293378e-03
489 489 4.0000009266160401e-03
490 489 -2.0000000207867018e-03
1056 489 -2.0000009058293378e-03
490 490 -1.0000000000000000e+00
1052 490 1.0000000000000000e+00
491 491 1.0000000000000001e-05
716 491 -1.0000000000000001e-05
492 492 1.0000000000000001e-05
715 492 -1.0000000000000001e-05
493 493 6.5947260792450424e-06
494 493 -6.5947260792450424e-06
493 494 -6.5947260792450424e-06
494 494 6.5947260792450424e-06
498 494 1.0000000000000000e+00
495 495 6.5947260792450424e-06
496 495 -6.5947260792450424e-06
496 496 1.0000000000000000e+00
501 496 -1.0000000000000000e+00
495 497 -6.5947260792450424e-06
496 497 6.5947260792450424e-06
497 497 1.0000000000000000e+00
497 498 -1.0000000000000000e+00
498 498 -1.0000000000000000e+00
500 498 -3.9568356475470248e-05
501 498 3.9568356475470248e-05
503 498 -1.0000000000000000e+00
499 499 1.0000000000000000e+00
500 499 3.9568356475470248e-05
501 499 -3.9568356475470248e-05
500 500 1.0000000000000000e+00
714 500 -1.0000000000000000e+00
494 501 1.0000000000000000e+00
501 501 -1.0000000000000000e+00
501 502 -1.0000000000000000e+00
502 502 1.0000000000000000e+00
502 503 1.3189452158490080e-05
503 503 1.0000000000000000e+00
1056 503 -1.3189452158490080e-05
504 504 2.0000005168457741e-03
505 504 -2.0000005168457741e-03
504 505 -2.0000005168457741e-03
505 505 2.0000005168457728e-03
690 505 -1.0000000000000000e+00
506 506 2.0000005168457741e-03
507 506 -2.0000005168457741e-03
506 507 -2.0000005168457741e-03
507 507 2.0000005168457728e-03
689 507 -1.0000000000000000e+00
508 508 2.0000005168457741e-03
509 508 -2.0000005168457741e-03
508 509 -2.0000005168457741e-03
509 509 2.0000005168457728e-03
688 509 -1.0000000000000000e+00
510 510 2.0000005168457741e-03
511 510 -2.0000005168457741e-03
510 511 -2.0000005168457741e-03
511 511 2.0000005168457728e-03
687 511 -1.0000000000000000e+00
512 512 2.0000005168457741e-03
513 512 -2.0000005168457741e-03
512 513 -2.0000005168457741e-03
513 513 2.0000005168457728e-03
686 513 -1.0000000000000000e+00
514 514 2.0000005168457741e-03
515 514 -2.0000005168457741e-03
514 515 -2.0000005168457741e-03
515 515 2.0000005168457728e-03
685 515 -1.0000000000000000e+00
516 516 2.0000005168457741e-03
517 516 -2.0000005168457741e-03
516 517 -2.0000005168457741e-03
517 517 2.0000005168457728e-03
684 517 -1.0000000000000000e+00
518 518 2.0000005168457741e-03
519 518 -2.0000005168457741e-03
518 519 -2.0000005168457741e-03
519 519 2.0000005168457728e-03
683 519 -1.0000000000000000e+00
520 520 2.0000005168457741e-03
521 520 -2.0000005168457741e-03
520 521 -2.0000005168457741e-03
521 521 2.0000005168457728e-03
682 521 -1.0000000000000000e+00
522 522 2.0000005168457741e-03
523 522 -2.0000005168457741e-03
522 523 -2.0000005168457741e-03
523 523 2.0000005168457728e-03
681 523 -1.0000000000000000e+00
524 524 2.0000005168457741e-03
525 524 -2.0000005168457741e-03
524 525 -2.0000005168457741e-03
525 525 2.0000005168457728e-03
680 525 -1.0000000000000000e+00
526 526 2.0000005168457741e-03
527 526 -2.0000005168457741e-03
526 527 -2.0000005168457741e-03
527 527 2.0000005168457728e-03
679 527 -1.0000000000000000e+00
528 528 2.0000005168457741e-03
529 528 -2.0000005168457741e-03
528 529 -2.0000005168457741e-03
529 529 2.0000005168457728e-03
678 529 -1.0000000000000000e+00
530 530 2.0000005168457741e-03
531 530 -2.0000005168457741e-03
530 531 -2.0000005168457741e-03
531 531 2.0000005168457728e-03
677 531 -1.0000000000000000e+00
532 532 2.0000005168457741e-03
533 532 -2.0000005168457741e-03
532 533 -2.0000005168457741e-03
533 533 2.0000005168457728e-03
676 533 -1.0000000000000000e+00
534 534 2.0000005168457741e-03
535 534 -2.0000005168457741e-03
534 535 -2.0000005168457741e-03
535 535 2.0000005168457728e-03
675 535 -1.0000000000000000e+00
536 536 2.0000005168457741e-03
537 536 -2.0000005168457741e-03
536 537 -2.0000005168457741e-03
537 537 2.0000005168457728e-03
674 537 -1.0000000000000000e+00
538 538 2.0000005168457741e-03
539 538 -2.0000005168457741e-03
538 539 -2.0000005168457741e-03
539 539 2.0000005168457728e-03
673 539 -1.0000000000000000e+00
540 540 2.0000005168457741e-03
541 540 -2.0000005168457741e-03
540 541 -2.0000005168457741e-03
541 541 2.0000005168457728e-03
672 541 -1.0000000000000000e+00
542 542 2.0000005168457741e-03
543 542 -2.0000005168457741e-03
542 543 -2.0000005168457741e-03
543 543 2.0000005168457728e-03
671 543 -1.0000000000000000e+00
544 544 2.0000005168457741e-03
545 544 -2.0000005168457741e-03
544 545 -2.0000005168457741e-03
545 545 2.0000005168457728e-03
670 545 -1.0000000000000000e+00
546 546 2.0000005168457741e-03
547 546 -2.0000005168457741e-03
546 547 -2.0000005168457741e-03
547 547 2.0000005168457728e-03
669 547 -1.0000000000000000e+00
548 548 2.0000005168457741e-03
549 548 -2.0000005168457741e-03
548 549 -2.0000005168457741e-03
549 549 2.0000005168457728e-03
668 549 -1.0000000000000000e+00
550 550 2.0000005168457741e-03
551 550 -2.0000005168457741e-03
550 551 -2.0000005168457741e-03
551 551 2.0000005168457728e-03
667 551 -1.0000000000000000e+00
552 552 2.0000005168457741e-03
553 552 -2.0000005168457741e-03
552 553 -2.0000005168457741e-03
553 553 2.0000005168457728e-03
666 553 -1.0000000000000000e+00
554 554 2.0000005168457741e-03
555 554 -2.0000005168457741e-03
554 555 -2.0000005168457741e-03
555 555 2.0000005168457728e-03
665 555 -1.0000000000000000e+00
556 556 2.0000005168457741e-03
557 556 -2.0000005168457741e-03
556 557 -2.0000005168457741e-03
557 557 2.0000005168457728e-03
664 557 -1.0000000000000000e+00
558 558 2.0000005168457741e-03
559 558 -2.0000005168457741e-03
558 559 -2.0000005168457741e-03
559 559 2.0000005168457728e-03
663 559 -1.0000000000000000e+00
560 560 2.0000005168457741e-03
561 560 -2.0000005168457741e-03
560 561 -2.0000005168457741e-03
561 561 2.0000005168457728e-03
662 561 -1.0000000000000000e+00
562 562 2.0000005168457741e-03
563 562 -2.0000005168457741e-03
562 563 -2.0000005168457741e-03
563 563 2.0000005168457728e-03
661 563 -1.0000000000000000e+00
564 564 2.0000005168457741e-03
565 564 -2.0000005168457741e-03
564 565 -2.0000005168457741e-03
565 565 2.0000005168457728e-03
660 565 -1.0000000000000000e+00
566 566 2.0000005168457741e-03
567 566 -2.0000005168457741e-03
566 567 -2.0000005168457741e-03
567 567 2.0000005168457728e-03
659 567 -1.0000000000000000e+00
568 568 2.0000005168457741e-03
569 568 -2.0000005168457741e-03
568 569 -2.0000005168457741e-03
569 569 2.0000005168457728e-03
658 569 -1.0000000000000000e+00
570 570 2.0000005168457741e-03
571 570 -2.0000005168457741e-03
570 571 -2.0000005168457741e-03
571 571 2.0000005168457728e-03
657 571 -1.0000000000000000e+00
572 572 2.0000005168457741e-03
573 572 -2.0000005168457741e-03
572 573 -2.0000005168457741e-03
573 573 2.0000005168457728e-03
656 573 -1.0000000000000000e+00
574 574 2.0000005168457741e-03
575 574 -2.0000005168457741e-03
574 575 -2.0000005168457741e-03
575 575 2.0000005168457728e-03
655 575 -1.0000000000000000e+00
576 576 2.0000005168457741e-03
577 576 -2.0000005168457741e-03
576 577 -2.0000005168457741e-03
577 577 2.0000005168457728e-03
654 577 -1.0000000000000000e+00
578 578 2.0000005168457741e-03
579 578 -2.0000005168457741e-03
578 579 -2.0000005168457741e-03
579 579 2.0000005168457728e-03
653 579 -1.0000000000000000e+00
580 580 2.0000005168457741e-03
581 580 -2.0000005168457741e-03
580 581 -2.0000005168457741e-03
581 581 2.0000005168457728e-03
652 581 -1.0000000000000000e+00
582 582 2.0000005168457741e-03
583 582 -2.0000005168457741e-03
582 583 -2.0000005168457741e-03
583 583 2.0000005168457728e-03
651 583 -1.0000000000000000e+00
584 584 2.0000005168457741e-03
585 584 -2.0000005168457741e-03
584 585 -2.0000005168457741e-03
585 585 2.0000005168457728e-03
650 585 -1.0000000000000000e+00
586 586 2.0000005168457741e-03
587 586 -2.0000005168457741e-03
586 587 -2.0000005168457741e-03
587 587 2.0000005168457728e-03
649 587 -1.0000000000000000e+00
588 588 2.0000005168457741e-03
589 588 -2.0000005168457741e-03
588 589 -2.0000005168457741e-03
589 589 2.0000005168457728e-03
648 589 -1.0000000000000000e+00
590 590 2.0000005168457741e-03
591 590 -2.0000005168457741e-03
590 591 -2.0000005168457741e-03
591 591 2.0000005168457728e-03
647 591 -1.0000000000000000e+00
592 592 2.0000005168457741e-03
593 592 -2.0000005168457741e-03
592 593 -2.0000005168457741e-03
593 593 2.0000005168457728e-03
646 593 -1.0000000000000000e+00
594 594 2.0000005168457741e-03
595 594 -2.0000005168457741e-03
594 595 -2.0000005168457741e-03
595 595 2.0000005168457728e-03
645 595 -1.0000000000000000e+00
596 596 2.0000005168457741e-03
597 596 -2.0000005168457741e-03
596 597 -2.0000005168457741e-03
597 597 2.0000005168457728e-03
644 597 -1.0000000000000000e+00
598 598 2.0000005168457741e-03
599 598 -2.0000005168457741e-03
598 599 -2.0000005168457741e-03
599 599 2.0000005168457728e-03
643 599 -1.0000000000000000e+00
600 600 2.0000005168457741e-03
601 600 -2.0000005168457741e-03
600 601 -2.0000005168457741e-03
601 601 2.0000005168457728e-03
642 601 -1.0000000000000000e+00
602 602 2.0000005168457741e-03
603 602 -2.0000005168457741e-03
602 603 -2.0000005168457741e-03
603 603 2.0000005168457728e-03
641 603 -1.0000000000000000e+00
604 604 2.0000005168457741e-03
605 604 -2.0000005168457741e-03
604 605 -2.0000005168457741e-03
605 605 2.0000005168457728e-03
640 605 -1.0000000000000000e+00
606 606 2.0000005168457741e-03
607 606 -2.0000005168457741e-03
606 607 -2.0000005168457741e-03
607 607 2.0000005168457728e-03
639 607 -1.0000000000000000e+00
608 608 2.0000005168457741e-03
609 608 -2.0000005168457741e-03
608 609 -2.0000005168457741e-03
609 609 2.0000005168457728e-03
638 609 -1.0000000000000000e+00
610 610 2.0000005168457741e-03
611 610 -2.0000005168457741e-03
610 611 -2.0000005168457741e-03
611 611 2.0000005168457728e-03
637 611 -1.0000000000000000e+00
612 612 2.0000005168457741e-03
613 612 -2.0000005168457741e-03
612 613 -2.0000005168457741e-03
613 613 2.0000005168457728e-03
636 613 -1.0000000000000000e+00
614 614 2.0000005168457741e-03
615 614 -2.0000005168457741e-03
614 615 -2.0000005168457741e-03
615 615 2.0000005168457728e-03
635 615 -1.0000000000000000e+00
616 616 2.0000005168457741e-03
617 616 -2.0000005168457741e-03
616 617 -2.0000005168457741e-03
617 617 2.0000005168457728e-03
634 617 -1.0000000000000000e+00
618 618 2.0000005168457741e-03
619 618 -2.0000005168457741e-03
618 619 -2.0000005168457741e-03
619 619 2.0000005168457728e-03
633 619 -1.0000000000000000e+00
620 620 2.0000005168457741e-03
621 620 -2.0000005168457741e-03
620 621 -2.0000005168457741e-03
621 621 2.0000005168457728e-03
632 621 -1.0000000000000000e+00
622 622 2.0000005168457741e-03
623 622 -2.0000005168457741e-03
622 623 -2.0000005168457741e-03
623 623 2.0000005168457728e-03
631 623 -1.0000000000000000e+00
624 624 2.0000005168457741e-03
625 624 -2.0000005168457741e-03
624 625 -2.0000005168457741e-03
625 625 2.0000005168457728e-03
630 625 -1.0000000000000000e+00
626 626 1.0000000000000000e+00
1056 626 -1.0000000000000000e+00
627 627 2.0000005168457741e-03
628 627 -2.0000005168457741e-03
627 628 -2.0000005168457741e-03
628 628 2.0000005168457728e-03
629 628 -1.0000000000000000e+00
628 629 -1.0000000000000000e+00
629 629 -9.9999999999999995e-07
1056 629 1.0000000000000000e+00
625 630 -1.0000000000000000e+00
630 630 -9.9999999999999995e-07
1056 630 1.0000000000000000e+00
623 631 -1.0000000000000000e+00
631 631 -9.9999999999999995e-07
1056 631 1.0000000000000000e+00
621 632 -1.0000000000000000e+00
632 632 -9.9999999999999995e-07
1056 632 1.0000000000000000e+00
619 633 -1.0000000000000000e+00
633 633 -9.9999999999999995e-07
1056 633 1.0000000000000000e+00
617 634 -1.0000000000000000e+00
634 634 -9.9999999999999995e-07
1056 634 1.0000000000000000e+00
615 635 -1.0000000000000000e+00
635 635 -9.9999999999999995e-07
1056 635 1.0000000000000000e+00
613 636 -1.0000000000000000e+00
636 636 -9.9999999999999995e-07
1056 636 1.0000000000000000e+00
611 637 -1.0000000000000000e+00
637 637 -9.9999999999999995e-07
1056 637 1.0000000000000000e+00
609 638 -1.0000000000000000e+00
638 638 -9.9999999999999995e-07
1056 638 1.0000000000000000e+00
607 639 -1.0000000000000000e+00
639 639 -9.9999999999999995e-07
1056 639 1.0000000000000000e+00
605 640 -1.0000000000000000e+00
640 640 -9.9999999999999995e-07
1056 640 1.0000000000000000e+00
603 641 -1.0000000000000000e+00
641 641 -9.9999999999999995e-07
1056 641 1.0000000000000000e+00
601 642 -1.0000000000000000e+00
642 642 -9.9999999999999995e-07
1056 642 1.0000000000000000e+00
599 643 -1.0000000000000000e+00
643 643 -9.9999999999999995e-07
1056 643 1.0000000000000000e+00
597 644 -1.0000000000000000e+00
644 644 -9.9999999999999995e-07
1056 644 1.0000000000000000e+00
595 645 -1.0000000000000000e+00
645 645 -9.9999999999999995e-07
1056 645 1.0000000000000000e+00
593 646 -1.0000000000000000e+00
646 646 -9.9999999999999995e-07
1056 646 1.0000000000000000e+00
591 647 -1.0000000000000000e+00
647 647 -9.9999999999999995e-07
1056 647 1.0000000000000000e+00
589 648 -1.0000000000000000e+00
648 648 -9.9999999999999995e-07
1056 648 1.0000000000000000e+00
587 649 -1.0000000000000000e+00
649 649 -9.9999999999999995e-07
1056 649 1.0000000000000000e+00
585 650 -1.0000000000000000e+00
650 650 -9.9999999999999995e-07
1056 650 1.0000000000000000e+00
583 651 -1.0000000000000000e+00
651 651 -9.9999999999999995e-07
1056 651 1.0000000000000000e+00
581 652 -1.0000000000000000e+00
652 652 -9.9999999999999995e-07
1056 652 1.0000000000000000e+00
579 653 -1.0000000000000000e+00
653 653 -9.9999999999999995e-07
1056 653 1.0000000000000000e+00
577 654 -1.0000000000000000e+00
654 654 -9.9999999999999995e-07
1056 654 1.0000000000000000e+00
575 655 -1.0000000000000000e+00
655 655 -9.9999999999999995e-07
1056 655 1.0000000000000000e+00
573 656 -1.0000000000000000e+00
656 656 -9.9999999999999995e-07
1056 656 1.0000000000000000e+00
571 657 -1.0000000000000000e+00
657 657 -9.9999999999999995e-07
1056 657 1.0000000000000000e+00
569 658 -1.0000000000000000e+00
658 658 -9.9999999999999995e-07
1056 658 1.0000000000000000e+00
567 659 -1.0000000000000000e+00
659 659 -9.9999999999999995e-07
1056 659 1.0000000000000000e+00
565 660 -1.0000000000000000e+00
660 660 -9.9999999999999995e-07
1056 660 1.0000000000000000e+00
563 661 -1.0000000000000000e+00
661 661 -9.9999999999999995e-07
1056 661 1.0000000000000000e+00
561 662 -1.0000000000000000e+00
662 662 -9.9999999999999995e-07
1056 662 1.0000000000000000e+00
559 663 -1.0000000000000000e+00
663 663 -9.9999999999999995e-07
1056 663 1.0000000000000000e+00
557 664 -1.0000000000000000e+00
664 664 -9.9999999999999995e-07
1056 664 1.0000000000000000e+00
555 665 -1.0000000000000000e+00
665 665 -9.9999999999999995e-07
1056 665 1.0000000000000000e+00
553 666 -1.0000000000000000e+00
666 666 -9.9999999999999995e-07
1056 666 1.0000000000000000e+00
551 667 -1.0000000000000000e+00
667 667 -9.9999999999999995e-07
1056 667 1.0000000000000000e+00
549 668 -1.0000000000000000e+00
668 668 -9.9999999999999995e-07
1056 668 1.0000000000000000e+00
547 669 -1.0000000000000000e+00
669 669 -9.9999999999999995e-07
1056 669 1.0000000000000000e+00
545 670 -1.0000000000000000e+00
670 670 -9.9999999999999995e-07
1056 670 1.0000000000000000e+00
543 671 -1.0000000000000000e+00
671 671 -9.9999999999999995e-07
1056 671 1.0000000000000000e+00
541 672 -1.0000000000000000e+00
672 672 -9.9999999999999995e-07
1056 672 1.0000000000000000e+00
539 673 -1.0000000000000000e+00
673 673 -9.9999999999999995e-07
1056 673 1.0000000000000000e+00
537 674 -1.0000000000000000e+00
674 674 -9.9999999999999995e-07
1056 674 1.0000000000000000e+00
535 675 -1.0000000000000000e+00
675 675 -9.9999999999999995e-07
1056 675 1.0000000000000000e+00
533 676 -1.0000000000000000e+00
676 676 -9.9999999999999995e-07
1056 676 1.0000000000000000e+00
531 677 -1.0000000000000000e+00
677 677 -9.9999999999999995e-07
1056 677 1.0000000000000000e+00
529 678 -1.0000000000000000e+00
678 678 -9.9999999999999995e-07
1056 678 1.0000000000000000e+00
527 679 -1.0000000000000000e+00
679 679 -9.9999999999999995e-07
1056 679 1.0000000000000000e+00
525 680 -1.0000000000000000e+00
680 680 -9.9999999999999995e-07
1056 680 1.0000000000000000e+00
523 681 -1.0000000000000000e+00
681 681 -9.9999999999999995e-07
1056 681 1.0000000000000000e+00
521 682 -1.0000000000000000e+00
682 682 -9.9999999999999995e-07
1056 682 1.0000000000000000e+00
519 683 -1.0000000000000000e+00
683 683 -9.9999999999999995e-07
1056 683 1.0000000000000000e+00
517 684 -1.0000000000000000e+00
684 684 -9.9999999999999995e-07
1056 684 1.0000000000000000e+00
515 685 -1.0000000000000000e+00
685 685 -9.9999999999999995e-07
1056 685 1.0000000000000000e+00
513 686 -1.0000000000000000e+00
686 686 -9.9999999999999995e-07
1056 686 1.0000000000000000e+00
511 687 -1.0000000000000000e+00
687 687 -9.9999999999999995e-07
1056 687 1.0000000000000000e+00
509 688 -1.0000000000000000e+00
688 688 -9.9999999999999995e-07
1056 688 1.0000000000000000e+00
507 689 -1.0000000000000000e+00
689 689 -9.9999999999999995e-07
1056 689 1.0000000000000000e+00
505 690 -1.0000000000000000e+00
690 690 -9.9999999999999995e-07
1056 690 1.0000000000000000e+00
691 691 4.0000001200000031e-03
1056 691 -4.0000001200000031e-03
692 692 1.0000000000000000e+00
1056 692 -1.0000000000000000e+00
693 693 3.7355248412401939e-04
1056 693 -3.7355248412401939e-04
694 694 3.7355248412401939e-04
1056 694 -3.7355248412401939e-04
695 695 1.0000000000000001e-05
1056 695 -1.0000000000000001e-05
696 696 1.0000000000000000e+00
696 697 1.0000009999999999e-03
697 697 1.0000000000000000e+00
698 698 1.0000000000000000e+00
698 699 1.0000009999999999e-03
699 699 1.0000000000000000e+00
697 700 1.0000000000000000e+00
699 700 -1.0000000000000000e+00
700 700 6.5415981048462394e-03
703 700 -1.0486653635786720e-03
713 700 -5.4929317412675677e-03
701 701 1.0000000000000000e+00
701 702 1.0000009999999999e-03
702 702 1.0000000000000000e+00
699 703 1.0000000000000000e+00
700 703 -1.0486653635786720e-03
702 703 -1.0000000000000000e+00
703 703 6.5415981048462394e-03
704 703 -5.4929317412675677e-03
702 704 1.0000000000000000e+00
703 704 -5.4929317412675677e-03
704 704 7.4929322486536219e-03
1056 704 -2.0000005073860551e-03
705 705 1.0000000000000000e+00
706 705 -2.1929824561403510e+00
707 705 2.1929824561403510e+00
706 706 3.1929824561403510e+00
707 706 -2.1929824561403510e+00
1052 706 -1.0000000000000000e+00
707 707 1.0000000000000000e+00
1052 707 -1.0000000000000000e+00
708 708 4.0000020446575406e-03
713 708 -1.0000007617673510e-03
1052 708 -3.0000012828901891e-03
709 709 -1.0000000000000000e+00
710 709 2.0000005635295399e-03
1056 709 -2.0000005635295399e-03
710 710 -1.0000000000000000e+00
712 710 1.0000000000000000e+00
711 711 4.0000081786301612e-03
712 711 -1.0000030470694050e-03
1052 711 -3.0000051315607558e-03
709 712 1.0000000000000000e+00
711 712 -1.0000030470694050e-03
712 712 2.0000030630694049e-03
1052 712 -1.0000000160000010e-03
697 713 -1.0000000000000000e+00
700 713 -5.4929317412675677e-03
708 713 -1.0000007617673510e-03
713 713 7.4929325070349191e-03
1052 713 -1.0000000040000000e-03
499 714 -1.0000000000000000e+00
714 714 2.0000032117932680e-03
1052 714 -2.0000032117932680e-03
492 715 -1.0000000000000001e-05
715 715 4.0100009474920654e-03
1052 715 -2.0000000233095861e-03
1056 715 -2.0000009241824780e-03
491 716 -1.0000000000000001e-05
716 716 4.0100009474920654e-03
1052 716 -2.0000000233095861e-03
1056 716 -2.0000009241824780e-03
717 717 -1.0000000000000000e+00
808 717 1.0000000000000000e+00
718 718 -1.0000000000000000e+00
719 719 -1.0000000000000000e+00
720 720 -1.0000000000000000e+00
721 720 1.0000000000000000e+00
719 721 1.0000000000000000e+00
721 721 3.0779720798363308e+00
723 721 -3.0779720798363308e+00
721 722 -3.0779720798363308e+00
722 722 -1.0000000000000000e+00
723 722 3.0779720798363308e+00
723 723 -1.0000000000000000e+00
808 723 1.0000000000000000e+00
724 724 -1.0000000000000000e+00
725 725 -1.0000000000000000e+00
726 725 1.0000000000000000e+00
724 726 1.0000000000000000e+00
726 726 1.5389860399201110e+00
728 726 -1.5389860399201110e+00
726 727 -1.5389860399201110e+00
727 727 -1.0000000000000000e+00
728 727 1.5389860399201110e+00
728 728 -1.0000000000000000e+00
808 728 1.0000000000000000e+00
729 729 -1.0000000000000000e+00
730 730 -1.0000000000000000e+00
731 730 1.0000000000000000e+00
729 731 1.0000000000000000e+00
731 731 1.5389860399201110e+00
733 731 -1.5389860399201110e+00
731 732 -1.5389860399201110e+00
732 732 -1.0000000000000000e+00
733 732 1.5389860399201110e+00
733 733 -1.0000000000000000e+00
808 733 1.0000000000000000e+00
734 734 1.0000000000000000e+00
734 735 -9.9999999999999995e-07
735 735 1.0000000000000000e+00
808 735 -1.0000000000000000e+00
736 736 1.0000000000000000e+00
736 737 -9.9999999999999995e-07
737 737 1.0000000000000000e+00
808 737 -1.0000000000000000e+00
738 738 1.0000000000000000e+00
738 739 -9.9999999999999995e-07
739 739 1.0000000000000000e+00
808 739 -1.0000000000000000e+00
740 740 1.0000000000000000e+00
740 741 -9.9999999999999995e-07
741 741 1.0000000000000000e+00
808 741 -1.0000000000000000e+00
742 742 1.0000000000000000e+00
742 743 -9.9999999999999995e-07
743 743 1.0000000000000000e+00
808 743 -1.0000000000000000e+00
744 744 1.0000000000000000e+00
744 745 -9.9999999999999995e-07
745 745 1.0000000000000000e+00
808 745 -1.0000000000000000e+00
746 746 1.0000000000000000e+00
746 747 -9.9999999999999995e-07
747 747 1.0000000000000000e+00
808 747 -1.0000000000000000e+00
748 748 1.0000000000000000e+00
748 749 -9.9999999999999995e-07
749 749 1.0000000000000000e+00
808 749 -1.0000000000000000e+00
750 750 1.0000000000000000e+00
750 751 -9.9999999999999995e-07
751 751 1.0000000000000000e+00
808 751 -1.0000000000000000e+00
752 752 1.0000000000000000e+00
752 753 -9.9999999999999995e-07
753 753 1.0000000000000000e+00
808 753 -1.0000000000000000e+00
754 754 1.0000000000000000e+00
754 755 -9.9999999999999995e-07
755 755 1.0000000000000000e+00
808 755 -1.0000000000000000e+00
756 756 1.0000000000000000e+00
756 757 -9.9999999999999995e-07
757 757 1.0000000000000000e+00
808 757 -1.0000000000000000e+00
758 758 1.0000000000000000e+00
758 759 -9.9999999999999995e-07
759 759 1.0000000000000000e+00
808 759 -1.0000000000000000e+00
760 760 1.0000000000000000e+00
760 761 -9.9999999999999995e-07
761 761 1.0000000000000000e+00
808 761 -1.0000000000000000e+00
762 762 1.0000000000000000e+00
762 763 -9.9999999999999995e-07
763 763 1.0000000000000000e+00
808 763 -1.0000000000000000e+00
764 764 1.0000000000000000e+00
764 765 -9.9999999999999995e-07
765 765 1.0000000000000000e+00
808 765 -1.0000000000000000e+00
766 766 1.0000000000000000e+00
766 767 -9.9999999999999995e-07
767 767 1.0000000000000000e+00
808 767 -1.0000000000000000e+00
768 768 1.0000000000000000e+00
768 769 -9.9999999999999995e-07
769 769 1.0000000000000000e+00
808 769 -1.0000000000000000e+00
770 770 1.0000000000000000e+00
770 771 -9.9999999999999995e-07
771 771 1.0000000000000000e+00
808 771 -1.0000000000000000e+00
772 772 1.0000000000000000e+00
772 773 -9.9999999999999995e-07
773 773 1.0000000000000000e+00
808 773 -1.0000000000000000e+00
774 774 1.0000000000000000e+00
774 775 -9.9999999999999995e-07
775 775 1.0000000000000000e+00
808 775 -1.0000000000000000e+00
776 776 1.0000000000000000e+00
776 777 -9.9999999999999995e-07
777 777 1.0000000000000000e+00
808 777 -1.0000000000000000e+00
778 778 1.0000000000000000e+00
778 779 -9.9999999999999995e-07
779 779 1.0000000000000000e+00
808 779 -1.0000000000000000e+00
780 780 1.0000000000000000e+00
780 781 -9.9999999999999995e-07
781 781 1.0000000000000000e+00
808 781 -1.0000000000000000e+00
782 782 1.0000000000000000e+00
782 783 -9.9999999999999995e-07
783 783 1.0000000000000000e+00
808 783 -1.0000000000000000e+00
784 784 1.0000000000000000e+00
784 785 -9.9999999999999995e-07
785 785 1.0000000000000000e+00
808 785 -1.0000000000000000e+00
786 786 1.0000000000000000e+00
786 787 -9.9999999999999995e-07
787 787 1.0000000000000000e+00
808 787 -1.0000000000000000e+00
788 788 1.0000000000000000e+00
788 789 -9.9999999999999995e-07
789 789 1.0000000000000000e+00
808 789 -1.0000000000000000e+00
790 790 1.0000000000000000e+00
790 791 -9.9999999999999995e-07
791 791 1.0000000000000000e+00
808 791 -1.0000000000000000e+00
792 792 1.0000000000000000e+00
792 793 -9.9999999999999995e-07
793 793 1.0000000000000000e+00
808 793 -1.0000000000000000e+00
794 794 1.0000000000000000e+00
794 795 -9.9999999999999995e-07
795 795 1.0000000000000000e+00
808 795 -1.0000000000000000e+00
796 796 6.4399275683165197e-02
901 796 -1.0000000000000000e+00
902 796 -6.4399275683165197e-02
797 797 1.0000000000000000e+00
798 798 -9.9999999999999995e-07
799 798 1.0000000000000000e+00
808 798 -1.0000000000000000e+00
799 799 1.0000000000000000e+00
802 799 -9.9999999999999995e-07
808 799 -1.0000000000000000e+00
799 800 1.0000000000000000e+00
800 800 -9.9999999999999995e-07
808 800 -1.0000000000000000e+00
799 801 1.0000000000000000e+00
801 801 -9.9999999999999995e-07
808 801 -1.0000000000000000e+00
798 802 1.0000000000000000e+00
800 802 1.0000000000000000e+00
801 802 1.0000000000000000e+00
802 802 1.0000000000000000e+00
803 803 -9.9999999999999995e-07
804 803 1.0000000000000000e+00
808 803 -1.0000000000000000e+00
804 804 1.0000000000000000e+00
807 804 -9.9999999999999995e-07
808 804 -1.0000000000000000e+00
804 805 1.0000000000000000e+00
805 805 -9.9999999999999995e-07
808 805 -1.0000000000000000e+00
804 806 1.0000000000000000e+00
806 806 -9.9999999999999995e-07
808 806 -1.0000000000000000e+00
803 807 1.0000000000000000e+00
805 807 1.0000000000000000e+00
806 807 1.0000000000000000e+00
807 807 1.0000000000000000e+00
796 808 -1.0000000000000000e+00
808 808 1.0000000000000000e+00
809 809 -1.0000000000000000e+00
899 809 1.0000000000000000e+00
810 810 -1.0000000000000000e+00
811 811 -1.0000000000000000e+00
812 812 -1.0000000000000000e+00
813 812 1.0000000000000000e+00
811 813 1.0000000000000000e+00
813 813 3.0779720798363308e+00
815 813 -3.0779720798363308e+00
813 814 -3.0779720798363308e+00
814 814 -1.0000000000000000e+00
815 814 3.0779720798363308e+00
815 815 -1.0000000000000000e+00
899 815 1.0000000000000000e+00
816 816 -1.0000000000000000e+00
817 817 -1.0000000000000000e+00
818 817 1.0000000000000000e+00
816 818 1.0000000000000000e+00
818 818 1.5389860399201110e+00
820 818 -1.5389860399201110e+00
818 819 -1.5389860399201110e+00
819 819 -1.0000000000000000e+00
820 819 1.5389860399201110e+00
820 820 -1.0000000000000000e+00
899 820 1.0000000000000000e+00
821 821 -1.0000000000000000e+00
822 822 -1.0000000000000000e+00
823 822 1.0000000000000000e+00
821 823 1.0000000000000000e+00
823 823 1.5389860399201110e+00
825 823 -1.5389860399201110e+00
823 824 -1.5389860399201110e+00
824 824 -1.0000000000000000e+00
825 824 1.5389860399201110e+00
825 825 -1.0000000000000000e+00
899 825 1.0000000000000000e+00
826 826 1.0000000000000000e+00
826 827 -9.9999999999999995e-07
827 827 1.0000000000000000e+00
899 827 -1.0000000000000000e+00
828 828 1.0000000000000000e+00
828 829 -9.9999999999999995e-07
829 829 1.0000000000000000e+00
899 829 -1.0000000000000000e+00
830 830 1.0000000000000000e+00
830 831 -9.9999999999999995e-07
831 831 1.0000000000000000e+00
899 831 -1.0000000000000000e+00
832 832 1.0000000000000000e+00
832 833 -9.9999999999999995e-07
833 833 1.0000000000000000e+00
899 833 -1.0000000000000000e+00
834 834 1.0000000000000000e+00
834 835 -9.9999999999999995e-07
835 835 1.0000000000000000e+00
899 835 -1.0000000000000000e+00
836 836 1.0000000000000000e+00
836 837 -9.9999999999999995e-07
837 837 1.0000000000000000e+00
899 837 -1.0000000000000000e+00
838 838 1.0000000000000000e+00
838 839 -9.9999999999999995e-07
839 839 1.0000000000000000e+00
899 839 -1.0000000000000000e+00
840 840 1.0000000000000000e+00
840 841 -9.9999999999999995e-07
841 841 1.0000000000000000e+00
899 841 -1.0000000000000000e+00
842 842 1.0000000000000000e+00
842 843 -9.9999999999999995e-07
843 843 1.0000000000000000e+00
899 843 -1.0000000000000000e+00
844 844 1.0000000000000000e+00
844 845 -9.9999999999999995e-07
845 845 1.0000000000000000e+00
899 845 -1.0000000000000000e+00
846 846 1.0000000000000000e+00
846 847 -9.9999999999999995e-07
847 847 1.0000000000000000e+00
899 847 -1.0000000000000000e+00
848 848 1.0000000000000000e+00
848 849 -9.9999999999999995e-07
849 849 1.0000000000000000e+00
899 849 -1.0000000000000000e+00
850 850 1.0000000000000000e+00
850 851 -9.9999999999999995e-07
851 851 1.0000000000000000e+00
899 851 -1.0000000000000000e+00
852 852 1.0000000000000000e+00
852 853 -9.9999999999999995e-07
853 853 1.0000000000000000e+00
899 853 -1.0000000000000000e+00
854 854 1.0000000000000000e+00
854 855 -9.9999999999999995e-07
855 855 1.0000000000000000e+00
899 855 -1.0000000000000000e+00
856 856 1.0000000000000000e+00
856 857 -9.9999999999999995e-07
857 857 1.0000000000000000e+00
899 857 -1.0000000000000000e+00
858 858 1.0000000000000000e+00
858 859 -9.9999999999999995e-07
859 859 1.0000000000000000e+00
899 859 -1.0000000000000000e+00
860 860 1.0000000000000000e+00
860 861 -9.9999999999999995e-07
861 861 1.0000000000000000e+00
899 861 -1.0000000000000000e+00
862 862 1.0000000000000000e+00
862 863 -9.9999999999999995e-07
863 863 1.0000000000000000e+00
899 863 -1.0000000000000000e+00
864 864 1.0000000000000000e+00
864 865 -9.9999999999999995e-07
865 865 1.0000000000000000e+00
899 865 -1.0000000000000000e+00
866 866 1.0000000000000000e+00
866 867 -9.9999999999999995e-07
867 867 1.0000000000000000e+00
899 867 -1.0000000000000000e+00
868 868 1.0000000000000000e+00
868 869 -9.9999999999999995e-07
869 869 1.0000000000000000e+00
899 869 -1.0000000000000000e+00
870 870 1.0000000000000000e+00
870 871 -9.9999999999999995e-07
871 871 1.0000000000000000e+00
899 871 -1.0000000000000000e+00
872 872 1.0000000000000000e+00
872 873 -9.9999999999999995e-07
873 873 1.0000000000000000e+00
899 873 -1.0000000000000000e+00
874 874 1.0000000000000000e+00
874 875 -9.9999999999999995e-07
875 875 1.0000000000000000e+00
899 875 -1.0000000000000000e+00
876 876 1.0000000000000000e+00
876 877 -9.9999999999999995e-07
877 877 1.0000000000000000e+00
899 877 -1.0000000000000000e+00
878 878 1.0000000000000000e+00
878 879 -9.9999999999999995e-07
879 879 1.0000000000000000e+00
899 879 -1.0000000000000000e+00
880 880 1.0000000000000000e+00
880 881 -9.9999999999999995e-07
881 881 1.0000000000000000e+00
899 881 -1.0000000000000000e+00
882 882 1.0000000000000000e+00
882 883 -9.9999999999999995e-07
883 883 1.0000000000000000e+00
899 883 -1.0000000000000000e+00
884 884 1.0000000000000000e+00
884 885 -9.9999999999999995e-07
885 885 1.0000000000000000e+00
899 885 -1.0000000000000000e+00
886 886 1.0000000000000000e+00
886 887 -9.9999999999999995e-07
887 887 1.0000000000000000e+00
899 887 -1.0000000000000000e+00
888 888 6.4399275683165197e-02
900 888 -1.0000000000000000e+00
902 888 -6.4399275683165197e-02
889 889 -9.9999999999999995e-07
890 889 1.0000000000000000e+00
899 889 -1.0000000000000000e+00
890 890 1.0000000000000000e+00
893 890 -9.9999999999999995e-07
899 890 -1.0000000000000000e+00
890 891 1.0000000000000000e+00
891 891 -9.9999999999999995e-07
899 891 -1.0000000000000000e+00
890 892 1.0000000000000000e+00
892 892 -9.9999999999999995e-07
899 892 -1.0000000000000000e+00
889 893 1.0000000000000000e+00
891 893 1.0000000000000000e+00
892 893 1.0000000000000000e+00
893 893 1.0000000000000000e+00
894 894 -9.9999999999999995e-07
895 894 1.0000000000000000e+00
899 894 -1.0000000000000000e+00
895 895 1.0000000000000000e+00
898 895 -9.9999999999999995e-07
899 895 -1.0000000000000000e+00
895 896 1.0000000000000000e+00
896 896 -9.9999999999999995e-07
899 896 -1.0000000000000000e+00
895 897 1.0000000000000000e+00
897 897 -9.9999999999999995e-07
899 897 -1.0000000000000000e+00
894 898 1.0000000000000000e+00
896 898 1.0000000000000000e+00
897 898 1.0000000000000000e+00
898 898 1.0000000000000000e+00
888 899 -1.0000000000000000e+00
899 899 1.0000000000000000e+00
797 900 1.0000000000000000e+00
808 900 -5.0000000000000001e-04
810 900 1.0000000000000000e+00
814 900 1.0000000000000000e+00
819 900 1.0000000000000000e+00
824 900 1.0000000000000000e+00
826 900 -1.0000000000000000e+00
828 900 -1.0000000000000000e+00
830 900 -1.0000000000000000e+00
832 900 -1.0000000000000000e+00
834 900 -1.0000000000000000e+00
836 900 -1.0000000000000000e+00
838 900 -1.0000000000000000e+00
840 900 -1.0000000000000000e+00
842 900 -1.0000000000000000e+00
844 900 -1.0000000000000000e+00
846 900 -1.0000000000000000e+00
848 900 -1.0000000000000000e+00
850 900 -1.0000000000000000e+00
852 900 -1.0000000000000000e+00
854 900 -1.0000000000000000e+00
856 900 -1.0000000000000000e+00
858 900 -1.0000000000000000e+00
860 900 -1.0000000000000000e+00
862 900 -1.0000000000000000e+00
864 900 -1.0000000000000000e+00
866 900 -1.0000000000000000e+00
868 900 -1.0000000000000000e+00
870 900 -1.0000000000000000e+00
872 900 -1.0000000000000000e+00
874 900 -1.0000000000000000e+00
876 900 -1.0000000000000000e+00
878 900 -1.0000000000000000e+00
880 900 -1.0000000000000000e+00
882 900 -1.0000000000000000e+00
884 900 -1.0000000000000000e+00
886 900 -1.0000000000000000e+00
889 900 -1.0000000000000000e+00
891 900 -1.0000000000000000e+00
892 900 -1.0000000000000000e+00
893 900 -1.0000000000000000e+00
894 900 -1.0000000000000000e+00
896 900 -1.0000000000000000e+00
897 900 -1.0000000000000000e+00
898 900 -1.0000000000000000e+00
899 900 2.5000042000985641e-03
900 900 1.0000000000000000e+00
1056 900 -2.0000042000985641e-03
718 901 1.0000000000000000e+00
722 901 1.0000000000000000e+00
727 901 1.0000000000000000e+00
732 901 1.0000000000000000e+00
734 901 -1.0000000000000000e+00
736 901 -1.0000000000000000e+00
738 901 -1.0000000000000000e+00
740 901 -1.0000000000000000e+00
742 901 -1.0000000000000000e+00
744 901 -1.0000000000000000e+00
746 901 -1.0000000000000000e+00
748 901 -1.0000000000000000e+00
750 901 -1.0000000000000000e+00
752 901 -1.0000000000000000e+00
754 901 -1.0000000000000000e+00
756 901 -1.0000000000000000e+00
758 901 -1.0000000000000000e+00
760 901 -1.0000000000000000e+00
762 901 -1.0000000000000000e+00
764 901 -1.0000000000000000e+00
766 901 -1.0000000000000000e+00
768 901 -1.0000000000000000e+00
770 901 -1.0000000000000000e+00
772 901 -1.0000000000000000e+00
774 901 -1.0000000000000000e+00
776 901 -1.0000000000000000e+00
778 901 -1.0000000000000000e+00
780 901 -1.0000000000000000e+00
782 901 -1.0000000000000000e+00
784 901 -1.0000000000000000e+00
786 901 -1.0000000000000000e+00
788 901 -1.0000000000000000e+00
790 901 -1.0000000000000000e+00
792 901 -1.0000000000000000e+00
794 901 -1.0000000000000000e+00
797 901 -1.0000000000000000e+00
798 901 -1.0000000000000000e+00
800 901 -1.0000000000000000e+00
801 901 -1.0000000000000000e+00
802 901 -1.0000000000000000e+00
803 901 -1.0000000000000000e+00
805 901 -1.0000000000000000e+00
806 901 -1.0000000000000000e+00
807 901 -1.0000000000000000e+00
808 901 2.5000042000985641e-03
899 901 -5.0000000000000001e-04
901 901 1.0000000000000000e+00
1056 901 -2.0000042000985641e-03
796 902 -6.4399275683165197e-02
888 902 -6.4399275683165197e-02
902 902 1.2879855136633039e-01
907 902 -1.0000000000000000e+00
903 903 4.0000289179464047e-03
906 903 -2.0000142652240151e-03
1052 903 -2.0000146527223901e-03
904 904 4.0000867538392158e-03
906 904 -2.0000427956720461e-03
1052 904 -2.0000439581671710e-03
905 905 4.0000578358928103e-03
906 905 -2.0000285304480310e-03
1052 905 -2.0000293054447810e-03
902 906 -1.0000000000000000e+00
906 906 1.0000000000000000e+00
903 907 -2.0000142652240151e-03
904 907 -2.0000427956720461e-03
905 907 -2.0000285304480310e-03
906 907 6.0000855913440914e-03
907 907 1.0000000000000000e+00
908 908 4.0000006174827707e-03
1052 908 -2.0000001100967161e-03
1056 908 -2.0000005073860551e-03
483 909 -3.0000025748439319e-03
485 909 -4.0000003066582501e-03
486 909 -1.0000000020000000e-03
487 909 -2.0000000207867018e-03
488 909 -2.0000000207867018e-03
489 909 -2.0000000207867018e-03
490 909 1.4000002945862280e-02
909 909 -1.0000000000000000e+00
468 910 -2.0000004435511880e-03
470 910 -2.0000004435511880e-03
473 910 -2.0000001558797332e-03
474 910 -2.0000002858715478e-03
475 910 -2.0000001558797332e-03
479 910 -2.0000002217755940e-03
480 910 -2.0000002217755940e-03
481 910 -2.0000002858715478e-03
482 910 1.6000002214156119e-02
910 910 -1.0000000000000000e+00
911 911 4.0000009474920641e-03
1052 911 -2.0000000233095861e-03
1056 911 -2.0000009241824780e-03
912 912 4.0000009474920641e-03
1052 912 -2.0000000233095861e-03
1056 912 -2.0000009241824780e-03
913 913 4.0000009474920641e-03
1052 913 -2.0000000233095861e-03
1056 913 -2.0000009241824780e-03
914 914 4.0000001122587371e-03
1052 914 -2.0000000495830452e-03
1056 914 -2.0000000626756919e-03
915 915 4.0000001122587371e-03
1052 915 -2.0000000495830452e-03
1056 915 -2.0000000626756919e-03
916 916 4.0000001122587371e-03
1052 916 -2.0000000495830452e-03
1056 916 -2.0000000626756919e-03
917 917 4.0000001122587371e-03
1052 917 -2.0000000495830452e-03
1056 917 -2.0000000626756919e-03
918 918 4.0000001122587371e-03
1052 918 -2.0000000495830452e-03
1056 918 -2.0000000626756919e-03
919 919 4.0000001122587371e-03
1052 919 -2.0000000495830452e-03
1056 919 -2.0000000626756919e-03
920 920 4.0000001122587371e-03
1052 920 -2.0000000495830452e-03
1056 920 -2.0000000626756919e-03
921 921 4.0000001122587371e-03
1052 921 -2.0000000495830452e-03
1056 921 -2.0000000626756919e-03
922 922 4.0000001122587371e-03
1052 922 -2.0000000495830452e-03
1056 922 -2.0000000626756919e-03
923 923 4.0000001122587371e-03
1052 923 -2.0000000495830452e-03
1056 923 -2.0000000626756919e-03
924 924 4.0000001122587371e-03
1052 924 -2.0000000495830452e-03
1056 924 -2.0000000626756919e-03
925 925 4.0000001122587371e-03
1052 925 -2.0000000495830452e-03
1056 925 -2.0000000626756919e-03
926 926 4.0000001122587371e-03
1052 926 -2.0000000495830452e-03
1056 926 -2.0000000626756919e-03
927 927 4.0000001122587371e-03
1052 927 -2.0000000495830452e-03
1056 927 -2.0000000626756919e-03
928 928 4.0000001122587371e-03
1052 928 -2.0000000495830452e-03
1056 928 -2.0000000626756919e-03
929 929 4.0000001122587371e-03
1052 929 -2.0000000495830452e-03
1056 929 -2.0000000626756919e-03
930 930 4.0000001122587371e-03
1052 930 -2.0000000495830452e-03
1056 930 -2.0000000626756919e-03
931 931 4.0000001122587371e-03
1052 931 -2.0000000495830452e-03
1056 931 -2.0000000626756919e-03
932 932 4.0000001122587371e-03
1052 932 -2.0000000495830452e-03
1056 932 -2.0000000626756919e-03
933 933 4.0000001122587371e-03
1052 933 -2.0000000495830452e-03
1056 933 -2.0000000626756919e-03
934 934 4.0000001122587371e-03
1052 934 -2.0000000495830452e-03
1056 934 -2.0000000626756919e-03
935 935 4.0000001122587371e-03
1052 935 -2.0000000495830452e-03
1056 935 -2.0000000626756919e-03
936 936 4.0000001122587371e-03
1052 936 -2.0000000495830452e-03
1056 936 -2.0000000626756919e-03
937 937 4.0000001122587371e-03
1052 937 -2.0000000495830452e-03
1056 937 -2.0000000626756919e-03
938 938 4.0000001122587371e-03
1052 938 -2.0000000495830452e-03
1056 938 -2.0000000626756919e-03
939 939 4.0000001122587371e-03
1052 939 -2.0000000495830452e-03
1056 939 -2.0000000626756919e-03
940 940 4.0000001122587371e-03
1052 940 -2.0000000495830452e-03
1056 940 -2.0000000626756919e-03
941 941 4.0000001122587371e-03
1052 941 -2.0000000495830452e-03
1056 941 -2.0000000626756919e-03
942 942 4.0000001122587371e-03
1052 942 -2.0000000495830452e-03
1056 942 -2.0000000626756919e-03
943 943 4.0000001122587371e-03
1052 943 -2.0000000495830452e-03
1056 943 -2.0000000626756919e-03
944 944 4.0000001122587371e-03
1052 944 -2.0000000495830452e-03
1056 944 -2.0000000626756919e-03
945 945 4.0000001122587371e-03
1052 945 -2.0000000495830452e-03
1056 945 -2.0000000626756919e-03
946 946 4.0000001122587371e-03
1052 946 -2.0000000495830452e-03
1056 946 -2.0000000626756919e-03
947 947 4.0000001122587371e-03
1052 947 -2.0000000495830452e-03
1056 947 -2.0000000626756919e-03
948 948 4.0000001122587371e-03
1052 948 -2.0000000495830452e-03
1056 948 -2.0000000626756919e-03
949 949 4.0000001122587371e-03
1052 949 -2.0000000495830452e-03
1056 949 -2.0000000626756919e-03
950 950 4.0000001122587371e-03
1052 950 -2.0000000495830452e-03
1056 950 -2.0000000626756919e-03
951 951 4.0000001122587371e-03
1052 951 -2.0000000495830452e-03
1056 951 -2.0000000626756919e-03
952 952 4.0000001122587371e-03
1052 952 -2.0000000495830452e-03
1056 952 -2.0000000626756919e-03
953 953 4.0000001122587371e-03
1052 953 -2.0000000495830452e-03
1056 953 -2.0000000626756919e-03
954 954 4.0000001122587371e-03
1052 954 -2.0000000495830452e-03
1056 954 -2.0000000626756919e-03
955 955 4.0000001122587371e-03
1052 955 -2.0000000495830452e-03
1056 955 -2.0000000626756919e-03
956 956 4.0000001122587371e-03
1052 956 -2.0000000495830452e-03
1056 956 -2.0000000626756919e-03
957 957 4.0000001122587371e-03
1052 957 -2.0000000495830452e-03
1056 957 -2.0000000626756919e-03
958 958 4.0000001122587371e-03
1052 958 -2.0000000495830452e-03
1056 958 -2.0000000626756919e-03
959 959 4.0000001122587371e-03
1052 959 -2.0000000495830452e-03
1056 959 -2.0000000626756919e-03
960 960 4.0000001122587371e-03
1052 960 -2.0000000495830452e-03
1056 960 -2.0000000626756919e-03
961 961 4.0000001122587371e-03
1052 961 -2.0000000495830452e-03
1056 961 -2.0000000626756919e-03
962 962 4.0000001122587371e-03
1052 962 -2.0000000495830452e-03
1056 962 -2.0000000626756919e-03
963 963 4.0000001122587371e-03
1052 963 -2.0000000495830452e-03
1056 963 -2.0000000626756919e-03
964 964 4.0000001122587371e-03
1052 964 -2.0000000495830452e-03
1056 964 -2.0000000626756919e-03
965 965 4.0000001122587371e-03
1052 965 -2.0000000495830452e-03
1056 965 -2.0000000626756919e-03
966 966 4.0000001122587371e-03
1052 966 -2.0000000495830452e-03
1056 966 -2.0000000626756919e-03
967 967 4.0000001122587371e-03
1052 967 -2.0000000495830452e-03
1056 967 -2.0000000626756919e-03
968 968 4.0000001122587371e-03
1052 968 -2.0000000495830452e-03
1056 968 -2.0000000626756919e-03
969 969 4.0000001122587371e-03
1052 969 -2.0000000495830452e-03
1056 969 -2.0000000626756919e-03
970 970 4.0000001122587371e-03
1052 970 -2.0000000495830452e-03
1056 970 -2.0000000626756919e-03
971 971 4.0000001122587371e-03
1052 971 -2.0000000495830452e-03
1056 971 -2.0000000626756919e-03
972 972 4.0000001122587371e-03
1052 972 -2.0000000495830452e-03
1056 972 -2.0000000626756919e-03
973 973 4.0000001122587371e-03
1052 973 -2.0000000495830452e-03
1056 973 -2.0000000626756919e-03
974 974 4.0000001122587371e-03
1052 974 -2.0000000495830452e-03
1056 974 -2.0000000626756919e-03
975 975 4.0000001122587371e-03
1052 975 -2.0000000495830452e-03
1056 975 -2.0000000626756919e-03
976 976 4.0000001122587371e-03
1052 976 -2.0000000495830452e-03
1056 976 -2.0000000626756919e-03
977 977 4.0000001122587371e-03
1052 977 -2.0000000495830452e-03
1056 977 -2.0000000626756919e-03
978 978 4.0000001122587371e-03
1052 978 -2.0000000495830452e-03
1056 978 -2.0000000626756919e-03
979 979 4.0000001122587371e-03
1052 979 -2.0000000495830452e-03
1056 979 -2.0000000626756919e-03
980 980 4.0000001122587371e-03
1052 980 -2.0000000495830452e-03
1056 980 -2.0000000626756919e-03
981 981 4.0000001122587371e-03
1052 981 -2.0000000495830452e-03
1056 981 -2.0000000626756919e-03
982 982 4.0000001122587371e-03
1052 982 -2.0000000495830452e-03
1056 982 -2.0000000626756919e-03
983 983 4.0000001122587371e-03
1052 983 -2.0000000495830452e-03
1056 983 -2.0000000626756919e-03
984 984 4.0000001122587371e-03
1052 984 -2.0000000495830452e-03
1056 984 -2.0000000626756919e-03
985 985 4.0000001122587371e-03
1052 985 -2.0000000495830452e-03
1056 985 -2.0000000626756919e-03
986 986 4.0000001122587371e-03
1052 986 -2.0000000495830452e-03
1056 986 -2.0000000626756919e-03
987 987 4.0000001122587371e-03
1052 987 -2.0000000495830452e-03
1056 987 -2.0000000626756919e-03
988 988 4.0000001122587371e-03
1052 988 -2.0000000495830452e-03
1056 988 -2.0000000626756919e-03
989 989 4.0000001122587371e-03
1052 989 -2.0000000495830452e-03
1056 989 -2.0000000626756919e-03
990 990 4.0000001122587371e-03
1052 990 -2.0000000495830452e-03
1056 990 -2.0000000626756919e-03
991 991 4.0000001122587371e-03
1052 991 -2.0000000495830452e-03
1056 991 -2.0000000626756919e-03
992 992 4.0000001122587371e-03
1052 992 -2.0000000495830452e-03
1056 992 -2.0000000626756919e-03
993 993 4.0000001122587371e-03
1052 993 -2.0000000495830452e-03
1056 993 -2.0000000626756919e-03
994 994 4.0000001122587371e-03
1052 994 -2.0000000495830452e-03
1056 994 -2.0000000626756919e-03
995 995 4.0000001122587371e-03
1052 995 -2.0000000495830452e-03
1056 995 -2.0000000626756919e-03
996 996 1.0000000000000000e+00
997 996 1.0000000000000001e-09
997 997 1.0000000000000000e+00
1000 997 -1.0000000000000000e+00
998 998 6.5947260792450424e-06
999 998 1.0000000000000000e+00
1043 998 -6.5947260792450424e-06
996 999 -1.0000000000000000e+00
999 999 -1.0000000000000000e+00
1000 999 4.0000025668670098e-03
1043 999 -2.0000025268670091e-03
1052 999 -1.0000000199999999e-03
1056 999 -1.0000000200000010e-03
998 1000 1.0000000000000000e+00
1000 1000 -1.0000000000000000e+00
1001 1001 4.0000004306252430e-03
1029 1001 -2.0000001478764741e-03
1032 1001 -2.0000002827487689e-03
1002 1002 4.0000009238630374e-03
1029 1002 -2.0000000280229239e-03
1032 1002 -2.0000008958401122e-03
1003 1003 4.0000009238630374e-03
1029 1003 -2.0000000280229239e-03
1032 1003 -2.0000008958401122e-03
1004 1004 4.0000003949225990e-03
1029 1004 -2.0000001302413312e-03
1032 1004 -2.0000002646812678e-03
1005 1005 4.0000006066531913e-03
1013 1005 -1.0000003023265961e-03
1032 1005 -3.0000003043265961e-03
1006 1006 4.0000001385385358e-03
1013 1006 -1.0000000682692681e-03
1015 1006 -3.0000000702692679e-03
1007 1007 4.0000005214618243e-03
1012 1007 -1.0000002597309119e-03
1032 1007 -3.0000002617309122e-03
1008 1008 4.0000003070507087e-03
1012 1008 -1.0000001525253539e-03
1015 1008 -3.0000001545253539e-03
1009 1009 4.0000003311756599e-03
1015 1009 -2.0000000664943921e-03
1032 1009 -2.0000002646812678e-03
1010 1010 4.0000005722751657e-03
1015 1010 -2.0000002668072552e-03
1032 1010 -2.0000003054679110e-03
1011 1011 8.0000008837062160e-03
1012 1011 -2.0000004674499499e-03
1015 1011 -3.0000001545253539e-03
1032 1011 -3.0000002617309122e-03
1007 1012 -1.0000002597309119e-03
1008 1012 -1.0000001525253539e-03
1011 1012 -2.0000004674499499e-03
1012 1012 8.0000008837062160e-03
1015 1012 -2.0000000020000000e-03
1032 1012 -2.0000000020000000e-03
1005 1013 -1.0000003023265961e-03
1006 1013 -1.0000000682692681e-03
1013 1013 8.0000007954597989e-03
1015 1013 -2.0000000020000000e-03
1016 1013 -2.0000004208639362e-03
1032 1013 -2.0000000020000000e-03
1006 1014 -3.0000000702692679e-03
1008 1014 -3.0000001545253539e-03
1009 1014 -2.0000000664943921e-03
1010 1014 -2.0000002668072552e-03
1011 1014 -3.0000001545253539e-03
1012 1014 -2.0000000020000000e-03
1013 1014 -2.0000000020000000e-03
1014 1014 -1.0000000000000000e+00
1015 1014 1.8000000717621620e-02
1016 1014 -1.0000000010000000e-03
1015 1015 -1.0000000000000000e+00
1029 1015 1.0000000000000000e+00
1013 1016 -2.0000004208639362e-03
1015 1016 -1.0000000010000000e-03
1016 1016 8.0000008534891788e-03
1029 1016 -2.0000001478764741e-03
1032 1016 -3.0000002837487689e-03
1017 1017 4.0000006066531913e-03
1025 1017 -1.0000003023265961e-03
1032 1017 -3.0000003043265961e-03
1018 1018 4.0000001385385358e-03
1025 1018 -1.0000000682692681e-03
1027 1018 -3.0000000702692679e-03
1019 1019 4.0000005214618243e-03
1024 1019 -1.0000002597309119e-03
1032 1019 -3.0000002617309122e-03
1020 1020 4.0000003070507087e-03
1024 1020 -1.0000001525253539e-03
1027 1020 -3.0000001545253539e-03
1021 1021 4.0000005722751657e-03
1027 1021 -2.0000002668072552e-03
1032 1021 -2.0000003054679110e-03
1022 1022 4.0000003311756599e-03
1027 1022 -2.0000000664943921e-03
1032 1022 -2.0000002646812678e-03
1023 1023 8.0000008837062160e-03
1024 1023 -2.0000004674499499e-03
1027 1023 -3.0000001545253539e-03
1032 1023 -3.0000002617309122e-03
1019 1024 -1.0000002597309119e-03
1020 1024 -1.0000001525253539e-03
1023 1024 -2.0000004674499499e-03
1024 1024 8.0000008837062160e-03
1027 1024 -2.0000000020000000e-03
1032 1024 -2.0000000020000000e-03
1017 1025 -1.0000003023265961e-03
1018 1025 -1.0000000682692681e-03
1025 1025 8.0000007954597989e-03
1027 1025 -2.0000000020000000e-03
1028 1025 -2.0000004208639362e-03
1032 1025 -2.0000000020000000e-03
1018 1026 -3.0000000702692679e-03
1020 1026 -3.0000001545253539e-03
1021 1026 -2.0000002668072552e-03
1022 1026 -2.0000000664943921e-03
1023 1026 -3.0000001545253539e-03
1024 1026 -2.0000000020000000e-03
1025 1026 -2.0000000020000000e-03
1026 1026 -1.0000000000000000e+00
1027 1026 1.8000000717621620e-02
1028 1026 -1.0000000010000000e-03
1027 1027 -1.0000000000000000e+00
1029 1027 1.0000000000000000e+00
1025 1028 -2.0000004208639362e-03
1027 1028 -1.0000000010000000e-03
1028 1028 8.0000008177865348e-03
1029 1028 -2.0000001302413312e-03
1032 1028 -3.0000002656812678e-03
1029 1029 1.0000000000000000e+00
1052 1029 -1.0000000000000000e+00
1001 1030 -2.0000001478764741e-03
1002 1030 -2.0000000280229239e-03
1003 1030 -2.0000000280229239e-03
1004 1030 -2.0000001302413312e-03
1014 1030 1.0000000000000000e+00
1016 1030 -2.0000001478764741e-03
1026 1030 1.0000000000000000e+00
1028 1030 -2.0000001302413312e-03
1029 1030 1.2000000612281450e-02
1030 1030 1.0000000000000000e+00
1001 1031 -2.0000002827487689e-03
1002 1031 -2.0000008958401122e-03
1003 1031 -2.0000008958401122e-03
1004 1031 -2.0000002646812678e-03
1005 1031 -3.0000003043265961e-03
1007 1031 -3.0000002617309122e-03
1009 1031 -2.0000002646812678e-03
1010 1031 -2.0000003054679110e-03
1011 1031 -3.0000002617309122e-03
1012 1031 -2.0000000020000000e-03
1013 1031 -2.0000000020000000e-03
1016 1031 -3.0000002837487689e-03
1017 1031 -3.0000003043265961e-03
1019 1031 -3.0000002617309122e-03
1021 1031 -2.0000003054679110e-03
1022 1031 -2.0000002646812678e-03
1023 1031 -3.0000002617309122e-03
1024 1031 -2.0000000020000000e-03
1025 1031 -2.0000000020000000e-03
1028 1031 -3.0000002656812678e-03
1031 1031 1.0000000000000000e+00
1032 1031 4.8000005692415512e-02
1032 1032 1.0000000000000000e+00
1056 1032 -1.0000000000000000e+00
1033 1033 1.0256410256410260e+00
1042 1033 -1.0256410256410260e+00
1034 1034 1.0256410256410260e+00
1042 1034 -1.0256410256410260e+00
1035 1035 5.1282051282051289e-01
1040 1035 -5.1282051282051289e-01
1036 1036 5.1282051282051289e-01
1040 1036 -5.1282051282051289e-01
1037 1037 5.1282051282051289e-01
1041 1037 -5.1282051282051289e-01
1038 1038 5.1282051282051289e-01
1041 1038 -5.1282051282051289e-01
1037 1039 -5.1282051282051289e-01
1038 1039 -5.1282051282051289e-01
1039 1039 1.0000000000000000e+00
1040 1039 -2.0000160526299588e-03
1041 1039 1.0376410739909161e+00
1042 1039 -4.0000321052599194e-03
1052 1039 -3.0000000960000040e-03
1056 1039 -3.0000000960000088e-03
1035 1040 -5.1282051282051289e-01
1036 1040 -5.1282051282051289e-01
1040 1040 1.0316410527354170e+00
1041 1040 -2.0000160526299588e-03
1052 1040 -1.0000000320000010e-03
1056 1040 -3.0000110097607368e-03
1041 1041 1.0000000000000000e+00
1033 1042 -1.0256410256410260e+00
1034 1042 -1.0256410256410260e+00
1041 1042 -4.0000321052599194e-03
1042 1042 2.0612821054708328e+00
1052 1042 -2.0000000640000020e-03
1056 1042 -4.0000220195214754e-03
109 1043 -1.0000000000000000e+00
998 1043 -6.5947260792450424e-06
1000 1043 -2.0000025268670091e-03
1043 1043 4.0065972929462547e-03
1052 1043 -1.0000000199999999e-03
1056 1043 -1.0000000200000010e-03
1044 1044 9.6980518331573409e-03
1049 1044 1.0000000000000000e+00
1045 1045 1.0000000000000000e+00
1046 1045 3.2973630396225212e-06
1053 1045 -3.2973630396225212e-06
1046 1046 1.0000000000000000e+00
1047 1046 -1.0000000000000000e+00
1044 1047 1.0000000000000000e+00
1047 1047 -1.0000000000000000e+00
1047 1048 -1.0000000616756919e-03
1048 1048 4.0000001122587371e-03
1052 1048 -2.0000000495830452e-03
1056 1048 -1.0000000010000000e-03
1045 1049 -1.0000000000000000e+00
1047 1049 8.0000026922183946e-03
1048 1049 -1.0000000616756919e-03
1049 1049 -1.0000000000000000e+00
1050 1049 -1.0000000616756919e-03
1052 1049 -1.0000000199999999e-03
1053 1049 -2.0000025268670091e-03
1056 1049 -3.0000000220000000e-03
1047 1050 -1.0000000616756919e-03
1050 1050 4.0000001122587371e-03
1052 1050 -2.0000000495830452e-03
1056 1050 -1.0000000010000000e-03
705 1051 -1.0000000000000000e+00
706 1051 -1.0000000000000000e+00
708 1051 -3.0000012828901891e-03
711 1051 -3.0000051315607558e-03
712 1051 -1.0000000160000010e-03
713 1051 -1.0000000040000000e-03
714 1051 -2.0000032117932680e-03
715 1051 -2.0000000233095861e-03
716 1051 -2.0000000233095861e-03
903 1051 -2.0000146527223901e-03
904 1051 -2.0000439581671710e-03
905 1051 -2.0000293054447810e-03
908 1051 -2.0000001100967161e-03
909 1051 1.0000000000000000e+00
910 1051 1.0000000000000000e+00
911 1051 -2.0000000233095861e-03
912 1051 -2.0000000233095861e-03
913 1051 -2.0000000233095861e-03
914 1051 -2.0000000495830452e-03
915 1051 -2.0000000495830452e-03
916 1051 -2.0000000495830452e-03
917 1051 -2.0000000495830452e-03
918 1051 -2.0000000495830452e-03
919 1051 -2.0000000495830452e-03
920 1051 -2.0000000495830452e-03
921 1051 -2.0000000495830452e-03
922 1051 -2.0000000495830452e-03
923 1051 -2.0000000495830452e-03
924 1051 -2.0000000495830452e-03
925 1051 -2.0000000495830452e-03
926 1051 -2.0000000495830452e-03
927 1051 -2.0000000495830452e-03
928 1051 -2.0000000495830452e-03
929 1051 -2.0000000495830452e-03
930 1051 -2.0000000495830452e-03
931 1051 -2.0000000495830452e-03
932 1051 -2.0000000495830452e-03
933 1051 -2.0000000495830452e-03
934 1051 -2.0000000495830452e-03
935 1051 -2.0000000495830452e-03
936 1051 -2.0000000495830452e-03
937 1051 -2.0000000495830452e-03
938 1051 -2.0000000495830452e-03
939 1051 -2.0000000495830452e-03
940 1051 -2.0000000495830452e-03
941 1051 -2.0000000495830452e-03
942 1051 -2.0000000495830452e-03
943 1051 -2.0000000495830452e-03
944 1051 -2.0000000495830452e-03
945 1051 -2.0000000495830452e-03
946 1051 -2.0000000495830452e-03
947 1051 -2.0000000495830452e-03
948 1051 -2.0000000495830452e-03
949 1051 -2.0000000495830452e-03
950 1051 -2.0000000495830452e-03
951 1051 -2.0000000495830452e-03
952 1051 -2.0000000495830452e-03
953 1051 -2.0000000495830452e-03
954 1051 -2.0000000495830452e-03
955 1051 -2.0000000495830452e-03
956 1051 -2.0000000495830452e-03
957 1051 -2.0000000495830452e-03
958 1051 -2.0000000495830452e-03
959 1051 -2.0000000495830452e-03
960 1051 -2.0000000495830452e-03
961 1051 -2.0000000495830452e-03
962 1051 -2.0000000495830452e-03
963 1051 -2.0000000495830452e-03
964 1051 -2.0000000495830452e-03
965 1051 -2.0000000495830452e-03
966 1051 -2.0000000495830452e-03
967 1051 -2.0000000495830452e-03
968 1051 -2.0000000495830452e-03
969 1051 -2.0000000495830452e-03
970 1051 -2.0000000495830452e-03
971 1051 -2.0000000495830452e-03
972 1051 -2.0000000495830452e-03
973 1051 -2.0000000495830452e-03
974 1051 -2.0000000495830452e-03
975 1051 -2.0000000495830452e-03
976 1051 -2.0000000495830452e-03
977 1051 -2.0000000495830452e-03
978 1051 -2.0000000495830452e-03
979 1051 -2.0000000495830452e-03
980 1051 -2.0000000495830452e-03
981 1051 -2.0000000495830452e-03
982 1051 -2.0000000495830452e-03
983 1051 -2.0000000495830452e-03
984 1051 -2.0000000495830452e-03
985 1051 -2.0000000495830452e-03
986 1051 -2.0000000495830452e-03
987 1051 -2.0000000495830452e-03
988 1051 -2.0000000495830452e-03
989 1051 -2.0000000495830452e-03
990 1051 -2.0000000495830452e-03
991 1051 -2.0000000495830452e-03
992 1051 -2.0000000495830452e-03
993 1051 -2.0000000495830452e-03
994 1051 -2.0000000495830452e-03
995 1051 -2.0000000495830452e-03
1000 1051 -1.0000000199999999e-03
1030 1051 -1.0000000000000000e+00
1040 1051 -1.0000000320000010e-03
1041 1051 -3.0000000960000040e-03
1042 1051 -2.0000000640000020e-03
1043 1051 -1.0000000199999999e-03
1047 1051 -1.0000000199999999e-03
1048 1051 -2.0000000495830452e-03
1050 1051 -2.0000000495830452e-03
1051 1051 1.0000000000000000e+00
1052 1051 1.2060001022261979e+00
1053 1051 -1.0000000199999999e-03
1065 1051 1.0000000000000000e+00
1052 1052 1.0000000000000000e+00
88 1053 -1.0000000000000000e+00
1046 1053 -3.2973630396225212e-06
1047 1053 -2.0000025268670091e-03
1052 1053 -1.0000000199999999e-03
1053 1053 4.0032999299066318e-03
1056 1053 -1.0000000200000010e-03
1054 1054 4.0000001963768333e-03
1056 1054 -1.0000000010000000e-03
1057 1054 -2.0000000495830452e-03
1067 1054 -1.0000001457937890e-03
1055 1055 4.0000001963768333e-03
1056 1055 -1.0000000010000000e-03
1057 1055 -2.0000000495830452e-03
1067 1055 -1.0000001457937890e-03
1056 1056 1.0000000000000000e+00
1052 1057 1.0000000000000000e+00
1057 1057 -1.0000000000000000e+00
1056 1058 -1.0000000010000000e-03
1057 1058 -2.0000000495830452e-03
1058 1058 4.0000001963768333e-03
1067 1058 -1.0000001457937890e-03
1056 1059 -1.0000000010000000e-03
1057 1059 -2.0000000495830452e-03
1059 1059 4.0000001963768333e-03
1067 1059 -1.0000001457937890e-03
1056 1060 -1.0000000010000000e-03
1057 1060 -2.0000000495830452e-03
1060 1060 4.0000001963768333e-03
1067 1060 -1.0000001457937890e-03
1056 1061 -1.0000000010000000e-03
1057 1061 -2.0000000495830452e-03
1061 1061 4.0000001963768333e-03
1067 1061 -1.0000001457937890e-03
1056 1062 -1.0000000010000000e-03
1057 1062 -2.0000000495830452e-03
1062 1062 4.0000001963768333e-03
1067 1062 -1.0000001457937890e-03
1056 1063 -1.0000000010000000e-03
1057 1063 -2.0000000495830452e-03
1063 1063 4.0000001963768333e-03
1067 1063 -1.0000001457937890e-03
75 1064 -1.0000000000000000e+00
76 1064 -4.4945024654233761e-03
84 1064 1.0000000000000000e+00
85 1064 -4.4945024654233761e-03
1054 1064 -1.0000001457937890e-03
1055 1064 -1.0000001457937890e-03
1056 1064 -8.0000000080000001e-03
1058 1064 -1.0000001457937890e-03
1059 1064 -1.0000001457937890e-03
1060 1064 -1.0000001457937890e-03
1061 1064 -1.0000001457937890e-03
1062 1064 -1.0000001457937890e-03
1063 1064 -1.0000001457937890e-03
1064 1064 1.0000000000000000e+00
1067 1064 2.4989006105197061e-02
86 1065 -2.0000002053401798e-03
111 1065 -2.0000000454119819e-03
123 1065 -4.0000004555018967e-03
235 1065 -3.0000001743849692e-03
236 1065 -3.0000012206947849e-03
237 1065 -3.0000000595575109e-03
238 1065 -3.0000000871924851e-03
239 1065 -3.0000003487699392e-03
254 1065 -2.0000002585774542e-03
274 1065 -3.0000002615774542e-03
275 1065 -3.0000002615774542e-03
276 1065 -3.0000000871924851e-03
277 1065 -3.0000001743849692e-03
278 1065 -3.0000006975398771e-03
279 1065 -3.0000003487699392e-03
325 1065 -3.0000000141713690e-03
326 1065 -2.0000000020000000e-03
327 1065 -2.0000000020000000e-03
356 1065 -3.0000000505830452e-03
368 1065 -3.0000000563974380e-03
369 1065 -1.0000000010000000e-03
370 1065 -4.0000001094133604e-03
371 1065 -3.0000012206947849e-03
372 1065 -3.0000000871924851e-03
373 1065 -3.0000001326338198e-03
374 1065 -3.0000000595575109e-03
375 1065 -3.0000001743849692e-03
376 1065 -3.0000003487699392e-03
416 1065 -6.0000000240000000e-03
417 1065 -4.0000000991660886e-03
418 1065 -1.0000000010000000e-03
419 1065 -2.0000000927919009e-03
420 1065 -1.0000000010000000e-03
421 1065 -5.0000000180000009e-03
422 1065 -1.0000000030000000e-03
424 1065 -5.0000000220000009e-03
425 1065 -2.0000000495830452e-03
426 1065 -2.0000000495830452e-03
427 1065 -2.0000000495830452e-03
428 1065 -2.0000000495830452e-03
429 1065 -2.0000000495830452e-03
430 1065 -2.0000000495830452e-03
431 1065 -2.0000000495830452e-03
432 1065 -2.0000000495830452e-03
433 1065 -2.0000000495830452e-03
434 1065 -2.0000000495830452e-03
435 1065 -2.0000000495830452e-03
436 1065 -2.0000000495830452e-03
437 1065 -2.0000000495830452e-03
438 1065 -2.0000000495830452e-03
439 1065 -2.0000000495830452e-03
440 1065 -2.0000000495830452e-03
441 1065 -2.0000000495830452e-03
442 1065 -2.0000000495830452e-03
443 1065 -2.0000000495830452e-03
444 1065 -2.0000000495830452e-03
445 1065 -2.0000000495830452e-03
446 1065 -2.0000000495830452e-03
447 1065 -2.0000000495830452e-03
448 1065 -2.0000000495830452e-03
449 1065 -2.0000000495830452e-03
450 1065 -2.0000000495830452e-03
451 1065 -2.0000000495830452e-03
452 1065 -2.0000000495830452e-03
453 1065 -2.0000000495830452e-03
454 1065 -2.0000000495830452e-03
455 1065 -2.0000000495830452e-03
456 1065 -2.0000000495830452e-03
457 1065 -2.0000000495830452e-03
458 1065 -2.0000000495830452e-03
459 1065 -2.0000000495830452e-03
460 1065 -2.0000000764200231e-03
461 1065 -2.0000002675356942e-03
462 1065 -2.0000002675356942e-03
463 1065 -2.0000000495830452e-03
464 1065 -2.0000000495830452e-03
1054 1065 -2.0000000495830452e-03
1055 1065 -2.0000000495830452e-03
1057 1065 2.0000001004895809e-01
1058 1065 -2.0000000495830452e-03
1059 1065 -2.0000000495830452e-03
1060 1065 -2.0000000495830452e-03
1061 1065 -2.0000000495830452e-03
1062 1065 -2.0000000495830452e-03
1063 1065 -2.0000000495830452e-03
1065 1065 -1.0000000000000000e+00
77 1066 -2.0000018199595750e-03
123 1066 -2.0000005134753452e-03
133 1066 -4.0000005214753456e-03
183 1066 -2.0000021879756301e-03
184 1066 -2.0000021879756301e-03
185 1066 -2.0000021879756301e-03
217 1066 -5.2410901467505253e-02
218 1066 -3.9971575360030669e-03
219 1066 -5.2410901467505253e-02
220 1066 -3.9971575360030669e-03
221 1066 -5.2410901467505253e-02
222 1066 -3.9971575360030669e-03
223 1066 -5.2410901467505253e-02
224 1066 -3.9971575360030669e-03
225 1066 -5.2410901467505253e-02
226 1066 -3.9971575360030669e-03
227 1066 -5.2410901467505253e-02
228 1066 -3.9971575360030669e-03
229 1066 -5.2410901467505253e-02
230 1066 -3.9971575360030669e-03
231 1066 -1.0000002200000020e-03
232 1066 -1.0000002200000020e-03
233 1066 -1.0000002200000020e-03
234 1066 -3.0000006600000061e-03
256 1066 1.0000000000000000e+00
319 1066 1.0000000000000000e+00
321 1066 -1.0000000000000000e+00
322 1066 -4.4945024654233761e-03
323 1066 -4.4945024654233761e-03
324 1066 -2.0000005073860551e-03
332 1066 1.0000000000000000e+00
333 1066 1.0000000000000000e+00
334 1066 1.0000000000000000e+00
335 1066 1.0000000000000000e+00
337 1066 1.0000000000000000e+00
338 1066 1.0000000000000000e+00
339 1066 1.0000000000000000e+00
340 1066 1.0000000000000000e+00
342 1066 1.0000000000000000e+00
343 1066 1.0000000000000000e+00
344 1066 1.0000000000000000e+00
345 1066 1.0000000000000000e+00
347 1066 1.0000000000000000e+00
348 1066 1.0000000000000000e+00
349 1066 1.0000000000000000e+00
350 1066 1.0000000000000000e+00
352 1066 -1.0000000000000000e+00
353 1066 -1.0000000000000000e+00
355 1066 -3.0000001095435930e-03
357 1066 -3.0000001477937890e-03
364 1066 1.0000000000000000e+00
365 1066 -1.0485078120458470e-02
366 1066 -1.0000000030000000e-03
367 1066 -3.0000000568582868e-03
369 1066 -2.0000559136905522e-03
370 1066 -2.0000000040000000e-03
411 1066 -2.0000021879756301e-03
412 1066 -2.0000021879756301e-03
413 1066 -2.0000021879756301e-03
414 1066 -5.2410901467505253e-02
415 1066 -3.9971575360030669e-03
417 1066 -1.0000000010000000e-03
418 1066 -4.0000002935875779e-03
419 1066 -1.0000000010000000e-03
420 1066 -2.0000001851684800e-03
421 1066 -2.0000001085435939e-03
422 1066 -2.0000001085435939e-03
423 1066 -3.4960731895893678e-03
425 1066 -2.0000001467937890e-03
426 1066 -2.0000001467937890e-03
427 1066 -2.0000001467937890e-03
428 1066 -2.0000001467937890e-03
429 1066 -2.0000001467937890e-03
430 1066 -2.0000001467937890e-03
431 1066 -2.0000001467937890e-03
432 1066 -2.0000001467937890e-03
433 1066 -2.0000001467937890e-03
434 1066 -2.0000001467937890e-03
435 1066 -2.0000001467937890e-03
436 1066 -2.0000001467937890e-03
437 1066 -2.0000001467937890e-03
438 1066 -2.0000001467937890e-03
439 1066 -2.0000001467937890e-03
440 1066 -2.0000001467937890e-03
441 1066 -2.0000001467937890e-03
442 1066 -2.0000001467937890e-03
443 1066 -2.0000001467937890e-03
444 1066 -2.0000001467937890e-03
445 1066 -2.0000001467937890e-03
446 1066 -2.0000001467937890e-03
447 1066 -2.0000001467937890e-03
448 1066 -2.0000001467937890e-03
449 1066 -2.0000001467937890e-03
450 1066 -2.0000001467937890e-03
451 1066 -2.0000001467937890e-03
452 1066 -2.0000001467937890e-03
453 1066 -2.0000001467937890e-03
454 1066 -2.0000001467937890e-03
455 1066 -2.0000001467937890e-03
456 1066 -2.0000001467937890e-03
457 1066 -2.0000001467937890e-03
458 1066 -2.0000001467937890e-03
459 1066 -2.0000001467937890e-03
460 1066 -4.0000002707477039e-03
461 1066 -1.0000000040000000e-03
462 1066 -1.0000000040000000e-03
463 1066 -2.0000001467937890e-03
464 1066 -2.0000001467937890e-03
471 1066 -2.0000010336915469e-03
472 1066 -2.0000010336915469e-03
473 1066 -2.0000010774802071e-03
474 1066 -2.0000005469939068e-03
475 1066 -2.0000010774802071e-03
476 1066 -2.0000011270590798e-03
477 1066 -2.0000000040000000e-03
479 1066 -1.0000000020000000e-03
480 1066 -1.0000000020000000e-03
481 1066 -2.0000005469939068e-03
484 1066 -3.0000049249451662e-03
485 1066 -1.0000000020000000e-03
486 1066 -4.0000014528232446e-03
487 1066 -2.0000009058293378e-03
488 1066 -2.0000009058293378e-03
489 1066 -2.0000009058293378e-03
502 1066 -1.3189452158490080e-05
629 1066 1.0000000000000000e+00
630 1066 1.0000000000000000e+00
631 1066 1.0000000000000000e+00
632 1066 1.0000000000000000e+00
633 1066 1.0000000000000000e+00
634 1066 1.0000000000000000e+00
635 1066 1.0000000000000000e+00
636 1066 1.0000000000000000e+00
637 1066 1.0000000000000000e+00
638 1066 1.0000000000000000e+00
639 1066 1.0000000000000000e+00
640 1066 1.0000000000000000e+00
641 1066 1.0000000000000000e+00
642 1066 1.0000000000000000e+00
643 1066 1.0000000000000000e+00
644 1066 1.0000000000000000e+00
645 1066 1.0000000000000000e+00
646 1066 1.0000000000000000e+00
647 1066 1.0000000000000000e+00
648 1066 1.0000000000000000e+00
649 1066 1.0000000000000000e+00
650 1066 1.0000000000000000e+00
651 1066 1.0000000000000000e+00
652 1066 1.0000000000000000e+00
653 1066 1.0000000000000000e+00
654 1066 1.0000000000000000e+00
655 1066 1.0000000000000000e+00
656 1066 1.0000000000000000e+00
657 1066 1.0000000000000000e+00
658 1066 1.0000000000000000e+00
659 1066 1.0000000000000000e+00
660 1066 1.0000000000000000e+00
661 1066 1.0000000000000000e+00
662 1066 1.0000000000000000e+00
663 1066 1.0000000000000000e+00
664 1066 1.0000000000000000e+00
665 1066 1.0000000000000000e+00
666 1066 1.0000000000000000e+00
667 1066 1.0000000000000000e+00
668 1066 1.0000000000000000e+00
669 1066 1.0000000000000000e+00
670 1066 1.0000000000000000e+00
671 1066 1.0000000000000000e+00
672 1066 1.0000000000000000e+00
673 1066 1.0000000000000000e+00
674 1066 1.0000000000000000e+00
675 1066 1.0000000000000000e+00
676 1066 1.0000000000000000e+00
677 1066 1.0000000000000000e+00
678 1066 1.0000000000000000e+00
679 1066 1.0000000000000000e+00
680 1066 1.0000000000000000e+00
681 1066 1.0000000000000000e+00
682 1066 1.0000000000000000e+00
683 1066 1.0000000000000000e+00
684 1066 1.0000000000000000e+00
685 1066 1.0000000000000000e+00
686 1066 1.0000000000000000e+00
687 1066 1.0000000000000000e+00
688 1066 1.0000000000000000e+00
689 1066 1.0000000000000000e+00
690 1066 1.0000000000000000e+00
691 1066 -4.0000001200000031e-03
692 1066 -1.0000000000000000e+00
693 1066 -3.7355248412401939e-04
694 1066 -3.7355248412401939e-04
695 1066 -1.0000000000000001e-05
704 1066 -2.0000005073860551e-03
710 1066 -2.0000005635295399e-03
715 1066 -2.0000009241824780e-03
716 1066 -2.0000009241824780e-03
797 1066 -1.0000000000000000e+00
808 1066 -2.0000042000985641e-03
899 1066 -2.0000042000985641e-03
908 1066 -2.0000005073860551e-03
911 1066 -2.0000009241824780e-03
912 1066 -2.0000009241824780e-03
913 1066 -2.0000009241824780e-03
914 1066 -2.0000000626756919e-03
915 1066 -2.0000000626756919e-03
916 1066 -2.0000000626756919e-03
917 1066 -2.0000000626756919e-03
918 1066 -2.0000000626756919e-03
919 1066 -2.0000000626756919e-03
920 1066 -2.0000000626756919e-03
921 1066 -2.0000000626756919e-03
922 1066 -2.0000000626756919e-03
923 1066 -2.0000000626756919e-03
924 1066 -2.0000000626756919e-03
925 1066 -2.0000000626756919e-03
926 1066 -2.0000000626756919e-03
927 1066 -2.0000000626756919e-03
928 1066 -2.0000000626756919e-03
929 1066 -2.0000000626756919e-03
930 1066 -2.0000000626756919e-03
931 1066 -2.0000000626756919e-03
932 1066 -2.0000000626756919e-03
933 1066 -2.0000000626756919e-03
934 1066 -2.0000000626756919e-03
935 1066 -2.0000000626756919e-03
936 1066 -2.0000000626756919e-03
937 1066 -2.0000000626756919e-03
938 1066 -2.0000000626756919e-03
939 1066 -2.0000000626756919e-03
940 1066 -2.0000000626756919e-03
941 1066 -2.0000000626756919e-03
942 1066 -2.0000000626756919e-03
943 1066 -2.0000000626756919e-03
944 1066 -2.0000000626756919e-03
945 1066 -2.0000000626756919e-03
946 1066 -2.0000000626756919e-03
947 1066 -2.0000000626756919e-03
948 1066 -2.0000000626756919e-03
949 1066 -2.0000000626756919e-03
950 1066 -2.0000000626756919e-03
951 1066 -2.0000000626756919e-03
952 1066 -2.0000000626756919e-03
953 1066 -2.0000000626756919e-03
954 1066 -2.0000000626756919e-03
955 1066 -2.0000000626756919e-03
956 1066 -2.0000000626756919e-03
957 1066 -2.0000000626756919e-03
958 1066 -2.0000000626756919e-03
959 1066 -2.0000000626756919e-03
960 1066 -2.0000000626756919e-03
961 1066 -2.0000000626756919e-03
962 1066 -2.0000000626756919e-03
963 1066 -2.0000000626756919e-03
964 1066 -2.0000000626756919e-03
965 1066 -2.0000000626756919e-03
966 1066 -2.0000000626756919e-03
967 1066 -2.0000000626756919e-03
968 1066 -2.0000000626756919e-03
969 1066 -2.0000000626756919e-03
970 1066 -2.0000000626756919e-03
971 1066 -2.0000000626756919e-03
972 1066 -2.0000000626756919e-03
973 1066 -2.0000000626756919e-03
974 1066 -2.0000000626756919e-03
975 1066 -2.0000000626756919e-03
976 1066 -2.0000000626756919e-03
977 1066 -2.0000000626756919e-03
978 1066 -2.0000000626756919e-03
979 1066 -2.0000000626756919e-03
980 1066 -2.0000000626756919e-03
981 1066 -2.0000000626756919e-03
982 1066 -2.0000000626756919e-03
983 1066 -2.0000000626756919e-03
984 1066 -2.0000000626756919e-03
985 1066 -2.0000000626756919e-03
986 1066 -2.0000000626756919e-03
987 1066 -2.0000000626756919e-03
988 1066 -2.0000000626756919e-03
989 1066 -2.0000000626756919e-03
990 1066 -2.0000000626756919e-03
991 1066 -2.0000000626756919e-03
992 1066 -2.0000000626756919e-03
993 1066 -2.0000000626756919e-03
994 1066 -2.0000000626756919e-03
995 1066 -2.0000000626756919e-03
1000 1066 -1.0000000200000010e-03
1031 1066 -1.0000000000000000e+00
1040 1066 -3.0000110097607368e-03
1041 1066 -3.0000000960000088e-03
1042 1066 -4.0000220195214754e-03
1043 1066 -1.0000000200000010e-03
1047 1066 -3.0000000220000000e-03
1048 1066 -1.0000000010000000e-03
1050 1066 -1.0000000010000000e-03
1053 1066 -1.0000000200000010e-03
1054 1066 -1.0000000010000000e-03
1055 1066 -1.0000000010000000e-03
1056 1066 2.8630050717751141e+00
1058 1066 -1.0000000010000000e-03
1059 1066 -1.0000000010000000e-03
1060 1066 -1.0000000010000000e-03
1061 1066 -1.0000000010000000e-03
1062 1066 -1.0000000010000000e-03
1063 1066 -1.0000000010000000e-03
1066 1066 1.0000000000000000e+00
1067 1066 -8.0000000080000001e-03
89 1067 -1.0000000000000000e+00
1067 1067 1.0000000000000000e+00
1068 1068 1.0000000000000000e+00
1069 1069 1.0000000000000000e+00
1070 1070 1.0000000000000000e+00
1071 1071 1.0000000000000000e+00
1072 1072 1.0000000000000000e+00
1073 1073 1.0000000000000000e+00
1074 1074 1.0000000000000000e+00
1075 1075 1.0000000000000000e+00
1076 1076 1.0000000000000000e+00
1077 1077 1.0000000000000000e+00
1078 1078 1.0000000000000000e+00
1079 1079 1.0000000000000000e+00
1080 1080 1.0000000000000000e+00
1081 1081 1.0000000000000000e+00
1082 1082 1.0000000000000000e+00
1083 1083 1.0000000000000000e+00
1084 1084 1.0000000000000000e+00
1085 1085 1.0000000000000000e+00
1086 1086 1.0000000000000000e+00
1087 1087 1.0000000000000000e+00
1088 1088 1.0000000000000000e+00
1089 1089 1.0000000000000000e+00
1090 1090 1.0000000000000000e+00
1091 1091 1.0000000000000000e+00
1092 1092 1.0000000000000000e+00
1093 1093 1.0000000000000000e+00
1094 1094 1.5735000000008180e-02
1095 1095 1.5735000000008180e-02
1096 1096 8.4300000000236044e-03
1097 1097 8.4300000000236044e-03
1098 1098 8.4300000000236044e-03
1099 1099 8.4300000000236044e-03
1100 1100 1.0000000000000000e+00
1101 1101 1.0000000000000000e+00
1102 1102 1.0000000000000000e+00
1103 1103 1.0000000000000000e+00
1104 1104 1.0000000000000000e+00
1105 1105 1.0000000000000000e+00
1106 1106 1.0000000000000000e+00
1107 1107 1.0000000000000000e+00
1108 1108 1.0000000000000000e+00
1109 1109 1.0000000000000000e+00
1110 1110 1.0000000000000000e+00
1111 1111 1.0000000000000000e+00
1112 1112 1.0000000000000000e+00
1113 1113 1.0000000000000000e+00
1114 1114 1.0000000000000000e+00
1115 1115 1.0000000000000000e+00
1116 1116 1.0000000000000000e+00
1117 1117 1.0000000000000000e+00
1118 1118 1.0000000000000000e+00
1119 1119 1.0000000000000000e+00
1120 1120 1.0000000000000000e+00
1121 1121 1.0000000000000000e+00
1122 1122 1.0000000000000000e+00
1123 1123 1.0000000000000000e+00
1124 1124 1.0000000000000000e+00
1125 1125 1.0000000000000000e+00
1126 1126 1.0000000000000000e+00
1127 1127 1.0000000000000000e+00
1128 1128 1.0000000000000000e+00
1129 1129 1.0000000000000000e+00
1130 1130 1.0000000000000000e+00
1131 1131 1.0000000000000000e+00
1132 1132 1.0000000000000000e+00
1133 1133 1.0000000000000000e+00
1134 1134 1.0000000000000000e+00
1135 1135 1.0000000000000000e+00
1136 1136 1.0000000000000000e+00
1137 1137 1.0000000000000000e+00
1138 1138 1.0000000000000000e+00
1139 1139 1.0000000000000000e+00
1140 1140 1.0000000000000000e+00
1141 1141 2.0000168604678969e-03
1145 1141 3.0000000000000000e+00
1140 1142 -1.0000000000000000e+00
1142 1142 1.0000000000000000e+00
1143 1143 1.0020000168604679e+00
1144 1143 -1.0000000000000000e+00
1143 1144 -1.0000000000000000e+00
1144 1144 1.0000000000000000e+00
1145 1144 -3.0000000000000000e+00
1142 1145 9.9999999999999995e-07
1145 1145 1.0000000000000000e+00
1146 1146 1.0000000000000000e-03
1147 1146 -2.2500000000000000e+00
1145 1147 -1.0000000000000000e+00
1147 1147 1.0000000000000000e+00
1148 1148 1.0000000000000000e+00
1149 1149 1.0000000000000000e+00
1150 1150 -1.0000000000000000e+00
1150 1151 1.0000000000000000e+00
1151 1151 1.0000000000000000e+00
1152 1152 -1.0000000000000000e+00
1152 1153 1.0000000000000000e+00
1153 1153 1.0000000000000000e+00
1154 1154 -1.0000000000000000e+00
1154 1155 1.0000000000000000e+00
1155 1155 1.0000000000000000e+00
1156 1156 -1.0000000000000000e+00
1156 1157 1.0000000000000000e+00
1157 1157 1.0000000000000000e+00
