%%MatrixMarket matrix coordinate real general
1814 1814 23367
1 1 1
1 2 1e-06
2 2 1
3 3 1
3 4 1e-06
4 4 1
5 5 0.0148828
1797 5 -3.08494e-11
1798 5 -0.199044
1803 5 -0.0612349
6 6 0.00550089
1797 6 -0.111815
1798 6 -0.111815
1803 6 -0.279102
1814 6 -0.329641
7 7 0.00654144
1797 7 -0.0940289
1798 7 -0.196341
1803 7 -0.0940289
1814 7 -0.0925062
8 8 0.0148828
13 8 -3.08494e-11
1795 8 -0.0612349
1801 8 -0.199044
9 9 0.00654144
13 9 -0.0940289
1795 9 -0.0940289
1801 9 -0.196341
1814 9 -0.0925062
10 10 0.00550089
13 10 -0.111815
1795 10 -0.279102
1801 10 -0.111815
1814 10 -0.329641
11 11 0.0105942
13 11 -0.0990183
1793 11 -0.258657
1814 11 -0.205167
12 12 0.00692919
13 12 -0.174273
22 12 -1.06148e-08
1796 12 -1.06148e-08
1797 12 -0.174273
8 13 -1.02665e-14
9 13 -0.000615084
10 13 -0.000615096
11 13 -0.00106546
12 13 -0.00120755
13 13 0.0198564
22 13 -0.0608144
1793 13 -0.0138791
1795 13 -0.179191
1796 13 -6.45535e-10
1797 13 -0.0105983
1801 13 -0.0516429
1814 13 -0.334344
14 14 0.0297892
21 14 -0.0405366
1796 14 -0.277205
1814 14 -0.049494
15 15 0.0158995
20 15 -2.88767e-11
1792 15 -0.187435
1799 15 -0.0573192
16 16 0.00550089
20 16 -0.111815
1792 16 -0.111815
1799 16 -0.279102
1814 16 -0.329641
17 17 0.00654144
20 17 -0.0940289
1792 17 -0.196341
1799 17 -0.0940289
1814 17 -0.0925062
18 18 0.0105942
20 18 -0.0990183
1800 18 -0.258657
1814 18 -0.205167
19 19 0.00694361
20 19 -0.173912
21 19 -4.4477e-08
22 19 -5.21052e-08
1794 19 -0.173908
15 20 -1.02665e-14
16 20 -0.000615096
17 20 -0.000615084
18 20 -0.00106546
19 20 -0.00120755
20 20 0.0198568
21 20 -2.70479e-09
22 20 -0.060813
1792 20 -0.0516417
1794 20 -0.0105759
1799 20 -0.179187
1800 20 -0.0138788
1814 20 -0.334337
14 21 -0.0012076
19 21 -3.7747e-10
20 21 -6.56464e-11
21 21 0.0135411
22 21 -2.9482e-10
1792 21 -2.50357e-10
1794 21 -0.0891787
1796 21 -0.0247213
1799 21 -8.68692e-10
1800 21 -6.72838e-11
1809 21 -0.172126
1814 21 -0.00441391
12 22 -3.15346e-12
13 22 -0.00120755
19 22 -1.52624e-11
20 22 -0.00120755
21 22 -3.26617e-12
22 22 0.00844411
1792 22 -0.00738504
1793 22 -0.00198479
1794 22 -0.00151241
1795 22 -0.0256253
1796 22 -1.01877e-10
1797 22 -0.00151562
1799 22 -0.0256247
1800 22 -0.00198474
1801 22 -0.0073852
1809 22 -0.0851449
1814 22 -0.23303
23 23 0.0073526
27 23 -0.0685491
42 23 -3.25985e-11
1804 23 -0.169114
24 24 0.00502056
26 24 -0.289648
1810 24 -0.123989
1814 24 -0.283382
25 25 0.00856431
26 25 -0.120137
27 25 -0.0325886
37 25 -0.188768
1814 25 -0.183179
24 26 -0.00142513
25 26 -0.00102888
26 26 0.0104503
27 26 -0.183457
37 26 -0.093408
1810 26 -0.0169086
1814 26 -0.170111
23 27 -0.000503997
25 27 -0.000279099
26 27 -0.00213285
27 27 0.0126491
28 27 -0.231753
37 27 -0.0602589
42 27 -0.271598
1804 27 -0.00673828
1810 27 -0.00285108
1814 27 -0.137344
27 28 -0.00290257
28 28 0.0123149
37 28 -0.0142027
42 28 -0.0542634
1802 28 -0.234233
1804 28 -0.00158818
1810 28 -0.000671986
1814 28 -0.626818
29 29 0.0105942
37 29 -0.258657
1797 29 -0.0990183
1814 29 -0.205167
30 30 0.0073526
36 30 -0.0685491
41 30 -3.25989e-11
1804 30 -0.169114
31 31 0.0129876
36 31 -0.223489
41 31 0.00924615
1802 31 -0.2221
1814 31 -0.563657
32 32 0.00453032
33 32 0.00827585
1805 32 -0.211462
1810 32 -0.212244
1814 32 -0.58457
32 33 -0.000330596
33 33 0.00628813
35 33 -0.23126
1805 33 -0.0343434
1810 33 -0.186733
1814 33 -0.250881
34 34 0.00856431
35 34 -0.120137
36 34 -0.0325886
37 34 -0.188768
1814 34 -0.183179
33 35 -0.00142513
34 35 -0.00102888
35 35 0.0105335
36 35 -0.182007
37 35 -0.0926701
1805 35 -0.00464648
1810 35 -0.0252641
1814 35 -0.16437
30 36 -0.000503997
31 36 -0.00293147
34 36 -0.000279099
35 36 -0.00213285
36 36 0.011997
37 36 -0.0634028
41 36 -0.284101
1802 36 -0.0542701
1804 36 -0.00710452
1805 36 -0.00082606
1810 36 -0.00449149
1814 36 -0.281517
25 37 -0.00164151
26 37 -0.000989505
27 37 -0.000757847
28 37 -0.000175633
29 37 -0.00271257
34 37 -0.00164151
35 37 -0.000989506
36 37 -0.000756413
37 37 0.0158605
41 37 -0.0135492
42 37 -0.0135784
1797 37 -0.0169347
1802 37 -0.00518203
1804 37 -0.00067838
1805 37 -0.00032928
1810 37 -0.00298894
1814 37 -0.345003
38 38 0.0923789
39 38 -0.110194
1814 38 -0.0828668
38 39 -0.0102647
39 39 0.0419746
40 39 8.98701e-13
41 39 4.72314e-13
42 39 -0.0144023
1802 39 -0.0175943
1804 39 -0.0335681
1806 39 -0.0242862
1807 39 -0.052202
1814 39 -0.521861
39 40 3.00088e-14
40 40 0.020503
41 40 -6.91292e-25
42 40 2.10797e-14
1802 40 -0.0360214
1804 40 -0.0687084
1806 40 3.5546e-14
1807 40 7.64044e-14
1808 40 -0.289579
1814 40 -0.341356
30 41 -5.44779e-15
31 41 -0.000864925
36 41 -0.00358184
37 41 -0.000227099
39 41 1.57253e-14
40 41 -1.41324e-26
41 41 0.00976531
42 41 -0.000315774
1797 41 -0.000393828
1802 41 -0.039698
1804 41 -0.00262166
1805 41 -0.00031065
1806 41 -0.0767798
1807 41 -0.0275966
1808 41 -4.19079e-25
1810 41 -0.00171695
1814 41 -0.572848
23 42 -5.4477e-15
27 42 -0.00338857
28 42 -0.00165029
37 42 -0.00022763
39 42 8.29393e-05
40 42 -7.45377e-17
41 42 -3.0842e-06
42 42 0.0119732
1797 42 -0.000322059
1802 42 -0.0322717
1804 42 -0.00190697
1805 42 -6.34019e-06
1806 42 -0.0223588
1807 42 -0.161003
1808 42 -1.80274e-15
1810 42 -0.000956784
1814 42 -0.556602
43 43 0.020503
58 43 1.46362e-12
1802 43 -0.0360214
1804 43 -0.0687084
1808 43 -0.289579
1814 43 -0.341356
44 44 0.0073526
49 44 -0.0685491
57 44 -3.25977e-11
1804 44 -0.169114
45 45 0.0129876
49 45 -0.223489
57 45 0.00924614
1802 45 -0.2221
1814 45 -0.563657
46 46 0.00690961
48 46 -0.18233
64 46 -0.117666
65 46 -0.118239
47 47 0.00856431
48 47 -0.120137
49 47 -0.0325886
1800 47 -0.188768
1814 47 -0.183179
46 48 -0.0015881
47 48 -0.00102888
48 48 0.0134847
49 48 -0.142174
64 48 -0.0834218
65 48 -0.170397
1800 48 -0.0723888
1814 48 -0.264383
44 49 -0.000503997
45 49 -0.00293147
47 49 -0.000279099
48 49 -0.00213285
49 49 0.012082
57 49 -0.282103
64 49 -0.0147266
65 49 -0.0300805
1800 49 -0.0593767
1802 49 -0.0538884
1804 49 -0.00705456
1814 49 -0.297193
50 50 0.0923789
58 50 -0.110194
1814 50 -0.0828668
51 51 0.0073526
54 51 -0.0685491
56 51 -3.25986e-11
1804 51 -0.169114
52 52 0.00856431
53 52 -0.120137
54 52 -0.0325886
1800 52 -0.188768
1814 52 -0.183179
52 53 -0.00102888
53 53 0.0126905
54 53 -0.151071
64 53 -0.160517
1800 53 -0.0769189
1814 53 -0.127869
51 54 -0.000503997
52 54 -0.000279099
53 54 -0.00213285
54 54 0.0127182
55 54 -0.230494
56 54 -0.270123
64 54 -0.026919
1800 54 -0.0571663
1804 54 -0.00670168
1814 54 -0.129514
54 55 -0.00290257
55 55 0.0123186
56 55 -0.0538997
64 55 -0.00634279
1800 55 -0.0134698
1802 55 -0.234163
1804 55 -0.00157909
1814 55 -0.624787
51 56 -5.44772e-15
54 56 -0.00338857
55 56 -0.00164603
56 56 0.0119809
58 56 0.00692263
64 56 -0.00848495
1800 56 -0.018019
1802 56 -0.0321711
1804 56 -0.00211239
1806 56 -0.0224927
1807 56 -0.161254
1814 56 -0.550437
44 57 -5.44759e-15
45 57 -0.000864925
49 57 -0.00358184
57 57 0.00977555
58 57 1.60868e-12
64 57 -0.00539595
65 57 -0.0110218
1800 57 -0.0217561
1802 57 -0.0393962
1804 57 -0.00258485
1806 57 -0.0766994
1807 57 -0.0275677
1814 57 -0.569977
43 58 3.77235e-14
50 58 -0.0102647
56 58 -0.000604532
57 58 1.98247e-14
58 58 0.0419788
64 58 -0.000122191
65 58 5.20509e-15
1800 58 -0.00025949
1802 58 -0.0180559
1804 58 -0.0335952
1806 58 -0.0246077
1807 58 -0.054519
1808 58 2.60225e-13
1814 58 -0.529736
59 59 0.00150265
62 59 -1.97985e-07
64 59 7.3834e-21
1798 59 -0.154696
1803 59 -0.154699
60 60 0.00150352
61 60 -3.00912e-07
64 60 7.8013e-21
1795 60 -0.15461
1801 60 -0.154607
60 61 -4.64916e-10
61 61 0.00653768
62 61 -1.25821e-07
64 61 5.54776e-28
1795 61 -0.099751
1801 61 -0.135304
1809 61 -0.099747
59 62 -2.79933e-10
61 62 -7.34566e-10
62 62 0.00845904
63 62 -1.07967e-07
64 62 2.44338e-28
1795 62 -0.0770907
1798 62 -0.104572
1801 62 -0.0770907
1803 62 -0.0770938
1809 62 -8.66183e-09
62 63 -3.86059e-11
63 63 0.00931401
64 63 -1.67979e-16
65 63 -1.67979e-16
1795 63 -3.19536e-10
1798 63 -0.0700143
1801 63 -3.19536e-10
1803 63 -0.0700143
1805 63 -0.0700172
1809 63 -0.0771926
1810 63 -0.0700172
1814 63 -0.124572
46 64 -0.000833426
48 64 -0.00109001
49 64 -0.000154971
53 64 -0.00207291
54 64 -0.000313158
55 64 -7.21811e-05
56 64 -8.84817e-05
57 64 -4.37178e-05
58 64 6.12526e-07
59 64 -5.41469e-23
60 64 -5.40094e-23
61 64 -1.62521e-29
62 64 -1.07203e-29
63 64 7.86366e-19
64 64 0.0150545
65 64 -0.0192249
1795 64 -0.0154405
1798 64 3.65662e-18
1800 64 -0.0178666
1801 64 -5.54651e-22
1802 64 -0.00198022
1803 64 -0.0154405
1804 64 -0.000238152
1805 64 3.65733e-18
1806 64 -0.000353931
1807 64 -0.00102559
1808 64 -1.05879e-17
1809 64 -0.0956503
1810 64 -0.0433169
1814 64 -0.356859
46 65 -0.000833426
48 65 -0.00227818
49 65 -0.000323898
57 65 -9.13725e-05
58 65 1.46989e-16
63 65 7.86366e-19
64 65 -0.000293378
65 65 0.00988123
1795 65 -0.000458436
1798 65 5.68043e-18
1800 65 -0.0193676
1801 65 -1.64424e-23
1802 65 -0.00218951
1803 65 -0.000458436
1804 65 -0.000262215
1805 65 -0.0659952
1806 65 -0.000719754
1807 65 -0.000285371
1808 65 -3.14359e-19
1809 65 -0.148567
1810 65 -0.0012861
1814 65 -0.504058
66 66 0.00150224
67 66 -1.64321e-07
85 66 7.18702e-21
1798 66 -0.154738
1803 66 -0.154741
66 67 -2.09838e-10
67 67 0.00474902
68 67 -8.87566e-08
85 67 3.17562e-28
1798 67 -0.14208
1803 67 -0.0931349
1809 67 -0.0931311
67 68 -1.80322e-11
68 68 0.00702379
85 68 -1.52741e-16
86 68 -1.41585e-16
1798 68 -0.062969
1803 68 -0.062969
1805 68 -0.0629717
1809 68 -0.102362
1810 68 -0.0629717
1814 68 -0.165191
69 69 0.020503
84 69 1.46362e-12
1802 69 -0.0360214
1804 69 -0.0687084
1808 69 -0.289579
1814 69 -0.341356
70 70 0.0073526
75 70 -0.0685491
83 70 -3.25977e-11
1804 70 -0.169114
71 71 0.0129876
75 71 -0.223489
83 71 0.00924614
1802 71 -0.2221
1814 71 -0.563657
72 72 0.00690961
74 72 -0.18233
85 72 -0.117666
86 72 -0.118239
73 73 0.00856431
74 73 -0.120137
75 73 -0.0325886
1793 73 -0.188768
1814 73 -0.183179
72 74 -0.0015881
73 74 -0.00102888
74 74 0.0134847
75 74 -0.142174
85 74 -0.0834218
86 74 -0.170397
1793 74 -0.0723888
1814 74 -0.264383
70 75 -0.000503997
71 75 -0.00293147
73 75 -0.000279099
74 75 -0.00213285
75 75 0.012082
83 75 -0.282103
85 75 -0.0147266
86 75 -0.0300805
1793 75 -0.0593767
1802 75 -0.0538884
1804 75 -0.00705456
1814 75 -0.297193
76 76 0.0923789
84 76 -0.110194
1814 76 -0.0828668
77 77 0.0073526
80 77 -0.0685491
82 77 -3.25986e-11
1804 77 -0.169114
78 78 0.00856431
79 78 -0.120137
80 78 -0.0325886
1793 78 -0.188768
1814 78 -0.183179
78 79 -0.00102888
79 79 0.0126905
80 79 -0.151071
85 79 -0.160517
1793 79 -0.0769189
1814 79 -0.127869
77 80 -0.000503997
78 80 -0.000279099
79 80 -0.00213285
80 80 0.0127182
81 80 -0.230494
82 80 -0.270123
85 80 -0.026919
1793 80 -0.0571663
1804 80 -0.00670168
1814 80 -0.129514
80 81 -0.00290257
81 81 0.0123186
82 81 -0.0538997
85 81 -0.00634279
1793 81 -0.0134698
1802 81 -0.234163
1804 81 -0.00157909
1814 81 -0.624787
77 82 -5.44772e-15
80 82 -0.00338857
81 82 -0.00164603
82 82 0.0119809
84 82 0.00692263
85 82 -0.00848495
1793 82 -0.018019
1802 82 -0.0321711
1804 82 -0.00211239
1806 82 -0.0224927
1807 82 -0.161254
1814 82 -0.550437
70 83 -5.44759e-15
71 83 -0.000864925
75 83 -0.00358184
83 83 0.00977555
84 83 1.60868e-12
85 83 -0.00539595
86 83 -0.0110218
1793 83 -0.0217561
1802 83 -0.0393962
1804 83 -0.00258485
1806 83 -0.0766994
1807 83 -0.0275677
1814 83 -0.569977
69 84 3.77235e-14
76 84 -0.0102647
82 84 -0.000604532
83 84 1.98246e-14
84 84 0.0419788
85 84 -0.000122191
86 84 5.20506e-15
1793 84 -0.00025949
1802 84 -0.0180559
1804 84 -0.0335952
1806 84 -0.0246077
1807 84 -0.054519
1808 84 2.60225e-13
1814 84 -0.529736
66 85 -5.42115e-23
67 85 -8.90809e-30
68 85 5.40393e-19
72 85 -0.000833426
74 85 -0.00109001
75 85 -0.000154971
79 85 -0.00207291
80 85 -0.000313158
81 85 -7.21811e-05
82 85 -8.84817e-05
83 85 -4.37178e-05
84 85 6.12526e-07
85 85 0.0137579
86 85 -0.0210367
1793 85 -0.0195503
1798 85 2.47273e-18
1802 85 -0.00216684
1803 85 -0.0168956
1804 85 -0.000260596
1805 85 2.47344e-18
1806 85 -0.000387286
1807 85 -0.00112225
1808 85 -1.15857e-17
1809 85 -0.104665
1810 85 -0.0321474
1814 85 -0.39049
68 86 4.93405e-19
72 86 -0.000833426
74 86 -0.00227818
75 86 -0.000323898
83 86 -9.13725e-05
84 86 1.46989e-16
85 86 -0.000293378
86 86 0.00930814
1793 86 -0.0206131
1798 86 3.41579e-18
1802 86 -0.0023302
1803 86 -0.000532525
1804 86 -0.000279067
1805 86 -0.0475155
1806 86 -0.000765119
1807 86 -0.000305988
1808 86 -3.65163e-19
1809 86 -0.157998
1810 86 -0.00101324
1814 86 -0.536152
87 87 0.00150439
88 87 -4.68445e-07
112 87 8.21973e-21
1792 87 -0.154517
1799 87 -0.15452
87 88 -7.2217e-10
88 88 0.00817939
92 88 -2.31239e-07
112 88 7.25732e-28
1792 88 -0.132292
1799 88 -0.103875
1809 88 -0.103871
89 89 0.00150398
92 89 -3.8095e-07
112 89 8.02608e-21
1795 89 -0.154562
1801 89 -0.154559
90 90 0.00150282
91 90 -2.14392e-07
112 90 7.4653e-21
1798 90 -0.154678
1803 90 -0.154682
90 91 -3.11935e-10
91 91 0.0106399
92 91 -1.13068e-07
112 91 2.18865e-28
113 91 -1.3204e-07
1795 91 -0.079851
1798 91 -0.1017
1801 91 -0.079851
1803 91 -0.0798542
88 92 -1.93914e-09
89 92 -5.91965e-10
91 92 -1.50912e-09
92 92 0.0106516
112 92 4.46051e-28
113 92 -1.87074e-14
1792 92 -0.079763
1795 92 -0.0797662
1798 92 -1.44088e-08
1799 92 -0.0797629
1801 92 -0.101588
1803 92 -1.13137e-08
1809 92 -1.89099e-08
93 93 0.00856431
94 93 -0.120137
99 93 -0.188768
110 93 -0.0325886
1814 93 -0.183179
93 94 -0.00102888
94 94 0.0126905
99 94 -0.0769189
110 94 -0.151071
112 94 -0.160517
1814 94 -0.127869
95 95 0.0105942
99 95 -0.258657
1794 95 -0.0990183
1814 95 -0.205167
96 96 0.00690961
98 96 -0.18233
100 96 -0.118239
112 96 -0.117666
97 97 0.00856431
98 97 -0.120137
99 97 -0.188768
111 97 -0.0325886
1814 97 -0.183179
96 98 -0.0015881
97 98 -0.00102888
98 98 0.0134847
99 98 -0.0723888
100 98 -0.170397
111 98 -0.142174
112 98 -0.0834218
1814 98 -0.264383
93 99 -0.00164151
94 99 -0.000989505
95 99 -0.00271257
97 99 -0.00164151
98 99 -0.000989506
99 99 0.015993
100 99 -0.0105427
110 99 -0.0453824
111 99 -0.0448319
112 99 -0.0150928
1794 99 -0.0167944
1814 99 -0.319013
96 100 -0.000833426
98 100 -0.00227818
99 100 -0.000164914
100 100 0.0104213
110 100 -0.000718168
111 100 -0.03179
112 100 -0.0278857
113 100 9.7446e-17
1794 100 -0.000265769
1805 100 -0.081526
1809 100 -0.138176
1814 100 -0.458705
101 101 0.0073526
104 101 -3.25977e-11
111 101 -0.0685491
1804 101 -0.169114
102 102 0.0923789
108 102 -0.110194
1814 102 -0.0828668
103 103 0.0129876
104 103 0.00924614
111 103 -0.223489
1802 103 -0.2221
1814 103 -0.563657
101 104 -5.44759e-15
103 104 -0.000864925
104 104 0.010786
108 104 1.45798e-12
111 104 -0.332082
1802 104 -0.0178101
1804 104 -8.54131e-14
1806 104 -0.0695141
1807 104 -0.0249851
1814 104 -0.417888
105 105 0.0073526
107 105 -3.25986e-11
110 105 -0.0685491
1804 105 -0.169114
106 106 0.0129876
107 106 0.00924595
110 106 -0.223487
1802 106 -0.222101
1814 106 -0.563658
105 107 -5.44772e-15
106 107 -0.000864979
107 107 0.0129929
108 107 0.00638341
110 107 -0.275679
1802 107 -0.0147859
1804 107 -7.09068e-14
1806 107 -0.0207407
1807 107 -0.148693
1814 107 -0.432157
102 108 -0.0102647
104 108 1.98246e-14
107 108 -0.000604532
108 108 0.0419785
109 108 8.98626e-13
110 108 -0.00397006
111 108 1.56828e-13
1802 108 -0.0178056
1804 108 -0.033565
1806 108 -0.0245827
1807 108 -0.0543386
1814 108 -0.528037
108 109 3.00089e-14
109 109 0.020503
110 109 5.8107e-15
111 109 -2.29539e-25
1802 109 -0.0360214
1804 109 -0.0687084
1806 109 3.598e-14
1807 109 7.95317e-14
1808 109 -0.289579
1814 109 -0.341356
93 110 -0.000279099
94 110 -0.00213285
99 110 -0.00072705
100 110 -7.66504e-06
105 110 -0.000503997
106 110 -0.00293146
107 110 -0.00340836
108 110 2.1757e-05
109 110 -1.95514e-17
110 110 0.0110905
111 110 -0.00296098
112 110 -0.0318784
113 110 6.73485e-20
1794 110 -0.00110116
1802 110 -0.0632154
1804 110 -0.0076194
1805 110 -5.63456e-05
1806 110 -0.00632588
1807 110 -0.0455903
1808 110 -5.10499e-16
1809 110 -9.54984e-05
1814 110 -0.450515
97 111 -0.000279099
98 111 -0.00213285
99 111 -0.000717388
100 111 -0.000370996
101 111 -0.000503997
103 111 -0.00293147
104 111 -0.00340836
108 111 4.96932e-15
109 111 -4.46556e-27
110 111 -3.28232e-05
111 111 0.0109061
112 111 -0.0183518
113 111 3.31506e-18
1794 111 -0.00111707
1802 111 -0.065455
1804 111 -0.00783812
1805 111 -0.00277347
1806 111 -0.0217435
1807 111 -0.00794555
1808 111 -1.53641e-18
1809 111 -0.00470066
1814 111 -0.497779
87 112 -5.38717e-23
88 112 -2.52359e-29
89 112 -5.39354e-23
90 112 -5.412e-23
91 112 -1.16029e-29
92 112 -2.05467e-29
94 112 -0.00207291
96 112 -0.000833426
98 112 -0.00109001
99 112 -0.00023835
100 112 -0.000286791
110 112 -0.000324181
111 112 -0.000175734
112 112 0.0162909
113 112 6.40887e-17
1792 112 -5.10968e-22
1794 112 -0.000284359
1795 112 -0.0142687
1798 112 -5.13858e-22
1799 112 -0.0142687
1801 112 -5.1171e-22
1802 112 -0.00196404
1803 112 -0.0142687
1804 112 -0.000236174
1805 112 -0.00146625
1806 112 -0.000360435
1807 112 -0.000992936
1808 112 -1.01753e-17
1809 112 -0.090876
1810 112 -0.0521521
1814 112 -0.344269
91 113 -5.8967e-11
92 113 -6.66728e-18
100 113 -2.02343e-18
110 113 -1.45316e-21
111 113 -6.4329e-20
112 113 -2.08108e-18
113 113 0.0114155
1792 113 -4.65859e-17
1794 113 -1.05383e-19
1795 113 -4.12472e-10
1798 113 -0.0744253
1799 113 -4.91871e-17
1801 113 -4.12472e-10
1802 113 -7.3495e-19
1803 113 -0.0744253
1804 113 -8.81946e-20
1805 113 -0.0744284
1806 113 -1.89043e-19
1807 113 -2.31593e-19
1808 113 -1.92862e-33
1809 113 -0.0629821
1810 113 -0.0744284
1814 113 -0.101639
114 114 0.00622002
116 114 -0.230676
234 114 -0.11611
1788 114 -0.116658
115 115 0.0129811
116 115 5.63162e-12
234 115 -0.0819346
1788 115 -0.0819346
1789 115 -0.143571
1814 115 -0.69256
114 116 -0.00113949
115 116 -6.04253e-16
116 116 0.019589
234 116 -0.116412
1788 116 -0.216957
1789 116 -0.0370419
1814 116 -0.20987
117 117 0.0179185
123 117 -0.124778
1799 117 -0.222684
1814 117 -0.125503
118 118 0.00635995
122 118 -0.209574
1812 118 -0.232494
119 119 0.010974
122 119 -0.121458
1812 119 -0.231393
120 120 0.00503496
122 120 5.29112e-12
1812 120 -0.297834
1814 120 -0.702166
121 121 0.00927248
122 121 2.89114e-12
1812 121 -0.303498
1814 121 -0.696502
118 122 -0.0010599
119 122 -0.0010599
120 122 -2.13465e-16
121 122 -2.14784e-16
122 122 0.0166473
130 122 -0.2014
1812 122 -0.19947
1814 122 -0.257611
117 123 -0.00229327
123 123 0.0245943
124 123 8.82019e-13
130 123 0.004155
131 123 -0.0554966
132 123 -0.118778
1799 123 -0.228062
1814 123 -0.468659
123 124 -2.39915e-13
124 124 0.0153488
125 124 -0.20529
130 124 6.49461e-14
131 124 -0.0488493
132 124 -0.0328373
1799 124 -3.56479e-12
1814 124 -0.120201
124 125 -0.00319835
125 125 0.0104725
130 125 1.98348e-14
131 125 -0.0149188
132 125 -0.0100286
1799 125 -1.0887e-12
1808 125 -0.13994
1814 125 -0.330817
126 126 0.0151289
127 126 -0.10266
130 126 -0.195093
131 126 -0.0406563
132 126 -0.0620039
1814 126 -0.0887756
126 127 -0.00155318
127 127 0.0207503
128 127 -0.0452065
129 127 -0.133279
130 127 -0.132946
131 127 -0.00304315
132 127 -0.110673
1814 127 -0.240606
127 128 -0.00093805
128 128 0.0109591
129 128 -0.131729
130 128 -0.0113795
131 128 -0.000260479
132 128 -0.00947308
1808 128 -0.0347259
1814 128 -0.301326
127 129 -0.0022002
128 129 -0.0014181
129 129 0.0213764
130 129 -0.0144386
131 129 -0.0003305
132 129 -0.0120196
1801 129 -0.211482
1808 129 -0.0023037
1814 129 -0.370322
122 130 -0.00332858
123 130 -0.00073585
124 130 6.49033e-16
125 130 1.3324e-16
126 130 -0.00299598
127 130 -0.00279344
128 130 -0.000126281
129 130 -0.000388941
130 130 0.0263001
131 130 -0.0655678
132 130 -0.172591
1799 130 -0.00638093
1801 130 -0.00312752
1808 130 -0.000200807
1812 130 -0.0252452
1814 130 -0.385436
123 131 -0.00136486
124 131 -0.000749778
125 131 -0.000153922
126 131 -0.000615084
127 131 -6.31446e-05
128 131 -2.85455e-06
129 131 -8.79187e-06
130 131 -0.00167605
131 131 0.0160047
132 131 -0.0326659
134 131 -0.189465
1799 131 -0.020117
1801 131 -0.000443694
1808 131 -0.00137433
1812 131 -0.00264373
1814 131 -0.494232
123 132 -0.00294545
124 132 -0.000503997
125 132 -0.000103465
126 132 -0.00093805
127 132 -0.00286188
128 132 -0.000129376
129 132 -0.00039847
130 132 -0.00450922
131 132 -0.000532298
132 132 0.021242
134 132 -0.00474777
135 132 -0.115604
1799 132 -0.0334821
1801 132 -0.00464214
1808 132 -0.0010134
1812 132 -0.00542527
1814 132 -0.313869
133 133 0.00988922
134 133 -0.0621975
135 133 -0.0621975
136 133 -0.0621975
138 133 -0.0621975
1812 133 -0.163477
1814 133 -0.0507321
131 134 -0.00305654
132 134 -9.98447e-05
133 134 -0.000615105
134 134 0.0178294
135 134 -0.0782109
136 134 -0.125549
138 134 -0.00214578
1799 134 -0.00363621
1801 134 -0.00010206
1808 134 -0.00024128
1812 134 -0.0912419
1814 134 -0.307961
132 135 -0.00248587
133 135 -0.000615084
134 135 -0.00138483
135 135 0.0126977
136 135 -0.0167054
138 135 -0.0032469
1799 135 -0.00695146
1801 135 -0.000919936
1808 135 -0.000224711
1812 135 -0.0673725
1814 135 -0.433928
133 136 -0.000615105
134 136 -0.00280384
135 136 -0.000257549
136 136 0.0168271
137 136 -0.0365544
138 136 -0.00268083
139 136 -1.14247e-11
142 136 -0.130753
1799 136 -0.000712284
1801 136 -3.10859e-05
1808 136 -4.36429e-05
1812 136 -0.202093
1814 136 -0.0598103
136 137 -0.000615084
137 137 0.00986674
138 137 -0.0625063
139 137 -0.0623392
142 137 -0.0704902
1799 137 -4.44032e-05
1801 137 -1.93787e-06
1808 137 -2.72066e-06
1812 137 -0.176448
1814 137 -0.0545762
133 138 -0.000615084
134 138 -3.82567e-05
135 138 -4.12491e-05
136 138 -4.37488e-05
137 138 -0.000616684
138 138 0.00714929
139 138 -0.00537727
142 138 -0.00688046
1799 138 -6.77542e-05
1801 138 -6.21124e-06
1808 138 -3.08937e-06
1812 138 -0.203468
1814 138 -0.0135899
136 139 -4.62821e-15
137 139 -0.000615084
138 139 -3.84468e-05
139 139 0.00718788
140 139 -6.4389e-13
141 139 -0.085574
142 139 -0.00606882
1799 139 -4.16209e-06
1801 139 -1.99051e-07
1808 139 -0.0855727
1812 139 -0.101761
1814 139 -0.00474291
139 140 -1.92245e-13
140 140 0.0197384
141 140 -0.0764651
142 140 -0.140112
1799 140 -4.05375e-17
1801 140 -1.93869e-18
1808 140 -0.0311629
1812 140 -0.161456
1814 140 -0.0564972
139 141 -0.000615085
140 141 -0.00154782
141 141 0.00831394
142 141 -0.212705
1799 141 -3.07922e-07
1801 141 -1.47263e-08
1808 141 -0.188406
1812 141 -0.111569
1814 141 -0.189806
136 142 -0.00276558
137 142 -0.000716199
138 142 -5.2181e-05
139 142 -4.49278e-05
140 142 -0.0022002
141 142 -0.00168969
142 142 0.0161413
1799 142 -0.000124273
1801 142 -5.43429e-06
1808 142 -0.0623237
1812 142 -0.170588
1814 142 -0.0402965
143 143 0.0179185
149 143 -0.124778
1795 143 -0.222684
1814 143 -0.125503
144 144 0.010974
148 144 -0.121458
1812 144 -0.231393
145 145 0.00635995
148 145 -0.209574
1812 145 -0.232494
146 146 0.00927248
148 146 2.89114e-12
1812 146 -0.303498
1814 146 -0.696502
147 147 0.00503496
148 147 5.29112e-12
1812 147 -0.297834
1814 147 -0.702166
144 148 -0.0010599
145 148 -0.0010599
146 148 -2.14784e-16
147 148 -2.13465e-16
148 148 0.0166473
156 148 -0.2014
1812 148 -0.19947
1814 148 -0.257611
143 149 -0.00229327
149 149 0.0245943
150 149 8.82014e-13
156 149 0.004155
157 149 -0.0554966
158 149 -0.118778
1795 149 -0.228062
1814 149 -0.468659
149 150 -2.39915e-13
150 150 0.0153488
151 150 -0.20529
156 150 6.49461e-14
157 150 -0.0488493
158 150 -0.0328373
1795 150 -3.56479e-12
1814 150 -0.120201
150 151 -0.00319835
151 151 0.0104725
156 151 1.98348e-14
157 151 -0.0149188
158 151 -0.0100286
1795 151 -1.0887e-12
1808 151 -0.13994
1814 151 -0.330817
152 152 0.0151289
153 152 -0.10266
156 152 -0.195093
157 152 -0.0406563
158 152 -0.0620039
1814 152 -0.0887756
152 153 -0.00155318
153 153 0.0207503
154 153 -0.0452065
155 153 -0.133279
156 153 -0.132946
157 153 -0.00304315
158 153 -0.110673
1814 153 -0.240606
153 154 -0.00093805
154 154 0.0109591
155 154 -0.131729
156 154 -0.0113795
157 154 -0.000260479
158 154 -0.00947308
1808 154 -0.0347259
1814 154 -0.301326
153 155 -0.0022002
154 155 -0.0014181
155 155 0.0213764
156 155 -0.0144386
157 155 -0.0003305
158 155 -0.0120196
1798 155 -0.211482
1808 155 -0.0023037
1814 155 -0.370322
148 156 -0.00332858
149 156 -0.00073585
150 156 6.4903e-16
151 156 1.33239e-16
152 156 -0.00299598
153 156 -0.00279344
154 156 -0.000126281
155 156 -0.000388941
156 156 0.0263001
157 156 -0.0655678
158 156 -0.172591
1795 156 -0.00638093
1798 156 -0.00312752
1808 156 -0.000200807
1812 156 -0.0252452
1814 156 -0.385436
149 157 -0.00136486
150 157 -0.000749778
151 157 -0.000153922
152 157 -0.000615084
153 157 -6.31446e-05
154 157 -2.85455e-06
155 157 -8.79187e-06
156 157 -0.00167605
157 157 0.0160047
158 157 -0.0326659
160 157 -0.189465
1795 157 -0.020117
1798 157 -0.000443694
1808 157 -0.00137433
1812 157 -0.00264373
1814 157 -0.494232
149 158 -0.00294545
150 158 -0.000503997
151 158 -0.000103465
152 158 -0.00093805
153 158 -0.00286188
154 158 -0.000129376
155 158 -0.00039847
156 158 -0.00450922
157 158 -0.000532298
158 158 0.021242
160 158 -0.00474777
161 158 -0.115604
1795 158 -0.0334821
1798 158 -0.00464214
1808 158 -0.0010134
1812 158 -0.00542527
1814 158 -0.313869
159 159 0.00988922
160 159 -0.0621975
161 159 -0.0621975
162 159 -0.0621975
164 159 -0.0621975
1812 159 -0.163477
1814 159 -0.0507321
157 160 -0.00305654
158 160 -9.98447e-05
159 160 -0.000615105
160 160 0.0178294
161 160 -0.0782109
162 160 -0.125549
164 160 -0.00214578
1795 160 -0.00363621
1798 160 -0.00010206
1808 160 -0.00024128
1812 160 -0.0912419
1814 160 -0.307961
158 161 -0.00248587
159 161 -0.000615084
160 161 -0.00138483
161 161 0.0126977
162 161 -0.0167054
164 161 -0.0032469
1795 161 -0.00695146
1798 161 -0.000919936
1808 161 -0.000224711
1812 161 -0.0673725
1814 161 -0.433928
159 162 -0.000615105
160 162 -0.00280384
161 162 -0.000257549
162 162 0.0168271
163 162 -0.0365544
164 162 -0.00268083
165 162 -1.14247e-11
168 162 -0.130753
1795 162 -0.000712284
1798 162 -3.10859e-05
1808 162 -4.36429e-05
1812 162 -0.202093
1814 162 -0.0598103
162 163 -0.000615084
163 163 0.00986674
164 163 -0.0625063
165 163 -0.0623392
168 163 -0.0704902
1795 163 -4.44032e-05
1798 163 -1.93787e-06
1808 163 -2.72066e-06
1812 163 -0.176448
1814 163 -0.0545762
159 164 -0.000615084
160 164 -3.82567e-05
161 164 -4.12491e-05
162 164 -4.37488e-05
163 164 -0.000616684
164 164 0.00714929
165 164 -0.00537727
168 164 -0.00688046
1795 164 -6.77542e-05
1798 164 -6.21124e-06
1808 164 -3.08937e-06
1812 164 -0.203468
1814 164 -0.0135899
162 165 -4.62821e-15
163 165 -0.000615084
164 165 -3.84468e-05
165 165 0.00718788
166 165 -0.085574
167 165 -6.4389e-13
168 165 -0.00606882
1795 165 -4.16209e-06
1798 165 -1.99051e-07
1808 165 -0.0855727
1812 165 -0.101761
1814 165 -0.00474291
165 166 -0.000615085
166 166 0.0084323
167 166 -0.183558
168 166 -0.184001
1795 166 -3.036e-07
1798 166 -1.45196e-08
1808 166 -0.180042
1812 166 -0.0803667
1814 166 -0.176771
165 167 -1.92246e-13
166 167 -0.0015093
167 167 0.0194613
168 167 -0.156376
1795 167 -2.35453e-08
1798 167 -1.12605e-09
1808 167 -0.0455694
1812 167 -0.169987
1814 167 -0.0710107
162 168 -0.00276558
163 168 -0.000716199
164 168 -5.2181e-05
165 168 -4.49278e-05
166 168 -0.00152145
167 168 -0.00247947
168 168 0.0161413
1795 168 -0.000124273
1798 168 -5.43428e-06
1808 168 -0.0623237
1812 168 -0.170588
1814 168 -0.0402965
169 169 0.00570562
233 169 -0.249112
234 169 -3.04137e-11
1792 169 -0.164542
1799 169 -0.0667024
170 170 0.00735091
173 170 -0.24889
234 170 -3.10656e-11
1795 170 -0.0685647
1801 170 -0.169152
171 171 0.00991921
172 171 -0.330256
234 171 -3.47896e-11
1798 171 -0.182678
1803 171 -0.0744555
171 172 -0.00261326
172 172 0.022796
173 172 -0.228549
234 172 -3.98815e-12
1795 172 -0.0529738
1798 172 -0.100879
1801 172 -0.12995
1803 172 -0.00853531
170 173 -0.0023047
172 173 -0.00419352
173 173 0.0363606
233 173 -0.143288
234 173 -2.42904e-12
1792 173 -0.0814712
1795 173 -0.043666
1798 173 -0.0116346
1799 173 -0.0332116
1801 173 -0.141685
1803 173 -0.00098439
174 174 0.0110015
175 174 -0.119857
188 174 -0.0852653
1808 174 -0.034592
1814 174 -0.279649
174 175 -0.00131864
175 175 0.0216984
188 175 -0.106581
1792 175 -0.208344
1808 175 -0.0021022
1814 175 -0.337731
176 176 0.0151289
186 176 -0.195093
187 176 -0.0406563
188 176 -0.10266
189 176 -0.0620039
1814 176 -0.0887756
177 177 0.0179185
183 177 -0.124778
232 177 -0.222684
1814 177 -0.125503
178 178 0.010974
182 178 -0.121458
1812 178 -0.231393
179 179 0.00635995
182 179 -0.209574
1812 179 -0.232494
180 180 0.00503496
182 180 5.29112e-12
1812 180 -0.297834
1814 180 -0.702166
181 181 0.00927248
182 181 2.89114e-12
1812 181 -0.303498
1814 181 -0.696502
178 182 -0.0010599
179 182 -0.0010599
180 182 -2.13464e-16
181 182 -2.14784e-16
182 182 0.0166473
186 182 -0.2014
1812 182 -0.19947
1814 182 -0.257611
177 183 -0.00229327
183 183 0.0245943
184 183 8.82019e-13
186 183 0.004155
187 183 -0.0554966
189 183 -0.118778
232 183 -0.228062
1814 183 -0.468659
183 184 -2.39915e-13
184 184 0.0153488
185 184 -0.20529
186 184 6.49461e-14
187 184 -0.0488493
189 184 -0.0328373
232 184 -3.56479e-12
1814 184 -0.120201
184 185 -0.00319835
185 185 0.0104725
186 185 1.98348e-14
187 185 -0.0149188
189 185 -0.0100286
232 185 -1.0887e-12
1808 185 -0.13994
1814 185 -0.330817
176 186 -0.00299598
182 186 -0.00332858
183 186 -0.00073585
184 186 6.49033e-16
185 186 1.3324e-16
186 186 0.0266785
187 186 -0.0643131
188 186 -0.104707
189 186 -0.158335
232 186 -0.00629042
1808 186 6.98901e-16
1812 186 -0.0248871
1814 186 -0.347951
176 187 -0.000615084
183 187 -0.00136486
184 187 -0.000749778
185 187 -0.000153922
186 187 -0.0016675
187 187 0.0160076
188 187 -0.0148519
189 187 -0.030638
190 187 -0.189432
232 187 -0.0201006
1808 187 -0.0013456
1812 187 -0.00259246
1814 187 -0.488827
174 188 -0.00093805
175 188 -0.00287801
176 188 -0.00155318
186 188 -0.00275867
187 188 -0.000240565
188 188 0.0200712
189 188 -0.136547
190 188 -0.00227045
232 188 -0.0011055
1792 188 -0.0298745
1808 188 -0.00193426
1812 188 -0.00345166
1814 188 -0.363927
176 189 -0.00093805
183 189 -0.00294545
184 189 -0.000503997
185 189 -0.000103465
186 189 -0.00412152
187 189 -0.000492831
188 189 -0.00330075
189 189 0.021242
190 189 -0.00474777
192 189 -0.115604
232 189 -0.0334821
1792 189 -0.00464214
1808 189 -0.0010134
1812 189 -0.00542527
1814 189 -0.313869
187 190 -0.00305654
188 190 -4.53956e-05
189 190 -9.98448e-05
190 190 0.0178676
191 190 -0.0344256
192 190 -0.0759022
193 190 -1.07594e-11
195 190 -0.123139
232 190 -0.00362843
1792 190 -0.000101841
1808 190 -0.000240764
1812 190 -0.0854187
1814 190 -0.305555
190 191 -0.000615084
191 191 0.00986805
192 191 -0.067062
193 191 -0.0623309
195 191 -0.0700063
232 191 -0.000226163
1792 191 -6.34785e-06
1808 191 -1.5007e-05
1812 191 -0.169152
1814 191 -0.0698865
189 192 -0.00248587
190 192 -0.00134657
191 192 -0.000661441
192 192 0.0126977
193 192 -0.0032469
195 192 -0.0167054
232 192 -0.00695146
1792 192 -0.000919936
1808 192 -0.000224711
1812 192 -0.0673725
1814 192 -0.433928
190 193 -4.62821e-15
191 193 -0.000615084
192 193 -4.12491e-05
193 193 0.00718796
194 193 -0.0855715
195 193 -0.00608641
196 193 -1.80294e-08
199 193 -6.43883e-13
232 193 -5.9245e-05
1792 193 -5.82237e-06
1808 193 -2.57371e-06
1812 193 -0.186006
1814 193 -0.00847044
193 194 -0.000615084
194 194 0.00983659
195 194 -0.0629108
196 194 -0.0625303
199 194 -0.0625303
232 194 -3.7046e-06
1792 194 -3.64074e-07
1808 194 -1.60935e-07
1812 194 -0.175983
1814 194 -0.0515332
190 195 -0.00276558
191 195 -0.000710312
192 195 -0.000257549
193 195 -4.51106e-05
194 195 -0.000618965
195 195 0.0167879
196 195 -0.00230547
199 195 -0.133364
232 195 -0.000714243
1792 195 -3.11876e-05
1808 195 -4.37577e-05
1812 195 -0.209553
1814 195 -0.0618728
193 196 -1.56953e-10
194 196 -0.000615084
195 196 -3.86955e-05
196 196 0.00718788
197 196 -0.085574
198 196 -6.4389e-13
199 196 -0.00606882
232 196 -4.16209e-06
1792 196 -1.99051e-07
1808 196 -0.0855727
1812 196 -0.101761
1814 196 -0.00474291
196 197 -0.000615085
197 197 0.0084323
198 197 -0.183558
199 197 -0.184001
232 197 -3.036e-07
1792 197 -1.45196e-08
1808 197 -0.180042
1812 197 -0.0803667
1814 197 -0.176771
196 198 -1.92246e-13
197 198 -0.0015093
198 198 0.0194613
199 198 -0.156376
232 198 -2.35453e-08
1792 198 -1.12605e-09
1808 198 -0.0455694
1812 198 -0.169987
1814 198 -0.0710107
193 199 -1.92246e-13
194 199 -0.000615105
195 199 -0.00280428
196 199 -4.49278e-05
197 199 -0.00152145
198 199 -0.00247947
199 199 0.0161413
232 199 -0.000124273
1792 199 -5.43428e-06
1808 199 -0.0623237
1812 199 -0.170588
1814 199 -0.0402965
200 200 0.0110015
214 200 -0.0852653
231 200 -0.119857
1808 200 -0.034592
1814 200 -0.279649
201 201 0.0151289
211 201 -0.195093
212 201 -0.0406563
213 201 -0.0620039
214 201 -0.10266
1814 201 -0.0887756
202 202 0.0179185
208 202 -0.124778
1787 202 -0.222684
1814 202 -0.125503
203 203 0.010974
207 203 -0.121458
1812 203 -0.231393
204 204 0.00635995
207 204 -0.209574
1812 204 -0.232494
205 205 0.00927248
207 205 2.89114e-12
1812 205 -0.303498
1814 205 -0.696502
206 206 0.00503496
207 206 5.29112e-12
1812 206 -0.297834
1814 206 -0.702166
203 207 -0.0010599
204 207 -0.0010599
205 207 -2.14784e-16
206 207 -2.13465e-16
207 207 0.0166473
211 207 -0.2014
1812 207 -0.19947
1814 207 -0.257611
202 208 -0.00229327
208 208 0.0245943
209 208 8.82023e-13
211 208 0.004155
212 208 -0.0554966
213 208 -0.118778
1787 208 -0.228062
1814 208 -0.468659
208 209 -2.39915e-13
209 209 0.0153488
210 209 -0.20529
211 209 6.49461e-14
212 209 -0.0488493
213 209 -0.0328373
1787 209 -3.56479e-12
1814 209 -0.120201
209 210 -0.00319835
210 210 0.0104725
211 210 1.98348e-14
212 210 -0.0149188
213 210 -0.0100286
1787 210 -1.0887e-12
1808 210 -0.13994
1814 210 -0.330817
201 211 -0.00299598
207 211 -0.00332858
208 211 -0.00073585
209 211 6.49036e-16
210 211 1.33241e-16
211 211 0.0266785
212 211 -0.0643131
213 211 -0.158335
214 211 -0.104707
1787 211 -0.00629042
1808 211 6.98904e-16
1812 211 -0.0248871
1814 211 -0.347951
201 212 -0.000615084
208 212 -0.00136486
209 212 -0.000749778
210 212 -0.000153922
211 212 -0.0016675
212 212 0.0160076
213 212 -0.030638
214 212 -0.0148519
216 212 -0.189432
1787 212 -0.0201006
1808 212 -0.0013456
1812 212 -0.00259246
1814 212 -0.488827
201 213 -0.00093805
208 213 -0.00294545
209 213 -0.000503997
210 213 -0.000103465
211 213 -0.00412152
212 213 -0.000492831
213 213 0.0216927
214 213 -0.15216
216 213 -0.00430366
217 213 -0.113202
1787 213 -0.0326183
1808 213 -0.000698031
1812 213 -0.00478734
1814 213 -0.251973
200 214 -0.00093805
201 214 -0.00155318
211 214 -0.00275867
212 214 -0.000240565
213 214 -0.00274067
214 214 0.0199609
216 214 -0.00287389
217 214 -0.0155429
231 214 -0.144182
1787 214 -0.00559015
1808 214 -0.00173769
1812 214 -0.00412804
1814 214 -0.351839
215 215 0.00988922
216 215 -0.0621975
217 215 -0.0621975
218 215 -0.0621975
220 215 -0.0621975
1812 215 -0.163477
1814 215 -0.0507321
212 216 -0.00305654
213 216 -9.36461e-05
214 216 -5.96447e-05
215 216 -0.000615105
216 216 0.0178294
217 216 -0.0782101
218 216 -0.00214578
220 216 -0.125549
231 216 -0.000482334
1787 216 -0.00363592
1808 216 -0.00024016
1812 216 -0.0912416
1814 216 -0.307777
213 217 -0.00248587
214 217 -0.000378249
215 217 -0.000615084
216 217 -0.00138481
217 217 0.0126978
218 217 -0.00324687
220 217 -0.0167051
231 217 -0.00434759
1787 217 -0.00694877
1808 217 -0.000214609
1812 217 -0.06737
1814 217 -0.432267
215 218 -0.000615084
216 218 -3.82567e-05
217 218 -4.1249e-05
218 218 0.00718796
219 218 -0.0855715
220 218 -0.0060864
221 218 -1.80294e-08
224 218 -6.43883e-13
231 218 -2.75163e-05
1787 218 -5.9228e-05
1808 218 -2.50977e-06
1812 218 -0.186006
1814 218 -0.00845993
218 219 -0.000615084
219 219 0.00983659
220 219 -0.0629108
221 219 -0.0625303
224 219 -0.0625303
231 219 -1.7206e-06
1787 219 -3.70354e-06
1808 219 -1.56937e-07
1812 219 -0.175983
1814 219 -0.0515325
215 220 -0.000615105
216 220 -0.00280384
217 220 -0.000257546
218 220 -4.51106e-05
219 220 -0.000618965
220 220 0.0167879
221 220 -0.00230547
224 220 -0.133364
231 220 -0.000147392
1787 220 -0.000714152
1808 220 -4.34153e-05
1812 220 -0.209553
1814 220 -0.0618165
218 221 -1.56953e-10
219 221 -0.000615084
220 221 -3.86955e-05
221 221 0.00718788
222 221 -6.4389e-13
223 221 -0.085574
224 221 -0.00606882
231 221 -9.40709e-07
1787 221 -4.16151e-06
1808 221 -0.0855727
1812 221 -0.101761
1814 221 -0.00474255
221 222 -1.92246e-13
222 222 0.0197384
223 222 -0.0764651
224 222 -0.140112
231 222 -9.16221e-18
1787 222 -4.05318e-17
1808 222 -0.0311629
1812 222 -0.161456
1814 222 -0.0564972
221 223 -0.000615085
222 223 -0.00154782
223 223 0.00831394
224 223 -0.212705
231 223 -6.95959e-08
1787 223 -3.07878e-07
1808 223 -0.188406
1812 223 -0.111569
1814 223 -0.189806
218 224 -1.92246e-13
219 224 -0.000615105
220 224 -0.00280428
221 224 -4.49278e-05
222 224 -0.0022002
223 224 -0.00168969
224 224 0.0161413
231 224 -2.56822e-05
1787 224 -0.000124257
1808 224 -0.0623236
1812 224 -0.170588
1814 224 -0.0402867
225 225 0.0158995
229 225 -0.187435
232 225 -0.0573192
1794 225 -2.88767e-11
226 226 0.00654144
229 226 -0.196341
232 226 -0.0940289
1794 226 -0.0940289
1814 226 -0.0925062
227 227 0.00550089
229 227 -0.111815
232 227 -0.279102
1794 227 -0.111815
1814 227 -0.329641
228 228 0.00501052
229 228 -0.163053
230 228 -0.251398
232 228 -0.0661018
234 228 -3.06741e-11
225 229 -0.00303872
226 229 -0.0013008
227 229 -0.000615084
228 229 -0.000833426
229 229 0.0369122
230 229 -0.110578
231 229 -0.121658
232 229 -0.104693
233 229 -0.082323
234 229 -6.92579e-13
1794 229 -0.050525
1814 229 -0.228547
228 230 -0.00158782
229 230 -0.00405203
230 230 0.0285508
231 230 -0.0172662
232 230 -0.0608296
233 230 -0.158563
234 230 -1.8042e-12
1794 230 -0.0071707
1809 230 -0.0816361
1814 230 -0.0324362
200 231 -0.00131864
214 231 -0.00231263
216 231 -6.64626e-06
217 231 -3.64647e-05
218 231 -1.32658e-07
219 231 -1.13517e-08
220 231 -1.4451e-06
221 231 -4.04145e-09
222 231 -2.60225e-21
223 231 -3.45843e-10
224 231 -1.93532e-07
229 231 -0.00452073
230 231 -0.000499892
231 231 0.0208062
232 231 -0.024209
233 231 -0.0216967
234 231 -1.9383e-13
1787 231 -0.000634743
1794 231 -0.0111503
1808 231 -0.00238655
1809 231 -0.0019614
1812 231 -0.000623499
1814 231 -0.442619
177 232 -0.00319461
183 232 -0.00545252
184 232 4.80923e-15
185 232 9.87286e-16
186 232 2.26552e-05
187 232 -0.00030114
188 232 -2.10034e-06
189 232 -0.000653564
190 232 -6.01531e-05
191 232 -2.07081e-06
192 232 -8.02593e-05
193 232 -3.89669e-07
194 232 -3.33446e-08
195 232 -8.89737e-06
196 232 -2.25977e-08
197 232 -1.93377e-09
198 232 -3.5496e-10
199 232 -1.18922e-06
225 232 -0.000911318
226 232 -0.000615105
227 232 -0.00154762
228 232 -0.000331193
229 232 -0.00389814
230 232 -0.00172186
231 232 -0.00050397
232 232 0.0384489
233 232 -0.0471383
234 232 -0.00861386
1787 232 -8.31991e-06
1792 232 -8.26276e-05
1794 232 -0.0987955
1808 232 -6.19966e-05
1809 232 -0.00368163
1812 232 -0.000445476
1814 232 -0.4312
169 233 -0.00179255
173 233 -0.00419352
229 233 -0.00296234
230 233 -0.00553759
231 233 -0.000456006
232 233 -0.00186562
233 233 0.0345318
234 233 -0.000465373
1787 233 -8.83152e-06
1792 233 -0.131791
1794 233 -0.010969
1795 233 -0.00530277
1798 233 -0.0014129
1799 233 -0.042465
1801 233 -0.0172061
1803 233 -0.000119544
1808 233 -3.48647e-05
1809 233 -0.0133161
1812 233 -3.23009e-05
1814 233 -0.0539487
114 234 -0.000740245
115 234 -0.00106356
116 234 -0.00232931
169 234 -3.97685e-15
170 234 -5.19253e-15
171 234 -7.76342e-15
172 234 -2.56391e-15
173 234 -1.87835e-15
228 234 -3.53565e-15
229 234 -5.76498e-16
230 234 -9.52602e-16
231 234 -8.65834e-17
232 234 -0.000331193
233 234 -1.56119e-05
234 234 0.0139069
1787 234 -2.08054e-07
1788 234 -0.0488145
1789 234 -0.0171843
1792 234 -0.000149917
1794 234 -0.00236514
1795 234 -0.0362468
1798 234 -1.58612e-06
1799 234 -0.027413
1801 234 -1.93157e-05
1803 234 -0.0531044
1808 234 -1.51559e-06
1809 234 -0.103646
1812 234 -1.06453e-05
1814 234 -0.337774
235 235 0.0105942
240 235 -0.0990183
453 235 -0.258657
1814 235 -0.205167
236 236 0.0158995
240 236 -2.88767e-11
454 236 -0.0573192
455 236 -0.187435
237 237 0.00654144
240 237 -0.0940289
454 237 -0.0940289
455 237 -0.196341
1814 237 -0.0925062
238 238 0.00550089
240 238 -0.111815
454 238 -0.279102
455 238 -0.111815
1814 238 -0.329641
239 239 0.00694361
240 239 -0.173912
241 239 -4.4477e-08
456 239 -0.173908
457 239 -5.21052e-08
235 240 -0.00106546
236 240 -1.02665e-14
237 240 -0.000615084
238 240 -0.000615096
239 240 -0.00120755
240 240 0.0198568
241 240 -2.70479e-09
453 240 -0.0138788
454 240 -0.179187
455 240 -0.0516417
456 240 -0.0105759
457 240 -0.060813
1814 240 -0.334337
239 241 -3.7747e-10
240 241 -6.56464e-11
241 241 0.01359
453 241 -6.70414e-11
454 241 -8.65563e-10
455 241 -2.49455e-10
456 241 -0.0888575
457 241 -2.93758e-10
1330 241 -7.67334e-22
1805 241 -0.0888595
1809 241 -0.171506
1814 241 -1.61501e-09
242 242 0.0179185
248 242 -0.124778
452 242 -0.222684
1814 242 -0.125503
243 243 0.010974
247 243 -0.121458
1812 243 -0.231393
244 244 0.00635995
247 244 -0.209574
1812 244 -0.232494
245 245 0.00503496
247 245 5.29112e-12
1812 245 -0.297834
1814 245 -0.702166
246 246 0.00927248
247 246 2.89114e-12
1812 246 -0.303498
1814 246 -0.696502
243 247 -0.0010599
244 247 -0.0010599
245 247 -2.13465e-16
246 247 -2.14785e-16
247 247 0.0166473
255 247 -0.2014
1812 247 -0.19947
1814 247 -0.257611
242 248 -0.00229327
248 248 0.0245943
249 248 8.82014e-13
255 248 0.004155
256 248 -0.0554966
257 248 -0.118778
452 248 -0.228062
1814 248 -0.468659
248 249 -2.39915e-13
249 249 0.0153488
250 249 -0.20529
255 249 6.49461e-14
256 249 -0.0488493
257 249 -0.0328373
452 249 -3.56479e-12
1814 249 -0.120201
249 250 -0.00319835
250 250 0.0104725
255 250 1.98348e-14
256 250 -0.0149188
257 250 -0.0100286
452 250 -1.0887e-12
1808 250 -0.13994
1814 250 -0.330817
251 251 0.0151289
252 251 -0.10266
255 251 -0.195093
256 251 -0.0406563
257 251 -0.0620039
1814 251 -0.0887756
251 252 -0.00155318
252 252 0.0207503
253 252 -0.0452065
254 252 -0.133279
255 252 -0.132946
256 252 -0.00304315
257 252 -0.110673
1814 252 -0.240606
252 253 -0.00093805
253 253 0.0109591
254 253 -0.131729
255 253 -0.0113795
256 253 -0.000260479
257 253 -0.00947308
1808 253 -0.0347259
1814 253 -0.301326
252 254 -0.0022002
253 254 -0.0014181
254 254 0.0213764
255 254 -0.0144386
256 254 -0.0003305
257 254 -0.0120196
451 254 -0.211482
1808 254 -0.0023037
1814 254 -0.370322
247 255 -0.00332858
248 255 -0.00073585
249 255 6.4903e-16
250 255 1.33239e-16
251 255 -0.00299598
252 255 -0.00279344
253 255 -0.000126281
254 255 -0.000388941
255 255 0.0263001
256 255 -0.0655678
257 255 -0.172591
451 255 -0.00312752
452 255 -0.00638093
1808 255 -0.000200807
1812 255 -0.0252452
1814 255 -0.385436
248 256 -0.00136486
249 256 -0.000749778
250 256 -0.000153922
251 256 -0.000615084
252 256 -6.31446e-05
253 256 -2.85455e-06
254 256 -8.79187e-06
255 256 -0.00167605
256 256 0.0160047
257 256 -0.0326659
259 256 -0.189465
451 256 -0.000443694
452 256 -0.020117
1808 256 -0.00137433
1812 256 -0.00264373
1814 256 -0.494232
248 257 -0.00294545
249 257 -0.000503997
250 257 -0.000103465
251 257 -0.00093805
252 257 -0.00286188
253 257 -0.000129376
254 257 -0.00039847
255 257 -0.00450922
256 257 -0.000532298
257 257 0.021242
259 257 -0.00474777
260 257 -0.115604
451 257 -0.00464214
452 257 -0.0334821
1808 257 -0.0010134
1812 257 -0.00542527
1814 257 -0.313869
258 258 0.00988922
259 258 -0.0621975
260 258 -0.0621975
261 258 -0.0621975
263 258 -0.0621975
1812 258 -0.163477
1814 258 -0.0507321
256 259 -0.00305654
257 259 -9.98447e-05
258 259 -0.000615105
259 259 0.0178294
260 259 -0.0782109
261 259 -0.00214578
263 259 -0.125549
451 259 -0.00010206
452 259 -0.00363621
1808 259 -0.00024128
1812 259 -0.0912419
1814 259 -0.307961
257 260 -0.00248587
258 260 -0.000615084
259 260 -0.00138483
260 260 0.0126977
261 260 -0.0032469
263 260 -0.0167054
451 260 -0.000919936
452 260 -0.00695146
1808 260 -0.000224711
1812 260 -0.0673725
1814 260 -0.433928
258 261 -0.000615084
259 261 -3.82567e-05
260 261 -4.12491e-05
261 261 0.00718796
262 261 -0.0855715
263 261 -0.00608641
264 261 -1.80294e-08
267 261 -6.43883e-13
451 261 -5.82237e-06
452 261 -5.9245e-05
1808 261 -2.57371e-06
1812 261 -0.186006
1814 261 -0.00847044
261 262 -0.000615084
262 262 0.00983659
263 262 -0.0629108
264 262 -0.0625303
267 262 -0.0625303
451 262 -3.64074e-07
452 262 -3.7046e-06
1808 262 -1.60935e-07
1812 262 -0.175983
1814 262 -0.0515332
258 263 -0.000615105
259 263 -0.00280384
260 263 -0.000257549
261 263 -4.51106e-05
262 263 -0.000618965
263 263 0.0167879
264 263 -0.00230547
267 263 -0.133364
451 263 -3.11876e-05
452 263 -0.000714243
1808 263 -4.37577e-05
1812 263 -0.209553
1814 263 -0.0618728
261 264 -1.56953e-10
262 264 -0.000615084
263 264 -3.86955e-05
264 264 0.00718788
265 264 -0.085574
266 264 -6.4389e-13
267 264 -0.00606882
451 264 -1.99051e-07
452 264 -4.16209e-06
1808 264 -0.0855727
1812 264 -0.101761
1814 264 -0.00474291
264 265 -0.000615085
265 265 0.0084323
266 265 -0.183558
267 265 -0.184001
451 265 -1.45196e-08
452 265 -3.036e-07
1808 265 -0.180042
1812 265 -0.0803667
1814 265 -0.176771
264 266 -1.92245e-13
265 266 -0.0015093
266 266 0.0194613
267 266 -0.156376
451 266 -1.12605e-09
452 266 -2.35453e-08
1808 266 -0.0455694
1812 266 -0.169987
1814 266 -0.0710107
261 267 -1.92246e-13
262 267 -0.000615105
263 267 -0.00280428
264 267 -4.49278e-05
265 267 -0.00152145
266 267 -0.00247947
267 267 0.0161413
451 267 -5.43428e-06
452 267 -0.000124273
1808 267 -0.0623237
1812 267 -0.170588
1814 267 -0.0402965
268 268 0.00570562
358 268 -0.249112
454 268 -0.0667024
455 268 -0.164542
1331 268 -3.04137e-11
269 269 0.00735091
272 269 -0.24889
450 269 -0.169152
452 269 -0.0685647
1331 269 -3.10655e-11
270 270 0.00991921
271 270 -0.330256
451 270 -0.182678
1329 270 -0.0744555
1331 270 -3.47896e-11
270 271 -0.00261326
271 271 0.022796
272 271 -0.228549
450 271 -0.12995
451 271 -0.100879
452 271 -0.0529738
1329 271 -0.00853531
1331 271 -3.98815e-12
269 272 -0.0023047
271 272 -0.00419352
272 272 0.0363606
358 272 -0.143288
450 272 -0.141685
451 272 -0.0116346
452 272 -0.043666
454 272 -0.0332116
455 272 -0.0814712
1329 272 -0.00098439
1331 272 -2.42903e-12
273 273 0.0179185
279 273 -0.124778
454 273 -0.222684
1814 273 -0.125503
274 274 0.00635995
278 274 -0.209574
1812 274 -0.232494
275 275 0.010974
278 275 -0.121458
1812 275 -0.231393
276 276 0.00503496
278 276 5.29112e-12
1812 276 -0.297834
1814 276 -0.702166
277 277 0.00927248
278 277 2.89114e-12
1812 277 -0.303498
1814 277 -0.696502
274 278 -0.0010599
275 278 -0.0010599
276 278 -2.13465e-16
277 278 -2.14784e-16
278 278 0.0166473
286 278 -0.2014
1812 278 -0.19947
1814 278 -0.257611
273 279 -0.00229327
279 279 0.0245943
280 279 8.82019e-13
286 279 0.004155
287 279 -0.0554966
288 279 -0.118778
454 279 -0.228062
1814 279 -0.468659
279 280 -2.39915e-13
280 280 0.0153488
281 280 -0.20529
286 280 6.49461e-14
287 280 -0.0488493
288 280 -0.0328373
454 280 -3.56479e-12
1814 280 -0.120201
280 281 -0.00319835
281 281 0.0104725
286 281 1.98348e-14
287 281 -0.0149188
288 281 -0.0100286
454 281 -1.0887e-12
1808 281 -0.13994
1814 281 -0.330817
282 282 0.0151289
283 282 -0.10266
286 282 -0.195093
287 282 -0.0406563
288 282 -0.0620039
1814 282 -0.0887756
282 283 -0.00155318
283 283 0.0207503
284 283 -0.0452065
285 283 -0.133279
286 283 -0.132946
287 283 -0.00304315
288 283 -0.110673
1814 283 -0.240606
283 284 -0.00093805
284 284 0.0109591
285 284 -0.131729
286 284 -0.0113795
287 284 -0.000260479
288 284 -0.00947308
1808 284 -0.0347259
1814 284 -0.301326
283 285 -0.0022002
284 285 -0.0014181
285 285 0.0213764
286 285 -0.0144386
287 285 -0.0003305
288 285 -0.0120196
450 285 -0.211482
1808 285 -0.0023037
1814 285 -0.370322
278 286 -0.00332858
279 286 -0.00073585
280 286 6.49033e-16
281 286 1.3324e-16
282 286 -0.00299598
283 286 -0.00279344
284 286 -0.000126281
285 286 -0.000388941
286 286 0.0263001
287 286 -0.0655678
288 286 -0.172591
450 286 -0.00312752
454 286 -0.00638093
1808 286 -0.000200807
1812 286 -0.0252452
1814 286 -0.385436
279 287 -0.00136486
280 287 -0.000749778
281 287 -0.000153922
282 287 -0.000615084
283 287 -6.31446e-05
284 287 -2.85455e-06
285 287 -8.79187e-06
286 287 -0.00167605
287 287 0.0160047
288 287 -0.0326659
290 287 -0.189465
450 287 -0.000443694
454 287 -0.020117
1808 287 -0.00137433
1812 287 -0.00264373
1814 287 -0.494232
279 288 -0.00294545
280 288 -0.000503997
281 288 -0.000103465
282 288 -0.00093805
283 288 -0.00286188
284 288 -0.000129376
285 288 -0.00039847
286 288 -0.00450922
287 288 -0.000532298
288 288 0.021242
290 288 -0.00474777
291 288 -0.115604
450 288 -0.00464214
454 288 -0.0334821
1808 288 -0.0010134
1812 288 -0.00542527
1814 288 -0.313869
289 289 0.00988922
290 289 -0.0621975
291 289 -0.0621975
292 289 -0.0621975
294 289 -0.0621975
1812 289 -0.163477
1814 289 -0.0507321
287 290 -0.00305654
288 290 -9.98447e-05
289 290 -0.000615105
290 290 0.0178294
291 290 -0.0782109
292 290 -0.125549
294 290 -0.00214578
450 290 -0.00010206
454 290 -0.00363621
1808 290 -0.00024128
1812 290 -0.0912419
1814 290 -0.307961
288 291 -0.00248587
289 291 -0.000615084
290 291 -0.00138483
291 291 0.0126977
292 291 -0.0167054
294 291 -0.0032469
450 291 -0.000919936
454 291 -0.00695146
1808 291 -0.000224711
1812 291 -0.0673725
1814 291 -0.433928
289 292 -0.000615105
290 292 -0.00280384
291 292 -0.000257549
292 292 0.0168271
293 292 -0.0365544
294 292 -0.00268083
295 292 -1.14247e-11
298 292 -0.130753
450 292 -3.10859e-05
454 292 -0.000712284
1808 292 -4.36429e-05
1812 292 -0.202093
1814 292 -0.0598103
292 293 -0.000615084
293 293 0.00986674
294 293 -0.0625063
295 293 -0.0623392
298 293 -0.0704902
450 293 -1.93787e-06
454 293 -4.44032e-05
1808 293 -2.72066e-06
1812 293 -0.176448
1814 293 -0.0545762
289 294 -0.000615084
290 294 -3.82567e-05
291 294 -4.12491e-05
292 294 -4.37488e-05
293 294 -0.000616684
294 294 0.00714929
295 294 -0.00537727
298 294 -0.00688046
450 294 -6.21124e-06
454 294 -6.77542e-05
1808 294 -3.08937e-06
1812 294 -0.203468
1814 294 -0.0135899
292 295 -4.62821e-15
293 295 -0.000615084
294 295 -3.84468e-05
295 295 0.00718788
296 295 -6.4389e-13
297 295 -0.085574
298 295 -0.00606882
450 295 -1.99051e-07
454 295 -4.16209e-06
1808 295 -0.0855727
1812 295 -0.101761
1814 295 -0.00474291
295 296 -1.92245e-13
296 296 0.0197384
297 296 -0.0764651
298 296 -0.140112
450 296 -1.93869e-18
454 296 -4.05374e-17
1808 296 -0.0311629
1812 296 -0.161456
1814 296 -0.0564972
295 297 -0.000615085
296 297 -0.00154782
297 297 0.00831394
298 297 -0.212705
450 297 -1.47263e-08
454 297 -3.07922e-07
1808 297 -0.188406
1812 297 -0.111569
1814 297 -0.189806
292 298 -0.00276558
293 298 -0.000716199
294 298 -5.2181e-05
295 298 -4.49278e-05
296 298 -0.0022002
297 298 -0.00168969
298 298 0.0161413
450 298 -5.43429e-06
454 298 -0.000124273
1808 298 -0.0623237
1812 298 -0.170588
1814 298 -0.0402965
299 299 0.0179185
305 299 -0.124778
357 299 -0.222684
1814 299 -0.125503
300 300 0.00635995
304 300 -0.209574
1812 300 -0.232494
301 301 0.010974
304 301 -0.121458
1812 301 -0.231393
302 302 0.00503496
304 302 5.29112e-12
1812 302 -0.297834
1814 302 -0.702166
303 303 0.00927248
304 303 2.89114e-12
1812 303 -0.303498
1814 303 -0.696502
300 304 -0.0010599
301 304 -0.0010599
302 304 -2.13464e-16
303 304 -2.14784e-16
304 304 0.0166473
312 304 -0.2014
1812 304 -0.19947
1814 304 -0.257611
299 305 -0.00229327
305 305 0.0245943
306 305 8.82019e-13
312 305 0.004155
313 305 -0.0554966
314 305 -0.118778
357 305 -0.228062
1814 305 -0.468659
305 306 -2.39915e-13
306 306 0.0153488
307 306 -0.20529
312 306 6.49461e-14
313 306 -0.0488493
314 306 -0.0328373
357 306 -3.56479e-12
1814 306 -0.120201
306 307 -0.00319835
307 307 0.0104725
312 307 1.98348e-14
313 307 -0.0149188
314 307 -0.0100286
357 307 -1.0887e-12
1808 307 -0.13994
1814 307 -0.330817
308 308 0.0151289
309 308 -0.10266
312 308 -0.195093
313 308 -0.0406563
314 308 -0.0620039
1814 308 -0.0887756
308 309 -0.00155318
309 309 0.0207503
310 309 -0.0452065
311 309 -0.133279
312 309 -0.132946
313 309 -0.00304315
314 309 -0.110673
1814 309 -0.240606
309 310 -0.00093805
310 310 0.0109591
311 310 -0.131729
312 310 -0.0113795
313 310 -0.000260479
314 310 -0.00947308
1808 310 -0.0347259
1814 310 -0.301326
309 311 -0.0022002
310 311 -0.0014181
311 311 0.0213764
312 311 -0.0144386
313 311 -0.0003305
314 311 -0.0120196
455 311 -0.211482
1808 311 -0.0023037
1814 311 -0.370322
304 312 -0.00332858
305 312 -0.00073585
306 312 6.49033e-16
307 312 1.3324e-16
308 312 -0.00299598
309 312 -0.00279344
310 312 -0.000126281
311 312 -0.000388941
312 312 0.0263001
313 312 -0.0655678
314 312 -0.172591
357 312 -0.00638093
455 312 -0.00312752
1808 312 -0.000200807
1812 312 -0.0252452
1814 312 -0.385436
305 313 -0.00136486
306 313 -0.000749778
307 313 -0.000153922
308 313 -0.000615084
309 313 -6.31446e-05
310 313 -2.85455e-06
311 313 -8.79187e-06
312 313 -0.00167605
313 313 0.0160047
314 313 -0.0326659
316 313 -0.189465
357 313 -0.020117
455 313 -0.000443694
1808 313 -0.00137433
1812 313 -0.00264373
1814 313 -0.494232
305 314 -0.00294545
306 314 -0.000503997
307 314 -0.000103465
308 314 -0.00093805
309 314 -0.00286188
310 314 -0.000129376
311 314 -0.00039847
312 314 -0.00450922
313 314 -0.000532298
314 314 0.021242
316 314 -0.00474777
317 314 -0.115604
357 314 -0.0334821
455 314 -0.00464214
1808 314 -0.0010134
1812 314 -0.00542527
1814 314 -0.313869
315 315 0.00988922
316 315 -0.0621975
317 315 -0.0621975
318 315 -0.0621975
320 315 -0.0621975
1812 315 -0.163477
1814 315 -0.0507321
313 316 -0.00305654
314 316 -9.98447e-05
315 316 -0.000615105
316 316 0.0178294
317 316 -0.0782109
318 316 -0.00214578
320 316 -0.125549
357 316 -0.00363621
455 316 -0.00010206
1808 316 -0.00024128
1812 316 -0.0912419
1814 316 -0.307961
314 317 -0.00248587
315 317 -0.000615084
316 317 -0.00138483
317 317 0.0126977
318 317 -0.0032469
320 317 -0.0167054
357 317 -0.00695146
455 317 -0.000919936
1808 317 -0.000224711
1812 317 -0.0673725
1814 317 -0.433928
315 318 -0.000615084
316 318 -3.82567e-05
317 318 -4.12491e-05
318 318 0.00718796
319 318 -0.0855715
320 318 -0.00608641
321 318 -1.80294e-08
324 318 -6.43883e-13
357 318 -5.9245e-05
455 318 -5.82237e-06
1808 318 -2.57371e-06
1812 318 -0.186006
1814 318 -0.00847044
318 319 -0.000615084
319 319 0.00983659
320 319 -0.0629108
321 319 -0.0625303
324 319 -0.0625303
357 319 -3.7046e-06
455 319 -3.64074e-07
1808 319 -1.60935e-07
1812 319 -0.175983
1814 319 -0.0515332
315 320 -0.000615105
316 320 -0.00280384
317 320 -0.000257549
318 320 -4.51106e-05
319 320 -0.000618965
320 320 0.0167879
321 320 -0.00230547
324 320 -0.133364
357 320 -0.000714243
455 320 -3.11876e-05
1808 320 -4.37577e-05
1812 320 -0.209553
1814 320 -0.0618728
318 321 -1.56953e-10
319 321 -0.000615084
320 321 -3.86955e-05
321 321 0.00718788
322 321 -0.085574
323 321 -6.4389e-13
324 321 -0.00606882
357 321 -4.16209e-06
455 321 -1.99051e-07
1808 321 -0.0855727
1812 321 -0.101761
1814 321 -0.00474291
321 322 -0.000615085
322 322 0.0084323
323 322 -0.183558
324 322 -0.184001
357 322 -3.036e-07
455 322 -1.45196e-08
1808 322 -0.180042
1812 322 -0.0803667
1814 322 -0.176771
321 323 -1.92246e-13
322 323 -0.0015093
323 323 0.0194613
324 323 -0.156376
357 323 -2.35453e-08
455 323 -1.12605e-09
1808 323 -0.0455694
1812 323 -0.169987
1814 323 -0.0710107
318 324 -1.92245e-13
319 324 -0.000615105
320 324 -0.00280428
321 324 -4.49278e-05
322 324 -0.00152145
323 324 -0.00247947
324 324 0.0161413
357 324 -0.000124273
455 324 -5.43428e-06
1808 324 -0.0623237
1812 324 -0.170588
1814 324 -0.0402965
325 325 0.0158995
329 325 -0.187435
357 325 -0.0573192
456 325 -2.88767e-11
326 326 0.00550089
329 326 -0.111815
357 326 -0.279102
456 326 -0.111815
1814 326 -0.329641
327 327 0.00654144
329 327 -0.196341
357 327 -0.0940289
456 327 -0.0940289
1814 327 -0.0925062
328 328 0.00501052
329 328 -0.163053
330 328 -0.251398
357 328 -0.0661018
1331 328 -3.06741e-11
325 329 -0.00303872
326 329 -0.000615084
327 329 -0.0013008
328 329 -0.000833426
329 329 0.0369122
330 329 -0.110578
356 329 -0.121658
357 329 -0.104693
358 329 -0.082323
456 329 -0.050525
1331 329 -6.92579e-13
1814 329 -0.228547
328 330 -0.00158782
329 330 -0.00405203
330 330 0.0285508
356 330 -0.0172662
357 330 -0.0608296
358 330 -0.158563
456 330 -0.0071707
1331 330 -1.8042e-12
1809 330 -0.0816361
1814 330 -0.0324362
331 331 0.0151289
332 331 -0.10266
343 331 -0.195093
344 331 -0.0406563
345 331 -0.0620039
1814 331 -0.0887756
331 332 -0.00155318
332 332 0.0207503
333 332 -0.0452065
343 332 -0.132946
344 332 -0.00304315
345 332 -0.110673
356 332 -0.133279
1814 332 -0.240606
332 333 -0.00093805
333 333 0.0109591
343 333 -0.0113795
344 333 -0.000260479
345 333 -0.00947308
356 333 -0.131729
1808 333 -0.0347259
1814 333 -0.301326
334 334 0.0179185
340 334 -0.124778
1803 334 -0.222684
1814 334 -0.125503
335 335 0.00635995
339 335 -0.209574
1812 335 -0.232494
336 336 0.010974
339 336 -0.121458
1812 336 -0.231393
337 337 0.00503496
339 337 5.29112e-12
1812 337 -0.297834
1814 337 -0.702166
338 338 0.00927248
339 338 2.89114e-12
1812 338 -0.303498
1814 338 -0.696502
335 339 -0.0010599
336 339 -0.0010599
337 339 -2.13464e-16
338 339 -2.14784e-16
339 339 0.0166473
343 339 -0.2014
1812 339 -0.19947
1814 339 -0.257611
334 340 -0.00229327
340 340 0.0245943
341 340 8.82023e-13
343 340 0.004155
344 340 -0.0554966
345 340 -0.118778
1803 340 -0.228062
1814 340 -0.468659
340 341 -2.39915e-13
341 341 0.0153488
342 341 -0.20529
343 341 6.49461e-14
344 341 -0.0488493
345 341 -0.0328373
1803 341 -3.56479e-12
1814 341 -0.120201
341 342 -0.00319835
342 342 0.0104725
343 342 1.98348e-14
344 342 -0.0149188
345 342 -0.0100286
1803 342 -1.0887e-12
1808 342 -0.13994
1814 342 -0.330817
331 343 -0.00299598
332 343 -0.00279344
333 343 -0.000126281
339 343 -0.00332858
340 343 -0.00073585
341 343 6.49036e-16
342 343 1.33241e-16
343 343 0.0263057
344 343 -0.065549
345 343 -0.172377
356 343 -0.0147854
1803 343 -0.00637957
1808 343 -0.000166703
1812 343 -0.0252398
1814 343 -0.379879
331 344 -0.000615084
332 344 -6.31446e-05
333 344 -2.85455e-06
340 344 -0.00136486
341 344 -0.000749778
342 344 -0.000153922
343 344 -0.00167592
344 344 0.0160048
345 344 -0.0326354
346 344 -0.189465
356 344 -0.00209757
1803 344 -0.0201168
1808 344 -0.00136949
1812 344 -0.00264296
1814 344 -0.493442
331 345 -0.00093805
332 345 -0.00286188
333 345 -0.000129376
340 345 -0.00294545
341 345 -0.000503997
342 345 -0.000103465
343 345 -0.00450347
344 345 -0.000531704
345 345 0.0212487
346 345 -0.00474095
348 345 -0.115567
356 345 -0.0219388
1803 345 -0.0334689
1808 345 -0.000962437
1812 345 -0.00541547
1814 345 -0.305509
344 346 -0.00305654
345 346 -9.97515e-05
346 346 0.0178676
347 346 -0.0344256
348 346 -0.0759014
349 346 -1.07594e-11
351 346 -0.123139
356 346 -0.000481301
1803 346 -0.00362814
1808 346 -0.000239646
1812 346 -0.0854184
1814 346 -0.305372
346 347 -0.000615084
347 347 0.00986805
348 347 -0.0670619
349 347 -0.0623309
351 347 -0.0700063
356 347 -3e-05
1803 347 -0.000226145
1808 347 -1.49373e-05
1812 347 -0.169152
1814 347 -0.069875
345 348 -0.00248587
346 348 -0.00134655
347 348 -0.00066144
348 348 0.0126978
349 348 -0.00324687
351 348 -0.0167051
356 348 -0.00434759
1803 348 -0.00694877
1808 348 -0.000214609
1812 348 -0.06737
1814 348 -0.432267
346 349 -4.62821e-15
347 349 -0.000615084
348 349 -4.1249e-05
349 349 0.00718796
350 349 -0.0855715
351 349 -0.0060864
352 349 -1.80294e-08
355 349 -6.43883e-13
356 349 -2.75163e-05
1803 349 -5.9228e-05
1808 349 -2.50977e-06
1812 349 -0.186006
1814 349 -0.00845993
349 350 -0.000615084
350 350 0.00983659
351 350 -0.0629108
352 350 -0.0625303
355 350 -0.0625303
356 350 -1.7206e-06
1803 350 -3.70354e-06
1808 350 -1.56937e-07
1812 350 -0.175983
1814 350 -0.0515325
346 351 -0.00276558
347 351 -0.000710312
348 351 -0.000257546
349 351 -4.51106e-05
350 351 -0.000618965
351 351 0.0167879
352 351 -0.00230547
355 351 -0.133364
356 351 -0.000147392
1803 351 -0.000714152
1808 351 -4.34153e-05
1812 351 -0.209553
1814 351 -0.0618165
349 352 -1.56953e-10
350 352 -0.000615084
351 352 -3.86955e-05
352 352 0.00718788
353 352 -6.4389e-13
354 352 -0.085574
355 352 -0.00606882
356 352 -9.40709e-07
1803 352 -4.16151e-06
1808 352 -0.0855727
1812 352 -0.101761
1814 352 -0.00474255
352 353 -1.92245e-13
353 353 0.0197384
354 353 -0.0764651
355 353 -0.140112
356 353 -9.1622e-18
1803 353 -4.05318e-17
1808 353 -0.0311629
1812 353 -0.161456
1814 353 -0.0564972
352 354 -0.000615085
353 354 -0.00154782
354 354 0.00831394
355 354 -0.212705
356 354 -6.95959e-08
1803 354 -3.07878e-07
1808 354 -0.188406
1812 354 -0.111569
1814 354 -0.189806
349 355 -1.92246e-13
350 355 -0.000615105
351 355 -0.00280428
352 355 -4.49278e-05
353 355 -0.0022002
354 355 -0.00168969
355 355 0.0161413
356 355 -2.56822e-05
1803 355 -0.000124257
1808 355 -0.0623236
1812 355 -0.170588
1814 355 -0.0402867
329 356 -0.00452073
330 356 -0.000499892
332 356 -0.0022002
333 356 -0.0014181
343 356 -0.000308645
344 356 -2.72962e-05
345 356 -0.00031103
346 356 -6.64626e-06
347 356 -2.28802e-07
348 356 -3.64647e-05
349 356 -1.32658e-07
350 356 -1.13517e-08
351 356 -1.4451e-06
352 356 -4.04145e-09
353 356 -2.60225e-21
354 356 -3.45843e-10
355 356 -1.93532e-07
356 356 0.0208062
357 356 -0.024209
358 356 -0.0216967
456 356 -0.0111503
1331 356 -1.9383e-13
1803 356 -0.000634743
1808 356 -0.00238655
1809 356 -0.0019614
1812 356 -0.000623499
1814 356 -0.442619
299 357 -0.00319461
305 357 -0.00545252
306 357 4.80923e-15
307 357 9.87286e-16
312 357 2.26552e-05
313 357 -0.000301111
314 357 -0.000653564
316 357 -6.01531e-05
317 357 -8.02593e-05
318 357 -3.89669e-07
319 357 -3.33446e-08
320 357 -8.89737e-06
321 357 -2.25977e-08
322 357 -1.93377e-09
323 357 -3.5496e-10
324 357 -1.18922e-06
325 357 -0.000911318
326 357 -0.00154762
327 357 -0.000615105
328 357 -0.000331193
329 357 -0.00389814
330 357 -0.00172186
356 357 -0.00050397
357 357 0.0384489
358 357 -0.0471383
455 357 -8.26276e-05
456 357 -0.0987955
1331 357 -0.00861386
1803 357 -8.31991e-06
1808 357 -6.19966e-05
1809 357 -0.00368163
1812 357 -0.000445476
1814 357 -0.4312
268 358 -0.00179255
272 358 -0.00419352
329 358 -0.00296234
330 358 -0.00553759
356 358 -0.000456006
357 358 -0.00186562
358 358 0.0345318
450 358 -0.0172061
451 358 -0.0014129
452 358 -0.00530277
454 358 -0.042465
455 358 -0.131791
456 358 -0.010969
1329 358 -0.000119544
1331 358 -0.000465373
1803 358 -8.83152e-06
1808 358 -3.48647e-05
1809 358 -0.0133161
1812 358 -3.23009e-05
1814 358 -0.0539487
359 359 0.0158995
401 359 -2.88767e-11
450 359 -0.187435
452 359 -0.0573192
360 360 0.00654144
401 360 -0.0940289
450 360 -0.196341
452 360 -0.0940289
1814 360 -0.0925062
361 361 0.00550089
401 361 -0.111815
450 361 -0.111815
452 361 -0.279102
1814 361 -0.329641
362 362 0.0148828
367 362 -3.08494e-11
451 362 -0.199044
1329 362 -0.0612349
363 363 0.00550089
367 363 -0.111815
451 363 -0.111815
1329 363 -0.279102
1814 363 -0.329641
364 364 0.00654144
367 364 -0.0940289
451 364 -0.196341
1329 364 -0.0940289
1814 364 -0.0925062
365 365 0.0105942
367 365 -0.0990183
378 365 -0.258657
1814 365 -0.205167
366 366 0.00692919
367 366 -0.174273
401 366 -0.174273
457 366 -1.06148e-08
1330 366 -1.06148e-08
362 367 -1.02665e-14
363 367 -0.000615096
364 367 -0.000615084
365 367 -0.00106546
366 367 -0.00120755
367 367 0.0198564
378 367 -0.0138791
401 367 -0.0105983
451 367 -0.0516429
457 367 -6.45535e-10
1329 367 -0.179191
1330 367 -0.0608144
1814 367 -0.334344
368 368 0.0073526
369 368 -0.0685491
375 368 -3.25998e-11
1804 368 -0.169114
368 369 -0.000503997
369 369 0.0117694
370 369 -0.249075
375 369 -0.291898
378 369 -0.103082
1804 369 -0.00724192
1814 369 -0.034059
369 370 -0.00290257
370 370 0.0122646
375 370 -0.0592901
378 370 -0.0243956
1802 370 -0.235193
1804 370 -0.00171388
1814 370 -0.604944
371 371 0.0101533
374 371 -0.227028
378 371 -0.121817
1804 371 -0.122465
372 372 0.10963
376 372 -0.152253
1814 372 -0.115143
373 373 0.012014
374 373 4.16633e-12
378 373 -0.117262
1802 373 -0.300189
1814 373 -0.58255
371 374 -0.00182984
373 374 -4.2292e-16
374 374 0.010774
376 374 -1.28291e-11
378 374 -0.266853
1802 374 -1.17835e-14
1804 374 -0.0207994
1806 374 -0.0695916
1807 374 -0.0250128
1814 374 -0.237122
368 375 -5.44792e-15
369 375 -0.00338856
370 375 -0.00170897
375 375 0.0118945
376 375 0.00697297
378 375 -0.0328717
1802 375 -0.0337919
1804 375 -0.00230936
1806 375 -0.0226561
1807 375 -0.162425
1814 375 -0.527697
372 376 -0.0168319
374 376 2.40144e-14
375 376 -0.000604518
376 376 0.0586098
377 376 6.41458e-13
378 376 -0.000339047
1802 376 -0.0129491
1804 376 -0.0240634
1806 376 -0.0176263
1807 376 -0.0390607
1814 376 -0.556746
376 377 3.00873e-14
377 377 0.020503
378 377 4.97538e-16
1802 377 -0.0360214
1804 377 -0.0687084
1806 377 2.58658e-14
1807 377 5.732e-14
1808 377 -0.289579
1814 377 -0.341356
365 378 -0.00272197
367 378 -0.000269525
369 378 -0.00123677
370 378 -0.000308048
371 378 -0.00126827
373 378 -0.00140873
374 378 -0.00296494
375 378 -0.000379274
376 378 2.64467e-06
377 378 -1.69644e-18
378 378 0.0147311
401 378 -0.000193911
451 378 -0.000944876
457 378 -1.18109e-11
1329 378 -0.00327855
1330 378 -0.00111268
1802 378 -0.0344929
1804 378 -0.015429
1806 378 -0.0145869
1807 378 -0.00920922
1808 378 -3.33482e-17
1814 378 -0.501341
379 379 0.00150224
380 379 -1.64321e-07
399 379 7.18702e-21
451 379 -0.154738
1329 379 -0.154741
379 380 -2.09838e-10
380 380 0.00474902
399 380 3.17562e-28
400 380 -8.87567e-08
451 380 -0.14208
1329 380 -0.0931349
1809 380 -0.0931311
381 381 0.0073526
384 381 -0.0685491
398 381 -3.25992e-11
1804 381 -0.169114
382 382 0.00856431
383 382 -0.120137
384 382 -0.0325886
393 382 -0.188768
1814 382 -0.183179
382 383 -0.00102888
383 383 0.0126905
384 383 -0.151071
393 383 -0.0769189
399 383 -0.160517
1814 383 -0.127869
381 384 -0.000503997
382 384 -0.000279099
383 384 -0.00213285
384 384 0.0127182
385 384 -0.230495
393 384 -0.0571663
398 384 -0.270123
399 384 -0.026919
1804 384 -0.00670168
1814 384 -0.129514
384 385 -0.00290257
385 385 0.0123186
393 385 -0.0134698
398 385 -0.0538997
399 385 -0.0063428
1802 385 -0.234163
1804 385 -0.00157909
1814 385 -0.624787
386 386 0.0105942
393 386 -0.258657
401 386 -0.0990183
1814 386 -0.205167
387 387 0.0073526
392 387 -0.0685491
397 387 -3.25977e-11
1804 387 -0.169114
388 388 0.0129876
392 388 -0.223489
397 388 0.00924614
1802 388 -0.2221
1814 388 -0.563657
389 389 0.00690961
391 389 -0.18233
399 389 -0.117666
400 389 -0.118239
390 390 0.00856431
391 390 -0.120137
392 390 -0.0325886
393 390 -0.188768
1814 390 -0.183179
389 391 -0.0015881
390 391 -0.00102888
391 391 0.0134847
392 391 -0.142174
393 391 -0.0723888
399 391 -0.0834218
400 391 -0.170397
1814 391 -0.264383
387 392 -0.000503997
388 392 -0.00293147
390 392 -0.000279099
391 392 -0.00213285
392 392 0.012082
393 392 -0.0593767
397 392 -0.282103
399 392 -0.0147266
400 392 -0.0300805
1802 392 -0.0538884
1804 392 -0.00705456
1814 392 -0.297193
382 393 -0.00164151
383 393 -0.000989506
384 393 -0.000725802
385 393 -0.000167293
386 393 -0.00271257
390 393 -0.00164151
391 393 -0.000989506
392 393 -0.000716998
393 393 0.0159067
397 393 -0.0127158
398 393 -0.0128922
399 393 -0.0171335
400 393 -0.0119558
401 393 -0.0168856
1802 393 -0.00489176
1804 393 -0.000640382
1814 393 -0.346621
394 394 0.10963
395 394 -0.152253
1814 394 -0.115143
394 395 -0.0168319
395 395 0.0586056
396 395 6.41499e-13
397 395 3.37133e-13
398 395 -0.010315
1802 395 -0.0126014
1804 395 -0.0240413
1806 395 -0.0173938
1807 395 -0.0373881
1814 395 -0.551343
395 396 3.00874e-14
396 396 0.020503
397 396 -4.94729e-25
398 396 1.51369e-14
1802 396 -0.0360214
1804 396 -0.0687084
1806 396 2.55248e-14
1807 396 5.48656e-14
1808 396 -0.289579
1814 396 -0.341356
387 397 -5.44759e-15
388 397 -0.000864925
392 397 -0.00358184
393 397 -0.000212678
395 397 1.57665e-14
396 397 -1.01142e-26
397 397 0.00977284
398 397 -0.000280562
399 397 -0.0057703
400 397 -0.011285
401 397 -0.000367466
1802 397 -0.0395136
1804 397 -0.0025995
1806 397 -0.0767206
1807 397 -0.0275753
1808 397 -2.99694e-25
1814 397 -0.577678
381 398 -5.44783e-15
384 398 -0.00338856
385 398 -0.00164601
393 398 -0.000215883
395 398 8.29398e-05
396 398 -5.32058e-17
397 398 -2.74513e-06
398 398 0.0119789
399 398 -0.0087964
400 398 -0.000218051
401 398 -0.000304393
1802 398 -0.032186
1804 398 -0.00195841
1806 398 -0.0223935
1807 398 -0.161027
1808 398 -1.2862e-15
1814 398 -0.553087
379 399 -5.42115e-23
380 399 -8.90809e-30
383 399 -0.00207291
384 399 -0.000313158
385 399 -7.21812e-05
389 399 -0.000833426
391 399 -0.00109001
392 399 -0.000154971
393 399 -0.000266426
397 399 -4.71057e-05
398 399 -9.19297e-05
399 399 0.0110115
400 399 -0.0265791
401 399 -0.000412662
451 399 -7.61797e-22
1329 399 -0.0211096
1802 399 -0.00284944
1804 399 -0.000343187
1806 399 -0.000515151
1807 399 -0.0014623
1808 399 -1.07378e-17
1809 399 -0.0650982
1814 399 -0.430185
380 400 -1.80323e-11
389 400 -0.000833426
391 400 -0.00227818
392 400 -0.000323898
393 400 -0.000184146
397 400 -9.37141e-05
398 400 -2.40035e-06
399 400 -0.000296602
400 400 0.00913474
401 400 -0.000357643
451 400 -0.0484175
1329 400 -0.0491029
1802 400 -0.00251573
1804 400 -0.000301375
1806 400 -0.000809695
1807 400 -0.000372692
1808 400 -6.86629e-19
1809 400 -0.0805869
1814 400 -0.474932
359 401 -1.02665e-14
360 401 -0.000615084
361 401 -0.000615096
366 401 -0.00120755
367 401 -0.000210444
378 401 -2.92078e-06
386 401 -0.00106546
393 401 -0.000275589
397 401 -3.50434e-06
398 401 -3.55393e-06
399 401 -4.77327e-06
400 401 -3.46206e-06
401 401 0.0198495
450 401 -0.0516608
451 401 -0.000556102
452 401 -0.179253
457 401 -0.0608355
1329 401 -0.00191391
1330 401 -0.000644919
1802 401 -8.6855e-05
1804 401 -1.2106e-05
1806 401 -1.99656e-05
1807 401 -3.5471e-05
1808 401 -2.37895e-19
1809 401 -2.971e-05
1814 401 -0.343279
402 402 0.00150265
405 402 -1.97985e-07
422 402 7.3834e-21
451 402 -0.154696
1329 402 -0.154699
403 403 0.00150352
404 403 -3.00912e-07
422 403 7.8013e-21
450 403 -0.154607
452 403 -0.15461
403 404 -4.64916e-10
404 404 0.00653768
405 404 -1.25821e-07
422 404 5.54776e-28
450 404 -0.135304
452 404 -0.099751
1809 404 -0.099747
402 405 -2.79933e-10
404 405 -7.34566e-10
405 405 0.00845904
422 405 2.44338e-28
423 405 -1.07967e-07
450 405 -0.0770907
451 405 -0.104572
452 405 -0.0770907
1329 405 -0.0770938
1809 405 -8.66183e-09
406 406 0.020503
421 406 1.46746e-12
1802 406 -0.0360214
1804 406 -0.0687084
1808 406 -0.289579
1814 406 -0.341356
407 407 0.0073526
412 407 -0.0685491
420 407 -3.25977e-11
1804 407 -0.169114
408 408 0.0129876
412 408 -0.223489
420 408 0.00924614
1802 408 -0.2221
1814 408 -0.563657
409 409 0.00690961
411 409 -0.18233
422 409 -0.117666
423 409 -0.118239
410 410 0.00856431
411 410 -0.120137
412 410 -0.0325886
453 410 -0.188768
1814 410 -0.183179
409 411 -0.0015881
410 411 -0.00102888
411 411 0.0134847
412 411 -0.142174
422 411 -0.0834218
423 411 -0.170397
453 411 -0.0723888
1814 411 -0.264383
407 412 -0.000503997
408 412 -0.00293147
410 412 -0.000279099
411 412 -0.00213285
412 412 0.012082
420 412 -0.282103
422 412 -0.0147266
423 412 -0.0300805
453 412 -0.0593767
1802 412 -0.0538884
1804 412 -0.00705456
1814 412 -0.297193
413 413 0.10963
421 413 -0.152253
1814 413 -0.115143
414 414 0.0073526
417 414 -0.0685491
419 414 -3.25992e-11
1804 414 -0.169114
415 415 0.00856431
416 415 -0.120137
417 415 -0.0325886
453 415 -0.188768
1814 415 -0.183179
415 416 -0.00102888
416 416 0.0126905
417 416 -0.151071
422 416 -0.160517
453 416 -0.0769189
1814 416 -0.127869
414 417 -0.000503997
415 417 -0.000279099
416 417 -0.00213285
417 417 0.0127182
418 417 -0.230495
419 417 -0.270123
422 417 -0.026919
453 417 -0.0571663
1804 417 -0.00670168
1814 417 -0.129514
417 418 -0.00290257
418 418 0.0123186
419 418 -0.0538997
422 418 -0.0063428
453 418 -0.0134698
1802 418 -0.234163
1804 418 -0.00157909
1814 418 -0.624787
414 419 -5.44783e-15
417 419 -0.00338856
418 419 -0.00164601
419 419 0.0119809
421 419 0.00692269
422 419 -0.00848493
453 419 -0.018019
1802 419 -0.0321708
1804 419 -0.00211239
1806 419 -0.0224928
1807 419 -0.161254
1814 419 -0.550437
407 420 -5.44759e-15
408 420 -0.000864925
412 420 -0.00358184
420 420 0.00977555
421 420 1.61286e-12
422 420 -0.00539595
423 420 -0.0110218
453 420 -0.0217561
1802 420 -0.0393962
1804 420 -0.00258485
1806 420 -0.0766994
1807 420 -0.0275677
1814 420 -0.569977
406 421 3.75954e-14
413 421 -0.0168319
419 421 -0.000604518
420 421 1.97579e-14
421 421 0.0586098
422 421 -8.75159e-05
423 421 3.71553e-15
453 421 -0.000185853
1802 421 -0.0129324
1804 421 -0.0240614
1806 421 -0.0176246
1807 421 -0.0390487
1808 421 1.85751e-13
1814 421 -0.556981
402 422 -5.41469e-23
403 422 -5.40094e-23
404 422 -1.62521e-29
405 422 -1.07203e-29
409 422 -0.000833426
411 422 -0.00109001
412 422 -0.000154971
416 422 -0.00207291
417 422 -0.000313158
418 422 -7.21812e-05
419 422 -8.84817e-05
420 422 -4.37178e-05
421 422 6.12531e-07
422 422 0.0131958
423 422 -0.0219329
450 422 -6.32795e-22
451 422 -6.34771e-22
452 422 -0.0176154
453 422 -0.0203832
1329 422 -0.0176154
1802 422 -0.00225938
1804 422 -0.000272139
1806 422 -0.000404109
1807 422 -0.00117077
1808 422 -8.62233e-18
1809 422 -0.109123
1814 422 -0.407123
405 423 -3.86059e-11
409 423 -0.000833426
411 423 -0.00227818
412 423 -0.000323898
420 423 -9.13725e-05
421 423 1.47371e-16
422 423 -0.000293378
423 423 0.0117391
450 423 -2.53525e-10
451 423 -0.0555504
452 423 -0.000440235
453 423 -0.0163653
1329 423 -0.0559907
1802 423 -0.00184996
1804 423 -0.000221565
1806 423 -0.000607096
1807 423 -0.000243835
1808 423 -2.15485e-19
1809 423 -0.125391
1814 423 -0.425539
424 424 0.00150439
425 424 -4.68445e-07
448 424 8.21973e-21
454 424 -0.15452
455 424 -0.154517
424 425 -7.2217e-10
425 425 0.00817939
429 425 -2.31239e-07
448 425 7.25732e-28
454 425 -0.103875
455 425 -0.132292
1809 425 -0.103871
426 426 0.00150398
429 426 -3.8095e-07
448 426 8.02608e-21
450 426 -0.154559
452 426 -0.154562
427 427 0.00150282
428 427 -2.14392e-07
448 427 7.4653e-21
451 427 -0.154678
1329 427 -0.154682
427 428 -3.11935e-10
428 428 0.0106399
429 428 -1.13068e-07
448 428 2.18865e-28
449 428 -1.3204e-07
450 428 -0.079851
451 428 -0.1017
452 428 -0.079851
1329 428 -0.0798542
425 429 -1.93914e-09
426 429 -5.91965e-10
428 429 -1.50912e-09
429 429 0.0106516
448 429 4.46051e-28
449 429 -1.87074e-14
450 429 -0.101588
451 429 -1.44088e-08
452 429 -0.0797662
454 429 -0.0797629
455 429 -0.079763
1329 429 -1.13137e-08
1809 429 -1.89099e-08
430 430 0.00856431
431 430 -0.120137
436 430 -0.188768
446 430 -0.0325886
1814 430 -0.183179
430 431 -0.00102888
431 431 0.0126905
436 431 -0.0769189
446 431 -0.151071
448 431 -0.160517
1814 431 -0.127869
432 432 0.0105942
436 432 -0.258657
456 432 -0.0990183
1814 432 -0.205167
433 433 0.00690961
435 433 -0.18233
448 433 -0.117666
449 433 -0.118239
434 434 0.00856431
435 434 -0.120137
436 434 -0.188768
447 434 -0.0325886
1814 434 -0.183179
433 435 -0.0015881
434 435 -0.00102888
435 435 0.0134847
436 435 -0.0723888
447 435 -0.142174
448 435 -0.0834218
449 435 -0.170397
1814 435 -0.264383
430 436 -0.00164151
431 436 -0.000989506
432 436 -0.00271257
434 436 -0.00164151
435 436 -0.000989506
436 436 0.015993
446 436 -0.0453824
447 436 -0.0448319
448 436 -0.0150928
449 436 -0.0105427
456 436 -0.0167944
1814 436 -0.319013
437 437 0.0073526
440 437 -3.25977e-11
447 437 -0.0685491
1804 437 -0.169114
438 438 0.10963
444 438 -0.152253
1814 438 -0.115143
439 439 0.0129876
440 439 0.00924614
447 439 -0.223489
1802 439 -0.2221
1814 439 -0.563657
437 440 -5.44759e-15
439 440 -0.000864925
440 440 0.010786
444 440 1.46176e-12
447 440 -0.332082
1802 440 -0.0178101
1804 440 -8.54131e-14
1806 440 -0.0695141
1807 440 -0.0249851
1814 440 -0.417888
441 441 0.0073526
443 441 -3.25992e-11
446 441 -0.0685491
1804 441 -0.169114
442 442 0.0129876
443 442 0.00924601
446 442 -0.223488
1802 442 -0.222101
1814 442 -0.563658
441 443 -5.44783e-15
442 443 -0.000864965
443 443 0.0129929
444 443 0.00638346
446 443 -0.275679
1802 443 -0.0147857
1804 443 -7.09083e-14
1806 443 -0.0207408
1807 443 -0.148693
1814 443 -0.432157
438 444 -0.0168319
440 444 1.97579e-14
443 444 -0.000604518
444 444 0.0586095
445 444 6.41453e-13
446 444 -0.00284344
447 444 1.11948e-13
1802 444 -0.0127531
1804 444 -0.0240397
1806 444 -0.0176066
1807 444 -0.0389193
1814 444 -0.555764
444 445 3.00874e-14
445 445 0.020503
446 445 4.17264e-15
447 445 -1.6428e-25
1802 445 -0.0360214
1804 445 -0.0687084
1806 445 2.58371e-14
1807 445 5.71126e-14
1808 445 -0.289579
1814 445 -0.341356
430 446 -0.000279099
431 446 -0.00213285
436 446 -0.00072705
441 446 -0.000503997
442 446 -0.00293147
443 446 -0.00340836
444 446 2.17572e-05
445 446 -1.39562e-17
446 446 0.0110905
447 446 -0.00293901
448 446 -0.0318592
449 446 -0.000691138
456 446 -0.00110098
1802 446 -0.0632253
1804 446 -0.0076381
1806 446 -0.00633959
1807 446 -0.0456207
1808 446 -3.64405e-16
1814 446 -0.450145
434 447 -0.000279099
435 447 -0.00213285
436 447 -0.000717388
437 447 -0.000503997
439 447 -0.00293147
440 447 -0.00340836
444 447 4.98221e-15
445 447 -3.19585e-27
446 447 -3.25568e-05
447 447 0.0109179
448 447 -0.0173835
449 447 -0.0339827
456 447 -0.00110681
1802 447 -0.0653828
1804 447 -0.00782953
1806 447 -0.0217199
1807 447 -0.00793595
1808 447 -1.08665e-18
1814 447 -0.481642
424 448 -5.38717e-23
425 448 -2.52359e-29
426 448 -5.39354e-23
427 448 -5.412e-23
428 448 -1.16029e-29
429 448 -2.05467e-29
431 448 -0.00207291
433 448 -0.000833426
435 448 -0.00109001
436 448 -0.00023835
446 448 -0.000323975
447 448 -0.000166609
448 448 0.0139151
449 448 -0.0210329
450 448 -5.99074e-22
451 448 -6.01589e-22
452 448 -0.0167047
454 448 -0.0167047
455 448 -5.98205e-22
456 448 -0.000326554
1329 448 -0.0167047
1802 448 -0.00225487
1804 448 -0.000271576
1806 448 -0.000407657
1807 448 -0.00115717
1808 448 -8.49715e-18
1809 448 -0.103482
1814 448 -0.393057
428 449 -5.8967e-11
429 449 -6.66728e-18
433 449 -0.000833426
435 449 -0.00227818
436 449 -0.000164914
446 449 -7.48421e-06
447 449 -0.000331313
448 449 -0.000296602
449 449 0.0127878
450 449 -3.68208e-10
451 449 -0.0664384
452 449 -0.000387452
454 449 -0.000387452
455 449 -4.15867e-17
456 449 -0.000253479
1329 449 -0.0668259
1802 449 -0.00178327
1804 449 -0.000213621
1806 449 -0.000575897
1807 449 -0.000259148
1808 449 -4.38509e-19
1809 449 -0.115005
1814 449 -0.395674
269 450 -0.00126827
271 450 -0.00303872
272 450 -0.00531716
285 450 -0.00449067
286 450 -6.48388e-05
287 450 -5.73551e-06
288 450 -6.53541e-05
290 450 -1.39697e-06
291 450 -7.66446e-06
292 450 -3.03425e-07
293 450 -1.10915e-08
294 450 -2.939e-08
295 450 -8.49473e-10
296 450 -5.46968e-22
297 450 -7.26928e-11
298 450 -4.06784e-08
358 450 -0.000761883
359 450 -0.00303872
360 450 -0.0013008
361 450 -0.000615084
401 450 -0.00186499
403 450 -0.00023245
404 450 -0.000884564
405 450 -0.000652114
422 450 1.81341e-24
423 450 -7.04071e-11
426 450 -0.00023245
428 450 -0.000849603
429 450 -0.00108206
448 450 1.86566e-24
449 450 -1.12181e-10
450 450 0.0398727
451 450 -0.0131699
452 450 -0.125207
453 450 -2.88978e-11
454 450 -0.0074745
455 450 -0.0155473
456 450 -0.000209595
457 450 -0.00284549
1329 450 -0.00383595
1330 450 -3.01652e-05
1331 450 -8.8923e-06
1802 450 -4.06253e-06
1803 450 -1.68752e-07
1804 450 -5.66242e-07
1806 450 -9.33867e-07
1807 450 -1.65911e-06
1808 450 -0.000262424
1809 450 -0.00246869
1812 450 -6.90029e-05
1814 450 -0.271679
254 451 -0.00449067
255 451 -6.48388e-05
256 451 -5.73551e-06
257 451 -6.53541e-05
259 451 -1.39697e-06
260 451 -7.66446e-06
261 451 -2.78833e-08
262 451 -2.38602e-09
263 451 -3.03745e-07
264 451 -8.49473e-10
265 451 -7.26928e-11
266 451 -1.33434e-11
267 451 -4.06784e-08
270 451 -0.00185842
271 451 -0.00247218
272 451 -0.000565015
358 451 -8.09597e-05
362 451 -0.00303872
363 451 -0.000615084
364 451 -0.0013008
367 451 -0.00186499
378 451 -2.58844e-05
379 451 -0.000232449
380 451 -0.000674731
399 451 1.67062e-24
400 451 -0.000442281
401 451 -1.9929e-05
402 451 -0.000232449
405 451 -0.000884565
422 451 1.71627e-24
423 451 -0.000652113
427 451 -0.000232449
428 451 -0.00108205
429 451 -1.22346e-10
448 451 1.73531e-24
449 451 -0.000849602
450 451 -0.000558331
451 451 0.037256
452 451 -0.0104018
453 451 -0.000286451
454 451 -0.000716808
455 451 -0.00175496
456 451 -3.27578e-05
457 451 -7.51856e-05
1329 451 -0.127713
1330 451 -0.00304586
1331 451 -1.14455e-06
1802 451 -0.000126985
1803 451 -2.17204e-08
1804 451 -2.3062e-05
1806 451 -4.35308e-05
1807 451 -2.10442e-05
1808 451 -0.00028415
1809 451 -0.00752669
1812 451 -7.4293e-05
1814 451 -0.316041
242 452 -0.00319461
248 452 -0.00545252
249 452 4.8092e-15
250 452 9.87281e-16
255 452 2.26552e-05
256 452 -0.000301111
257 452 -0.000653564
259 452 -6.01531e-05
260 452 -8.02593e-05
261 452 -3.89669e-07
262 452 -3.33446e-08
263 452 -8.89737e-06
264 452 -2.25977e-08
265 452 -1.93377e-09
266 452 -3.5496e-10
267 452 -1.18922e-06
269 452 -0.000503997
271 452 -0.00120755
272 452 -0.00160898
358 452 -0.000230546
359 452 -0.000911318
360 452 -0.000615105
361 452 -0.00154762
401 452 -0.00358366
403 452 -0.000232449
404 452 -0.000652114
405 452 -0.000652114
422 452 -0.000232449
423 452 -5.09834e-06
426 452 -0.000232449
428 452 -0.000849603
429 452 -0.000849603
448 452 -0.000232449
449 452 -4.8892e-06
450 452 -0.0048679
451 452 -0.000365347
452 452 0.043673
453 452 -0.000112796
454 452 -0.0039275
455 452 -0.00699655
456 452 -8.33071e-05
457 452 -0.00530975
1329 452 -0.00482719
1330 452 -8.17623e-05
1331 452 -0.0115437
1802 452 -3.30847e-05
1803 452 -6.56121e-08
1804 452 -4.19311e-06
1806 452 -6.56252e-06
1807 452 -1.57195e-05
1808 452 -5.88524e-05
1809 452 -0.00305936
1812 452 -0.000393477
1814 452 -0.418567
235 453 -0.00271257
240 453 -0.000268594
241 453 -7.26488e-13
410 453 -0.00164151
411 453 -0.000989506
412 453 -0.000716998
415 453 -0.00164151
416 453 -0.000989506
417 453 -0.000725802
418 453 -0.000167293
419 453 -0.000205073
420 453 -0.000202267
421 453 1.41965e-06
422 453 -0.000275368
423 453 -0.000198446
450 453 -5.03109e-14
451 453 -1.10237e-05
452 453 -5.05275e-06
453 453 0.015886
454 453 -0.00303136
455 453 -0.000876578
456 453 -0.000178862
457 453 -0.00102994
1329 453 -0.00109493
1330 453 -2.13961e-06
1331 453 -3.67241e-06
1802 453 -0.00587625
1803 453 -3.59411e-11
1804 453 -0.000706748
1805 453 -4.06366e-12
1806 453 -0.00127997
1807 453 -0.0024525
1808 453 -2.15899e-07
1809 453 -0.0034641
1812 453 -1.76704e-07
1814 453 -0.379763
236 454 -0.000911318
237 454 -0.000615105
238 454 -0.00154762
240 454 -0.00358366
241 454 -9.69303e-12
268 454 -0.000380566
272 454 -0.00120755
273 454 -0.00319461
279 454 -0.00545252
280 454 4.80923e-15
281 454 9.87286e-16
286 454 2.26552e-05
287 454 -0.000301111
288 454 -0.000653564
290 454 -6.01531e-05
291 454 -8.02593e-05
292 454 -8.8929e-06
293 454 -3.25074e-07
294 454 -4.33829e-07
295 454 -2.25977e-08
296 454 -1.45504e-20
297 454 -1.93377e-09
298 454 -1.18922e-06
358 454 -0.00147538
424 454 -0.000232449
425 454 -0.000849603
429 454 -0.000849603
448 454 -0.000232449
449 454 -4.88908e-06
450 454 -0.000285964
451 454 -2.02248e-05
452 454 -0.000168222
453 454 -4.97616e-05
454 454 0.0414291
455 454 -0.111188
456 454 -0.00130934
457 454 -0.00530286
1329 454 -0.000244303
1330 454 -2.0297e-06
1331 454 -0.00924947
1802 454 -2.01445e-05
1803 454 -3.15952e-07
1804 454 -2.43005e-06
1805 454 -2.0795e-11
1806 454 -3.94698e-06
1807 454 -9.5545e-06
1808 454 -3.19364e-05
1809 454 -0.00323583
1812 454 -0.000409107
1814 454 -0.409224
236 455 -0.00303872
237 455 -0.0013008
238 455 -0.000615084
240 455 -0.00186499
241 455 -5.04439e-12
268 455 -0.000957668
272 455 -0.00303872
311 455 -0.00449067
312 455 -6.48388e-05
313 455 -5.73551e-06
314 455 -6.53541e-05
316 455 -1.39697e-06
317 455 -7.66446e-06
318 455 -2.78833e-08
319 455 -2.38602e-09
320 455 -3.03745e-07
321 455 -8.49473e-10
322 455 -7.26928e-11
323 455 -1.33434e-11
324 455 -4.06784e-08
357 455 -2.77589e-06
358 455 -0.0046705
424 455 -0.00023245
425 455 -0.00108206
429 455 -0.000849605
448 455 1.91068e-24
449 455 -1.58939e-17
450 455 -0.000597212
451 455 -4.98184e-05
452 455 -0.000300519
453 455 -2.5932e-05
454 455 -0.00472852
455 455 0.0370845
456 455 -0.00209189
457 455 -0.00382412
1329 455 -0.000400092
1330 455 -5.50038e-06
1331 455 -0.00133232
1802 455 -7.18173e-06
1803 455 -1.15645e-06
1804 455 -8.78131e-07
1805 455 -1.47414e-11
1806 455 -1.52501e-06
1807 455 -3.11559e-06
1808 455 -0.00029499
1809 455 -0.00519777
1812 455 -0.000134192
1814 455 -0.35801
239 456 -0.00120755
240 456 -0.000210007
241 456 -0.00120755
325 456 -1.02665e-14
326 456 -0.000615096
327 456 -0.000615084
329 456 -0.00102544
330 456 -0.000113391
356 456 -0.000126711
357 456 -0.00367541
358 456 -0.000278399
432 456 -0.00106546
436 456 -0.000275589
446 456 -1.25069e-05
447 456 -1.23919e-05
448 456 -4.77327e-06
449 456 -3.43559e-06
450 456 -4.79017e-06
451 456 -6.84689e-07
452 456 -2.16424e-06
453 456 -2.91509e-06
454 456 -4.95876e-05
455 456 -5.34462e-05
456 456 0.0193222
457 456 -0.000686605
1329 456 -2.56471e-05
1330 456 -1.45313e-07
1331 456 -0.00167392
1802 456 -8.46976e-05
1803 456 -5.87639e-06
1804 456 -1.01871e-05
1805 456 -0.00555331
1806 456 -1.84462e-05
1807 456 -3.53568e-05
1808 456 -2.89252e-05
1809 456 -0.0121729
1812 456 -9.07759e-05
1814 456 -0.452782
239 457 -1.52624e-11
240 457 -0.00120755
241 457 -3.26617e-12
366 457 -3.15346e-12
367 457 -5.49565e-13
378 457 -7.62747e-15
401 457 -0.00120755
450 457 -6.23831e-05
451 457 -1.4931e-06
452 457 -0.000224284
453 457 -1.67851e-05
454 457 -0.000217777
455 457 -8.91308e-05
456 457 -1.32774e-05
457 457 0.00844119
1329 457 -0.000465737
1330 457 -9.53077e-05
1331 457 -0.000562123
1802 457 -2.57701e-05
1803 457 -3.25998e-08
1804 457 -3.34483e-06
1805 457 -8.73498e-06
1806 457 -5.73728e-06
1807 457 -1.07197e-05
1808 457 -7.53805e-06
1809 457 -0.0854438
1812 457 -2.30926e-05
1814 457 -0.263379
458 458 0.00232269
459 458 -0.207979
460 458 4.06696e-08
1330 458 -0.207975
1814 458 -0.584046
458 459 -0.000483061
459 459 0.031641
460 459 -0.0230035
1325 459 -0.0381642
1326 459 -0.260981
1330 459 -0.00317514
1814 459 -0.0634304
458 460 -4.19006e-12
459 460 -0.00072786
460 460 0.010209
481 460 -0.179944
1325 460 -0.00272095
1326 460 -0.0186069
1330 460 -0.0591079
1806 460 -0.179944
1814 460 -0.0654843
461 461 0.00622002
463 461 -0.230676
481 461 -0.116658
1331 461 -0.11611
462 462 0.0129811
463 462 5.63162e-12
481 462 -0.0819346
1331 462 -0.0819346
1789 462 -0.143571
1814 462 -0.69256
461 463 -0.00113949
462 463 -6.04251e-16
463 463 0.019589
481 463 -0.216957
1331 463 -0.116412
1789 463 -0.0370419
1814 463 -0.20987
464 464 0.00431546
465 464 1.04795e-07
1326 464 -0.217369
1814 464 -0.565256
464 465 -1.66554e-10
465 465 0.0043117
466 465 4.1084e-08
480 465 -0.217564
1326 465 -8.39662e-09
1814 465 -0.564877
465 466 -8.31327e-12
466 466 0.0122458
480 466 -0.0965921
1326 466 -0.0490879
1328 466 -0.150014
1806 466 -0.150014
1814 466 -0.0910648
467 467 0.00319788
1327 467 -0.267872
1814 467 -0.139745
468 468 0.0032903
1806 468 -0.306083
1814 468 -0.183073
469 469 0.00622002
473 469 -0.183198
1327 469 -0.116658
1806 469 -0.11611
470 470 0.00924287
471 470 -0.198753
480 470 -0.196822
1806 470 -0.198753
1814 470 -0.196186
470 471 -0.00183705
471 471 0.0159962
473 471 -0.1898
480 471 -0.135208
1806 471 -0.0585317
1814 471 -0.195571
472 472 0.0129811
473 472 5.63164e-12
1327 472 -0.0819346
1789 472 -0.143571
1806 472 -0.0819346
1814 472 -0.69256
469 473 -0.00143481
471 473 -0.00305347
472 473 -6.04252e-16
473 473 0.0184188
480 473 -0.0224149
1327 473 -0.125527
1789 473 -0.0392104
1806 473 -0.0764917
1814 473 -0.255625
474 474 0.00232269
475 474 4.06695e-08
479 474 -0.207979
1796 474 -0.207975
1814 474 -0.584046
474 475 -4.19006e-12
475 475 0.0104761
479 475 -0.0694776
481 475 -0.175357
1788 475 -0.175357
1796 475 -0.0576358
1814 475 -0.0594079
476 476 0.0185631
477 476 3.18795e-12
480 476 -0.300124
1326 476 -0.117307
1814 476 -0.582569
476 477 4.781e-14
477 477 0.014122
478 477 4.89757e-12
480 477 1.01607e-12
1326 477 -0.154192
1330 477 -0.154198
1814 477 -0.69161
477 478 3.7531e-14
478 478 0.0141173
479 478 5.23217e-12
480 478 -2.70123e-24
1326 478 4.09922e-13
1330 478 -0.154244
1796 478 -0.15425
1814 478 -0.691506
474 479 -0.000483061
475 479 -0.000727852
478 479 -6.4392e-16
479 479 0.0230502
480 479 -0.0127619
481 479 -0.0055372
1326 479 -0.0314797
1328 479 -0.0796976
1330 479 -0.0314797
1788 479 -0.0852348
1796 479 -0.132126
1814 479 -0.134281
465 480 -0.000938051
466 480 -0.00118284
470 480 -0.00183151
471 480 -0.00219296
473 480 -0.000416222
476 480 -0.00566737
477 480 1.80673e-14
478 480 -8.84861e-26
479 480 -0.000294164
480 480 0.024999
481 480 -6.51565e-05
1326 480 -0.029287
1327 480 -0.00208997
1328 480 -0.00803582
1330 480 -0.000370423
1788 480 -0.00100296
1789 480 -0.000652836
1796 480 -0.00155473
1806 480 -0.101228
1814 480 -0.554532
460 481 -0.00183705
461 481 -0.000740245
462 481 -0.00106356
463 481 -0.0042704
475 481 -0.00183705
479 481 -0.000127634
480 481 -1.62885e-06
481 481 0.0244223
1325 481 -0.000204671
1326 481 -0.00156609
1327 481 -1.39391e-07
1328 481 -0.000417046
1330 481 -0.00461065
1331 481 -0.0274429
1788 481 -0.0136359
1789 481 -0.0127295
1796 481 -0.00502599
1806 481 -0.0135422
1809 481 -0.0737543
1814 481 -0.262653
482 482 0.0538566
518 482 -0.109429
1804 482 -0.276524
1814 482 -0.266638
483 483 0.010974
487 483 -0.121458
1812 483 -0.231393
484 484 0.00635995
487 484 -0.209574
1812 484 -0.232494
485 485 0.00503496
487 485 5.29112e-12
1812 485 -0.297834
1814 485 -0.702166
486 486 0.00927248
487 486 2.89114e-12
1812 486 -0.303498
1814 486 -0.696502
483 487 -0.0010599
484 487 -0.0010599
485 487 -2.13465e-16
486 487 -2.14784e-16
487 487 0.0166473
489 487 -0.2014
1812 487 -0.19947
1814 487 -0.257611
488 488 0.0151289
489 488 -0.195093
490 488 -0.10266
491 488 -0.0406563
493 488 -0.0620039
1814 488 -0.0887756
487 489 -0.00332858
488 489 -0.00299598
489 489 0.0266754
490 489 -0.104719
491 489 -0.0627896
493 489 -0.155076
517 489 -0.0275853
1812 489 -0.0248899
1814 489 -0.335062
488 490 -0.00155318
489 490 -0.00275867
490 490 0.0230724
491 490 -0.0102444
493 490 -0.118077
517 490 -0.00329826
1324 490 -0.195937
1812 490 -0.00297599
1814 490 -0.275185
488 491 -0.000615084
489 491 -0.00167317
490 491 -0.000238358
491 491 0.016122
492 491 -0.0465065
493 491 -0.0202054
495 491 -0.188087
517 491 -0.08757
1324 491 -0.00289685
1812 491 -0.00262712
1814 491 -0.439787
491 492 -0.000749778
492 492 0.0153139
493 492 -0.0339013
495 492 -0.00920885
500 492 -0.205757
517 492 -0.00428747
1324 492 -0.000141831
1812 492 -0.000128625
1814 492 -0.142007
488 493 -0.00093805
489 493 -0.00413376
490 493 -0.00329476
491 493 -0.000331447
492 493 -0.000519411
493 493 0.0216734
495 493 -0.00309708
496 493 -0.113303
500 493 -0.00493105
517 493 -0.143106
1324 493 -0.0298338
1812 493 -0.00524291
1814 493 -0.222716
494 494 0.00988922
495 494 -0.0621975
496 494 -0.0621975
497 494 -0.0621975
499 494 -0.0621975
1812 494 -0.163477
1814 494 -0.0507321
491 495 -0.00305654
492 495 -0.000142149
493 495 -6.65776e-05
494 495 -0.000615105
495 495 0.0178326
496 495 -0.0779727
497 495 -0.125526
499 495 -0.0021454
500 495 -0.00165857
517 495 -0.0155782
1324 495 -0.000609041
1812 495 -0.091213
1814 495 -0.29878
493 496 -0.00248587
494 496 -0.000615084
495 496 -0.00138072
496 496 0.0127041
497 496 -0.016654
499 496 -0.00324454
500 496 -0.00114514
517 496 -0.0296954
1324 496 -0.00590391
1812 496 -0.0672705
1814 496 -0.414777
494 497 -0.000615105
495 497 -0.00280384
496 497 -0.000256881
497 497 0.0168272
498 497 -0.0365542
499 497 -0.00268058
500 497 -0.000293841
501 497 -1.14247e-11
504 497 -0.130752
517 497 -0.00304904
1324 497 -0.00019161
1812 497 -0.202083
1814 497 -0.0579707
497 498 -0.000615084
498 498 0.00986674
499 498 -0.0625063
500 498 -1.83178e-05
501 498 -0.0623392
504 498 -0.0704902
517 498 -0.000190074
1324 498 -1.19448e-05
1812 498 -0.176448
1814 498 -0.0544615
494 499 -0.000615084
495 499 -3.82567e-05
496 499 -4.12399e-05
497 499 -4.37457e-05
498 499 -0.000616683
499 499 0.0071493
500 499 -1.88588e-05
501 499 -0.00537727
504 499 -0.0068804
517 499 -0.000289707
1324 499 -3.95179e-05
1812 499 -0.203467
1814 499 -0.0134085
492 500 -0.00319835
493 500 -0.000108428
495 500 -2.97889e-05
496 500 -1.4608e-05
497 500 -3.98258e-06
498 500 -1.4558e-07
499 500 -1.31081e-07
500 500 0.0104704
501 500 -9.34077e-07
504 500 -5.07998e-05
517 500 -0.00287855
1324 500 -0.000362317
1808 500 -0.139968
1812 500 -0.000528809
1814 500 -0.341302
497 501 -4.62821e-15
498 501 -0.000615084
499 501 -3.84468e-05
500 501 -1.1992e-08
501 501 0.00718788
502 501 -6.4389e-13
503 501 -0.085574
504 501 -0.00606882
517 501 -1.78195e-05
1324 501 -1.23412e-06
1808 501 -0.0855726
1812 501 -0.101761
1814 501 -0.00473269
501 502 -1.92246e-13
502 502 0.0197384
503 502 -0.0764651
504 502 -0.140112
517 502 -1.73557e-16
1324 502 -1.202e-17
1808 502 -0.0311629
1812 502 -0.161456
1814 502 -0.0564972
501 503 -0.000615085
502 503 -0.00154782
503 503 0.00831394
504 503 -0.212705
517 503 -1.31833e-06
1324 503 -9.13033e-08
1808 503 -0.188406
1812 503 -0.111569
1814 503 -0.189805
497 504 -0.00276558
498 504 -0.000716198
499 504 -5.21803e-05
500 504 -8.26743e-07
501 504 -4.49278e-05
502 504 -0.0022002
503 504 -0.00168969
504 504 0.0161413
517 504 -0.000532114
1324 504 -3.35188e-05
1808 504 -0.0623232
1812 504 -0.170586
1814 504 -0.039993
505 505 0.0179185
517 505 -0.124778
1329 505 -0.222684
1814 505 -0.125503
506 506 0.0165737
516 506 -0.12529
1326 506 -0.0746268
1327 506 -0.0860526
1328 506 -0.0874126
507 507 0.0100593
516 507 5.2724e-12
1326 507 -0.154085
1328 507 -0.154079
1814 507 -0.691836
508 508 0.00576509
515 508 5.32169e-12
1789 508 -0.151832
1814 508 -0.848168
509 509 0.00269624
518 509 -0.31981
1814 509 -0.255303
510 510 0.0110458
511 510 -0.166312
512 510 -0.166312
518 510 -0.332625
510 511 -0.00183711
511 511 0.0138556
512 511 -0.0220514
514 511 -5.85196e-12
516 511 -0.132586
518 511 -0.0441028
510 512 -0.00183711
511 512 -0.000305534
512 512 0.0209173
513 512 -0.0878243
514 512 -3.82711e-12
516 512 -0.0897639
518 512 -0.0298577
512 513 -0.00183705
513 513 0.0122907
514 513 -0.149467
516 513 -0.0134167
517 513 -0.160827
518 513 -0.00446274
1814 513 -0.0492344
511 514 -7.41984e-14
512 514 -7.65154e-14
513 514 -0.00183711
514 514 0.0253011
515 514 -0.116514
516 514 -0.073584
517 514 -0.0116776
518 514 -0.000324039
1814 514 -0.0035749
508 515 -2.4931e-16
514 515 -0.00294793
515 515 0.0157303
516 515 -0.0137899
517 515 -0.00218843
518 515 -6.07262e-05
1789 515 -0.0920919
1814 515 -0.103178
506 516 -0.00261216
507 516 -4.51612e-16
511 516 -0.00183705
512 516 -0.00187756
513 516 -0.000164895
514 516 -0.0018617
515 516 -0.000216913
516 516 0.0212747
517 516 -0.00229073
518 516 -0.0928561
1326 516 -0.0820164
1327 516 -0.12502
1328 516 -0.0107327
1789 516 -0.000938954
1814 516 -0.142564
489 517 0.000102189
490 517 1.07012e-05
491 517 -0.00135838
492 517 -6.31734e-05
493 517 -0.00293373
495 517 -0.000265161
496 517 -0.000353076
497 517 -3.91648e-05
498 517 -1.43164e-06
499 517 -1.90891e-06
500 517 -2.83205e-05
501 517 -9.95384e-08
502 517 -6.40918e-20
503 517 -8.51789e-09
504 517 -5.2388e-06
505 517 -0.00229327
513 517 -0.00201519
514 517 -0.000301204
515 517 -3.50944e-05
516 517 -4.9685e-05
517 517 0.0282721
518 517 -0.000484809
1324 517 -0.00324121
1326 517 -0.000144135
1327 517 -0.000219709
1328 517 -1.88616e-05
1329 517 -0.198395
1789 517 -0.000115965
1808 517 -0.000152114
1812 517 -0.0026102
1814 517 -0.498376
482 518 -0.0059938
509 518 -0.00086633
510 518 -0.0036741
511 518 -0.000611048
512 518 -0.000624523
513 518 -5.48483e-05
514 518 -8.19801e-06
515 518 -9.55179e-07
516 518 -0.00197548
517 518 -1.34442e-05
518 518 0.0741894
1324 518 -5.87353e-07
1326 518 -0.00218392
1327 518 -0.00332902
1328 518 -0.00028579
1329 518 -3.59519e-05
1789 518 -2.62087e-05
1802 518 -0.209832
1804 518 -0.0223405
1808 518 -2.75653e-08
1809 518 -0.0194099
1812 518 -4.73005e-07
1814 518 -0.399023
519 519 0.0158995
551 519 -2.88767e-11
681 519 -0.0573192
682 519 -0.187435
520 520 0.00550089
551 520 -0.111815
681 520 -0.279102
682 520 -0.111815
1814 520 -0.329641
521 521 0.00654144
551 521 -0.0940289
681 521 -0.0940289
682 521 -0.196341
1814 521 -0.0925062
522 522 0.111364
523 522 -0.150189
1814 522 -0.11335
522 523 -0.0168319
523 523 0.0538658
524 523 0.00153978
525 523 5.20683e-13
685 523 -0.0224181
686 523 -0.0452229
1814 523 -0.572988
523 524 -0.00060447
524 524 0.0123
525 524 2.55885e-14
526 524 -0.23618
685 524 -0.0230106
686 524 -0.158455
1814 524 -0.378064
523 525 -2.39971e-13
524 525 3.69504e-16
525 525 0.0157298
526 525 5.54803e-15
527 525 -0.200318
685 525 -0.0596353
686 525 -0.032042
1814 525 -0.12954
524 526 -0.00292448
525 526 7.48328e-17
526 526 0.0123293
527 526 -0.131124
685 526 -0.00545804
686 526 -0.037585
1814 526 -0.288783
525 527 -0.00319835
526 527 -0.00164151
527 527 0.0170608
528 527 -0.159545
685 527 -0.0117049
686 527 -0.0096231
1814 527 -0.344896
527 528 -0.00274026
528 528 0.010157
533 528 -0.10328
685 528 -0.00315787
686 528 -0.00259623
1814 528 -0.307048
529 529 0.0158995
533 529 -2.88767e-11
683 529 -0.187435
1323 529 -0.0573192
530 530 0.00550089
533 530 -0.111815
683 530 -0.111815
1323 530 -0.279102
1814 530 -0.329641
531 531 0.00654144
533 531 -0.0940289
683 531 -0.196341
1323 531 -0.0940289
1814 531 -0.0925062
532 532 0.00692919
533 532 -0.174273
551 532 -0.174273
684 532 -1.06148e-08
1326 532 -1.06148e-08
528 533 -0.00106546
529 533 -1.02665e-14
530 533 -0.000615096
531 533 -0.000615084
532 533 -0.00120755
533 533 0.0198518
551 533 -0.0106008
683 533 -0.0516547
684 533 -6.45683e-10
685 533 -0.000169484
686 533 -0.000139341
1323 533 -0.179232
1326 533 -0.0608283
1814 533 -0.339889
534 534 0.0105942
546 534 -0.258657
551 534 -0.0990183
1814 534 -0.205167
535 535 0.00856431
536 535 -0.120135
541 535 -0.0325886
546 535 -0.188768
1814 535 -0.183181
535 536 -0.00102888
536 536 0.0130402
541 536 -0.163559
546 536 -0.0746924
549 536 -0.15685
1814 536 -0.124441
537 537 0.111364
538 537 -0.150189
1814 537 -0.11335
537 538 -0.0168319
538 538 0.0538658
539 538 0.00153978
540 538 3.68566e-13
685 538 -0.0224175
686 538 -0.0452233
1814 538 -0.572988
538 539 -0.00060447
539 539 0.0123
540 539 1.81128e-14
541 539 -0.23618
685 539 -0.0230105
686 539 -0.158455
1814 539 -0.378064
538 540 2.43957e-14
539 540 -3.75641e-17
540 540 0.0119711
541 540 -7.4111e-16
545 540 -0.242668
685 540 -0.0783626
686 540 -0.0421012
1814 540 -0.413135
535 541 -0.000279106
536 541 -0.0019172
539 541 -0.00292448
540 541 5.29704e-17
541 541 0.0117357
545 541 1.09531e-15
546 541 -0.0603566
549 541 -0.0256237
685 541 -0.00573411
686 541 -0.039486
1814 541 -0.397865
542 542 0.00690961
544 542 -0.22984
549 542 -0.118239
550 542 -0.117666
543 543 0.00856431
544 543 -0.120135
545 543 -0.0325886
546 543 -0.188768
1814 543 -0.183181
542 544 -0.00125983
543 544 -0.00102888
544 544 0.0135973
545 544 -0.156858
546 544 -0.0716324
549 544 -0.0799433
550 544 -0.16637
1814 544 -0.262195
540 545 -0.00292448
541 545 -2.16736e-18
543 545 -0.000279106
544 545 -0.0019172
545 545 0.0117296
546 545 -0.059888
549 545 -0.0130667
550 545 -0.0271931
685 545 -0.0195377
686 545 -0.0104969
1814 545 -0.429333
534 546 -0.00272197
535 546 -0.00164151
536 546 -0.000989502
541 546 -0.000738157
543 546 -0.00164151
544 546 -0.000989502
545 546 -0.000731527
546 546 0.0165542
549 546 -0.0158739
550 546 -0.0111461
551 546 -0.0162813
685 546 -0.00111905
686 546 -0.00222455
1814 546 -0.38333
547 547 0.00150224
548 547 -1.64321e-07
549 547 7.18702e-21
683 547 -0.154738
1323 547 -0.154741
547 548 -2.09838e-10
548 548 0.00474902
549 548 3.17562e-28
550 548 -8.87566e-08
683 548 -0.14208
1323 548 -0.0931349
1809 548 -0.0931311
536 549 -0.002073
541 549 -0.000339058
542 549 -0.000833426
544 549 -0.0011296
545 549 -0.000177188
546 549 -0.00026683
547 549 -5.42115e-23
548 549 -8.90809e-30
549 549 0.0114056
550 549 -0.0257584
551 549 -0.000380896
683 549 -7.35478e-22
685 549 -0.000500161
686 549 -0.00138893
1323 549 -0.0203802
1809 549 -0.0630368
1814 549 -0.449915
542 550 -0.000833426
544 550 -0.00231823
545 550 -0.000363633
546 550 -0.000187837
548 550 -1.80322e-11
549 550 -0.000291603
550 550 0.0095671
551 550 -0.000331272
683 550 -0.0462294
685 550 -0.00077982
686 550 -0.000484983
1323 550 -0.0468506
1809 550 -0.0770719
1814 550 -0.500198
519 551 -1.02665e-14
520 551 -0.000615096
521 551 -0.000615084
532 551 -0.00120755
533 551 -0.000210444
534 551 -0.00106546
546 551 -0.000275589
549 551 -4.37467e-06
550 551 -3.18444e-06
551 551 0.0198496
681 551 -0.179252
682 551 -0.0516604
683 551 -0.000555055
684 551 -0.060835
685 551 -1.75689e-05
686 551 -3.27464e-05
1323 551 -0.00191221
1326 551 -0.000644897
1809 551 -2.62572e-05
1814 551 -0.343563
552 552 0.111364
553 552 -0.150189
1814 552 -0.11335
552 553 -0.0168319
553 553 0.0538658
554 553 0.00153978
555 553 3.68567e-13
685 553 -0.0224175
686 553 -0.0452233
1814 553 -0.572988
553 554 -0.00060447
554 554 0.0123
555 554 1.81129e-14
563 554 -0.23618
685 554 -0.0230105
686 554 -0.158455
1814 554 -0.378064
553 555 2.43957e-14
554 555 -3.75641e-17
555 555 0.0119711
563 555 -7.41108e-16
564 555 -0.242668
685 555 -0.0783626
686 555 -0.0421012
1814 555 -0.413135
556 556 0.0105942
562 556 -0.258657
679 556 -0.0990183
1814 556 -0.205167
557 557 0.00856431
558 557 -0.120135
562 557 -0.188768
563 557 -0.0325886
1814 557 -0.183181
557 558 -0.00102888
558 558 0.0130402
562 558 -0.0746924
563 558 -0.163559
569 558 -0.15685
1814 558 -0.124441
559 559 0.00690961
561 559 -0.22984
569 559 -0.118239
570 559 -0.117666
560 560 0.00856431
561 560 -0.120135
562 560 -0.188768
564 560 -0.0325886
1814 560 -0.183181
559 561 -0.00125983
560 561 -0.00102888
561 561 0.0135973
562 561 -0.0716324
564 561 -0.156858
569 561 -0.0799433
570 561 -0.16637
1814 561 -0.262195
556 562 -0.00272197
557 562 -0.00164151
558 562 -0.000989502
560 562 -0.00164151
561 562 -0.000989502
562 562 0.0166426
563 562 -0.0443536
564 562 -0.0439552
569 562 -0.0140788
570 562 -0.00989169
679 562 -0.0161949
1814 562 -0.344777
554 563 -0.00292448
555 563 5.29707e-17
557 563 -0.000279106
558 563 -0.0019172
562 563 -0.000708327
563 563 0.0117043
564 563 -0.00266011
569 563 -0.0265445
570 563 -0.000598632
679 563 -0.000980093
685 563 -0.0057495
686 563 -0.039592
1814 563 -0.419798
555 564 -0.00292448
560 564 -0.000279106
561 564 -0.0019172
562 564 -0.000702461
563 564 -3.11566e-05
564 564 0.0116986
569 564 -0.0140174
570 564 -0.0278606
679 564 -0.000975057
685 564 -0.0196048
686 564 -0.0106301
1814 564 -0.45229
565 565 0.00150265
568 565 -1.97985e-07
569 565 7.3834e-21
683 565 -0.154696
1323 565 -0.154699
566 566 0.00150352
567 566 -3.00912e-07
569 566 7.8013e-21
681 566 -0.15461
682 566 -0.154607
566 567 -4.64916e-10
567 567 0.00653768
568 567 -1.25821e-07
569 567 5.54776e-28
681 567 -0.099751
682 567 -0.135304
1809 567 -0.099747
565 568 -2.79933e-10
567 568 -7.34566e-10
568 568 0.00845904
569 568 2.44338e-28
570 568 -1.07967e-07
681 568 -0.0770907
682 568 -0.0770907
683 568 -0.104572
1323 568 -0.0770938
1809 568 -8.66183e-09
558 569 -0.002073
559 569 -0.000833426
561 569 -0.0011296
562 569 -0.000235754
563 569 -0.000349514
564 569 -0.00018848
565 569 -5.41469e-23
566 569 -5.40094e-23
567 569 -1.62521e-29
568 569 -1.07203e-29
569 569 0.0138346
570 569 -0.0212359
679 569 -0.00031402
681 569 -0.016802
682 569 -6.03576e-22
683 569 -6.05461e-22
685 569 -0.000412346
686 569 -0.00114507
1323 569 -0.016802
1809 569 -0.104573
1814 569 -0.441559
559 570 -0.000833426
561 570 -0.00231823
562 570 -0.00016606
563 570 -7.36536e-06
564 570 -0.000370952
568 570 -3.86059e-11
569 570 -0.000291603
570 570 0.0124185
679 570 -0.000253639
681 570 -0.000394534
682 570 -2.39655e-10
683 570 -0.0525114
685 570 -0.000598704
686 570 -0.0003679
1323 570 -0.0529059
1809 570 -0.118952
1814 570 -0.463844
571 571 0.00694361
588 571 -0.173908
679 571 -0.173912
684 571 -5.21052e-08
1325 571 -4.4477e-08
572 572 0.0158995
588 572 -2.88767e-11
677 572 -0.0573192
1324 572 -0.187435
573 573 0.00550089
588 573 -0.111815
677 573 -0.279102
1324 573 -0.111815
1814 573 -0.329641
574 574 0.00654144
588 574 -0.0940289
677 574 -0.0940289
1324 574 -0.196341
1814 574 -0.0925062
575 575 0.111364
576 575 -0.150189
1814 575 -0.11335
575 576 -0.0168319
576 576 0.0538658
577 576 3.68567e-13
578 576 0.00153978
685 576 -0.0224175
686 576 -0.0452233
1814 576 -0.572988
576 577 2.43959e-14
577 577 0.0119711
578 577 -3.13793e-15
587 577 -0.242668
685 577 -0.0783626
686 577 -0.0421012
1814 577 -0.413135
576 578 -0.00060447
577 578 2.22788e-16
578 578 0.0123
586 578 -0.23618
587 578 4.39542e-15
685 578 -0.0230105
686 578 -0.158455
1814 578 -0.378064
579 579 0.0105942
585 579 -0.258657
588 579 -0.0990183
1814 579 -0.205167
580 580 0.00856431
581 580 -0.120135
585 580 -0.188768
586 580 -0.0325886
1814 580 -0.183181
580 581 -0.00102888
581 581 0.0130402
585 581 -0.0746924
586 581 -0.163559
678 581 -0.15685
1814 581 -0.124441
582 582 0.00690961
584 582 -0.22984
678 582 -0.118239
680 582 -0.117666
583 583 0.00856431
584 583 -0.120135
585 583 -0.188768
587 583 -0.0325886
1814 583 -0.183181
582 584 -0.00125983
583 584 -0.00102888
584 584 0.0135973
585 584 -0.0716324
587 584 -0.156858
678 584 -0.0799433
680 584 -0.16637
1814 584 -0.262195
579 585 -0.00272197
580 585 -0.00164151
581 585 -0.000989502
583 585 -0.00164151
584 585 -0.000989502
585 585 0.0166426
586 585 -0.0443536
587 585 -0.0439552
588 585 -0.0161949
678 585 -0.0140788
680 585 -0.00989169
1814 585 -0.344777
578 586 -0.00292448
580 586 -0.000279106
581 586 -0.0019172
585 586 -0.000708327
586 586 0.0117043
587 586 -0.00266011
588 586 -0.000980093
678 586 -0.0265445
680 586 -0.000598632
685 586 -0.0057495
686 586 -0.039592
1814 586 -0.419798
577 587 -0.00292448
578 587 -9.17679e-18
583 587 -0.000279106
584 587 -0.0019172
585 587 -0.000702461
586 587 -3.11566e-05
587 587 0.0116986
588 587 -0.000975057
678 587 -0.0140174
680 587 -0.0278606
685 587 -0.0196048
686 587 -0.0106301
1814 587 -0.45229
571 588 -0.00120755
572 588 -1.02665e-14
573 588 -0.000615096
574 588 -0.000615084
579 588 -0.00106546
585 588 -0.000275589
586 588 -1.22233e-05
587 588 -1.21461e-05
588 588 0.0198523
677 588 -0.179228
678 588 -0.000220361
679 588 -0.0105785
680 588 -0.00015473
684 588 -3.16939e-09
685 588 -1.55346e-05
686 588 -3.0881e-05
1324 588 -0.0516534
1325 588 -0.0608268
1814 588 -0.339734
589 589 0.010974
593 589 -0.121458
1812 589 -0.231393
590 590 0.00635995
593 590 -0.209574
1812 590 -0.232494
591 591 0.00503496
593 591 5.29112e-12
1812 591 -0.297834
1814 591 -0.702166
592 592 0.00927248
593 592 2.89114e-12
1812 592 -0.303498
1814 592 -0.696502
589 593 -0.0010599
590 593 -0.0010599
591 593 -2.13465e-16
592 593 -2.14784e-16
593 593 0.0166473
595 593 -0.2014
1812 593 -0.19947
1814 593 -0.257611
594 594 0.0151289
595 594 -0.195093
596 594 -0.10266
597 594 -0.0620039
599 594 -0.0406563
1814 594 -0.0887756
593 595 -0.00332858
594 595 -0.00299598
595 595 0.0266754
596 595 -0.104719
597 595 -0.155076
599 595 -0.0627896
600 595 -0.0275853
1812 595 -0.0248899
1814 595 -0.335062
594 596 -0.00155318
595 596 -0.00275867
596 596 0.0230724
597 596 -0.118077
599 596 -0.0102444
600 596 -0.00329826
675 596 -0.195937
1812 596 -0.00297599
1814 596 -0.275185
594 597 -0.00093805
595 597 -0.00413376
596 597 -0.00329476
597 597 0.0216977
598 597 -0.0232281
599 597 -0.0152757
600 597 -0.141506
602 597 -0.113176
675 597 -0.0297527
1812 597 -0.00519383
1814 597 -0.212349
597 598 -0.000504014
598 598 0.0153371
599 598 -0.0493886
600 598 -0.00465021
602 598 -0.00371923
607 598 -0.205447
675 598 -0.000977745
1812 598 -0.000170681
1814 598 -0.127271
594 599 -0.000615084
595 599 -0.00167317
596 599 -0.000238358
597 599 -0.000325751
598 599 -0.000757345
599 599 0.0160796
600 599 -0.0908865
602 599 -0.00246796
603 599 -0.188583
607 599 -0.00967647
675 599 -0.00355329
1812 599 -0.0027473
1814 599 -0.451243
595 600 0.000102189
596 600 1.07012e-05
597 600 -0.00290414
598 600 -6.74578e-05
599 600 -0.00140607
600 600 0.0220466
602 600 -0.0150772
603 600 -0.0120273
607 600 -0.00124576
675 600 -0.00405376
677 600 -0.220641
1812 600 -0.000743095
1814 600 -0.408157
601 601 0.00988922
602 601 -0.0621975
603 601 -0.0621975
604 601 -0.0621975
606 601 -0.0621975
1812 601 -0.163477
1814 601 -0.0507321
597 602 -0.00248587
598 602 -5.7742e-05
599 602 -4.08252e-05
600 602 -0.000355744
601 602 -0.000615084
602 602 0.0128064
603 602 -0.108149
604 602 -0.00298731
606 602 -0.00298731
607 602 -0.000991781
675 602 -0.00590369
677 602 -0.00612911
1812 602 -0.0569196
1814 602 -0.390588
599 603 -0.00305654
600 603 -0.000277798
601 603 -0.000615105
602 603 -0.00139464
603 603 0.0176784
604 603 -0.126857
606 603 -0.00239978
607 603 -0.00177085
675 603 -0.00114379
677 603 -0.00395068
1812 603 -0.0965105
1814 603 -0.338613
601 604 -0.000615105
602 604 -3.8258e-05
603 604 -0.00280797
604 604 0.0168271
605 604 -0.0365544
606 604 -0.00268084
607 604 -0.00029776
608 604 -1.14247e-11
611 604 -0.130753
675 604 -0.00020429
677 604 -0.000673193
1812 604 -0.202093
1814 604 -0.0592476
604 605 -0.000615084
605 605 0.00986674
606 605 -0.0625063
607 605 -1.85621e-05
608 605 -0.0623392
611 605 -0.0704902
675 605 -1.27352e-05
677 605 -4.19663e-05
1812 605 -0.176448
1814 605 -0.0545411
601 606 -0.000615084
602 606 -3.8257e-05
603 606 -4.23941e-05
604 606 -4.37489e-05
605 606 -0.000616684
606 606 0.0071493
607 606 -1.92312e-05
608 606 -0.00537727
611 606 -0.00688046
675 606 -4.07227e-05
677 606 -6.39642e-05
1812 606 -0.203468
1814 606 -0.0135299
598 607 -0.00319835
599 607 -0.000157962
600 607 -2.92296e-05
602 607 -1.2726e-05
603 607 -3.15168e-05
604 607 -4.03614e-06
605 607 -1.47538e-07
606 607 -1.33692e-07
607 607 0.0104704
608 607 -9.47083e-07
611 607 -5.1484e-05
675 607 -0.000374289
677 607 -0.000635555
1808 607 -0.139969
1812 607 -0.000538333
1814 607 -0.342509
604 608 -4.62821e-15
605 608 -0.000615084
606 608 -3.84468e-05
607 608 -1.21566e-08
608 608 0.00718788
609 608 -0.085574
610 608 -6.4389e-13
611 608 -0.00606882
675 608 -1.30824e-06
677 608 -3.93437e-06
1808 608 -0.0855726
1812 608 -0.101761
1814 608 -0.00474016
608 609 -0.000615085
609 609 0.0084323
610 609 -0.183558
611 609 -0.184001
675 609 -9.5428e-08
677 609 -2.86988e-07
1808 609 -0.180042
1812 609 -0.0803667
1814 609 -0.176771
608 610 -1.92245e-13
609 610 -0.0015093
610 610 0.0194613
611 610 -0.156376
675 610 -7.4008e-09
677 610 -2.2257e-08
1808 610 -0.0455694
1812 610 -0.169987
1814 610 -0.0710107
604 611 -0.00276558
605 611 -0.000716199
606 611 -5.2181e-05
607 611 -8.37777e-07
608 611 -4.49278e-05
609 611 -0.00152145
610 611 -0.00247947
611 611 0.0161413
675 611 -3.5732e-05
677 611 -0.000117485
1808 611 -0.0623233
1812 611 -0.170588
1814 611 -0.0402161
612 612 0.010974
616 612 -0.121458
1812 612 -0.231393
613 613 0.00635995
616 613 -0.209574
1812 613 -0.232494
614 614 0.00503496
616 614 5.29112e-12
1812 614 -0.297834
1814 614 -0.702166
615 615 0.00927248
616 615 2.89114e-12
1812 615 -0.303498
1814 615 -0.696502
612 616 -0.0010599
613 616 -0.0010599
614 616 -2.13465e-16
615 616 -2.14785e-16
616 616 0.0166473
618 616 -0.2014
1812 616 -0.19947
1814 616 -0.257611
617 617 0.0151289
618 617 -0.195093
619 617 -0.10266
620 617 -0.0406563
623 617 -0.0620039
1814 617 -0.0887756
616 618 -0.00332858
617 618 -0.00299598
618 618 0.0266754
619 618 -0.104719
620 618 -0.0627896
622 618 -0.0275853
623 618 -0.155076
1812 618 -0.0248899
1814 618 -0.335062
617 619 -0.00155318
618 619 -0.00275867
619 619 0.0230724
620 619 -0.0102444
622 619 -0.00329826
623 619 -0.118077
683 619 -0.195937
1812 619 -0.00297599
1814 619 -0.275185
617 620 -0.000615084
618 620 -0.00167317
619 620 -0.000238358
620 620 0.016122
621 620 -0.0465065
622 620 -0.08757
623 620 -0.0202054
625 620 -0.188087
683 620 -0.00289685
1812 620 -0.00262712
1814 620 -0.439787
620 621 -0.000749778
621 621 0.0153139
622 621 -0.00428747
623 621 -0.0339013
625 621 -0.00920885
630 621 -0.205757
683 621 -0.000141831
1812 621 -0.000128625
1814 621 -0.142007
618 622 0.000102189
619 622 1.07012e-05
620 622 -0.00135838
621 622 -6.31734e-05
622 622 0.0224664
623 622 -0.130583
625 622 -0.0113981
630 622 -0.00057857
681 622 -0.216518
683 622 -8.22211e-05
1812 622 -4.45734e-05
1814 622 -0.371447
617 623 -0.00093805
618 623 -0.00413376
619 623 -0.00329476
620 623 -0.000331447
621 623 -0.000519411
622 623 -0.0031016
623 623 0.0212684
625 623 -0.00481826
626 623 -0.115461
630 623 -0.00510933
681 623 -0.0315752
683 623 -0.0304139
1812 623 -0.00534925
1814 623 -0.281126
624 624 0.00988922
625 624 -0.0621975
626 624 -0.0621975
627 624 -0.0621975
629 624 -0.0621975
1812 624 -0.163477
1814 624 -0.0507321
620 625 -0.00305654
621 625 -0.000142149
622 625 -0.000268271
623 625 -0.000101609
624 625 -0.000615105
625 625 0.0178292
626 625 -0.0782223
627 625 -0.12555
629 625 -0.0021458
630 625 -0.00167829
681 625 -0.00343783
683 625 -0.000672318
1812 625 -0.0912417
1814 625 -0.305196
623 626 -0.00248587
624 626 -0.000615084
625 626 -0.001385
626 626 0.012698
627 626 -0.0167068
629 626 -0.00324685
630 626 -0.0011833
681 626 -0.00655638
683 626 -0.00602739
1812 626 -0.0673571
1814 626 -0.427209
624 627 -0.000615105
625 627 -0.00280384
626 627 -0.00025758
627 627 0.0168271
628 627 -0.0365544
629 627 -0.00268084
630 627 -0.00029776
631 627 -1.14247e-11
634 627 -0.130753
681 627 -0.000673193
683 627 -0.00020429
1812 627 -0.202093
1814 627 -0.0592476
627 628 -0.000615084
628 628 0.00986674
629 628 -0.0625063
630 628 -1.85621e-05
631 628 -0.0623392
634 628 -0.0704902
681 628 -4.19663e-05
683 628 -1.27353e-05
1812 628 -0.176448
1814 628 -0.0545411
624 629 -0.000615084
625 629 -3.82567e-05
626 629 -4.12495e-05
627 629 -4.37489e-05
628 629 -0.000616684
629 629 0.00714929
630 629 -1.92312e-05
631 629 -0.00537727
634 629 -0.00688046
681 629 -6.39642e-05
683 629 -4.07227e-05
1812 629 -0.203468
1814 629 -0.0135299
621 630 -0.00319835
622 630 -1.37128e-05
623 630 -0.000110219
625 630 -3.01405e-05
626 630 -1.50836e-05
627 630 -4.03614e-06
628 630 -1.47538e-07
629 630 -1.33692e-07
630 630 0.0104704
631 630 -9.47082e-07
634 630 -5.1484e-05
681 630 -0.000635555
683 630 -0.000374289
1808 630 -0.139969
1812 630 -0.000538333
1814 630 -0.342509
627 631 -4.62821e-15
628 631 -0.000615084
629 631 -3.84468e-05
630 631 -1.21566e-08
631 631 0.00718788
632 631 -6.4389e-13
633 631 -0.085574
634 631 -0.00606882
681 631 -3.93437e-06
683 631 -1.30824e-06
1808 631 -0.0855726
1812 631 -0.101761
1814 631 -0.00474016
631 632 -1.92245e-13
632 632 0.0197384
633 632 -0.0764651
634 632 -0.140112
681 632 -3.83195e-17
683 632 -1.27418e-17
1808 632 -0.0311629
1812 632 -0.161456
1814 632 -0.0564972
631 633 -0.000615085
632 633 -0.00154782
633 633 0.00831394
634 633 -0.212705
681 633 -2.91074e-07
683 633 -9.67866e-08
1808 633 -0.188406
1812 633 -0.111569
1814 633 -0.189806
627 634 -0.00276558
628 634 -0.000716199
629 634 -5.2181e-05
630 634 -8.37776e-07
631 634 -4.49278e-05
632 634 -0.0022002
633 634 -0.00168969
634 634 0.0161413
681 634 -0.000117485
683 634 -3.5732e-05
1808 634 -0.0623233
1812 634 -0.170588
1814 634 -0.0402161
635 635 0.00150439
636 635 -4.68445e-07
675 635 -0.154517
676 635 -0.15452
678 635 8.21973e-21
635 636 -7.2217e-10
636 636 0.00817939
640 636 -2.31239e-07
675 636 -0.132292
676 636 -0.103875
678 636 7.25732e-28
1809 636 -0.103871
637 637 0.00150398
640 637 -3.8095e-07
678 637 8.02608e-21
681 637 -0.154562
682 637 -0.154559
638 638 0.00150282
639 638 -2.14392e-07
678 638 7.4653e-21
683 638 -0.154678
1323 638 -0.154682
638 639 -3.11935e-10
639 639 0.0106399
640 639 -1.13068e-07
678 639 2.18865e-28
680 639 -1.3204e-07
681 639 -0.079851
682 639 -0.079851
683 639 -0.1017
1323 639 -0.0798542
636 640 -1.93914e-09
637 640 -5.91965e-10
639 640 -1.50912e-09
640 640 0.0106516
675 640 -0.079763
676 640 -0.0797629
678 640 4.46051e-28
680 640 -1.87074e-14
681 640 -0.0797662
682 640 -0.101588
683 640 -1.44088e-08
1323 640 -1.13137e-08
1809 640 -1.89099e-08
641 641 0.010974
645 641 -0.121458
1812 641 -0.231393
642 642 0.00635995
645 642 -0.209574
1812 642 -0.232494
643 643 0.00927248
645 643 2.89114e-12
1812 643 -0.303498
1814 643 -0.696502
644 644 0.00503496
645 644 5.29112e-12
1812 644 -0.297834
1814 644 -0.702166
641 645 -0.0010599
642 645 -0.0010599
643 645 -2.14785e-16
644 645 -2.13465e-16
645 645 0.0166473
647 645 -0.2014
1812 645 -0.19947
1814 645 -0.257611
646 646 0.0151289
647 646 -0.195093
648 646 -0.10266
649 646 -0.0620039
652 646 -0.0406563
1814 646 -0.0887756
645 647 -0.00332858
646 647 -0.00299598
647 647 0.0266754
648 647 -0.104719
649 647 -0.155076
651 647 -0.0275853
652 647 -0.0627896
1812 647 -0.0248899
1814 647 -0.335062
646 648 -0.00155318
647 648 -0.00275867
648 648 0.0230724
649 648 -0.118077
651 648 -0.00329826
652 648 -0.0102444
682 648 -0.195937
1812 648 -0.00297599
1814 648 -0.275185
646 649 -0.00093805
647 649 -0.00413376
648 649 -0.00329476
649 649 0.0216977
650 649 -0.0232281
651 649 -0.141506
652 649 -0.0152757
654 649 -0.113176
682 649 -0.0297527
1812 649 -0.00519383
1814 649 -0.212349
649 650 -0.000504014
650 650 0.0153371
651 650 -0.00465021
652 650 -0.0493886
654 650 -0.00371923
659 650 -0.205447
682 650 -0.000977745
1812 650 -0.000170681
1814 650 -0.127271
647 651 0.000102189
648 651 1.07012e-05
649 651 -0.00290414
650 651 -6.74578e-05
651 651 0.0221744
652 651 -0.0634098
654 651 -0.0148338
659 651 -0.000625
676 651 -0.21937
682 651 -0.00380509
1812 651 -0.000564607
1814 651 -0.377192
646 652 -0.000615084
647 652 -0.00167317
648 652 -0.000238358
649 652 -0.000325751
650 652 -0.000757345
651 652 -0.00146142
652 652 0.015987
654 652 -0.00383828
655 652 -0.189676
659 652 -0.00978969
676 652 -0.0200533
682 652 -0.00392172
1812 652 -0.00281484
1814 652 -0.488339
653 653 0.00988922
654 653 -0.0621975
655 653 -0.0621975
656 653 -0.0621975
658 653 -0.0621975
1812 653 -0.163477
1814 653 -0.0507321
649 654 -0.00248587
650 654 -5.7742e-05
651 654 -0.000352033
652 654 -6.31475e-05
653 654 -0.000615084
654 654 0.0128064
655 654 -0.108149
656 654 -0.00298731
658 654 -0.00298731
659 654 -0.000991781
676 654 -0.00612911
682 654 -0.00590369
1812 654 -0.0569196
1814 654 -0.390588
652 655 -0.00305654
653 655 -0.000615105
654 655 -0.00139464
655 655 0.0176784
656 655 -0.126857
658 655 -0.00239978
659 655 -0.00177085
676 655 -0.00395068
682 655 -0.00114379
1812 655 -0.0965105
1814 655 -0.338613
653 656 -0.000615105
654 656 -3.8258e-05
655 656 -0.00280797
656 656 0.0168271
657 656 -0.0365544
658 656 -0.00268084
659 656 -0.00029776
660 656 -1.14247e-11
663 656 -0.130753
676 656 -0.000673193
682 656 -0.00020429
1812 656 -0.202093
1814 656 -0.0592476
656 657 -0.000615084
657 657 0.00986674
658 657 -0.0625063
659 657 -1.85621e-05
660 657 -0.0623392
663 657 -0.0704902
676 657 -4.19663e-05
682 657 -1.27352e-05
1812 657 -0.176448
1814 657 -0.0545411
653 658 -0.000615084
654 658 -3.8257e-05
655 658 -4.23941e-05
656 658 -4.37489e-05
657 658 -0.000616684
658 658 0.0071493
659 658 -1.92312e-05
660 658 -0.00537727
663 658 -0.00688046
676 658 -6.39642e-05
682 658 -4.07227e-05
1812 658 -0.203468
1814 658 -0.0135299
650 659 -0.00319835
651 659 -1.4873e-05
652 659 -0.000158905
654 659 -1.2726e-05
655 659 -3.15168e-05
656 659 -4.03614e-06
657 659 -1.47538e-07
658 659 -1.33692e-07
659 659 0.0104704
660 659 -9.47083e-07
663 659 -5.1484e-05
676 659 -0.000635555
682 659 -0.000374289
1808 659 -0.139969
1812 659 -0.000538333
1814 659 -0.342509
656 660 -4.62821e-15
657 660 -0.000615084
658 660 -3.84468e-05
659 660 -1.21566e-08
660 660 0.00718788
661 660 -6.4389e-13
662 660 -0.085574
663 660 -0.00606882
676 660 -3.93437e-06
682 660 -1.30824e-06
1808 660 -0.0855726
1812 660 -0.101761
1814 660 -0.00474016
660 661 -1.92245e-13
661 661 0.0197384
662 661 -0.0764651
663 661 -0.140112
676 661 -3.83195e-17
682 661 -1.27418e-17
1808 661 -0.0311629
1812 661 -0.161456
1814 661 -0.0564972
660 662 -0.000615085
661 662 -0.00154782
662 662 0.00831394
663 662 -0.212705
676 662 -2.91074e-07
682 662 -9.67865e-08
1808 662 -0.188406
1812 662 -0.111569
1814 662 -0.189806
656 663 -0.00276558
657 663 -0.000716199
658 663 -5.2181e-05
659 663 -8.37777e-07
660 663 -4.49278e-05
661 663 -0.0022002
662 663 -0.00168969
663 663 0.0161413
676 663 -0.000117485
682 663 -3.5732e-05
1808 663 -0.0623233
1812 663 -0.170588
1814 663 -0.0402161
664 664 0.0158995
675 664 -0.187435
676 664 -0.0573192
679 664 -2.88767e-11
665 665 0.00654144
675 665 -0.196341
676 665 -0.0940289
679 665 -0.0940289
1814 665 -0.0925062
666 666 0.00550089
675 666 -0.111815
676 666 -0.279102
679 666 -0.111815
1814 666 -0.329641
667 667 0.00735091
674 667 -0.24889
681 667 -0.0685647
682 667 -0.169152
1327 667 -3.10655e-11
668 668 0.0105818
669 668 -0.246957
683 668 -0.172207
1323 668 -0.0697932
1327 668 -3.26111e-11
668 669 -0.00327588
669 669 0.023204
674 669 -0.180724
681 669 -0.0520408
682 669 -0.128431
683 669 -0.102403
1323 669 -0.00985323
1327 669 -4.60395e-12
670 670 0.00570562
673 670 -0.249112
675 670 -0.164542
676 670 -0.0667024
1327 670 -3.04137e-11
671 671 0.00501052
672 671 -0.251398
677 671 -0.0661018
1324 671 -0.163053
1327 671 -3.06741e-11
671 672 -0.00158782
672 672 0.0279823
673 672 -0.18619
677 672 -0.0469064
1324 672 -0.144172
1327 672 -1.74056e-12
1809 672 -0.0832944
670 673 -0.00179255
672 673 -0.00419352
673 673 0.0355716
674 673 -0.146466
675 673 -0.11783
676 673 -0.0373095
677 673 -0.0394768
1324 673 -0.100774
1327 673 -1.73782e-12
1809 673 -0.00981954
667 674 -0.0023047
669 674 -0.00521002
673 674 -0.00419352
674 674 0.0357632
675 674 -0.0971453
676 674 -0.03814
677 674 -0.00462897
681 674 -0.0457662
682 674 -0.147027
683 674 -0.0149182
1323 674 -0.00143543
1324 674 -0.0118166
1327 674 -2.87645e-12
1809 674 -0.00115142
596 675 -0.00449067
597 675 -0.000530243
598 675 -1.23165e-05
599 675 -5.47122e-05
600 675 -9.48737e-05
602 675 -6.1622e-05
603 675 -1.81232e-05
604 675 -2.48314e-06
605 675 -9.07696e-08
606 675 -2.39906e-07
607 675 -3.27196e-06
608 675 -6.95165e-09
609 675 -5.9488e-10
610 675 -1.09195e-10
611 675 -3.33065e-07
635 675 -0.00023245
636 675 -0.00108206
640 675 -0.000849605
664 675 -0.00303872
665 675 -0.0013008
666 675 -0.000615084
670 675 -0.000957668
673 675 -0.00423496
674 675 -0.003659
675 675 0.0377803
676 675 -0.116116
677 675 -0.00543951
678 675 5.05734e-23
679 675 -0.0493641
680 675 -4.20692e-16
681 675 -0.00622622
682 675 -0.016524
683 675 -0.00144482
1323 675 -0.000139021
1324 675 -0.0124406
1327 675 -1.24432e-12
1808 675 -1.26901e-05
1809 675 -0.00418718
1812 675 -0.000588234
1814 675 -0.261539
635 676 -0.000232449
636 676 -0.000849603
640 676 -0.000849603
651 676 -0.00479343
652 676 -0.00030395
654 676 -7.22714e-05
655 676 -6.54682e-05
656 676 -8.52098e-06
657 676 -3.11479e-07
658 676 -4.15319e-07
659 676 -6.16163e-06
660 676 -2.16565e-08
661 676 -1.39444e-20
662 676 -1.85323e-09
663 676 -1.1398e-06
664 676 -0.000911318
665 676 -0.000615105
666 676 -0.00154762
670 676 -0.000380566
673 676 -0.00130236
674 676 -0.0013983
675 676 -0.00441213
676 676 0.0386045
677 676 -0.00212114
678 676 -0.00602129
679 676 -0.0984719
680 676 -4.5979e-16
681 676 -0.00412479
682 676 -0.00996621
683 676 -0.000705483
1323 676 -6.7882e-05
1324 676 -0.00524955
1327 676 -0.00985807
1808 676 -2.56878e-05
1809 676 -0.00313751
1812 676 -0.000483131
1814 676 -0.1927
572 677 -0.000911318
573 677 -0.00154762
574 677 -0.000615105
588 677 -0.00358366
600 677 -0.00479343
602 677 -7.22714e-05
603 677 -6.54682e-05
604 677 -8.52098e-06
605 677 -3.11479e-07
606 677 -4.15319e-07
607 677 -6.16163e-06
608 677 -2.16565e-08
609 677 -1.85323e-09
610 677 -3.40176e-10
611 677 -1.1398e-06
671 677 -0.000331193
672 677 -0.00129081
673 677 -0.00144789
674 677 -0.000212066
675 677 -0.000211143
676 677 -8.66252e-05
677 677 0.0352495
678 677 -3.72003e-05
679 677 -0.00161315
680 677 -1.57307e-05
681 677 -0.000322767
682 677 -0.001008
683 677 -0.000100138
684 677 -3.22217e-10
685 677 -1.57933e-06
686 677 -3.13953e-06
1323 677 -9.63527e-06
1324 677 -0.125416
1325 677 -0.00618398
1327 677 -0.00941991
1808 677 -2.66835e-05
1809 677 -0.00349324
1812 677 -0.000460196
1814 677 -0.214883
581 678 -0.002073
582 678 -0.000833426
584 678 -0.0011296
585 678 -0.000235754
586 678 -0.000349514
587 678 -0.00018848
588 678 -4.34434e-06
635 678 -5.38717e-23
636 678 -2.52359e-29
637 678 -5.39354e-23
638 678 -5.412e-23
639 678 -1.16029e-29
640 678 -2.05467e-29
675 678 -8.32411e-24
676 678 -0.000232449
677 678 -1.27168e-06
678 678 0.0145572
679 678 -0.00157569
680 678 -0.0201818
681 678 -0.0160338
682 678 -0.000159228
683 678 -1.12739e-05
684 678 -9.73997e-13
685 678 -0.000391882
686 678 -0.00108824
1323 678 -0.015969
1324 678 -0.000110196
1325 678 -1.86929e-05
1327 678 -0.000158236
1808 678 -4.12513e-07
1809 678 -0.099432
1812 678 -7.75481e-06
1814 678 -0.422837
556 679 -0.00106546
562 679 -0.000275589
563 679 -1.22233e-05
564 679 -1.21461e-05
569 679 -4.37467e-06
570 679 -3.16465e-06
571 679 -0.00120755
588 679 -0.000210004
664 679 -1.02665e-14
665 679 -0.000615084
666 679 -0.000615096
675 679 -0.00102544
676 679 -0.00367716
677 679 -5.10161e-05
678 679 -2.21894e-05
679 679 0.0194373
680 679 -2.47524e-05
681 679 -0.0011318
682 679 -0.00275999
683 679 -0.000218512
684 679 -0.0621256
685 679 -1.6676e-05
686 679 -3.34423e-05
1323 679 -5.0827e-05
1324 679 -0.00253681
1325 679 -0.000673439
1327 679 -0.00188986
1808 679 -5.59964e-06
1809 679 -0.00098004
1812 679 -0.000123649
1814 679 -0.402134
582 680 -0.000833426
584 680 -0.00231823
585 680 -0.00016606
586 680 -7.36536e-06
587 680 -0.000370952
588 680 -3.05825e-06
639 680 -5.8967e-11
640 680 -6.66728e-18
675 680 -5.31803e-19
676 680 -5.93552e-19
677 680 -5.48123e-07
678 680 -0.000291604
679 680 -4.92714e-07
680 680 0.0134696
681 680 -0.000347173
682 680 -3.58947e-06
683 680 -0.063076
684 680 -2.27254e-06
685 680 -0.000551547
686 680 -0.00033797
1323 680 -0.0634214
1324 680 -1.93098e-05
1325 680 -1.44916e-05
1327 680 -3.87813e-06
1808 680 -1.02212e-08
1809 680 -0.109559
1812 680 -1.91135e-07
1814 680 -0.427344
519 681 -0.000911318
520 681 -0.00154762
521 681 -0.000615105
551 681 -0.00358366
566 681 -0.000232449
567 681 -0.000652114
568 681 -0.000652114
569 681 -0.000232449
570 681 -4.93633e-06
622 681 -0.00479343
623 681 -0.000625941
625 681 -5.7652e-05
626 681 -7.67811e-05
627 681 -8.52098e-06
628 681 -3.11479e-07
629 681 -4.15319e-07
630 681 -6.16163e-06
631 681 -2.16565e-08
632 681 -1.39444e-20
633 681 -1.85323e-09
634 681 -1.1398e-06
637 681 -0.000232449
639 681 -0.000849603
640 681 -0.000849603
667 681 -0.000503997
669 681 -0.00120755
674 681 -0.00155123
675 681 -0.000218461
676 681 -0.000152297
677 681 -8.69195e-06
678 681 -0.000233366
679 681 -2.62371e-05
680 681 -4.71065e-06
681 681 0.0413241
682 681 -0.117787
683 681 -0.00784796
684 681 -0.0053151
685 681 -6.2014e-06
686 681 -1.55307e-05
1323 681 -0.00356524
1324 681 -0.000557299
1325 681 -1.8355e-06
1326 681 -5.5926e-05
1327 681 -0.0122366
1808 681 -2.28156e-05
1809 681 -0.00283104
1812 681 -0.00039364
1814 681 -0.189257
519 682 -0.00303872
520 682 -0.000615084
521 682 -0.0013008
551 682 -0.00186499
566 682 -0.00023245
567 682 -0.000884564
568 682 -0.000652114
569 682 1.81341e-24
570 682 -7.04071e-11
637 682 -0.00023245
639 682 -0.000849603
640 682 -0.00108206
648 682 -0.00449067
649 682 -0.000530243
650 682 -1.23165e-05
651 682 -8.99011e-05
652 682 -6.04128e-05
654 682 -6.1622e-05
655 682 -1.81232e-05
656 682 -2.48314e-06
657 682 -9.07696e-08
658 682 -2.39906e-07
659 682 -3.27196e-06
660 682 -6.95165e-09
661 682 -4.4761e-21
662 682 -5.9488e-10
663 682 -3.33065e-07
667 682 -0.00126827
669 682 -0.00303872
674 682 -0.00517183
675 682 -0.000588727
676 682 -0.000373308
677 682 -2.79345e-05
678 682 -2.24884e-06
679 682 -6.5871e-05
680 682 -4.75677e-08
681 682 -0.00499531
682 682 0.0393349
683 682 -0.0148544
684 682 -0.0036634
685 682 -1.67266e-06
686 682 -3.64578e-06
1323 682 -0.00450005
1324 682 -0.00195378
1325 682 -5.75362e-06
1326 682 -3.76789e-05
1327 682 -0.0016574
1808 682 -1.55481e-05
1809 682 -0.00285766
1812 682 -0.0006289
1814 682 -0.29812
529 683 -0.00303872
530 683 -0.000615084
531 683 -0.0013008
533 683 -0.00186499
547 683 -0.000232449
548 683 -0.000674731
549 683 1.67062e-24
550 683 -0.000442281
551 683 -1.99168e-05
565 683 -0.000232449
568 683 -0.000884565
569 683 1.71627e-24
570 683 -0.000652113
619 683 -0.00449067
620 683 -4.60041e-05
621 683 -2.13949e-06
622 683 -1.88491e-05
623 683 -0.000533706
625 683 -1.14589e-05
626 683 -6.25183e-05
627 683 -2.48314e-06
628 683 -9.07696e-08
629 683 -2.39906e-07
630 683 -3.27196e-06
631 683 -6.95164e-09
632 683 -4.4761e-21
633 683 -5.9488e-10
634 683 -3.33064e-07
638 683 -0.000232449
639 683 -0.00108205
640 683 -1.22346e-10
668 683 -0.00185842
669 683 -0.00231737
674 683 -0.000418806
675 683 -4.06851e-05
676 683 -2.06975e-05
677 683 -2.20385e-06
678 683 -1.24707e-07
679 683 -4.21565e-06
680 683 -0.000849604
681 683 -0.000320215
682 683 -0.000553435
683 683 0.0373792
684 683 -0.000139246
685 683 -4.0755e-05
686 683 -2.70029e-05
1323 683 -0.126672
1324 683 -0.000190665
1325 683 -8.70913e-07
1326 683 -0.00303633
1327 683 -0.000135682
1808 683 -1.32824e-05
1809 683 -0.0072449
1812 683 -0.000608183
1814 683 -0.311696
532 684 -3.15346e-12
533 684 -5.49565e-13
551 684 -0.00120755
571 684 -1.52624e-11
588 684 -2.65426e-12
677 684 -4.75717e-13
678 684 -6.02591e-16
679 684 -0.00120755
680 684 -2.98898e-08
681 684 -0.000217823
682 684 -9.13721e-05
683 684 -4.00276e-06
684 684 0.00844101
685 684 -5.09842e-06
686 684 -9.92305e-06
1323 684 -0.000481835
1324 684 -0.000398531
1325 684 -9.64508e-05
1326 684 -9.55485e-05
1327 684 -0.000604134
1808 684 -1.56444e-06
1809 684 -0.085428
1812 684 -3.49431e-05
1814 684 -0.252394
523 685 -0.00120753
524 685 -0.000267619
525 685 -0.00093805
526 685 -6.32061e-05
527 685 -0.000196196
528 685 -3.13022e-05
533 685 -3.2329e-06
538 685 -0.00120753
539 685 -0.000267619
540 685 -0.00093805
541 685 -6.32061e-05
545 685 -0.000227635
546 685 -1.74475e-05
549 685 -4.87098e-06
550 685 -6.51004e-06
551 685 -3.22352e-07
553 685 -0.00120753
554 685 -0.000267619
555 685 -0.00093805
563 685 -6.32061e-05
564 685 -0.000227803
569 685 -4.87098e-06
570 685 -6.48801e-06
576 685 -0.00120753
577 685 -0.00093805
578 685 -0.000267619
586 685 -6.32061e-05
587 685 -0.000227803
588 685 -2.84069e-07
677 685 -5.0913e-08
678 685 -4.87104e-06
679 685 -2.98006e-07
680 685 -6.48293e-06
681 685 -2.2289e-07
682 685 -4.45791e-08
683 685 -1.22028e-06
684 685 -3.96568e-08
685 685 0.023383
686 685 -0.190557
1323 685 -8.78403e-05
1324 685 -9.80888e-07
1325 685 -7.69151e-07
1326 685 -8.57815e-06
1327 685 -2.0654e-07
1808 685 -1.16117e-09
1809 685 -0.000141042
1812 685 -4.09957e-08
1814 685 -0.606567
523 686 -0.00245544
524 686 -0.00194766
525 686 -0.000503997
526 686 -0.000459998
527 686 -0.000161276
528 686 -2.57309e-05
533 686 -2.6575e-06
538 686 -0.00245544
539 686 -0.00194766
540 686 -0.000503997
541 686 -0.000459998
545 686 -0.000122304
546 686 -3.50885e-05
549 686 -1.3942e-05
550 686 -4.07605e-06
551 686 -6.06119e-07
553 686 -0.00245544
554 686 -0.00194766
555 686 -0.000503997
563 686 -0.000459998
564 686 -0.000123528
569 686 -1.3942e-05
570 686 -4.013e-06
576 686 -0.00245544
577 686 -0.000503997
578 686 -0.00194766
586 686 -0.000459998
587 686 -0.000123528
588 686 -5.71287e-07
677 686 -1.02391e-07
678 686 -1.39421e-05
679 686 -6.0486e-07
680 686 -3.99841e-06
681 686 -5.70135e-07
682 686 -1.02474e-07
683 686 -7.9527e-07
684 686 -7.79761e-08
685 686 -0.00450366
686 686 0.0369656
1323 686 -6.42291e-05
1324 686 -1.36929e-06
1325 686 -1.07079e-06
1326 686 -5.49519e-06
1327 686 -3.39797e-07
1328 686 -0.075674
1808 686 -1.14775e-09
1809 686 -0.000151578
1812 686 -3.22108e-08
1814 686 -0.469332
687 687 0.0158988
691 687 -0.0573219
716 687 -0.187442
1320 687 -2.88221e-11
688 688 0.00654116
691 688 -0.0940328
716 688 -0.196348
1320 688 -0.0940328
1814 688 -0.0925105
689 689 0.00504989
691 689 -0.30303
716 689 -0.121802
1320 689 -0.121802
1814 689 -0.270773
690 690 0.002045
691 690 -0.161959
692 690 -9.44467e-07
716 690 -0.161957
1319 690 9.65258e-21
687 691 -0.000911318
688 691 -0.000615115
689 691 -0.00154762
690 691 -0.000331193
691 691 0.0357954
692 691 -0.0337349
716 691 -0.109321
1318 691 -0.0337349
1319 691 -0.00925242
1320 691 -0.100549
1322 691 -0.133297
1814 691 -0.1169
690 692 -1.79993e-09
691 692 -0.00120755
692 692 0.0146251
716 692 -0.114238
1318 692 -0.00278909
1319 692 -0.000763944
1320 692 -0.00830201
1322 692 -0.0110059
1809 692 -0.159368
1814 692 -0.00965207
693 693 0.00635995
697 693 -0.209574
1812 693 -0.232494
694 694 0.010974
697 694 -0.121458
1812 694 -0.231393
695 695 0.00503496
697 695 5.29112e-12
1812 695 -0.297834
1814 695 -0.702166
696 696 0.00927248
697 696 2.89114e-12
1812 696 -0.303498
1814 696 -0.696502
693 697 -0.0010599
694 697 -0.0010599
695 697 -2.13465e-16
696 697 -2.14784e-16
697 697 0.0166473
699 697 -0.2014
1812 697 -0.19947
1814 697 -0.257611
698 698 0.0151289
699 698 -0.195093
700 698 -0.10266
701 698 -0.0406563
704 698 -0.0620039
1814 698 -0.0887757
697 699 -0.00331448
698 699 -0.00299598
699 699 0.0258403
700 699 -0.108104
701 699 -0.064819
703 699 -0.0284774
704 699 -0.160089
1812 699 -0.0255856
1814 699 -0.313865
698 700 -0.00155318
699 700 -0.00275866
700 700 0.0230628
701 700 -0.0104913
703 700 -0.00340632
704 700 -0.118723
716 700 -0.196009
1812 700 -0.00306042
1814 700 -0.272772
698 701 -0.000615084
699 701 -0.00167317
700 701 -0.000244021
701 701 0.0152805
702 701 -0.0490678
703 701 -0.0924934
704 701 -0.0219212
706 701 -0.197523
716 701 -0.00313016
1812 701 -0.00285043
1814 701 -0.407829
701 702 -0.000749778
702 702 0.015312
703 702 -0.00452909
704 702 -0.0339896
706 702 -0.00967204
711 702 -0.205783
716 702 -0.000153274
1812 702 -0.000139576
1814 702 -0.14046
699 703 0.000102191
700 703 1.10472e-05
701 703 -0.00135817
702 703 -6.66427e-05
703 703 0.0224598
704 703 -0.130705
706 703 -0.0119732
711 703 -0.000610599
716 703 -9.33294e-05
1126 703 -0.216582
1812 703 -5.48649e-05
1814 703 -0.369731
698 704 -0.00093805
699 704 -0.00413377
700 704 -0.0033087
701 704 -0.000340797
702 704 -0.000520719
703 704 -0.00310832
704 704 0.0212416
706 704 -0.00515818
707 704 -0.115606
711 704 -0.00513393
716 704 -0.030599
1126 704 -0.0316927
1812 704 -0.00551302
1814 704 -0.276678
705 705 0.00988922
706 705 -0.0621975
707 705 -0.0621975
708 705 -0.0621975
710 705 -0.0621975
1812 705 -0.163477
1814 705 -0.0507321
701 706 -0.00305654
702 706 -0.000149978
703 706 -0.000283389
704 706 -0.000109141
705 706 -0.000615105
706 706 0.0177998
707 706 -0.0784012
708 706 -0.125757
710 706 -0.00214935
711 706 -0.00177509
716 706 -0.000727901
1126 706 -0.0036425
1812 706 -0.0914343
1814 706 -0.300641
704 707 -0.00248586
705 707 -0.000615084
706 707 -0.00138231
707 707 0.0123296
708 707 -0.0172019
710 707 -0.00334381
711 707 -0.0012341
716 707 -0.00625091
1126 707 -0.0067982
1812 707 -0.0694048
1814 707 -0.408936
705 708 -0.000615105
706 708 -0.00280384
707 708 -0.000258082
708 708 0.0168264
709 708 -0.0365559
710 708 -0.00268313
711 708 -0.000314717
712 708 -1.1425e-11
715 708 -0.130759
716 708 -0.000217168
1126 708 -0.000711232
1812 708 -0.202167
1814 708 -0.0582236
708 709 -0.000615084
709 709 0.00986674
710 709 -0.0625065
711 709 -1.96192e-05
712 709 -0.0623392
715 709 -0.0704906
716 709 -1.35381e-05
1126 709 -4.43376e-05
1812 709 -0.176453
1814 709 -0.0544773
705 710 -0.000615084
706 710 -3.82567e-05
707 710 -4.12563e-05
708 710 -4.37774e-05
709 710 -0.000616685
710 710 0.00714929
711 710 -2.02398e-05
712 710 -0.00537728
715 710 -0.00688106
716 710 -4.24647e-05
1126 710 -6.69013e-05
1812 710 -0.203483
1814 710 -0.0133889
702 711 -0.00319835
703 711 -1.44856e-05
704 711 -0.000110604
706 711 -3.16785e-05
707 711 -1.52701e-05
708 711 -4.24648e-06
709 711 -1.55234e-07
710 711 -1.40245e-07
711 711 0.0101022
712 711 -1.03258e-06
715 711 -5.61433e-05
716 711 -0.000395496
1126 711 -0.000679545
1808 711 -0.14472
1812 711 -0.000586775
1814 711 -0.318418
708 712 -4.6281e-15
709 712 -0.000615084
710 712 -3.84469e-05
711 712 -1.28456e-08
712 712 0.00718788
713 712 -0.085574
714 712 -6.43887e-13
715 712 -0.00606885
716 712 -1.38633e-06
1126 712 -4.15314e-06
1808 712 -0.0855727
1812 712 -0.101762
1814 712 -0.00473394
712 713 -0.000615085
713 713 0.00806421
714 713 -0.191937
715 713 -0.1924
716 713 -1.0574e-07
1126 713 -3.16774e-07
1808 713 -0.18782
1812 713 -0.0840351
1814 713 -0.139634
712 714 -1.92245e-13
713 714 -0.0015093
714 714 0.0194487
715 714 -0.15713
716 714 -8.20589e-09
1126 714 -2.4583e-08
1808 714 -0.0462027
1812 714 -0.170382
1814 714 -0.0681749
708 715 -0.00276558
709 715 -0.000716203
710 715 -5.21877e-05
711 715 -8.85483e-07
712 715 -4.49282e-05
713 715 -0.00152145
714 715 -0.00249222
715 715 0.0161246
716 715 -3.80227e-05
1126 715 -0.000124254
1808 715 -0.0632563
1812 715 -0.171319
1814 715 -0.0361921
687 716 -0.00303871
688 716 -0.00130079
689 716 -0.000615096
690 716 -0.000331196
691 716 -0.00389166
692 716 -0.0016696
700 716 -0.00449019
701 716 -4.71081e-05
702 716 -2.31149e-06
703 716 -1.96627e-05
704 716 -0.000536768
706 716 -1.23314e-05
707 716 -6.30202e-05
708 716 -2.63484e-06
709 716 -9.63189e-08
710 716 -2.50322e-07
711 716 -3.3439e-06
712 716 -7.35395e-09
713 716 -6.29307e-10
714 716 -1.20787e-10
715 716 -3.53412e-07
716 716 0.0323156
1126 716 -0.000672981
1318 716 -0.0416368
1319 716 -0.00115371
1320 716 -0.0445061
1322 716 -0.0166212
1808 716 -1.56902e-05
1809 716 -0.00823383
1812 716 -0.000711797
1814 716 -0.370089
717 717 0.00622075
719 717 -0.230912
1319 717 -0.116097
1321 717 -0.116635
718 718 0.0129851
719 718 4.85085e-12
1319 718 -0.0819675
1321 718 -0.0819672
1789 718 -0.143634
1814 718 -0.692432
717 719 -0.00114109
718 719 -5.20239e-16
719 719 0.0195879
1319 719 -0.116444
1321 719 -0.216978
1789 719 -0.0370398
1814 719 -0.209872
720 720 0.010974
724 720 -0.121458
1812 720 -0.231393
721 721 0.00635995
724 721 -0.209574
1812 721 -0.232494
722 722 0.00503496
724 722 5.29112e-12
1812 722 -0.297834
1814 722 -0.702166
723 723 0.00927248
724 723 2.89114e-12
1812 723 -0.303498
1814 723 -0.696502
720 724 -0.0010599
721 724 -0.0010599
722 724 -2.13465e-16
723 724 -2.14784e-16
724 724 0.0166473
726 724 -0.2014
1812 724 -0.19947
1814 724 -0.257611
725 725 0.0151289
726 725 -0.195093
727 725 -0.10266
730 725 -0.0406563
731 725 -0.0620039
1814 725 -0.0887756
724 726 -0.00332858
725 726 -0.00299598
726 726 0.0266754
727 726 -0.104719
728 726 -0.0275853
730 726 -0.0627896
731 726 -0.155076
1812 726 -0.0248899
1814 726 -0.335062
725 727 -0.00155318
726 727 -0.00275867
727 727 0.0230724
728 727 -0.00329826
730 727 -0.0102444
731 727 -0.118077
774 727 -0.195937
1812 727 -0.00297599
1814 727 -0.275185
726 728 0.000102189
727 728 1.07012e-05
728 728 0.0225856
729 728 9.60463e-13
730 728 -0.0601434
731 728 -0.128584
774 728 9.28361e-05
1125 728 -0.215375
1812 728 0.000114025
1814 728 -0.342639
728 729 -2.39915e-13
729 729 0.0153488
730 729 -0.0488493
731 729 -0.0328373
738 729 -0.20529
774 729 1.45111e-15
1125 729 -3.3665e-12
1812 729 1.78231e-15
1814 729 -0.120201
725 730 -0.000615084
726 730 -0.00167317
727 730 -0.000238358
728 730 -0.0014118
729 730 -0.000749778
730 730 0.0160005
731 730 -0.0332432
733 730 -0.189516
738 730 -0.00961984
774 730 -0.00291066
1125 730 -0.0190037
1812 730 -0.00263701
1814 730 -0.478993
725 731 -0.00093805
726 731 -0.00413376
727 731 -0.00329476
728 731 -0.00307035
729 731 -0.000503997
730 731 -0.000540729
731 731 0.0212684
733 731 -0.00481826
734 731 -0.115461
738 731 -0.00510933
774 731 -0.0304139
1125 731 -0.0315752
1812 731 -0.00534925
1814 731 -0.281126
732 732 0.00988922
733 732 -0.0621975
734 732 -0.0621975
735 732 -0.0621975
737 732 -0.0621975
1812 732 -0.163477
1814 732 -0.0507321
730 733 -0.00305654
731 733 -0.000101609
732 733 -0.000615105
733 733 0.0178292
734 733 -0.0782223
735 733 -0.12555
737 733 -0.0021458
738 733 -0.00167829
774 733 -0.000672318
1125 733 -0.00343783
1812 733 -0.0912417
1814 733 -0.305196
731 734 -0.00248587
732 734 -0.000615084
733 734 -0.001385
734 734 0.012698
735 734 -0.0167068
737 734 -0.00324685
738 734 -0.0011833
774 734 -0.00602739
1125 734 -0.00655638
1812 734 -0.0673571
1814 734 -0.427209
732 735 -0.000615105
733 735 -0.00280384
734 735 -0.00025758
735 735 0.0168271
736 735 -0.0365544
737 735 -0.00268084
738 735 -0.00029776
739 735 -1.14247e-11
742 735 -0.130753
774 735 -0.00020429
1125 735 -0.000673193
1812 735 -0.202093
1814 735 -0.0592476
735 736 -0.000615084
736 736 0.00986674
737 736 -0.0625063
738 736 -1.85621e-05
739 736 -0.0623392
742 736 -0.0704902
774 736 -1.27353e-05
1125 736 -4.19663e-05
1812 736 -0.176448
1814 736 -0.0545411
732 737 -0.000615084
733 737 -3.82567e-05
734 737 -4.12495e-05
735 737 -4.37489e-05
736 737 -0.000616684
737 737 0.00714929
738 737 -1.92312e-05
739 737 -0.00537727
742 737 -0.00688046
774 737 -4.07227e-05
1125 737 -6.39642e-05
1812 737 -0.203468
1814 737 -0.0135299
729 738 -0.00319835
730 738 -0.000156237
731 738 -0.000110219
733 738 -3.01405e-05
734 738 -1.50836e-05
735 738 -4.03614e-06
736 738 -1.47538e-07
737 738 -1.33692e-07
738 738 0.0104704
739 738 -9.47082e-07
742 738 -5.1484e-05
774 738 -0.000374289
1125 738 -0.000635555
1808 738 -0.139969
1812 738 -0.000538333
1814 738 -0.342509
735 739 -4.62821e-15
736 739 -0.000615084
737 739 -3.84468e-05
738 739 -1.21566e-08
739 739 0.00718788
740 739 -6.4389e-13
741 739 -0.085574
742 739 -0.00606882
774 739 -1.30824e-06
1125 739 -3.93437e-06
1808 739 -0.0855726
1812 739 -0.101761
1814 739 -0.00474016
739 740 -1.92245e-13
740 740 0.0197384
741 740 -0.0764651
742 740 -0.140112
774 740 -1.27418e-17
1125 740 -3.83195e-17
1808 740 -0.0311629
1812 740 -0.161456
1814 740 -0.0564972
739 741 -0.000615085
740 741 -0.00154782
741 741 0.00831394
742 741 -0.212705
774 741 -9.67866e-08
1125 741 -2.91074e-07
1808 741 -0.188406
1812 741 -0.111569
1814 741 -0.189806
735 742 -0.00276558
736 742 -0.000716199
737 742 -5.2181e-05
738 742 -8.37777e-07
739 742 -4.49278e-05
740 742 -0.0022002
741 742 -0.00168969
742 742 0.0161413
774 742 -3.5732e-05
1125 742 -0.000117485
1808 742 -0.0623233
1812 742 -0.170588
1814 742 -0.0402161
743 743 0.010974
747 743 -0.121458
1812 743 -0.231393
744 744 0.00635995
747 744 -0.209574
1812 744 -0.232494
745 745 0.00503496
747 745 5.29112e-12
1812 745 -0.297834
1814 745 -0.702166
746 746 0.00927248
747 746 2.89114e-12
1812 746 -0.303498
1814 746 -0.696502
743 747 -0.0010599
744 747 -0.0010599
745 747 -2.13464e-16
746 747 -2.14784e-16
747 747 0.0166473
749 747 -0.2014
1812 747 -0.19947
1814 747 -0.257611
748 748 0.0151289
749 748 -0.195093
750 748 -0.10266
753 748 -0.0406563
754 748 -0.0620039
1814 748 -0.0887756
747 749 -0.00332858
748 749 -0.00299598
749 749 0.0266754
750 749 -0.104719
751 749 -0.0275853
753 749 -0.0627896
754 749 -0.155076
1812 749 -0.0248899
1814 749 -0.335062
748 750 -0.00155318
749 750 -0.00275867
750 750 0.0230724
751 750 -0.00329826
753 750 -0.0102444
754 750 -0.118077
911 750 -0.195937
1812 750 -0.00297599
1814 750 -0.275185
749 751 0.000102189
750 751 1.07012e-05
751 751 0.0225856
752 751 9.60468e-13
753 751 -0.0601434
754 751 -0.128584
773 751 -0.215375
911 751 9.28361e-05
1812 751 0.000114025
1814 751 -0.342639
751 752 -2.39915e-13
752 752 0.0153488
753 752 -0.0488493
754 752 -0.0328373
761 752 -0.20529
773 752 -3.3665e-12
911 752 1.45111e-15
1812 752 1.78231e-15
1814 752 -0.120201
748 753 -0.000615084
749 753 -0.00167317
750 753 -0.000238358
751 753 -0.0014118
752 753 -0.000749778
753 753 0.0160005
754 753 -0.0332432
755 753 -0.189516
761 753 -0.00961984
773 753 -0.0190037
911 753 -0.00291066
1812 753 -0.00263701
1814 753 -0.478993
748 754 -0.00093805
749 754 -0.00413376
750 754 -0.00329476
751 754 -0.00307035
752 754 -0.000503997
753 754 -0.000540729
754 754 0.0212684
755 754 -0.00481826
757 754 -0.115461
761 754 -0.00510933
773 754 -0.0315752
911 754 -0.0304139
1812 754 -0.00534925
1814 754 -0.281126
753 755 -0.00305654
754 755 -0.000101609
755 755 0.0178675
756 755 -0.034426
757 755 -0.0759136
758 755 -0.12314
760 755 -1.07595e-11
761 755 -0.0016747
773 755 -0.00343047
911 755 -0.000670878
1812 755 -0.0854184
1814 755 -0.302796
755 756 -0.000615084
756 756 0.00986805
757 756 -0.0670627
758 756 -0.0700063
760 756 -0.0623309
761 756 -0.000104385
773 756 -0.000213824
911 756 -4.18164e-05
1812 756 -0.169152
1814 756 -0.0697145
754 757 -0.00248587
755 757 -0.00134674
756 757 -0.000661447
757 757 0.012698
758 757 -0.0167068
760 757 -0.00324685
761 757 -0.0011833
773 757 -0.00655638
911 757 -0.00602739
1812 757 -0.0673571
1814 757 -0.427209
755 758 -0.00276558
756 758 -0.000710313
757 758 -0.00025758
758 758 0.0168271
759 758 -0.0365544
760 758 -0.00268084
761 758 -0.00029776
762 758 -1.14247e-11
765 758 -0.130753
773 758 -0.000673193
911 758 -0.00020429
1812 758 -0.202093
1814 758 -0.0592476
758 759 -0.000615084
759 759 0.00986674
760 759 -0.0625063
761 759 -1.85621e-05
762 759 -0.0623392
765 759 -0.0704902
773 759 -4.19663e-05
911 759 -1.27352e-05
1812 759 -0.176448
1814 759 -0.0545411
755 760 -4.62821e-15
756 760 -0.000615084
757 760 -4.12495e-05
758 760 -4.37489e-05
759 760 -0.000616684
760 760 0.00714929
761 760 -1.92312e-05
762 760 -0.00537727
765 760 -0.00688046
773 760 -6.39641e-05
911 760 -4.07227e-05
1812 760 -0.203468
1814 760 -0.0135299
752 761 -0.00319835
753 761 -0.000156237
754 761 -0.000110219
755 761 -3.01405e-05
756 761 -1.03762e-06
757 761 -1.50836e-05
758 761 -4.03614e-06
759 761 -1.47538e-07
760 761 -1.33692e-07
761 761 0.0104704
762 761 -9.47082e-07
765 761 -5.1484e-05
773 761 -0.000635555
911 761 -0.000374289
1808 761 -0.139969
1812 761 -0.000538333
1814 761 -0.342509
758 762 -4.62821e-15
759 762 -0.000615084
760 762 -3.84468e-05
761 762 -1.21566e-08
762 762 0.00718788
763 762 -0.085574
764 762 -6.4389e-13
765 762 -0.00606882
773 762 -3.93437e-06
911 762 -1.30824e-06
1808 762 -0.0855726
1812 762 -0.101761
1814 762 -0.00474016
762 763 -0.000615085
763 763 0.0084323
764 763 -0.183558
765 763 -0.184001
773 763 -2.86988e-07
911 763 -9.5428e-08
1808 763 -0.180042
1812 763 -0.0803667
1814 763 -0.176771
762 764 -1.92246e-13
763 764 -0.0015093
764 764 0.0194613
765 764 -0.156376
773 764 -2.2257e-08
911 764 -7.4008e-09
1808 764 -0.0455694
1812 764 -0.169987
1814 764 -0.0710107
758 765 -0.00276558
759 765 -0.000716199
760 765 -5.2181e-05
761 765 -8.37776e-07
762 765 -4.49278e-05
763 765 -0.00152145
764 765 -0.00247947
765 765 0.0161413
773 765 -0.000117485
911 765 -3.5732e-05
1808 765 -0.0623233
1812 765 -0.170588
1814 765 -0.0402161
766 766 0.0158995
773 766 -0.0573192
774 766 -0.187435
910 766 -2.88767e-11
767 767 0.00654144
773 767 -0.0940289
774 767 -0.196341
910 767 -0.0940289
1814 767 -0.0925062
768 768 0.00550089
773 768 -0.279102
774 768 -0.111815
910 768 -0.111815
1814 768 -0.329641
769 769 0.00533441
772 769 -0.336036
911 769 -0.175112
912 769 -0.0713441
1123 769 -3.25301e-11
770 770 0.00468233
771 770 -0.339109
773 770 -0.070735
774 770 -0.173637
1123 770 -3.28241e-11
770 771 -0.00125963
771 771 0.0282825
772 771 -0.184213
773 771 -0.0458478
774 771 -0.141361
1123 771 -1.4619e-12
1809 771 -0.0824103
769 772 -0.00142134
771 772 -0.00419352
772 772 0.0359201
773 772 -0.0389703
774 772 -0.0994682
911 772 -0.115536
912 772 -0.0364419
913 772 -0.145045
1123 772 -1.45787e-12
1809 772 -0.00962107
751 773 -0.00479343
752 773 4.60393e-15
753 773 -0.000288293
754 773 -0.000625941
755 773 -5.76521e-05
756 773 -1.98473e-06
757 773 -7.67811e-05
758 773 -8.52098e-06
759 773 -3.11479e-07
760 773 -4.15319e-07
761 773 -6.16163e-06
762 773 -2.16565e-08
763 773 -1.85323e-09
764 773 -3.40176e-10
765 773 -1.1398e-06
766 773 -0.000911318
767 773 -0.000615105
768 773 -0.00154762
770 773 -0.000331193
771 773 -0.00131986
772 773 -0.00145069
773 773 0.0358933
774 773 -0.11792
910 773 -0.0998421
911 773 -0.00522502
912 773 -0.00147286
913 773 -0.00586224
1123 773 -0.00922718
1808 773 -2.60683e-05
1809 773 -0.00341923
1812 773 -0.000447317
1814 773 -0.175106
727 774 -0.00449067
728 774 -1.48114e-05
729 774 1.42258e-17
730 774 -4.68949e-05
731 774 -0.000533706
733 774 -1.14589e-05
734 774 -6.25183e-05
735 774 -2.48314e-06
736 774 -9.07696e-08
737 774 -2.39906e-07
738 774 -3.27196e-06
739 774 -6.95164e-09
740 774 -4.4761e-21
741 774 -5.9488e-10
742 774 -3.33064e-07
766 774 -0.00303872
767 774 -0.0013008
768 774 -0.000615084
770 774 -0.000833426
771 774 -0.00415477
772 774 -0.00380409
773 774 -0.00420705
774 774 0.0345449
910 774 -0.0661466
911 774 -0.0133591
912 774 -0.00419236
913 774 -0.0166863
1123 774 -0.00112373
1125 774 -0.000619082
1808 774 -1.70534e-05
1809 774 -0.0113875
1812 774 -0.000697803
1814 774 -0.307359
775 775 0.00991921
777 775 -0.330256
907 775 -0.182678
1123 775 -3.47903e-11
1126 775 -0.0744555
776 776 0.00735091
908 776 -0.169152
909 776 -0.0685647
913 776 -0.24889
1123 776 -3.10655e-11
775 777 -0.00261326
777 777 0.022796
907 777 -0.100879
908 777 -0.12995
909 777 -0.0529738
913 777 -0.228549
1123 777 -3.98823e-12
1126 777 -0.00853531
778 778 0.010974
782 778 -0.121458
1812 778 -0.231393
779 779 0.00635995
782 779 -0.209574
1812 779 -0.232494
780 780 0.00927248
782 780 2.89114e-12
1812 780 -0.303498
1814 780 -0.696502
781 781 0.00503496
782 781 5.29112e-12
1812 781 -0.297834
1814 781 -0.702166
778 782 -0.0010599
779 782 -0.0010599
780 782 -2.14784e-16
781 782 -2.13465e-16
782 782 0.0166473
784 782 -0.2014
1812 782 -0.19947
1814 782 -0.257611
783 783 0.0151289
784 783 -0.195093
785 783 -0.10266
786 783 -0.0620039
788 783 -0.0406563
1814 783 -0.0887756
782 784 -0.00332858
783 784 -0.00299598
784 784 0.0266754
785 784 -0.104719
786 784 -0.155076
788 784 -0.0627896
789 784 -0.0275853
1812 784 -0.0248899
1814 784 -0.335062
783 785 -0.00155318
784 785 -0.00275867
785 785 0.0230724
786 785 -0.118077
788 785 -0.0102444
789 785 -0.00329826
907 785 -0.195937
1812 785 -0.00297599
1814 785 -0.275185
783 786 -0.00093805
784 786 -0.00413376
785 786 -0.00329476
786 786 0.0216977
787 786 -0.0232281
788 786 -0.0152757
789 786 -0.141506
791 786 -0.113176
907 786 -0.0297527
1812 786 -0.00519383
1814 786 -0.212349
786 787 -0.000504014
787 787 0.0153371
788 787 -0.0493886
789 787 -0.00465021
791 787 -0.00371923
796 787 -0.205447
907 787 -0.000977745
1812 787 -0.000170681
1814 787 -0.127271
783 788 -0.000615084
784 788 -0.00167317
785 788 -0.000238358
786 788 -0.000325751
787 788 -0.000757345
788 788 0.0160796
789 788 -0.0908865
791 788 -0.00246796
792 788 -0.188583
796 788 -0.00967647
907 788 -0.00355329
1812 788 -0.0027473
1814 788 -0.451243
784 789 0.000102189
785 789 1.07012e-05
786 789 -0.00290414
787 789 -6.74578e-05
788 789 -0.00140607
789 789 0.0220466
791 789 -0.0150772
792 789 -0.0120273
796 789 -0.00124576
907 789 -0.00405376
909 789 -0.220641
1812 789 -0.000743095
1814 789 -0.408157
790 790 0.00988922
791 790 -0.0621975
792 790 -0.0621975
793 790 -0.0621975
795 790 -0.0621975
1812 790 -0.163477
1814 790 -0.0507321
786 791 -0.00248587
787 791 -5.7742e-05
788 791 -4.08252e-05
789 791 -0.000355744
790 791 -0.000615084
791 791 0.0128064
792 791 -0.108149
793 791 -0.00298731
795 791 -0.00298731
796 791 -0.000991781
907 791 -0.00590369
909 791 -0.00612911
1812 791 -0.0569196
1814 791 -0.390588
788 792 -0.00305654
789 792 -0.000277798
790 792 -0.000615105
791 792 -0.00139464
792 792 0.0176784
793 792 -0.126857
795 792 -0.00239978
796 792 -0.00177085
907 792 -0.00114379
909 792 -0.00395068
1812 792 -0.0965105
1814 792 -0.338613
790 793 -0.000615105
791 793 -3.8258e-05
792 793 -0.00280797
793 793 0.0168271
794 793 -0.0365544
795 793 -0.00268084
796 793 -0.00029776
797 793 -0.130753
800 793 -1.14247e-11
907 793 -0.00020429
909 793 -0.000673193
1812 793 -0.202093
1814 793 -0.0592476
793 794 -0.000615084
794 794 0.00986674
795 794 -0.0625063
796 794 -1.85621e-05
797 794 -0.0704902
800 794 -0.0623392
907 794 -1.27352e-05
909 794 -4.19663e-05
1812 794 -0.176448
1814 794 -0.0545411
790 795 -0.000615084
791 795 -3.8257e-05
792 795 -4.23941e-05
793 795 -4.37489e-05
794 795 -0.000616684
795 795 0.0071493
796 795 -1.92312e-05
797 795 -0.00688046
800 795 -0.00537727
907 795 -4.07227e-05
909 795 -6.39642e-05
1812 795 -0.203468
1814 795 -0.0135299
787 796 -0.00319835
788 796 -0.000157962
789 796 -2.92296e-05
791 796 -1.2726e-05
792 796 -3.15168e-05
793 796 -4.03614e-06
794 796 -1.47538e-07
795 796 -1.33692e-07
796 796 0.0104704
797 796 -5.1484e-05
800 796 -9.47083e-07
907 796 -0.000374289
909 796 -0.000635555
1808 796 -0.139969
1812 796 -0.000538333
1814 796 -0.342509
793 797 -0.00276558
794 797 -0.000716199
795 797 -5.2181e-05
796 797 -8.37777e-07
797 797 0.0168093
798 797 -0.0902841
799 797 -0.130892
800 797 -0.0026728
907 797 -3.42989e-05
909 797 -0.000112777
1808 797 -0.0366002
1812 797 -0.131189
1814 797 -0.0121308
797 798 -0.00154782
798 798 0.00834519
799 798 -0.209752
800 798 -0.0742011
907 798 -6.36156e-06
909 798 -2.09172e-05
1808 798 -0.182402
1812 798 -0.0980375
1814 798 -0.180517
797 799 -0.00276558
798 799 -0.00175899
799 799 0.0190074
800 799 -0.00725561
907 799 -5.57919e-06
909 799 -1.83447e-05
1808 799 -0.0545664
1812 799 -0.195825
1814 799 -0.0771402
793 800 -4.62821e-15
794 800 -0.000615084
795 800 -3.84468e-05
796 800 -1.21566e-08
797 800 -4.3622e-05
798 800 -0.000619034
799 800 -0.000135553
800 800 0.00714085
907 800 -2.18377e-06
909 800 -6.81074e-06
1808 800 -0.103208
1812 800 -0.115449
1814 800 -0.0219587
801 801 0.010974
805 801 -0.121458
1812 801 -0.231393
802 802 0.00635995
805 802 -0.209574
1812 802 -0.232494
803 803 0.00927248
805 803 2.89114e-12
1812 803 -0.303498
1814 803 -0.696502
804 804 0.00503496
805 804 5.29112e-12
1812 804 -0.297834
1814 804 -0.702166
801 805 -0.0010599
802 805 -0.0010599
803 805 -2.14785e-16
804 805 -2.13465e-16
805 805 0.0166473
807 805 -0.2014
1812 805 -0.19947
1814 805 -0.257611
806 806 0.0151289
807 806 -0.195093
808 806 -0.10266
809 806 -0.0620039
811 806 -0.0406563
1814 806 -0.0887756
805 807 -0.00332858
806 807 -0.00299598
807 807 0.0266754
808 807 -0.104719
809 807 -0.155076
811 807 -0.0627896
812 807 -0.0275853
1812 807 -0.0248899
1814 807 -0.335062
806 808 -0.00155318
807 808 -0.00275867
808 808 0.0230724
809 808 -0.118077
811 808 -0.0102444
812 808 -0.00329826
908 808 -0.195937
1812 808 -0.00297599
1814 808 -0.275185
806 809 -0.00093805
807 809 -0.00413376
808 809 -0.00329476
809 809 0.0216977
810 809 -0.0232281
811 809 -0.0152757
812 809 -0.141506
813 809 -0.113176
908 809 -0.0297527
1812 809 -0.00519383
1814 809 -0.212349
809 810 -0.000504014
810 810 0.0153371
811 810 -0.0493886
812 810 -0.00465021
813 810 -0.00371923
819 810 -0.205447
908 810 -0.000977745
1812 810 -0.000170681
1814 810 -0.127271
806 811 -0.000615084
807 811 -0.00167317
808 811 -0.000238358
809 811 -0.000325751
810 811 -0.000757345
811 811 0.0160796
812 811 -0.0908865
813 811 -0.00246796
815 811 -0.188583
819 811 -0.00967647
908 811 -0.00355329
1812 811 -0.0027473
1814 811 -0.451243
807 812 0.000102189
808 812 1.07012e-05
809 812 -0.00290414
810 812 -6.74578e-05
811 812 -0.00140607
812 812 0.0220466
813 812 -0.0150772
815 812 -0.0120273
819 812 -0.00124576
908 812 -0.00405376
912 812 -0.220641
1812 812 -0.000743095
1814 812 -0.408157
809 813 -0.00248587
810 813 -5.7742e-05
811 813 -4.08252e-05
812 813 -0.000355744
813 813 0.0128446
814 813 -0.0478864
815 813 -0.104849
816 813 -9.49317e-10
818 813 -5.21009e-13
819 813 -0.000988827
908 813 -0.00588611
912 813 -0.00611086
1812 813 -0.0489217
1814 813 -0.386996
813 814 -0.000615084
814 814 0.00985977
815 814 -0.0689241
816 814 -0.0623833
818 814 -0.0623833
819 814 -6.16862e-05
908 814 -0.000367195
912 814 -0.000381215
1812 814 -0.167018
1814 814 -0.0750257
811 815 -0.00305654
812 815 -0.000277798
813 815 -0.00135638
814 815 -0.000680057
815 815 0.0176784
816 815 -0.00239978
818 815 -0.126857
819 815 -0.00177085
908 815 -0.00114379
912 815 -0.00395068
1812 815 -0.0965105
1814 815 -0.338613
813 816 -2.85861e-10
814 816 -0.000615084
815 816 -4.23941e-05
816 816 0.00718796
817 816 -0.0855715
818 816 -0.00608642
819 816 -1.5723e-05
820 816 -1.80294e-08
823 816 -6.43883e-13
908 816 -3.81676e-05
912 816 -5.59223e-05
1812 816 -0.186006
1814 816 -0.00841719
816 817 -0.000615084
817 817 0.00983659
818 817 -0.0629108
819 817 -9.83162e-07
820 817 -0.0625303
823 817 -0.0625303
908 817 -2.38663e-06
912 817 -3.49684e-06
1812 817 -0.175983
1814 817 -0.0515298
813 818 -2.96089e-13
814 818 -0.000615105
815 818 -0.00280797
816 818 -4.51108e-05
817 818 -0.000618965
818 818 0.0167879
819 818 -0.000298534
820 818 -0.00230547
823 818 -0.133364
908 818 -0.000204957
912 818 -0.000675045
1812 818 -0.209553
1814 818 -0.0613085
810 819 -0.00319835
811 819 -0.000157962
812 819 -2.92296e-05
813 819 -1.2726e-05
814 819 -6.09401e-07
815 819 -3.15168e-05
816 819 -1.1365e-07
817 819 -9.72518e-09
818 819 -4.03744e-06
819 819 0.0104704
820 819 -9.47082e-07
823 819 -5.1484e-05
908 819 -0.00037429
912 819 -0.000635555
1808 819 -0.139969
1812 819 -0.000538333
1814 819 -0.342509
816 820 -1.56953e-10
817 820 -0.000615084
818 820 -3.86955e-05
819 820 -1.21566e-08
820 820 0.00718788
821 820 -6.4389e-13
822 820 -0.085574
823 820 -0.00606882
908 820 -1.30824e-06
912 820 -3.93437e-06
1808 820 -0.0855726
1812 820 -0.101761
1814 820 -0.00474016
820 821 -1.92246e-13
821 821 0.0197384
822 821 -0.0764651
823 821 -0.140112
908 821 -1.27418e-17
912 821 -3.83195e-17
1808 821 -0.0311629
1812 821 -0.161456
1814 821 -0.0564972
820 822 -0.000615085
821 822 -0.00154782
822 822 0.00831394
823 822 -0.212705
908 822 -9.67865e-08
912 822 -2.91074e-07
1808 822 -0.188406
1812 822 -0.111569
1814 822 -0.189806
816 823 -1.92245e-13
817 823 -0.000615105
818 823 -0.00280428
819 823 -8.37776e-07
820 823 -4.49279e-05
821 823 -0.0022002
822 823 -0.00168969
823 823 0.0161413
908 823 -3.5732e-05
912 823 -0.000117485
1808 823 -0.0623233
1812 823 -0.170588
1814 823 -0.0402161
824 824 0.0148828
904 824 -3.08493e-11
911 824 -0.199044
912 824 -0.0612349
825 825 0.00550089
904 825 -0.111815
911 825 -0.111815
912 825 -0.279102
1814 825 -0.329641
826 826 0.00654144
904 826 -0.0940289
911 826 -0.196341
912 826 -0.0940289
1814 826 -0.0925062
827 827 0.0148828
882 827 -3.08494e-11
908 827 -0.199044
909 827 -0.0612349
828 828 0.00550089
882 828 -0.111815
908 828 -0.111815
909 828 -0.279102
1814 828 -0.329641
829 829 0.00654144
882 829 -0.0940289
908 829 -0.196341
909 829 -0.0940289
1814 829 -0.0925062
830 830 0.0105942
842 830 -0.258657
904 830 -0.0990183
1814 830 -0.205167
831 831 0.00690961
833 831 -0.22984
847 831 -0.118239
848 831 -0.117666
832 832 0.00856431
833 832 -0.120135
841 832 -0.0325886
842 832 -0.188768
1814 832 -0.183181
831 833 -0.00125983
832 833 -0.00102888
833 833 0.0138129
841 833 -0.138795
842 833 -0.0706685
847 833 -0.0786951
848 833 -0.163772
1814 833 -0.2581
834 834 0.00856431
835 834 -0.120137
840 834 -0.0325886
842 834 -0.188768
1814 834 -0.183179
834 835 -0.00102888
835 835 0.0126905
840 835 -0.151071
842 835 -0.0769189
847 835 -0.160517
1814 835 -0.127869
836 836 0.111657
837 836 -0.157749
1814 836 -0.122949
836 837 -0.0177543
837 837 0.0557869
838 837 -0.0108353
839 837 3.5588e-13
905 837 -0.0216454
906 837 -0.043481
1814 837 -0.568841
837 838 8.29414e-05
838 838 0.0129873
839 838 -2.27276e-15
840 838 -0.223679
905 838 -0.0206114
906 838 -0.14848
1814 838 -0.432817
837 839 2.43953e-14
838 839 2.64332e-16
839 839 0.0119711
840 839 4.93903e-15
841 839 -0.242668
905 839 -0.0783626
906 839 -0.0421012
1814 839 -0.413135
834 840 -0.000279099
835 840 -0.00213285
838 840 -0.00292448
839 840 -6.64664e-18
840 840 0.011548
841 840 -1.39672e-16
842 840 -0.0629592
847 840 -0.0296468
905 840 -0.00521977
906 840 -0.037602
1814 840 -0.421158
832 841 -0.000279099
833 841 -0.00213287
839 841 -0.00292448
840 841 1.44441e-17
841 841 0.0115186
842 841 -0.0619624
847 841 -0.0145718
848 841 -0.0303252
905 841 -0.0198956
906 841 -0.0106891
1814 841 -0.441348
830 842 -0.00272197
832 842 -0.00164151
833 842 -0.000989502
834 842 -0.00164151
835 842 -0.000989506
840 842 -0.000725802
841 842 -0.000713654
842 842 0.0165514
847 842 -0.0162294
848 842 -0.0110984
904 842 -0.0162841
905 842 -0.00108674
906 842 -0.00210979
1814 842 -0.384134
843 843 0.00150265
846 843 -1.97985e-07
847 843 7.3834e-21
907 843 -0.154696
1126 843 -0.154699
844 844 0.00150352
845 844 -3.00912e-07
847 844 7.8013e-21
908 844 -0.154607
909 844 -0.15461
844 845 -4.64916e-10
845 845 0.00653768
846 845 -1.25821e-07
847 845 5.54776e-28
908 845 -0.135304
909 845 -0.099751
1809 845 -0.099747
843 846 -2.79933e-10
845 846 -7.34566e-10
846 846 0.00845904
847 846 2.44337e-28
848 846 -1.07967e-07
907 846 -0.104572
908 846 -0.0770907
909 846 -0.0770907
1126 846 -0.0770938
1809 846 -8.66182e-09
831 847 -0.000833426
833 847 -0.0011296
835 847 -0.002073
840 847 -0.000313171
841 847 -0.000156784
842 847 -0.000268712
843 847 -5.41469e-23
844 847 -5.40094e-23
845 847 -1.62521e-29
846 847 -1.07203e-29
847 847 0.0138277
848 847 -0.0210302
904 847 -0.000316447
905 847 -0.00036492
906 847 -0.00101381
907 847 -6.05762e-22
908 847 -6.03876e-22
909 847 -0.0168104
1126 847 -0.0168104
1809 847 -0.104625
1814 847 -0.441312
831 848 -0.000833426
833 848 -0.00231823
841 848 -0.000321759
842 848 -0.000183763
846 848 -3.86059e-11
847 848 -0.000288647
848 848 0.0124248
904 848 -0.000248192
905 848 -0.000539776
906 848 -0.000331566
907 848 -0.0524847
908 848 -2.39533e-10
909 848 -0.00039053
1126 848 -0.0528752
1809 848 -0.118868
1814 848 -0.461483
849 849 0.0148828
881 849 -3.085e-11
907 849 -0.199044
1126 849 -0.0612349
850 850 0.00621317
881 850 -0.0989969
907 850 -0.206078
1126 850 -0.0989969
1814 850 -0.0973938
851 851 0.00504987
881 851 -0.121802
907 851 -0.121802
1126 851 -0.303021
1814 851 -0.270778
852 852 0.00692919
856 852 -1.06148e-08
881 852 -0.174273
882 852 -0.174273
1124 852 -1.06149e-08
853 853 0.0279677
855 853 -0.0431766
1124 853 -0.29396
1814 853 -0.0527173
854 854 0.00694361
855 854 -4.4477e-08
856 854 -5.21052e-08
904 854 -0.173912
910 854 -0.173908
853 855 -0.0012076
854 855 -3.7747e-10
855 855 0.0135379
856 855 -1.45282e-15
904 855 -4.84909e-09
910 855 -0.0891997
1124 855 -0.0262218
1809 855 -0.172167
1814 855 -0.00470247
852 856 -3.15346e-12
854 856 -1.52624e-11
855 856 -6.78826e-19
856 856 0.00859098
881 856 -6.39699e-11
882 856 -0.14056
904 856 -0.14056
910 856 -3.08959e-10
1124 856 -5.9683e-18
1809 856 -0.0836892
1814 856 -0.135056
857 857 0.111657
858 857 -0.157749
1814 857 -0.122949
857 858 -0.0177543
858 858 0.0557869
859 858 -0.0108353
860 858 5.02771e-13
905 858 -0.021646
906 858 -0.0434806
1814 858 -0.56884
858 859 8.29414e-05
859 859 0.0129873
860 859 -3.21086e-15
861 859 -0.223679
905 859 -0.0206114
906 859 -0.14848
1814 859 -0.432817
858 860 -2.39954e-13
859 860 -2.59998e-15
860 860 0.0148876
861 860 -3.90636e-14
862 860 -0.21071
905 860 -0.0630089
906 860 -0.0338546
1814 860 -0.136868
859 861 -0.00292448
860 861 -9.39008e-18
861 861 0.0118906
862 861 -0.135408
905 861 -0.00506934
906 861 -0.0365184
1814 861 -0.312904
860 862 -0.00319835
861 862 -0.00164151
862 862 0.0170205
863 862 -0.159923
905 862 -0.012329
906 862 -0.00988363
1814 862 -0.349416
862 863 -0.00274026
863 863 0.00982765
881 863 -0.106338
905 863 -0.00343771
906 863 -0.00275586
1814 863 -0.318597
864 864 0.00150224
865 864 -1.64321e-07
879 864 7.18701e-21
907 864 -0.154738
1126 864 -0.154741
864 865 -2.09838e-10
865 865 0.00474902
879 865 3.17562e-28
880 865 -8.87566e-08
907 865 -0.14208
1126 865 -0.0931349
1809 865 -0.0931311
866 866 0.111657
867 866 -0.157749
1814 866 -0.122949
866 867 -0.0177543
867 867 0.0557869
868 867 -0.0108353
869 867 3.55877e-13
905 867 -0.0216454
906 867 -0.043481
1814 867 -0.568841
867 868 8.29414e-05
868 868 0.0129873
869 868 -2.27275e-15
877 868 -0.223679
905 868 -0.0206114
906 868 -0.14848
1814 868 -0.432817
867 869 2.43958e-14
868 869 2.64336e-16
869 869 0.0119711
877 869 4.93912e-15
878 869 -0.242668
905 869 -0.0783626
906 869 -0.0421012
1814 869 -0.413135
870 870 0.0105942
876 870 -0.258657
882 870 -0.0990183
1814 870 -0.205167
871 871 0.00856431
872 871 -0.120137
876 871 -0.188768
877 871 -0.0325886
1814 871 -0.183179
871 872 -0.00102888
872 872 0.0126905
876 872 -0.0769189
877 872 -0.151071
879 872 -0.160517
1814 872 -0.127869
873 873 0.00690961
875 873 -0.22984
879 873 -0.118239
880 873 -0.117666
874 874 0.00856431
875 874 -0.120135
876 874 -0.188768
878 874 -0.0325886
1814 874 -0.183181
873 875 -0.00125983
874 875 -0.00102888
875 875 0.0138129
876 875 -0.0706685
878 875 -0.138795
879 875 -0.0786951
880 875 -0.163772
1814 875 -0.2581
870 876 -0.00272197
871 876 -0.00164151
872 876 -0.000989506
874 876 -0.00164151
875 876 -0.000989502
876 876 0.0166413
877 876 -0.0436144
878 876 -0.0428844
879 876 -0.0142237
880 876 -0.00973798
882 876 -0.0161961
1814 876 -0.344763
868 877 -0.00292448
869 877 -6.6466e-18
871 877 -0.000279099
872 877 -0.00213285
876 877 -0.00072705
877 877 0.0115162
878 877 -0.0027074
879 877 -0.0306264
880 877 -0.000614783
882 877 -0.0010225
905 877 -0.00523414
906 877 -0.0377056
1814 877 -0.444084
869 878 -0.00292448
874 878 -0.000279099
875 878 -0.00213287
876 878 -0.00071372
877 878 -3.11285e-05
878 878 0.0114879
879 878 -0.0155774
880 878 -0.0310129
882 878 -0.001009
905 878 -0.0199629
906 878 -0.0108199
1814 878 -0.46515
864 879 -5.42115e-23
865 879 -8.90807e-30
872 879 -0.002073
873 879 -0.000833426
875 879 -0.0011296
876 879 -0.00023928
877 879 -0.000323607
878 879 -0.000167922
879 879 0.0113987
880 879 -0.0255117
882 879 -0.00038388
905 879 -0.000442683
906 879 -0.00122985
907 879 -7.35922e-22
1126 879 -0.0203926
1809 879 -0.0630749
1814 879 -0.44962
865 880 -1.80322e-11
873 880 -0.000833426
875 880 -0.00231823
876 880 -0.000163826
877 880 -7.14516e-06
878 880 -0.000328804
879 880 -0.000288647
880 880 0.00957345
882 880 -0.000324148
905 880 -0.000702889
906 880 -0.000436835
907 880 -0.0461987
1126 880 -0.0468136
1809 880 -0.0770025
1814 880 -0.497105
849 881 -1.02667e-14
850 881 -0.000615084
851 881 -0.000615084
852 881 -0.00120755
856 881 -1.2818e-11
863 881 -0.00106546
881 881 0.0190013
882 881 -0.0110752
904 881 -9.48197e-11
905 881 -0.000192762
906 881 -0.000154529
907 881 -0.0987094
910 881 -2.08418e-19
1124 881 -0.0635509
1126 881 -0.187447
1809 881 -5.64554e-11
1814 881 -0.266536
827 882 -1.02665e-14
828 882 -0.000615096
829 882 -0.000615084
852 882 -0.00120755
856 882 -0.00120755
870 882 -0.00106546
876 882 -0.000275589
877 882 -1.20196e-05
878 882 -1.1851e-05
879 882 -4.47262e-06
880 882 -3.1727e-06
881 882 -0.000210444
882 882 0.0196798
904 882 -0.00862478
905 882 -1.74935e-05
906 882 -3.1547e-05
907 882 -0.00106299
908 882 -0.0521062
909 882 -0.180799
910 882 -1.89577e-11
1124 882 -0.000679577
1126 882 -0.00201663
1809 882 -0.00516192
1814 882 -0.354043
883 883 0.0105942
895 883 -0.258657
910 883 -0.0990183
1814 883 -0.205167
884 884 0.00856431
885 884 -0.120137
890 884 -0.0325886
895 884 -0.188768
1814 884 -0.183179
884 885 -0.00102888
885 885 0.0126905
890 885 -0.151071
895 885 -0.0769189
902 885 -0.160517
1814 885 -0.127869
886 886 0.111657
887 886 -0.157749
1814 886 -0.122949
886 887 -0.0177543
887 887 0.0557869
888 887 -0.0108353
889 887 3.55877e-13
905 887 -0.0216454
906 887 -0.043481
1814 887 -0.568841
887 888 8.29414e-05
888 888 0.0129873
889 888 -2.27275e-15
890 888 -0.223679
905 888 -0.0206114
906 888 -0.14848
1814 888 -0.432817
887 889 2.4396e-14
888 889 2.64339e-16
889 889 0.0119711
890 889 4.93916e-15
894 889 -0.242668
905 889 -0.0783626
906 889 -0.0421012
1814 889 -0.413135
884 890 -0.000279099
885 890 -0.00213285
888 890 -0.00292448
889 890 -6.6466e-18
890 890 0.011548
894 890 -1.39671e-16
895 890 -0.0629592
902 890 -0.0296468
905 890 -0.00521977
906 890 -0.037602
1814 890 -0.421158
891 891 0.00690961
893 891 -0.22984
902 891 -0.118239
903 891 -0.117666
892 892 0.00856431
893 892 -0.120135
894 892 -0.0325886
895 892 -0.188768
1814 892 -0.183181
891 893 -0.00125983
892 893 -0.00102888
893 893 0.0138129
894 893 -0.138795
895 893 -0.0706685
902 893 -0.0786951
903 893 -0.163772
1814 893 -0.2581
889 894 -0.00292448
890 894 1.44445e-17
892 894 -0.000279099
893 894 -0.00213287
894 894 0.0115186
895 894 -0.0619624
902 894 -0.0145718
903 894 -0.0303252
905 894 -0.0198956
906 894 -0.0106891
1814 894 -0.441348
883 895 -0.00272197
884 895 -0.00164151
885 895 -0.000989506
890 895 -0.000725802
892 895 -0.00164151
893 895 -0.000989502
894 895 -0.000713654
895 895 0.0165514
902 895 -0.0162294
903 895 -0.0110984
905 895 -0.00108674
906 895 -0.00210979
910 895 -0.0162841
1814 895 -0.384134
896 896 0.00150439
897 896 -4.68445e-07
902 896 8.21973e-21
911 896 -0.154517
912 896 -0.15452
896 897 -7.2217e-10
897 897 0.00817939
901 897 -2.31239e-07
902 897 7.25732e-28
911 897 -0.132292
912 897 -0.103875
1809 897 -0.103871
898 898 0.00150398
901 898 -3.8095e-07
902 898 8.02608e-21
908 898 -0.154559
909 898 -0.154562
899 899 0.00150282
900 899 -2.14391e-07
902 899 7.4653e-21
907 899 -0.154678
1126 899 -0.154682
899 900 -3.11934e-10
900 900 0.0106399
901 900 -1.13068e-07
902 900 2.18864e-28
903 900 -1.3204e-07
907 900 -0.1017
908 900 -0.079851
909 900 -0.079851
1126 900 -0.0798542
897 901 -1.93914e-09
898 901 -5.91965e-10
900 901 -1.50912e-09
901 901 0.0106516
902 901 4.46051e-28
903 901 -1.87074e-14
907 901 -1.44088e-08
908 901 -0.101588
909 901 -0.0797662
911 901 -0.079763
912 901 -0.0797629
1126 901 -1.13137e-08
1809 901 -1.89099e-08
885 902 -0.002073
890 902 -0.000313171
891 902 -0.000833426
893 902 -0.0011296
894 902 -0.000156784
895 902 -0.000268712
896 902 -5.38717e-23
897 902 -2.52359e-29
898 902 -5.39354e-23
899 902 -5.412e-23
900 902 -1.16028e-29
901 902 -2.05467e-29
902 902 0.0145517
903 902 -0.0199839
905 902 -0.000346764
906 902 -0.000963369
907 902 -5.75272e-22
908 902 -5.72866e-22
909 902 -0.015974
910 902 -0.000300702
911 902 -5.72036e-22
912 902 -0.015974
1126 902 -0.015974
1809 902 -0.099419
1814 902 -0.419354
891 903 -0.000833426
893 903 -0.00231823
894 903 -0.000321759
895 903 -0.000183763
900 903 -5.8967e-11
901 903 -6.66727e-18
902 903 -0.000288647
903 903 0.0134759
905 903 -0.000497287
906 903 -0.000304625
907 903 -0.0630461
908 903 -3.49407e-10
909 903 -0.000342155
910 903 -0.000228497
911 903 -3.94632e-17
912 903 -0.000342155
1126 903 -0.0633883
1809 903 -0.109486
1814 903 -0.42502
824 904 -1.02665e-14
825 904 -0.000615096
826 904 -0.000615084
830 904 -0.00106546
842 904 -0.000275589
847 904 -4.47262e-06
848 904 -3.15266e-06
854 904 -0.00120755
855 904 -5.37084e-11
856 904 -0.00120755
881 904 -7.7247e-14
882 904 -0.000169734
904 904 0.0196811
905 904 -1.55376e-05
906 904 -3.00983e-05
907 904 -1.75748e-05
908 904 -0.000449375
909 904 -0.00156313
910 904 -0.0106703
911 904 -0.0521027
912 904 -0.180787
1124 904 -5.86089e-06
1126 904 -2.9682e-05
1809 904 -0.00522216
1814 904 -0.354215
837 905 -0.00120753
838 905 -0.000282562
839 905 -0.00093805
840 905 -6.32033e-05
841 905 -0.000227635
842 905 -1.8084e-05
847 905 -5.48431e-06
848 905 -7.21912e-06
858 905 -0.00120753
859 905 -0.000282562
860 905 -0.00093805
861 905 -6.32033e-05
862 905 -0.000206215
863 905 -3.29785e-05
867 905 -0.00120753
868 905 -0.000282562
869 905 -0.00093805
877 905 -6.32033e-05
878 905 -0.000227806
879 905 -5.48431e-06
880 905 -7.2437e-06
881 905 -3.50688e-06
882 905 -3.37775e-07
887 905 -0.00120753
888 905 -0.000282562
889 905 -0.00093805
890 905 -6.32033e-05
894 905 -0.000227635
895 905 -1.8084e-05
902 905 -5.48431e-06
903 905 -7.21338e-06
904 905 -3.00922e-07
905 905 0.0205764
906 905 -0.157162
907 905 -7.36206e-05
908 905 -8.6193e-07
909 905 -1.19859e-05
910 905 -1.4628e-05
911 905 -7.61985e-07
912 905 -7.02151e-06
1124 905 -1.08424e-05
1126 905 -0.000103407
1809 905 -0.000178552
1814 905 -0.616293
837 906 -0.00245544
838 906 -0.00197805
839 906 -0.000503997
840 906 -0.000442449
841 906 -0.000122304
842 906 -3.54345e-05
847 906 -1.54744e-05
848 906 -4.42759e-06
858 906 -0.00245544
859 906 -0.00197805
860 906 -0.000503997
861 906 -0.000442449
862 906 -0.000166108
863 906 -2.65645e-05
867 906 -0.00245544
868 906 -0.00197805
869 906 -0.000503997
877 906 -0.000442449
878 906 -0.000123502
879 906 -1.54744e-05
880 906 -4.49694e-06
881 906 -2.82482e-06
882 906 -6.15702e-07
887 906 -0.00245544
888 906 -0.00197805
889 906 -0.000503997
890 906 -0.000442449
894 906 -0.000122304
895 906 -3.54345e-05
902 906 -1.54744e-05
903 906 -4.4114e-06
904 906 -5.88324e-07
905 906 -0.0032556
906 906 0.03204
907 906 -3.86216e-05
908 906 -1.09714e-06
909 906 -2.06559e-05
910 906 -1.98683e-05
911 906 -1.03414e-06
912 906 -1.17952e-05
1124 906 -6.71787e-06
1126 906 -7.53607e-05
1321 906 -0.0616938
1809 906 -0.000189657
1814 906 -0.491932
775 907 -0.00185842
777 907 -0.00247218
785 907 -0.00447163
786 907 -0.000527994
787 907 -1.22643e-05
788 907 -5.44802e-05
789 907 -9.44714e-05
791 907 -6.13607e-05
792 907 -1.80464e-05
793 907 -2.47261e-06
794 907 -9.03848e-08
795 907 -2.38889e-07
796 907 -3.25808e-06
797 907 -3.31484e-07
798 907 -2.99278e-08
799 907 -4.96661e-08
800 907 -1.03892e-08
843 907 -0.000232449
846 907 -0.000884565
847 907 1.71627e-24
848 907 -0.000652113
849 907 -0.00303872
850 907 -0.0013008
851 907 -0.000615096
864 907 -0.000232449
865 907 -0.000674731
879 907 1.67062e-24
880 907 -0.000442281
881 907 -0.00103956
882 907 -1.16567e-05
899 907 -0.000232449
900 907 -0.00108205
901 907 -1.22346e-10
902 907 1.7353e-24
903 907 -0.000849602
904 907 -2.62386e-07
905 907 -1.28596e-06
906 907 -1.03135e-06
907 907 0.037125
908 907 -0.012834
909 907 -0.00833683
910 907 -5.30561e-06
911 907 -3.68561e-07
912 907 -9.10876e-06
913 907 -0.0152193
1123 907 -2.00714e-12
1124 907 -0.00177974
1126 907 -0.125125
1321 907 -1.71389e-06
1808 907 -1.28594e-05
1809 907 -0.00720517
1812 907 -0.00059608
1814 907 -0.314323
776 908 -0.00126827
777 908 -0.00303872
808 908 -0.00449067
809 908 -0.000530243
810 908 -1.23165e-05
811 908 -5.47122e-05
812 908 -9.48737e-05
813 908 -6.1622e-05
814 908 -2.95086e-06
815 908 -1.81232e-05
816 908 -2.27576e-07
817 908 -1.9474e-08
818 908 -2.48575e-06
819 908 -3.27196e-06
820 908 -6.95165e-09
821 908 -4.4761e-21
822 908 -5.9488e-10
823 908 -3.33065e-07
827 908 -0.00303872
828 908 -0.000615084
829 908 -0.0013008
844 908 -0.00023245
845 908 -0.000884564
846 908 -0.000652114
847 908 1.81341e-24
848 908 -7.04071e-11
882 908 -0.00186499
898 908 -0.00023245
900 908 -0.000849603
901 908 -0.00108206
902 908 1.86566e-24
903 908 -1.12181e-10
904 908 -1.60851e-05
905 908 -3.28752e-08
906 908 -6.44857e-08
907 908 -0.000463124
908 908 0.0406507
909 908 -0.117459
910 908 -4.28264e-06
911 908 -0.00214379
912 908 -0.0027209
913 908 -0.130975
1123 908 -1.29022e-12
1124 908 -5.14564e-05
1126 908 -0.00506178
1321 908 -1.17393e-07
1808 908 -1.19406e-05
1809 908 -0.00249148
1812 908 -0.00055349
1814 908 -0.263036
776 909 -0.000503997
777 909 -0.00120755
789 909 -0.00479343
791 909 -7.22714e-05
792 909 -6.54682e-05
793 909 -8.52098e-06
794 909 -3.11479e-07
795 909 -4.15319e-07
796 909 -6.16163e-06
797 909 -1.13928e-06
798 909 -1.02858e-07
799 909 -1.70697e-07
800 909 -3.35722e-08
827 909 -0.000911318
828 909 -0.00154762
829 909 -0.000615105
844 909 -0.000232449
845 909 -0.000652114
846 909 -0.000652114
847 909 -0.000232449
848 909 -4.88853e-06
882 909 -0.00358366
898 909 -0.000232449
900 909 -0.000849603
901 909 -0.000849603
902 909 -0.000232449
903 909 -4.64535e-06
904 909 -3.0983e-05
905 909 -2.33551e-07
906 909 -6.13321e-07
907 909 -0.00030071
908 909 -0.00465201
909 909 0.0408379
910 909 -1.03603e-05
911 909 -0.00194315
912 909 -0.00219755
913 909 -0.054431
1123 909 -0.0123414
1124 909 -7.86064e-05
1126 909 -0.00501986
1321 909 -9.52536e-07
1808 909 -2.43668e-05
1809 909 -0.0035747
1812 909 -0.000460595
1814 909 -0.222533
766 910 -1.02665e-14
767 910 -0.000615084
768 910 -0.000615096
773 910 -0.00355809
774 910 -0.00144501
854 910 -0.00120755
855 910 -0.00120755
856 910 -6.29197e-11
881 910 -4.02497e-21
882 910 -8.84402e-12
883 910 -0.00106546
895 910 -0.000275589
902 910 -4.47262e-06
903 910 -3.14798e-06
904 910 -0.000210007
905 910 -3.05873e-07
906 910 -6.41093e-07
907 910 -2.02206e-07
908 910 -9.69685e-08
909 910 -4.13886e-07
910 910 0.0192915
911 910 -0.00253158
912 910 -0.00255754
913 910 -0.00233307
1123 910 -0.00178628
1124 910 -0.00164143
1125 910 -4.63716e-05
1126 910 -1.5819e-05
1321 910 -2.05024e-06
1808 910 -6.08605e-06
1809 910 -0.0123583
1812 910 -0.000134789
1814 910 -0.409292
750 911 -0.00449067
751 911 -1.48114e-05
752 911 1.42259e-17
753 911 -4.68949e-05
754 911 -0.000533706
755 911 -1.14589e-05
756 911 -3.94483e-07
757 911 -6.25183e-05
758 911 -2.48314e-06
759 911 -9.07696e-08
760 911 -2.39906e-07
761 911 -3.27196e-06
762 911 -6.95164e-09
763 911 -5.9488e-10
764 911 -1.09195e-10
765 911 -3.33064e-07
769 911 -0.000957668
772 911 -0.0043182
773 911 -0.000189668
774 911 -0.00045189
824 911 -0.00303872
825 911 -0.000615084
826 911 -0.0013008
896 911 -0.00023245
897 911 -0.00108206
901 911 -0.000849605
902 911 1.91068e-24
903 911 -1.58939e-17
904 911 -0.00186499
905 911 -2.89774e-08
906 911 -6.0687e-08
907 911 -3.27935e-08
908 911 -8.71478e-05
909 911 -8.09215e-05
910 911 -6.8729e-05
911 911 0.0379857
912 911 -0.121176
913 911 -0.0971336
1123 911 -8.89638e-05
1124 911 -3.54473e-06
1125 911 -7.44869e-06
1126 911 -2.39011e-05
1321 911 -1.04573e-07
1808 911 -1.30449e-05
1809 911 -0.00449721
1812 911 -0.000598083
1814 911 -0.283865
769 912 -0.000380566
772 912 -0.00133544
773 912 -5.20423e-05
774 912 -0.00013897
812 912 -0.00479343
813 912 -7.22714e-05
814 912 -3.46082e-06
815 912 -6.54682e-05
816 912 -3.73006e-07
817 912 -3.19187e-08
818 912 -8.52526e-06
819 912 -6.16163e-06
820 912 -2.16565e-08
821 912 -1.39444e-20
822 912 -1.85323e-09
823 912 -1.1398e-06
824 912 -0.000911318
825 912 -0.00154762
826 912 -0.000615105
896 912 -0.000232449
897 912 -0.000849603
901 912 -0.000849603
902 912 -0.000232449
903 912 -4.64523e-06
904 912 -0.00358366
905 912 -1.38596e-07
906 912 -3.54993e-07
907 912 -3.55882e-07
908 912 -0.000107861
909 912 -8.97583e-05
910 912 -5.26995e-05
911 912 -0.00448111
912 912 0.0379688
913 912 -0.0489423
1123 912 -0.010082
1124 912 -3.59857e-06
1125 912 -3.20937e-06
1126 912 -0.000138614
1321 912 -5.946e-07
1808 912 -2.6381e-05
1809 912 -0.00438746
1812 912 -0.000499471
1814 912 -0.238304
772 913 -0.00419352
773 913 -0.000163423
774 913 -0.000436393
776 913 -0.0023047
777 913 -0.00419352
907 913 -0.000423039
908 913 -0.00515718
909 913 -0.002197
910 913 -4.52295e-05
911 913 -0.00348673
912 913 -0.00180393
913 913 0.035532
1123 913 -0.00134219
1124 913 -3.61381e-05
1125 913 -8.55627e-06
1126 913 -0.00355153
1321 913 -1.394e-07
1808 913 -6.34933e-06
1809 913 -0.00263929
1812 913 -0.000210757
1814 913 -0.100735
914 914 0.00622002
916 914 -0.183198
1122 914 -0.11611
1123 914 -0.116658
915 915 0.0129811
916 915 5.63166e-12
1122 915 -0.0819346
1123 915 -0.0819346
1789 915 -0.143571
1814 915 -0.69256
914 916 -0.00143481
915 916 -6.04253e-16
916 916 0.0189984
1122 916 -0.225474
1123 916 -0.121698
1789 916 -0.0380143
1814 916 -0.216395
917 917 0.0059292
918 917 -0.0814715
919 917 -0.122757
1124 917 -0.181362
1814 917 -0.1001
917 918 -0.000483071
918 918 0.00228333
919 918 -0.025971
1121 918 -0.21156
1124 918 -0.0383697
1814 918 -0.61529
917 919 -0.00072786
918 919 -5.92999e-05
919 919 0.0101349
1121 919 -0.0605501
1122 919 -0.181261
1124 919 -0.0132495
1328 919 -0.181261
1814 919 -0.072197
920 920 0.00914872
921 920 5.28241e-12
1121 920 -0.153987
1124 920 -0.153981
1814 920 -0.692032
920 921 -4.08552e-16
921 921 0.013394
1121 921 -0.147796
1124 921 -0.0426199
1321 921 -0.137155
1328 921 -0.137155
1814 921 -0.121866
922 922 0.00232269
923 922 4.06695e-08
1124 922 -0.207975
1814 922 -0.584046
922 923 -4.19006e-12
923 923 0.0102258
1122 923 -0.179649
1124 923 -0.0587852
1321 923 -0.179649
1814 923 -0.0608621
924 924 0.00622002
926 924 -0.183198
1120 924 -0.116658
1328 924 -0.11611
925 925 0.0129811
926 925 5.63163e-12
1120 925 -0.0819346
1328 925 -0.0819346
1789 925 -0.143571
1814 925 -0.69256
924 926 -0.00143481
925 926 -6.04252e-16
926 926 0.0189984
1120 926 -0.121698
1328 926 -0.225474
1789 926 -0.0380143
1814 926 -0.216395
927 927 0.00635995
931 927 -0.209574
1812 927 -0.232494
928 928 0.010974
931 928 -0.121458
1812 928 -0.231393
929 929 0.00503496
931 929 5.29112e-12
1812 929 -0.297834
1814 929 -0.702166
930 930 0.00927248
931 930 2.89114e-12
1812 930 -0.303498
1814 930 -0.696502
927 931 -0.0010599
928 931 -0.0010599
929 931 -2.13465e-16
930 931 -2.14784e-16
931 931 0.0166473
933 931 -0.2014
1812 931 -0.19947
1814 931 -0.257611
932 932 0.0151289
933 932 -0.195093
934 932 -0.10266
935 932 -0.0620039
937 932 -0.0406563
1814 932 -0.0887756
931 933 -0.00332858
932 933 -0.00299598
933 933 0.0266754
934 933 -0.104719
935 933 -0.155076
937 933 -0.0627896
938 933 -0.0275853
1812 933 -0.0248899
1814 933 -0.335062
932 934 -0.00155318
933 934 -0.00275867
934 934 0.0230724
935 934 -0.118077
937 934 -0.0102444
938 934 -0.00329826
1118 934 -0.195937
1812 934 -0.00297599
1814 934 -0.275185
932 935 -0.00093805
933 935 -0.00413376
934 935 -0.00329476
935 935 0.0216977
936 935 -0.0232281
937 935 -0.0152757
938 935 -0.141506
939 935 -0.113176
1118 935 -0.0297527
1812 935 -0.00519383
1814 935 -0.212349
935 936 -0.000504014
936 936 0.0153371
937 936 -0.0493886
938 936 -0.00465021
939 936 -0.00371923
945 936 -0.205447
1118 936 -0.000977745
1812 936 -0.000170681
1814 936 -0.127271
932 937 -0.000615084
933 937 -0.00167317
934 937 -0.000238358
935 937 -0.000325751
936 937 -0.000757345
937 937 0.0160796
938 937 -0.0908865
939 937 -0.00246796
941 937 -0.188583
945 937 -0.00967647
1118 937 -0.00355329
1812 937 -0.0027473
1814 937 -0.451243
933 938 0.000102189
934 938 1.07012e-05
935 938 -0.00290414
936 938 -6.74578e-05
937 938 -0.00140607
938 938 0.0220466
939 938 -0.0150772
941 938 -0.0120273
945 938 -0.00124576
979 938 -0.220641
1118 938 -0.00405376
1812 938 -0.000743095
1814 938 -0.408157
935 939 -0.00248587
936 939 -5.7742e-05
937 939 -4.08252e-05
938 939 -0.000355744
939 939 0.0128446
940 939 -0.0478864
941 939 -0.104849
942 939 -9.49317e-10
944 939 -5.21009e-13
945 939 -0.000988827
979 939 -0.00611086
1118 939 -0.00588611
1812 939 -0.0489217
1814 939 -0.386996
939 940 -0.000615084
940 940 0.00985977
941 940 -0.0689241
942 940 -0.0623833
944 940 -0.0623833
945 940 -6.16862e-05
979 940 -0.000381215
1118 940 -0.000367195
1812 940 -0.167018
1814 940 -0.0750257
937 941 -0.00305654
938 941 -0.000277798
939 941 -0.00135638
940 941 -0.000680057
941 941 0.0176784
942 941 -0.00239978
944 941 -0.126857
945 941 -0.00177085
979 941 -0.00395068
1118 941 -0.00114379
1812 941 -0.0965105
1814 941 -0.338613
939 942 -2.85861e-10
940 942 -0.000615084
941 942 -4.23941e-05
942 942 0.00718796
943 942 -0.0855715
944 942 -0.00608642
945 942 -1.5723e-05
946 942 -1.80294e-08
949 942 -6.43883e-13
979 942 -5.59223e-05
1118 942 -3.81676e-05
1812 942 -0.186006
1814 942 -0.00841719
942 943 -0.000615084
943 943 0.00983659
944 943 -0.0629108
945 943 -9.83162e-07
946 943 -0.0625303
949 943 -0.0625303
979 943 -3.49684e-06
1118 943 -2.38663e-06
1812 943 -0.175983
1814 943 -0.0515298
939 944 -2.96089e-13
940 944 -0.000615105
941 944 -0.00280797
942 944 -4.51108e-05
943 944 -0.000618965
944 944 0.0167879
945 944 -0.000298534
946 944 -0.00230547
949 944 -0.133364
979 944 -0.000675045
1118 944 -0.000204957
1812 944 -0.209553
1814 944 -0.0613085
936 945 -0.00319835
937 945 -0.000157962
938 945 -2.92296e-05
939 945 -1.2726e-05
940 945 -6.09401e-07
941 945 -3.15168e-05
942 945 -1.1365e-07
943 945 -9.72518e-09
944 945 -4.03744e-06
945 945 0.0104704
946 945 -9.47082e-07
949 945 -5.1484e-05
979 945 -0.000635555
1118 945 -0.00037429
1808 945 -0.139969
1812 945 -0.000538333
1814 945 -0.342509
942 946 -1.56953e-10
943 946 -0.000615084
944 946 -3.86955e-05
945 946 -1.21566e-08
946 946 0.00718788
947 946 -0.085574
948 946 -6.4389e-13
949 946 -0.00606882
979 946 -3.93437e-06
1118 946 -1.30824e-06
1808 946 -0.0855726
1812 946 -0.101761
1814 946 -0.00474016
946 947 -0.000615085
947 947 0.0084323
948 947 -0.183558
949 947 -0.184001
979 947 -2.86988e-07
1118 947 -9.5428e-08
1808 947 -0.180042
1812 947 -0.0803667
1814 947 -0.176771
946 948 -1.92245e-13
947 948 -0.0015093
948 948 0.0194613
949 948 -0.156376
979 948 -2.2257e-08
1118 948 -7.4008e-09
1808 948 -0.0455694
1812 948 -0.169987
1814 948 -0.0710107
942 949 -1.92246e-13
943 949 -0.000615105
944 949 -0.00280428
945 949 -8.37776e-07
946 949 -4.49279e-05
947 949 -0.00152145
948 949 -0.00247947
949 949 0.0161413
979 949 -0.000117485
1118 949 -3.5732e-05
1808 949 -0.0623233
1812 949 -0.170588
1814 949 -0.0402161
950 950 0.00501052
951 950 -0.251398
978 950 -0.163053
979 950 -0.0661018
1120 950 -3.06741e-11
950 951 -0.00158782
951 951 0.0289988
978 951 -0.139731
979 951 -0.0452608
1119 951 -0.14461
1120 951 -1.67955e-12
1809 951 -0.0803747
952 952 0.0158995
978 952 -0.187435
979 952 -0.0573192
1117 952 -2.88767e-11
953 953 0.00654144
978 953 -0.196341
979 953 -0.0940289
1117 953 -0.0940289
1814 953 -0.0925062
954 954 0.00550089
978 954 -0.111815
979 954 -0.279102
1117 954 -0.111815
1814 954 -0.329641
955 955 0.00635995
959 955 -0.209574
1812 955 -0.232494
956 956 0.010974
959 956 -0.121458
1812 956 -0.231393
957 957 0.00503496
959 957 5.29112e-12
1812 957 -0.297834
1814 957 -0.702166
958 958 0.00927248
959 958 2.89114e-12
1812 958 -0.303498
1814 958 -0.696502
955 959 -0.0010599
956 959 -0.0010599
957 959 -2.13464e-16
958 959 -2.14784e-16
959 959 0.0166473
961 959 -0.2014
1812 959 -0.19947
1814 959 -0.257611
960 960 0.0151289
961 960 -0.195093
962 960 -0.10266
965 960 -0.0620039
966 960 -0.0406563
1814 960 -0.0887756
959 961 -0.00332858
960 961 -0.00299598
961 961 0.0266754
962 961 -0.104719
963 961 -0.0275853
965 961 -0.155076
966 961 -0.0627896
1812 961 -0.0248899
1814 961 -0.335062
960 962 -0.00155318
961 962 -0.00275867
962 962 0.0230724
963 962 -0.00329826
965 962 -0.118077
966 962 -0.0102444
978 962 -0.195937
1812 962 -0.00297599
1814 962 -0.275185
961 963 0.000102189
962 963 1.07012e-05
963 963 0.0225856
964 963 9.60463e-13
965 963 -0.128584
966 963 -0.0601434
978 963 9.28361e-05
1323 963 -0.215375
1812 963 0.000114025
1814 963 -0.342639
963 964 -2.39915e-13
964 964 0.0153488
965 964 -0.0328373
966 964 -0.0488493
973 964 -0.20529
978 964 1.45111e-15
1323 964 -3.3665e-12
1812 964 1.78231e-15
1814 964 -0.120201
960 965 -0.00093805
961 965 -0.00413376
962 965 -0.00329476
963 965 -0.00307035
964 965 -0.000503997
965 965 0.0212863
966 965 -0.0254026
968 965 -0.115363
973 965 -0.00486065
978 965 -0.0303143
1323 965 -0.0310658
1812 965 -0.00527775
1814 965 -0.268721
960 966 -0.000615084
961 966 -0.00167317
962 966 -0.000238358
963 966 -0.0014118
964 966 -0.000749778
965 966 -0.000531907
966 966 0.015987
968 966 -0.00383828
969 966 -0.189676
973 966 -0.00978969
978 966 -0.00392172
1323 966 -0.0200533
1812 966 -0.00281484
1814 966 -0.488339
967 967 0.00988922
968 967 -0.0621975
969 967 -0.0621975
970 967 -0.0621975
972 967 -0.0621975
1812 967 -0.163477
1814 967 -0.0507321
965 968 -0.00248587
966 968 -6.31475e-05
967 968 -0.000615084
968 968 0.0128064
969 968 -0.108149
970 968 -0.00298731
972 968 -0.00298731
973 968 -0.00099178
978 968 -0.00590369
1323 968 -0.00612911
1812 968 -0.0569196
1814 968 -0.390588
966 969 -0.00305654
967 969 -0.000615105
968 969 -0.00139464
969 969 0.0176784
970 969 -0.126857
972 969 -0.00239978
973 969 -0.00177085
978 969 -0.00114379
1323 969 -0.00395068
1812 969 -0.0965105
1814 969 -0.338613
967 970 -0.000615105
968 970 -3.8258e-05
969 970 -0.00280797
970 970 0.0168271
971 970 -0.0365544
972 970 -0.00268084
973 970 -0.00029776
974 970 -1.14247e-11
977 970 -0.130753
978 970 -0.00020429
1323 970 -0.000673193
1812 970 -0.202093
1814 970 -0.0592476
970 971 -0.000615084
971 971 0.00986674
972 971 -0.0625063
973 971 -1.85621e-05
974 971 -0.0623392
977 971 -0.0704902
978 971 -1.27352e-05
1323 971 -4.19663e-05
1812 971 -0.176448
1814 971 -0.0545411
967 972 -0.000615084
968 972 -3.8257e-05
969 972 -4.23941e-05
970 972 -4.37489e-05
971 972 -0.000616684
972 972 0.0071493
973 972 -1.92312e-05
974 972 -0.00537727
977 972 -0.00688046
978 972 -4.07227e-05
1323 972 -6.39642e-05
1812 972 -0.203468
1814 972 -0.0135299
964 973 -0.00319835
965 973 -0.000105025
966 973 -0.000158905
968 973 -1.2726e-05
969 973 -3.15168e-05
970 973 -4.03614e-06
971 973 -1.47538e-07
972 973 -1.33692e-07
973 973 0.0104704
974 973 -9.47082e-07
977 973 -5.1484e-05
978 973 -0.000374289
1323 973 -0.000635555
1808 973 -0.139969
1812 973 -0.000538333
1814 973 -0.342509
970 974 -4.62821e-15
971 974 -0.000615084
972 974 -3.84468e-05
973 974 -1.21566e-08
974 974 0.00718788
975 974 -0.085574
976 974 -6.4389e-13
977 974 -0.00606882
978 974 -1.30824e-06
1323 974 -3.93437e-06
1808 974 -0.0855726
1812 974 -0.101761
1814 974 -0.00474016
974 975 -0.000615085
975 975 0.0084323
976 975 -0.183558
977 975 -0.184001
978 975 -9.5428e-08
1323 975 -2.86988e-07
1808 975 -0.180042
1812 975 -0.0803667
1814 975 -0.176771
974 976 -1.92246e-13
975 976 -0.0015093
976 976 0.0194613
977 976 -0.156376
978 976 -7.4008e-09
1323 976 -2.2257e-08
1808 976 -0.0455694
1812 976 -0.169987
1814 976 -0.0710107
970 977 -0.00276558
971 977 -0.000716199
972 977 -5.2181e-05
973 977 -8.37777e-07
974 977 -4.49278e-05
975 977 -0.00152145
976 977 -0.00247947
977 977 0.0161413
978 977 -3.5732e-05
1323 977 -0.000117485
1808 977 -0.0623233
1812 977 -0.170588
1814 977 -0.0402161
950 978 -0.000833426
951 978 -0.00408167
952 978 -0.00303872
953 978 -0.0013008
954 978 -0.000615084
962 978 -0.00449067
963 978 -1.48114e-05
964 978 1.42258e-17
965 978 -0.000532147
966 978 -6.04128e-05
968 978 -6.1622e-05
969 978 -1.81232e-05
970 978 -2.48314e-06
971 978 -9.07696e-08
972 978 -2.39906e-07
973 978 -3.27196e-06
974 978 -6.95165e-09
975 978 -5.9488e-10
976 978 -1.09195e-10
977 978 -3.33065e-07
978 978 0.0354452
979 978 -0.114238
1117 978 -0.0526161
1119 978 -0.102383
1120 978 -9.14651e-13
1323 978 -0.000603358
1808 978 -1.35261e-05
1809 978 -0.0092555
1812 978 -0.000626986
1814 978 -0.278768
938 979 -0.00479343
939 979 -7.22714e-05
940 979 -3.46082e-06
941 979 -6.54682e-05
942 979 -3.73006e-07
943 979 -3.19187e-08
944 979 -8.52526e-06
945 979 -6.16163e-06
946 979 -2.16565e-08
947 979 -1.85323e-09
948 979 -3.40176e-10
949 979 -1.1398e-06
950 979 -0.000331193
951 979 -0.00129081
952 979 -0.000911318
953 979 -0.000615105
954 979 -0.00154762
978 979 -0.0040785
979 979 0.0354875
1117 979 -0.107031
1118 979 -0.000561806
1119 979 -0.0510542
1120 979 -0.00933268
1323 979 -6.93426e-05
1808 979 -2.79209e-05
1809 979 -0.00398724
1812 979 -0.00052449
1814 979 -0.209147
980 980 0.00570562
1116 980 -0.0667024
1118 980 -0.164542
1119 980 -0.249112
1120 980 -3.04137e-11
981 981 0.00735091
984 981 -0.24889
1114 981 -0.169152
1115 981 -0.0685647
1120 981 -3.10655e-11
982 982 0.00991921
983 982 -0.330256
1113 982 -0.182678
1120 982 -3.47896e-11
1125 982 -0.0744555
982 983 -0.00261326
983 983 0.022796
984 983 -0.228549
1113 983 -0.100879
1114 983 -0.12995
1115 983 -0.0529738
1120 983 -3.98815e-12
1125 983 -0.00853531
981 984 -0.0023047
983 984 -0.00419352
984 984 0.0363606
1113 984 -0.0116346
1114 984 -0.141685
1115 984 -0.043666
1116 984 -0.0332116
1118 984 -0.0814712
1119 984 -0.143288
1120 984 -2.42903e-12
1125 984 -0.00098439
985 985 0.00635995
989 985 -0.209574
1812 985 -0.232494
986 986 0.010974
989 986 -0.121458
1812 986 -0.231393
987 987 0.00503496
989 987 5.29112e-12
1812 987 -0.297834
1814 987 -0.702166
988 988 0.00927248
989 988 2.89114e-12
1812 988 -0.303498
1814 988 -0.696502
985 989 -0.0010599
986 989 -0.0010599
987 989 -2.13465e-16
988 989 -2.14784e-16
989 989 0.0166473
991 989 -0.2014
1812 989 -0.19947
1814 989 -0.257611
990 990 0.0151289
991 990 -0.195093
992 990 -0.10266
993 990 -0.0406563
996 990 -0.0620039
1814 990 -0.0887756
989 991 -0.00332858
990 991 -0.00299598
991 991 0.0266754
992 991 -0.104719
993 991 -0.0627896
995 991 -0.0275853
996 991 -0.155076
1812 991 -0.0248899
1814 991 -0.335062
990 992 -0.00155318
991 992 -0.00275867
992 992 0.0230724
993 992 -0.0102444
995 992 -0.00329826
996 992 -0.118077
1114 992 -0.195937
1812 992 -0.00297599
1814 992 -0.275185
990 993 -0.000615084
991 993 -0.00167317
992 993 -0.000238358
993 993 0.016122
994 993 -0.0465065
995 993 -0.08757
996 993 -0.0202054
998 993 -0.188087
1114 993 -0.00289685
1812 993 -0.00262712
1814 993 -0.439787
993 994 -0.000749778
994 994 0.0153139
995 994 -0.00428747
996 994 -0.0339013
998 994 -0.00920885
1003 994 -0.205757
1114 994 -0.000141831
1812 994 -0.000128625
1814 994 -0.142007
991 995 0.000102189
992 995 1.07012e-05
993 995 -0.00135838
994 995 -6.31734e-05
995 995 0.0224664
996 995 -0.130583
998 995 -0.0113981
1003 995 -0.00057857
1114 995 -8.22211e-05
1116 995 -0.216518
1812 995 -4.45734e-05
1814 995 -0.371447
990 996 -0.00093805
991 996 -0.00413376
992 996 -0.00329476
993 996 -0.000331447
994 996 -0.000519411
995 996 -0.0031016
996 996 0.0212684
998 996 -0.00481826
999 996 -0.115461
1003 996 -0.00510933
1114 996 -0.0304139
1116 996 -0.0315752
1812 996 -0.00534925
1814 996 -0.281126
997 997 0.00988922
998 997 -0.0621975
999 997 -0.0621975
1000 997 -0.0621975
1002 997 -0.0621975
1812 997 -0.163477
1814 997 -0.0507321
993 998 -0.00305654
994 998 -0.000142149
995 998 -0.000268271
996 998 -0.000101609
997 998 -0.000615105
998 998 0.0178292
999 998 -0.0782223
1000 998 -0.12555
1002 998 -0.0021458
1003 998 -0.00167829
1114 998 -0.000672318
1116 998 -0.00343783
1812 998 -0.0912417
1814 998 -0.305196
996 999 -0.00248587
997 999 -0.000615084
998 999 -0.001385
999 999 0.012698
1000 999 -0.0167068
1002 999 -0.00324685
1003 999 -0.0011833
1114 999 -0.00602739
1116 999 -0.00655638
1812 999 -0.0673571
1814 999 -0.427209
997 1000 -0.000615105
998 1000 -0.00280384
999 1000 -0.00025758
1000 1000 0.0168271
1001 1000 -0.0365544
1002 1000 -0.00268084
1003 1000 -0.00029776
1004 1000 -1.14247e-11
1007 1000 -0.130753
1114 1000 -0.00020429
1116 1000 -0.000673193
1812 1000 -0.202093
1814 1000 -0.0592476
1000 1001 -0.000615084
1001 1001 0.00986674
1002 1001 -0.0625063
1003 1001 -1.85621e-05
1004 1001 -0.0623392
1007 1001 -0.0704902
1114 1001 -1.27353e-05
1116 1001 -4.19663e-05
1812 1001 -0.176448
1814 1001 -0.0545411
997 1002 -0.000615084
998 1002 -3.82567e-05
999 1002 -4.12495e-05
1000 1002 -4.37489e-05
1001 1002 -0.000616684
1002 1002 0.00714929
1003 1002 -1.92312e-05
1004 1002 -0.00537727
1007 1002 -0.00688046
1114 1002 -4.07227e-05
1116 1002 -6.39642e-05
1812 1002 -0.203468
1814 1002 -0.0135299
994 1003 -0.00319835
995 1003 -1.37128e-05
996 1003 -0.000110219
998 1003 -3.01405e-05
999 1003 -1.50836e-05
1000 1003 -4.03614e-06
1001 1003 -1.47538e-07
1002 1003 -1.33692e-07
1003 1003 0.0104704
1004 1003 -9.47082e-07
1007 1003 -5.1484e-05
1114 1003 -0.000374289
1116 1003 -0.000635555
1808 1003 -0.139969
1812 1003 -0.000538333
1814 1003 -0.342509
1000 1004 -4.62821e-15
1001 1004 -0.000615084
1002 1004 -3.84468e-05
1003 1004 -1.21566e-08
1004 1004 0.00718788
1005 1004 -0.085574
1006 1004 -6.4389e-13
1007 1004 -0.00606882
1114 1004 -1.30824e-06
1116 1004 -3.93437e-06
1808 1004 -0.0855726
1812 1004 -0.101761
1814 1004 -0.00474016
1004 1005 -0.000615085
1005 1005 0.0084323
1006 1005 -0.183558
1007 1005 -0.184001
1114 1005 -9.54281e-08
1116 1005 -2.86988e-07
1808 1005 -0.180042
1812 1005 -0.0803667
1814 1005 -0.176771
1004 1006 -1.92245e-13
1005 1006 -0.0015093
1006 1006 0.0194613
1007 1006 -0.156376
1114 1006 -7.4008e-09
1116 1006 -2.2257e-08
1808 1006 -0.0455694
1812 1006 -0.169987
1814 1006 -0.0710107
1000 1007 -0.00276558
1001 1007 -0.000716199
1002 1007 -5.2181e-05
1003 1007 -8.37776e-07
1004 1007 -4.49278e-05
1005 1007 -0.00152145
1006 1007 -0.00247947
1007 1007 0.0161413
1114 1007 -3.5732e-05
1116 1007 -0.000117485
1808 1007 -0.0623233
1812 1007 -0.170588
1814 1007 -0.0402161
1008 1008 0.00635995
1012 1008 -0.209574
1812 1008 -0.232494
1009 1009 0.010974
1012 1009 -0.121458
1812 1009 -0.231393
1010 1010 0.00503496
1012 1010 5.29112e-12
1812 1010 -0.297834
1814 1010 -0.702166
1011 1011 0.00927248
1012 1011 2.89114e-12
1812 1011 -0.303498
1814 1011 -0.696502
1008 1012 -0.0010599
1009 1012 -0.0010599
1010 1012 -2.13464e-16
1011 1012 -2.14785e-16
1012 1012 0.0166473
1014 1012 -0.2014
1812 1012 -0.19947
1814 1012 -0.257611
1013 1013 0.0151289
1014 1013 -0.195093
1015 1013 -0.10266
1018 1013 -0.0406563
1019 1013 -0.0620039
1814 1013 -0.0887756
1012 1014 -0.00332858
1013 1014 -0.00299598
1014 1014 0.0266754
1015 1014 -0.104719
1016 1014 -0.0275853
1018 1014 -0.0627896
1019 1014 -0.155076
1812 1014 -0.0248899
1814 1014 -0.335062
1013 1015 -0.00155318
1014 1015 -0.00275867
1015 1015 0.0230724
1016 1015 -0.00329826
1018 1015 -0.0102444
1019 1015 -0.118077
1113 1015 -0.195937
1812 1015 -0.00297599
1814 1015 -0.275185
1014 1016 0.000102189
1015 1016 1.07012e-05
1016 1016 0.0225856
1017 1016 9.60468e-13
1018 1016 -0.0601434
1019 1016 -0.128584
1113 1016 9.28361e-05
1115 1016 -0.215375
1812 1016 0.000114025
1814 1016 -0.342639
1016 1017 -2.39915e-13
1017 1017 0.0153488
1018 1017 -0.0488493
1019 1017 -0.0328373
1026 1017 -0.20529
1113 1017 1.45111e-15
1115 1017 -3.36649e-12
1812 1017 1.78231e-15
1814 1017 -0.120201
1013 1018 -0.000615084
1014 1018 -0.00167317
1015 1018 -0.000238358
1016 1018 -0.0014118
1017 1018 -0.000749778
1018 1018 0.0160005
1019 1018 -0.0332432
1021 1018 -0.189516
1026 1018 -0.00961984
1113 1018 -0.00291066
1115 1018 -0.0190037
1812 1018 -0.00263701
1814 1018 -0.478993
1013 1019 -0.00093805
1014 1019 -0.00413376
1015 1019 -0.00329476
1016 1019 -0.00307035
1017 1019 -0.000503997
1018 1019 -0.000540729
1019 1019 0.0212684
1021 1019 -0.00481826
1022 1019 -0.115461
1026 1019 -0.00510933
1113 1019 -0.0304139
1115 1019 -0.0315752
1812 1019 -0.00534925
1814 1019 -0.281126
1020 1020 0.00988922
1021 1020 -0.0621975
1022 1020 -0.0621975
1023 1020 -0.0621975
1025 1020 -0.0621975
1812 1020 -0.163477
1814 1020 -0.0507321
1018 1021 -0.00305654
1019 1021 -0.000101609
1020 1021 -0.000615105
1021 1021 0.0178292
1022 1021 -0.0782223
1023 1021 -0.12555
1025 1021 -0.0021458
1026 1021 -0.00167829
1113 1021 -0.000672318
1115 1021 -0.00343783
1812 1021 -0.0912417
1814 1021 -0.305196
1019 1022 -0.00248587
1020 1022 -0.000615084
1021 1022 -0.001385
1022 1022 0.012698
1023 1022 -0.0167068
1025 1022 -0.00324685
1026 1022 -0.0011833
1113 1022 -0.00602739
1115 1022 -0.00655638
1812 1022 -0.0673571
1814 1022 -0.427209
1020 1023 -0.000615105
1021 1023 -0.00280384
1022 1023 -0.00025758
1023 1023 0.0168271
1024 1023 -0.0365544
1025 1023 -0.00268084
1026 1023 -0.00029776
1027 1023 -0.130753
1030 1023 -1.14247e-11
1113 1023 -0.00020429
1115 1023 -0.000673193
1812 1023 -0.202093
1814 1023 -0.0592476
1023 1024 -0.000615084
1024 1024 0.00986674
1025 1024 -0.0625063
1026 1024 -1.85621e-05
1027 1024 -0.0704902
1030 1024 -0.0623392
1113 1024 -1.27353e-05
1115 1024 -4.19663e-05
1812 1024 -0.176448
1814 1024 -0.0545411
1020 1025 -0.000615084
1021 1025 -3.82567e-05
1022 1025 -4.12495e-05
1023 1025 -4.37489e-05
1024 1025 -0.000616684
1025 1025 0.00714929
1026 1025 -1.92312e-05
1027 1025 -0.00688046
1030 1025 -0.00537727
1113 1025 -4.07227e-05
1115 1025 -6.39642e-05
1812 1025 -0.203468
1814 1025 -0.0135299
1017 1026 -0.00319835
1018 1026 -0.000156237
1019 1026 -0.000110219
1021 1026 -3.01405e-05
1022 1026 -1.50836e-05
1023 1026 -4.03614e-06
1024 1026 -1.47538e-07
1025 1026 -1.33692e-07
1026 1026 0.0104704
1027 1026 -5.1484e-05
1030 1026 -9.47082e-07
1113 1026 -0.000374289
1115 1026 -0.000635555
1808 1026 -0.139969
1812 1026 -0.000538333
1814 1026 -0.342509
1023 1027 -0.00276558
1024 1027 -0.000716199
1025 1027 -5.2181e-05
1026 1027 -8.37777e-07
1027 1027 0.0168093
1028 1027 -0.0902841
1029 1027 -0.130892
1030 1027 -0.0026728
1113 1027 -3.42989e-05
1115 1027 -0.000112777
1808 1027 -0.0366002
1812 1027 -0.131189
1814 1027 -0.0121308
1027 1028 -0.00154782
1028 1028 0.00834519
1029 1028 -0.209752
1030 1028 -0.0742011
1113 1028 -6.36157e-06
1115 1028 -2.09172e-05
1808 1028 -0.182402
1812 1028 -0.0980375
1814 1028 -0.180517
1027 1029 -0.00276558
1028 1029 -0.00175899
1029 1029 0.0190074
1030 1029 -0.00725561
1113 1029 -5.57919e-06
1115 1029 -1.83447e-05
1808 1029 -0.0545664
1812 1029 -0.195825
1814 1029 -0.0771402
1023 1030 -4.62821e-15
1024 1030 -0.000615084
1025 1030 -3.84468e-05
1026 1030 -1.21566e-08
1027 1030 -4.3622e-05
1028 1030 -0.000619034
1029 1030 -0.000135553
1030 1030 0.00714085
1113 1030 -2.18377e-06
1115 1030 -6.81074e-06
1808 1030 -0.103208
1812 1030 -0.115449
1814 1030 -0.0219587
1031 1031 0.0158995
1111 1031 -2.88767e-11
1116 1031 -0.0573192
1118 1031 -0.187435
1032 1032 0.00550089
1111 1032 -0.111815
1116 1032 -0.279102
1118 1032 -0.111815
1814 1032 -0.329641
1033 1033 0.00654144
1111 1033 -0.0940289
1116 1033 -0.0940289
1118 1033 -0.196341
1814 1033 -0.0925062
1034 1034 0.0158995
1089 1034 -2.88767e-11
1114 1034 -0.187435
1115 1034 -0.0573192
1035 1035 0.00550089
1089 1035 -0.111815
1114 1035 -0.111815
1115 1035 -0.279102
1814 1035 -0.329641
1036 1036 0.00654144
1089 1036 -0.0940289
1114 1036 -0.196341
1115 1036 -0.0940289
1814 1036 -0.0925062
1037 1037 0.111657
1038 1037 -0.157749
1814 1037 -0.122949
1037 1038 -0.0177543
1038 1038 0.0564743
1039 1038 3.51547e-13
1040 1038 0.00146866
1112 1038 -0.0431344
1122 1038 -0.021382
1814 1038 -0.586078
1038 1039 2.43958e-14
1039 1039 0.0119711
1040 1039 -2.99298e-15
1049 1039 -0.242668
1112 1039 -0.0421012
1122 1039 -0.0783626
1814 1039 -0.413135
1038 1040 -0.00060447
1039 1040 2.125e-16
1040 1040 0.0122999
1048 1040 -0.236181
1049 1040 4.19246e-15
1112 1040 -0.158352
1122 1040 -0.0229597
1814 1040 -0.378709
1041 1041 0.0105942
1047 1041 -0.258657
1111 1041 -0.0990183
1814 1041 -0.205167
1042 1042 0.00856431
1043 1042 -0.120135
1047 1042 -0.188768
1048 1042 -0.0325886
1814 1042 -0.183181
1042 1043 -0.00102888
1043 1043 0.0130402
1047 1043 -0.0746924
1048 1043 -0.163559
1054 1043 -0.15685
1814 1043 -0.124441
1044 1044 0.00690961
1046 1044 -0.22984
1054 1044 -0.118239
1055 1044 -0.117666
1045 1045 0.00856431
1046 1045 -0.120135
1047 1045 -0.188768
1049 1045 -0.0325886
1814 1045 -0.183181
1044 1046 -0.00125983
1045 1046 -0.00102888
1046 1046 0.0135973
1047 1046 -0.0716324
1049 1046 -0.156858
1054 1046 -0.0799433
1055 1046 -0.16637
1814 1046 -0.262195
1041 1047 -0.00272197
1042 1047 -0.00164151
1043 1047 -0.000989502
1045 1047 -0.00164151
1046 1047 -0.000989502
1047 1047 0.0166426
1048 1047 -0.0443536
1049 1047 -0.0439552
1054 1047 -0.0140788
1055 1047 -0.00989169
1111 1047 -0.0161949
1814 1047 -0.344777
1040 1048 -0.00292448
1042 1048 -0.000279106
1043 1048 -0.0019172
1047 1048 -0.000708327
1048 1048 0.0117043
1049 1048 -0.00266011
1054 1048 -0.0265445
1055 1048 -0.000598632
1111 1048 -0.000980093
1112 1048 -0.0395665
1122 1048 -0.0057368
1814 1048 -0.419959
1039 1049 -0.00292448
1040 1049 -8.7529e-18
1045 1049 -0.000279106
1046 1049 -0.0019172
1047 1049 -0.000702461
1048 1049 -3.11566e-05
1049 1049 0.0116986
1054 1049 -0.0140174
1055 1049 -0.0278606
1111 1049 -0.000975057
1112 1049 -0.01063
1122 1049 -0.0196047
1814 1049 -0.45229
1050 1050 0.00150265
1053 1050 -1.97985e-07
1054 1050 7.3834e-21
1113 1050 -0.154696
1125 1050 -0.154699
1051 1051 0.00150352
1052 1051 -3.00912e-07
1054 1051 7.8013e-21
1114 1051 -0.154607
1115 1051 -0.15461
1051 1052 -4.64916e-10
1052 1052 0.00653768
1053 1052 -1.25821e-07
1054 1052 5.54776e-28
1114 1052 -0.135304
1115 1052 -0.099751
1809 1052 -0.099747
1050 1053 -2.79933e-10
1052 1053 -7.34566e-10
1053 1053 0.00845904
1054 1053 2.44338e-28
1055 1053 -1.07967e-07
1113 1053 -0.104572
1114 1053 -0.0770907
1115 1053 -0.0770907
1125 1053 -0.0770938
1809 1053 -8.66183e-09
1043 1054 -0.002073
1044 1054 -0.000833426
1046 1054 -0.0011296
1047 1054 -0.000235754
1048 1054 -0.000349514
1049 1054 -0.00018848
1050 1054 -5.41469e-23
1051 1054 -5.40094e-23
1052 1054 -1.62521e-29
1053 1054 -1.07203e-29
1054 1054 0.0138346
1055 1054 -0.0212359
1111 1054 -0.00031402
1112 1054 -0.00114442
1113 1054 -6.05461e-22
1114 1054 -6.03576e-22
1115 1054 -0.016802
1122 1054 -0.000412025
1125 1054 -0.016802
1809 1054 -0.104573
1814 1054 -0.441563
1044 1055 -0.000833426
1046 1055 -0.00231823
1047 1055 -0.00016606
1048 1055 -7.36536e-06
1049 1055 -0.000370952
1053 1055 -3.86059e-11
1054 1055 -0.000291603
1055 1055 0.0124185
1111 1055 -0.000253639
1112 1055 -0.000367867
1113 1055 -0.0525114
1114 1055 -2.39655e-10
1115 1055 -0.000394534
1122 1055 -0.000598688
1125 1055 -0.0529059
1809 1055 -0.118952
1814 1055 -0.463844
1056 1056 0.00692919
1060 1056 -1.06148e-08
1088 1056 -0.174273
1089 1056 -0.174273
1121 1056 -1.06148e-08
1057 1057 0.0279677
1059 1057 -0.0431766
1121 1057 -0.29396
1814 1057 -0.0527173
1058 1058 0.00694361
1059 1058 -4.4477e-08
1060 1058 -5.21052e-08
1111 1058 -0.173912
1117 1058 -0.173908
1057 1059 -0.0012076
1058 1059 -3.7747e-10
1059 1059 0.0135379
1060 1059 -1.45282e-15
1111 1059 -4.84909e-09
1117 1059 -0.0891997
1121 1059 -0.0262218
1809 1059 -0.172167
1814 1059 -0.00470247
1056 1060 -3.15346e-12
1058 1060 -1.52624e-11
1059 1060 -6.78826e-19
1060 1060 0.00859098
1088 1060 -6.397e-11
1089 1060 -0.14056
1111 1060 -0.14056
1117 1060 -3.08959e-10
1121 1060 -5.9683e-18
1809 1060 -0.0836892
1814 1060 -0.135056
1061 1061 0.0148828
1088 1061 -3.08493e-11
1113 1061 -0.199044
1125 1061 -0.0612349
1062 1062 0.00654144
1088 1062 -0.0940289
1113 1062 -0.196341
1125 1062 -0.0940289
1814 1062 -0.0925062
1063 1063 0.00550089
1088 1063 -0.111815
1113 1063 -0.111815
1125 1063 -0.279102
1814 1063 -0.329641
1064 1064 0.111657
1065 1064 -0.157749
1814 1064 -0.122949
1064 1065 -0.0177543
1065 1065 0.0564743
1066 1065 0.00146866
1067 1065 4.96641e-13
1112 1065 -0.043134
1122 1065 -0.0213826
1814 1065 -0.586077
1065 1066 -0.00060447
1066 1066 0.0122999
1067 1066 2.4407e-14
1068 1066 -0.236181
1112 1066 -0.158352
1122 1066 -0.0229598
1814 1066 -0.378709
1065 1067 -2.39971e-13
1066 1067 3.52436e-16
1067 1067 0.0148876
1068 1067 5.59114e-15
1069 1067 -0.21071
1112 1067 -0.0338546
1122 1067 -0.0630089
1814 1067 -0.136868
1066 1068 -0.00292448
1067 1068 7.13778e-17
1068 1068 0.0123293
1069 1068 -0.131124
1112 1068 -0.0375607
1122 1068 -0.00544599
1814 1068 -0.288936
1067 1069 -0.00319835
1068 1069 -0.00164151
1069 1069 0.0170275
1070 1069 -0.159857
1112 1069 -0.00998003
1122 1069 -0.0123602
1814 1069 -0.346961
1069 1070 -0.00274026
1070 1070 0.0101561
1088 1070 -0.103289
1112 1070 -0.00269275
1122 1070 -0.00333496
1814 1070 -0.307631
1071 1071 0.0105942
1083 1071 -0.258657
1089 1071 -0.0990183
1814 1071 -0.205167
1072 1072 0.00690961
1074 1072 -0.22984
1086 1072 -0.118239
1087 1072 -0.117666
1073 1073 0.00856431
1074 1073 -0.120135
1082 1073 -0.0325886
1083 1073 -0.188768
1814 1073 -0.183181
1072 1074 -0.00125983
1073 1074 -0.00102888
1074 1074 0.0135973
1082 1074 -0.156858
1083 1074 -0.0716324
1086 1074 -0.0799433
1087 1074 -0.16637
1814 1074 -0.262195
1075 1075 0.00856431
1076 1075 -0.120135
1081 1075 -0.0325886
1083 1075 -0.188768
1814 1075 -0.183181
1075 1076 -0.00102888
1076 1076 0.0130402
1081 1076 -0.163559
1083 1076 -0.0746924
1086 1076 -0.15685
1814 1076 -0.124441
1077 1077 0.111657
1078 1077 -0.157749
1814 1077 -0.122949
1077 1078 -0.0177543
1078 1078 0.0564743
1079 1078 3.51545e-13
1080 1078 0.00146866
1112 1078 -0.0431344
1122 1078 -0.021382
1814 1078 -0.586078
1078 1079 2.43958e-14
1079 1079 0.0119711
1080 1079 -2.99298e-15
1082 1079 -0.242668
1112 1079 -0.0421012
1122 1079 -0.0783626
1814 1079 -0.413135
1078 1080 -0.00060447
1079 1080 2.12498e-16
1080 1080 0.0122999
1081 1080 -0.236181
1082 1080 4.19243e-15
1112 1080 -0.158352
1122 1080 -0.0229597
1814 1080 -0.378709
1075 1081 -0.000279106
1076 1081 -0.0019172
1080 1081 -0.00292448
1081 1081 0.0117357
1082 1081 1.04473e-15
1083 1081 -0.0603566
1086 1081 -0.0256237
1112 1081 -0.0394606
1122 1081 -0.00572145
1814 1081 -0.398026
1073 1082 -0.000279106
1074 1082 -0.0019172
1079 1082 -0.00292448
1080 1082 -8.7529e-18
1081 1082 -2.06726e-18
1082 1082 0.0117296
1083 1082 -0.059888
1086 1082 -0.0130667
1087 1082 -0.0271931
1112 1082 -0.0104969
1122 1082 -0.0195377
1814 1082 -0.429333
1071 1083 -0.00272197
1073 1083 -0.00164151
1074 1083 -0.000989502
1075 1083 -0.00164151
1076 1083 -0.000989502
1081 1083 -0.000738157
1082 1083 -0.000731527
1083 1083 0.0165542
1086 1083 -0.0158739
1087 1083 -0.0111461
1089 1083 -0.0162813
1112 1083 -0.00222341
1122 1083 -0.00111849
1814 1083 -0.383338
1084 1084 0.00150224
1085 1084 -1.64321e-07
1086 1084 7.18702e-21
1113 1084 -0.154738
1125 1084 -0.154741
1084 1085 -2.09838e-10
1085 1085 0.00474902
1086 1085 3.17562e-28
1087 1085 -8.87566e-08
1113 1085 -0.14208
1125 1085 -0.0931349
1809 1085 -0.0931311
1072 1086 -0.000833426
1074 1086 -0.0011296
1076 1086 -0.002073
1081 1086 -0.000339058
1082 1086 -0.000177188
1083 1086 -0.00026683
1084 1086 -5.42115e-23
1085 1086 -8.90809e-30
1086 1086 0.0114056
1087 1086 -0.0257584
1089 1086 -0.000380896
1112 1086 -0.00138814
1113 1086 -7.35478e-22
1122 1086 -0.000499772
1125 1086 -0.0203802
1809 1086 -0.0630368
1814 1086 -0.44992
1072 1087 -0.000833426
1074 1087 -0.00231823
1082 1087 -0.000363633
1083 1087 -0.000187837
1085 1087 -1.80322e-11
1086 1087 -0.000291603
1087 1087 0.0095671
1089 1087 -0.000331272
1112 1087 -0.000484936
1113 1087 -0.0462294
1122 1087 -0.000779797
1125 1087 -0.0468506
1809 1087 -0.0770719
1814 1087 -0.500199
1056 1088 -0.00120755
1060 1088 -1.2818e-11
1061 1088 -1.02665e-14
1062 1088 -0.000615084
1063 1088 -0.000615096
1070 1088 -0.00106546
1088 1088 0.0198518
1089 1088 -0.0106008
1111 1088 -9.07575e-11
1112 1088 -0.000144521
1113 1088 -0.0516547
1117 1088 -1.99489e-19
1121 1088 -0.0608283
1122 1088 -0.000178989
1125 1088 -0.179232
1809 1088 -5.40367e-11
1814 1088 -0.33992
1034 1089 -1.02665e-14
1035 1089 -0.000615096
1036 1089 -0.000615084
1056 1089 -0.00120755
1060 1089 -0.00120755
1071 1089 -0.00106546
1083 1089 -0.000275589
1086 1089 -4.37467e-06
1087 1089 -3.18444e-06
1088 1089 -0.000210444
1089 1089 0.0196799
1111 1089 -0.00862474
1112 1089 -3.30682e-05
1113 1089 -0.000559843
1114 1089 -0.0521059
1115 1089 -0.180798
1117 1089 -1.89576e-11
1121 1089 -0.000650459
1122 1089 -1.78141e-05
1125 1089 -0.00192871
1809 1089 -0.00516163
1814 1089 -0.354813
1090 1090 0.0105942
1102 1090 -0.258657
1117 1090 -0.0990183
1814 1090 -0.205167
1091 1091 0.00690961
1093 1091 -0.22984
1109 1091 -0.118239
1110 1091 -0.117666
1092 1092 0.00856431
1093 1092 -0.120135
1101 1092 -0.0325886
1102 1092 -0.188768
1814 1092 -0.183181
1091 1093 -0.00125983
1092 1093 -0.00102888
1093 1093 0.0135973
1101 1093 -0.156858
1102 1093 -0.0716324
1109 1093 -0.0799433
1110 1093 -0.16637
1814 1093 -0.262195
1094 1094 0.00856431
1095 1094 -0.120135
1100 1094 -0.0325886
1102 1094 -0.188768
1814 1094 -0.183181
1094 1095 -0.00102888
1095 1095 0.0130402
1100 1095 -0.163559
1102 1095 -0.0746924
1109 1095 -0.15685
1814 1095 -0.124441
1096 1096 0.111657
1097 1096 -0.157749
1814 1096 -0.122949
1096 1097 -0.0177543
1097 1097 0.0564743
1098 1097 3.51547e-13
1099 1097 0.00146866
1112 1097 -0.0431344
1122 1097 -0.021382
1814 1097 -0.586078
1097 1098 2.4396e-14
1098 1098 0.0119711
1099 1098 -2.993e-15
1101 1098 -0.242668
1112 1098 -0.0421012
1122 1098 -0.0783626
1814 1098 -0.413135
1097 1099 -0.00060447
1098 1099 2.12499e-16
1099 1099 0.0122999
1100 1099 -0.236181
1101 1099 4.19245e-15
1112 1099 -0.158352
1122 1099 -0.0229597
1814 1099 -0.378709
1094 1100 -0.000279106
1095 1100 -0.0019172
1099 1100 -0.00292448
1100 1100 0.0117357
1101 1100 1.04474e-15
1102 1100 -0.0603566
1109 1100 -0.0256237
1112 1100 -0.0394606
1122 1100 -0.00572145
1814 1100 -0.398026
1092 1101 -0.000279106
1093 1101 -0.0019172
1098 1101 -0.00292448
1099 1101 -8.75296e-18
1100 1101 -2.06728e-18
1101 1101 0.0117296
1102 1101 -0.059888
1109 1101 -0.0130667
1110 1101 -0.0271931
1112 1101 -0.0104969
1122 1101 -0.0195377
1814 1101 -0.429333
1090 1102 -0.00272197
1092 1102 -0.00164151
1093 1102 -0.000989502
1094 1102 -0.00164151
1095 1102 -0.000989502
1100 1102 -0.000738157
1101 1102 -0.000731527
1102 1102 0.0165542
1109 1102 -0.0158739
1110 1102 -0.0111461
1112 1102 -0.00222341
1117 1102 -0.0162813
1122 1102 -0.00111849
1814 1102 -0.383338
1103 1103 0.00150439
1104 1103 -4.68445e-07
1109 1103 8.21973e-21
1116 1103 -0.15452
1118 1103 -0.154517
1103 1104 -7.2217e-10
1104 1104 0.00817939
1108 1104 -2.31239e-07
1109 1104 7.25732e-28
1116 1104 -0.103875
1118 1104 -0.132292
1809 1104 -0.103871
1105 1105 0.00150398
1108 1105 -3.8095e-07
1109 1105 8.02608e-21
1114 1105 -0.154559
1115 1105 -0.154562
1106 1106 0.00150282
1107 1106 -2.14392e-07
1109 1106 7.4653e-21
1113 1106 -0.154678
1125 1106 -0.154682
1106 1107 -3.11935e-10
1107 1107 0.0106399
1108 1107 -1.13068e-07
1109 1107 2.18865e-28
1110 1107 -1.3204e-07
1113 1107 -0.1017
1114 1107 -0.079851
1115 1107 -0.079851
1125 1107 -0.0798542
1104 1108 -1.93914e-09
1105 1108 -5.91965e-10
1107 1108 -1.50912e-09
1108 1108 0.0106516
1109 1108 4.46051e-28
1110 1108 -1.87074e-14
1113 1108 -1.44088e-08
1114 1108 -0.101588
1115 1108 -0.0797662
1116 1108 -0.0797629
1118 1108 -0.079763
1125 1108 -1.13137e-08
1809 1108 -1.89099e-08
1091 1109 -0.000833426
1093 1109 -0.0011296
1095 1109 -0.002073
1100 1109 -0.000339058
1101 1109 -0.000177188
1102 1109 -0.00026683
1103 1109 -5.38717e-23
1104 1109 -2.52359e-29
1105 1109 -5.39354e-23
1106 1109 -5.412e-23
1107 1109 -1.16029e-29
1108 1109 -2.05467e-29
1109 1109 0.0145586
1110 1109 -0.0201798
1112 1109 -0.00108751
1113 1109 -5.75e-22
1114 1109 -5.72596e-22
1115 1109 -0.0159664
1116 1109 -0.0159664
1117 1109 -0.000298404
1118 1109 -5.71765e-22
1122 1109 -0.000391534
1125 1109 -0.0159664
1809 1109 -0.099372
1814 1109 -0.419604
1091 1110 -0.000833426
1093 1110 -0.00231823
1101 1110 -0.000363633
1102 1110 -0.000187837
1107 1110 -5.8967e-11
1108 1110 -6.66728e-18
1109 1110 -0.000291603
1110 1110 0.0134696
1112 1110 -0.00033793
1113 1110 -0.0630757
1114 1110 -3.49571e-10
1115 1110 -0.000345658
1116 1110 -0.000345657
1117 1110 -0.000233509
1118 1110 -3.94818e-17
1122 1110 -0.000551527
1125 1110 -0.0634214
1809 1110 -0.109558
1814 1110 -0.427174
1031 1111 -1.02665e-14
1032 1111 -0.000615096
1033 1111 -0.000615084
1041 1111 -0.00106546
1047 1111 -0.000275589
1048 1111 -1.22233e-05
1049 1111 -1.21461e-05
1054 1111 -4.37467e-06
1055 1111 -3.16465e-06
1058 1111 -0.00120755
1059 1111 -5.37084e-11
1060 1111 -0.00120755
1088 1111 -7.7247e-14
1089 1111 -0.000169734
1111 1111 0.0196811
1112 1111 -3.17325e-05
1113 1111 -1.32718e-05
1114 1111 -0.000449372
1115 1111 -0.00156304
1116 1111 -0.180787
1117 1111 -0.0106703
1118 1111 -0.0521027
1121 1111 -5.60977e-06
1122 1111 -1.60033e-05
1125 1111 -2.88754e-05
1809 1111 -0.00522171
1814 1111 -0.354209
1038 1112 -0.00245544
1039 1112 -0.000503997
1040 1112 -0.00194784
1048 1112 -0.000460041
1049 1112 -0.000123528
1054 1112 -1.39431e-05
1055 1112 -4.01305e-06
1065 1112 -0.00245544
1066 1112 -0.00194784
1067 1112 -0.000503997
1068 1112 -0.000460041
1069 1112 -0.000166519
1070 1112 -2.66193e-05
1078 1112 -0.00245544
1079 1112 -0.000503997
1080 1112 -0.00194784
1081 1112 -0.000460041
1082 1112 -0.000122304
1083 1112 -3.50911e-05
1086 1112 -1.39431e-05
1087 1112 -4.07611e-06
1088 1112 -2.74948e-06
1089 1112 -6.07137e-07
1097 1112 -0.00245544
1098 1112 -0.000503997
1099 1112 -0.00194784
1100 1112 -0.000460041
1101 1112 -0.000122304
1102 1112 -3.50911e-05
1109 1112 -1.39431e-05
1110 1112 -3.99832e-06
1111 1112 -5.81962e-07
1112 1112 0.0322102
1113 1112 -2.46424e-05
1114 1112 -9.90275e-07
1115 1112 -1.77129e-05
1116 1112 -1.02208e-05
1117 1112 -1.80885e-05
1118 1112 -9.41373e-07
1121 1112 -5.2047e-06
1122 1112 -0.123834
1125 1112 -5.87361e-05
1809 1112 -0.000153935
1814 1112 -0.341008
982 1113 -0.00185842
983 1113 -0.00247218
984 1113 -0.000565015
1015 1113 -0.00449067
1016 1113 -1.48114e-05
1017 1113 1.42259e-17
1018 1113 -4.68949e-05
1019 1113 -0.000533706
1021 1113 -1.14589e-05
1022 1113 -6.25183e-05
1023 1113 -2.48314e-06
1024 1113 -9.07696e-08
1025 1113 -2.39906e-07
1026 1113 -3.27196e-06
1027 1113 -3.32896e-07
1028 1113 -3.00552e-08
1029 1113 -4.98775e-08
1030 1113 -1.04334e-08
1050 1113 -0.000232449
1053 1113 -0.000884565
1054 1113 1.71627e-24
1055 1113 -0.000652113
1061 1113 -0.00303872
1062 1113 -0.0013008
1063 1113 -0.000615084
1084 1113 -0.000232449
1085 1113 -0.000674731
1086 1113 1.67062e-24
1087 1113 -0.000442281
1088 1113 -0.00186499
1089 1113 -1.99168e-05
1106 1113 -0.000232449
1107 1113 -0.00108205
1108 1113 -1.22346e-10
1109 1113 1.73531e-24
1110 1113 -0.000849602
1111 1113 -3.37178e-07
1112 1113 -1.01167e-06
1113 1113 0.0373229
1114 1113 -0.0149224
1115 1113 -0.00899626
1116 1113 -0.000512278
1117 1113 -5.41238e-06
1118 1113 -0.00123383
1119 1113 -0.00216917
1120 1113 -2.03322e-12
1121 1113 -0.00303988
1122 1113 -4.4566e-05
1125 1113 -0.127269
1808 1113 -1.28457e-05
1809 1113 -0.00717205
1812 1113 -0.000595444
1814 1113 -0.305687
981 1114 -0.00126827
983 1114 -0.00303872
984 1114 -0.00531716
992 1114 -0.00449067
993 1114 -4.60041e-05
994 1114 -2.13949e-06
995 1114 -1.88491e-05
996 1114 -0.000533706
998 1114 -1.14589e-05
999 1114 -6.25183e-05
1000 1114 -2.48314e-06
1001 1114 -9.07696e-08
1002 1114 -2.39906e-07
1003 1114 -3.27196e-06
1004 1114 -6.95164e-09
1005 1114 -5.9488e-10
1006 1114 -1.09195e-10
1007 1114 -3.33064e-07
1034 1114 -0.00303872
1035 1114 -0.000615084
1036 1114 -0.0013008
1051 1114 -0.00023245
1052 1114 -0.000884564
1053 1114 -0.000652114
1054 1114 1.81341e-24
1055 1114 -7.04071e-11
1089 1114 -0.00186499
1105 1114 -0.00023245
1107 1114 -0.000849603
1108 1114 -0.00108206
1109 1114 1.86566e-24
1110 1114 -1.12181e-10
1111 1114 -1.6085e-05
1112 1114 -6.21822e-08
1113 1114 -0.000524048
1114 1114 0.0399307
1115 1114 -0.125115
1116 1114 -0.00719902
1117 1114 -4.36932e-06
1118 1114 -0.0130473
1119 1114 -0.0191086
1120 1114 -1.64033e-12
1121 1114 -7.02776e-05
1122 1114 -1.61619e-06
1125 1114 -0.00549906
1808 1114 -1.21753e-05
1809 1114 -0.00254695
1812 1114 -0.00056437
1814 1114 -0.268181
981 1115 -0.000503997
983 1115 -0.00120755
984 1115 -0.00160898
1016 1115 -0.00479343
1017 1115 4.60393e-15
1018 1115 -0.000288293
1019 1115 -0.000625941
1021 1115 -5.76521e-05
1022 1115 -7.67811e-05
1023 1115 -8.52098e-06
1024 1115 -3.11479e-07
1025 1115 -4.15319e-07
1026 1115 -6.16163e-06
1027 1115 -1.13928e-06
1028 1115 -1.02858e-07
1029 1115 -1.70697e-07
1030 1115 -3.35722e-08
1034 1115 -0.000911318
1035 1115 -0.00154762
1036 1115 -0.000615105
1051 1115 -0.000232449
1052 1115 -0.000652114
1053 1115 -0.000652114
1054 1115 -0.000232449
1055 1115 -4.93633e-06
1089 1115 -0.00358366
1105 1115 -0.000232449
1107 1115 -0.000849603
1108 1115 -0.000849603
1109 1115 -0.000232449
1110 1115 -4.69089e-06
1111 1115 -3.09824e-05
1112 1115 -6.41699e-07
1113 1115 -0.000317632
1114 1115 -0.00487028
1115 1115 0.040708
1116 1115 -0.00407148
1117 1115 -1.04172e-05
1118 1115 -0.0064951
1119 1115 -0.00796649
1120 1115 -0.0123808
1121 1115 -8.93937e-05
1122 1115 -8.79816e-06
1125 1115 -0.00521529
1808 1115 -2.45419e-05
1809 1115 -0.00360853
1812 1115 -0.000466578
1814 1115 -0.225399
980 1116 -0.000380566
984 1116 -0.00120755
995 1116 -0.00479343
996 1116 -0.000625941
998 1116 -5.7652e-05
999 1116 -7.67811e-05
1000 1116 -8.52098e-06
1001 1116 -3.11479e-07
1002 1116 -4.15319e-07
1003 1116 -6.16163e-06
1004 1116 -2.16565e-08
1005 1116 -1.85323e-09
1006 1116 -3.40176e-10
1007 1116 -1.1398e-06
1031 1116 -0.000911318
1032 1116 -0.00154762
1033 1116 -0.000615105
1103 1116 -0.000232449
1104 1116 -0.000849603
1108 1116 -0.000849603
1109 1116 -0.000232449
1110 1116 -4.69078e-06
1111 1116 -0.00358366
1112 1116 -3.68094e-07
1113 1116 -1.43928e-05
1114 1116 -0.000279163
1115 1116 -0.00016487
1116 1116 0.0385243
1117 1116 -0.000994494
1118 1116 -0.114542
1119 1116 -0.0384708
1120 1116 -0.00993156
1121 1116 -2.54943e-06
1122 1116 -5.16751e-06
1125 1116 -0.000247319
1808 1116 -2.4486e-05
1809 1116 -0.00342599
1812 1116 -0.000423075
1814 1116 -0.201706
952 1117 -1.02665e-14
953 1117 -0.000615084
954 1117 -0.000615096
978 1117 -0.00102544
979 1117 -0.00367523
1058 1117 -0.00120755
1059 1117 -0.00120755
1060 1117 -6.29197e-11
1088 1117 -4.02497e-21
1089 1117 -8.84402e-12
1090 1117 -0.00106546
1102 1117 -0.000275589
1109 1117 -4.37467e-06
1110 1117 -3.16003e-06
1111 1117 -0.000210007
1112 1117 -6.25237e-07
1113 1117 -2.02124e-07
1114 1117 -9.73887e-08
1115 1117 -4.13205e-07
1116 1117 -3.804e-05
1117 1117 0.019295
1118 1117 -0.000900135
1119 1117 -0.0152419
1120 1117 -0.00179749
1121 1117 -0.00164116
1122 1117 -2.03521e-05
1125 1117 -1.62832e-05
1323 1117 -4.52738e-05
1808 1117 -6.08609e-06
1809 1117 -0.0121304
1812 1117 -0.000134077
1814 1117 -0.408932
934 1118 -0.00449067
935 1118 -0.000530243
936 1118 -1.23165e-05
937 1118 -5.47122e-05
938 1118 -9.48737e-05
939 1118 -6.1622e-05
940 1118 -2.95086e-06
941 1118 -1.81232e-05
942 1118 -2.27576e-07
943 1118 -1.9474e-08
944 1118 -2.48575e-06
945 1118 -3.27196e-06
946 1118 -6.95165e-09
947 1118 -5.9488e-10
948 1118 -1.09195e-10
949 1118 -3.33065e-07
979 1118 -2.13862e-05
980 1118 -0.000957668
984 1118 -0.00303872
1031 1118 -0.00303872
1032 1118 -0.000615084
1033 1118 -0.0013008
1103 1118 -0.00023245
1104 1118 -0.00108206
1108 1118 -0.000849605
1109 1118 1.91068e-24
1110 1118 -1.58939e-17
1111 1118 -0.00186499
1112 1118 -5.91808e-08
1113 1118 -3.5379e-05
1114 1118 -0.000518217
1115 1118 -0.000268528
1116 1118 -0.00453226
1117 1118 -2.67015e-05
1118 1118 0.0377623
1119 1118 -0.128656
1120 1118 -0.00128659
1121 1118 -6.19163e-06
1122 1118 -1.74553e-06
1125 1118 -0.000342122
1323 1118 -7.12841e-08
1808 1118 -1.60087e-05
1809 1118 -0.00372361
1812 1118 -0.000651305
1814 1118 -0.309343
951 1119 -0.00521002
978 1119 -0.00369034
979 1119 -0.00186498
980 1119 -0.00179255
984 1119 -0.00419352
1113 1119 -4.87898e-05
1114 1119 -0.000594887
1115 1119 -0.000257983
1116 1119 -0.00147175
1117 1119 -0.000395251
1118 1119 -0.0047303
1119 1119 0.0338403
1120 1119 -0.00124149
1121 1119 -2.64445e-05
1122 1119 -8.66184e-07
1125 1119 -0.000500675
1323 1119 -7.01574e-05
1808 1119 -6.8072e-06
1809 1119 -0.0144973
1812 1119 -0.000222623
1814 1119 -0.105589
924 1120 -0.000740245
925 1120 -0.00106356
926 1120 -0.00229462
950 1120 -3.53565e-15
951 1120 -8.88854e-16
978 1120 -7.00698e-16
979 1120 -0.000331193
980 1120 -3.97685e-15
981 1120 -5.19253e-15
982 1120 -7.76341e-15
983 1120 -2.56391e-15
984 1120 -1.87835e-15
1113 1120 -1.69871e-15
1114 1120 -1.50299e-15
1115 1120 -0.000503997
1116 1120 -0.000382618
1117 1120 -3.58336e-05
1118 1120 -4.73177e-05
1119 1120 -4.22774e-05
1120 1120 0.0145653
1121 1120 -7.29466e-06
1122 1120 -4.98439e-07
1125 1120 -0.0508932
1323 1120 -1.892e-06
1328 1120 -0.047405
1789 1120 -0.0164724
1808 1120 -2.21405e-06
1809 1120 -0.0997158
1812 1120 -4.22766e-05
1814 1120 -0.379353
918 1121 -0.00048306
919 1121 -0.000628548
920 1121 -0.00140873
921 1121 -0.00199367
1056 1121 -3.15346e-12
1057 1121 -0.00836603
1059 1121 -0.000361217
1060 1121 -5.58258e-19
1088 1121 -0.00120755
1089 1121 -1.2801e-05
1111 1121 -1.10407e-07
1112 1121 -1.74944e-07
1113 1121 -6.23829e-05
1114 1121 -1.59796e-06
1115 1121 -3.07571e-06
1116 1121 -7.59457e-08
1117 1121 -3.22221e-05
1118 1121 -1.61252e-07
1119 1121 -7.05149e-07
1120 1121 -9.78358e-08
1121 1121 0.0333469
1122 1121 -0.00342378
1124 1121 -0.00985849
1125 1121 -0.00673008
1321 1121 -0.0081999
1323 1121 -4.5236e-08
1328 1121 -0.0116166
1789 1121 -4.8328e-08
1808 1121 -3.30421e-08
1809 1121 -0.0743814
1812 1121 -1.32249e-06
1814 1121 -0.333826
914 1122 -0.000740245
915 1122 -0.00106356
916 1122 -0.00424034
919 1122 -0.00183713
923 1122 -0.00183713
1038 1122 -0.00120753
1039 1122 -0.00093805
1040 1122 -0.000267705
1048 1122 -6.32266e-05
1049 1122 -0.000227803
1054 1122 -4.87153e-06
1055 1122 -6.48804e-06
1065 1122 -0.00120753
1066 1122 -0.000267705
1067 1122 -0.00093805
1068 1122 -6.32266e-05
1069 1122 -0.000205947
1070 1122 -3.2922e-05
1078 1122 -0.00120753
1079 1122 -0.00093805
1080 1122 -0.000267705
1081 1122 -6.32266e-05
1082 1122 -0.000227635
1083 1122 -1.74487e-05
1086 1122 -4.87153e-06
1087 1122 -6.51007e-06
1088 1122 -3.40049e-06
1089 1122 -3.24149e-07
1097 1122 -0.00120753
1098 1122 -0.00093805
1099 1122 -0.000267705
1100 1122 -6.32266e-05
1101 1122 -0.000227635
1102 1122 -1.74487e-05
1109 1122 -4.87153e-06
1110 1122 -6.48289e-06
1111 1122 -2.9006e-07
1112 1122 -0.00405356
1113 1122 -1.32629e-06
1114 1122 -4.0826e-08
1115 1122 -3.12332e-07
1116 1122 -1.76136e-07
1117 1122 -3.6366e-07
1118 1122 -4.36289e-08
1119 1122 -2.40774e-08
1120 1122 -6.35592e-09
1121 1122 -0.000111471
1122 1122 0.0464458
1123 1122 -0.0148461
1124 1122 -0.00287294
1125 1122 -6.64815e-05
1321 1122 -0.00712557
1323 1122 -4.99746e-10
1328 1122 -0.00719751
1789 1122 -0.00675823
1808 1122 -7.81237e-10
1809 1122 -0.0392473
1812 1122 -2.71982e-08
1814 1122 -0.412963
769 1123 -3.97684e-15
770 1123 -3.53565e-15
771 1123 -1.19897e-15
772 1123 -1.55723e-15
773 1123 -0.000331193
774 1123 -3.90542e-05
775 1123 -7.76358e-15
776 1123 -5.19253e-15
777 1123 -2.56397e-15
907 1123 -1.67689e-15
908 1123 -1.23304e-15
909 1123 -0.000503997
910 1123 -3.56556e-05
911 1123 -3.32183e-06
912 1123 -0.000382819
913 1123 -4.91681e-05
914 1123 -0.000740245
915 1123 -0.00106356
916 1123 -0.00229462
1122 1123 -0.000690469
1123 1123 0.0145551
1124 1123 -0.000143248
1125 1123 -5.04351e-06
1126 1123 -0.0509289
1321 1123 -0.00033808
1323 1123 -2.37072e-11
1328 1123 -0.000341438
1789 1123 -0.0168046
1808 1123 -2.2159e-06
1809 1123 -0.101646
1812 1123 -4.23165e-05
1814 1123 -0.399216
852 1124 -3.15347e-12
853 1124 -0.00836603
855 1124 -0.000361217
856 1124 -5.58258e-19
881 1124 -0.00120755
882 1124 -1.33739e-05
904 1124 -1.15349e-07
905 1124 -2.33006e-07
906 1124 -2.23647e-07
907 1124 -0.000119211
908 1124 -2.22687e-06
909 1124 -3.67359e-06
910 1124 -3.22224e-05
911 1124 -9.95401e-08
912 1124 -1.30548e-07
913 1124 -2.39716e-06
917 1124 -0.00109652
918 1124 -8.9335e-05
919 1124 -0.000136926
920 1124 -0.00140873
921 1124 -0.000584943
922 1124 -0.00048306
923 1124 -0.000616003
1121 1124 -0.000330568
1122 1124 -0.000136616
1123 1124 -2.13564e-06
1124 1124 0.0358625
1125 1124 -6.23314e-05
1126 1124 -0.00673248
1321 1124 -0.00542604
1323 1124 -4.18876e-10
1328 1124 -0.00306368
1789 1124 -2.67462e-05
1808 1124 -5.2448e-08
1809 1124 -0.0700166
1812 1124 -2.21648e-06
1814 1124 -0.365578
728 1125 -0.00479343
729 1125 4.60391e-15
730 1125 -0.000288293
731 1125 -0.000625941
733 1125 -5.76521e-05
734 1125 -7.67811e-05
735 1125 -8.52098e-06
736 1125 -3.11479e-07
737 1125 -4.15319e-07
738 1125 -6.16163e-06
739 1125 -2.16565e-08
740 1125 -1.39444e-20
741 1125 -1.85323e-09
742 1125 -1.1398e-06
774 1125 -1.99371e-05
910 1125 -1.31877e-06
911 1125 -2.6968e-07
912 1125 -1.19635e-07
913 1125 -3.67803e-07
982 1125 -0.000738515
983 1125 -0.000243899
984 1125 -5.57429e-05
1050 1125 -0.000232449
1053 1125 -0.000652114
1054 1125 -0.000232449
1055 1125 -0.00065705
1061 1125 -0.000911318
1062 1125 -0.000615105
1063 1125 -0.00154762
1084 1125 -0.000232449
1085 1125 -0.000442281
1086 1125 -0.000232449
1087 1125 -0.000448269
1088 1125 -0.00358366
1089 1125 -3.82265e-05
1106 1125 -0.000232449
1107 1125 -0.000849603
1108 1125 -9.60629e-11
1109 1125 -0.000232449
1110 1125 -0.000854294
1111 1125 -5.69341e-07
1112 1125 -2.10846e-06
1113 1125 -0.00463444
1114 1125 -0.000228855
1115 1125 -0.000218877
1116 1125 -1.08737e-05
1117 1125 -3.14139e-07
1118 1125 -1.59426e-05
1119 1125 -2.66312e-05
1120 1125 -0.000741387
1121 1125 -0.000232143
1122 1125 -3.4244e-06
1123 1125 -7.73223e-08
1124 1125 -2.30061e-06
1125 1125 0.0398461
1126 1125 -5.21428e-07
1321 1125 -4.86989e-05
1323 1125 -8.27418e-08
1328 1125 -0.000950503
1789 1125 -0.000307104
1808 1125 -2.5249e-05
1809 1125 -0.010957
1812 1125 -0.000479682
1814 1125 -0.266569
703 1126 -0.00479343
704 1126 -0.000626527
706 1126 -6.06243e-05
707 1126 -7.71831e-05
708 1126 -8.95164e-06
709 1126 -3.27236e-07
710 1126 -4.32861e-07
711 1126 -6.34911e-06
712 1126 -2.27338e-08
713 1126 -1.94542e-09
714 1126 -3.73398e-10
715 1126 -1.19748e-06
716 1126 -2.01496e-05
775 1126 -0.000738515
777 1126 -0.000243899
843 1126 -0.000232449
846 1126 -0.000652114
847 1126 -0.000232449
848 1126 -0.000657002
849 1126 -0.000911318
850 1126 -0.000615105
851 1126 -0.00154762
864 1126 -0.000232449
865 1126 -0.000442281
879 1126 -0.000232449
880 1126 -0.000448211
881 1126 -0.00360217
882 1126 -4.01294e-05
899 1126 -0.000232449
900 1126 -0.000849603
901 1126 -9.60627e-11
902 1126 -0.000232449
903 1126 -0.000854248
904 1126 -5.82728e-07
905 1126 -2.05789e-06
906 1126 -2.30067e-06
907 1126 -0.00482565
908 1126 -0.000213832
909 1126 -0.000211807
910 1126 -3.00098e-07
911 1126 -9.02894e-07
912 1126 -5.31222e-06
913 1126 -0.00016907
1123 1126 -0.00074141
1124 1126 -0.000237677
1125 1126 -2.00384e-08
1126 1126 0.0397585
1318 1126 -2.11015e-05
1319 1126 -5.847e-07
1320 1126 -2.25557e-05
1321 1126 -4.2526e-05
1322 1126 -8.42362e-06
1323 1126 -2.98785e-12
1328 1126 -2.46823e-05
1789 1126 -0.00031353
1808 1126 -2.69096e-05
1809 1126 -0.011025
1812 1126 -0.00050207
1814 1126 -0.26121
1127 1127 0.0178751
1128 1127 -0.176337
1134 1127 -0.125758
1814 1127 -0.125123
1127 1128 -0.00394753
1128 1128 0.0197802
1134 1128 -0.280033
1814 1128 -0.487611
1129 1129 0.0109738
1133 1129 -0.121452
1812 1129 -0.231397
1130 1130 0.00635978
1133 1130 -0.209567
1812 1130 -0.2325
1131 1131 0.00503496
1133 1131 5.2912e-12
1812 1131 -0.297834
1814 1131 -0.702166
1132 1132 0.00927248
1133 1132 2.89119e-12
1812 1132 -0.303498
1814 1132 -0.696502
1129 1133 -0.0010598
1130 1133 -0.00105981
1131 1133 -2.13463e-16
1132 1133 -2.14782e-16
1133 1133 0.0166459
1138 1133 -0.200616
1812 1133 -0.199484
1814 1133 -0.258371
1127 1134 -0.00229299
1128 1134 -0.00550296
1134 1134 0.0226408
1136 1134 -9.67779e-15
1138 1134 0.0063858
1139 1134 -0.0602838
1140 1134 -0.128604
1814 1134 -0.611107
1135 1135 0.0125448
1136 1135 -0.233091
1812 1135 -0.128349
1814 1135 -0.195718
1134 1136 6.33741e-14
1135 1136 -0.00290405
1136 1136 0.0107145
1138 1136 -3.77706e-14
1139 1136 -0.0699802
1140 1136 -0.0470385
1812 1136 -0.0347876
1814 1136 -0.478139
1137 1137 0.0142964
1138 1137 -0.205961
1139 1137 -0.0430238
1140 1137 -0.0656145
1142 1137 -0.108638
1814 1137 -0.0938883
1133 1138 -0.00329727
1134 1138 -0.000663061
1136 1138 -6.41696e-18
1137 1138 -0.00299856
1138 1138 0.026314
1139 1138 -0.065445
1140 1138 -0.164375
1142 1138 -0.103308
1812 1138 -0.0249963
1814 1138 -0.345696
1134 1139 -0.00136486
1136 1139 -0.000749778
1137 1139 -0.000615084
1138 1139 -0.00167114
1139 1139 0.0159177
1140 1139 -0.0330354
1142 1139 -0.0150439
1145 1139 -0.19001
1812 1139 -0.00426288
1814 1139 -0.513599
1134 1140 -0.00294263
1136 1140 -0.000503997
1137 1140 -0.00093805
1138 1140 -0.00418542
1139 1140 -0.000526936
1140 1140 0.0203542
1142 1140 -0.141195
1145 1140 -0.00491904
1146 1140 -0.116986
1812 1140 -0.0061117
1814 1140 -0.30138
1141 1141 0.0104326
1142 1141 -0.0899156
1143 1141 -0.126394
1812 1141 -0.0364787
1814 1141 -0.294667
1137 1142 -0.00155318
1138 1142 -0.00271274
1139 1142 -0.000244359
1140 1142 -0.00231849
1141 1142 -0.00093805
1142 1142 0.0185081
1143 1142 -0.132956
1145 1142 -0.00312487
1146 1142 -0.0146548
1812 1142 -0.00633445
1814 1142 -0.391179
1141 1143 -0.00131865
1142 1143 -0.001919
1143 1143 0.0198162
1145 1143 -0.000302612
1146 1143 -0.00141917
1784 1143 -0.156145
1812 1143 -0.00304087
1814 1143 -0.455371
1144 1144 0.00926841
1145 1144 -0.166616
1146 1144 -0.089647
1147 1144 -0.16737
1149 1144 -0.129408
1205 1144 -0.158065
1814 1144 -0.160298
1139 1145 -0.00305344
1140 1145 -0.000100872
1142 1145 -6.01782e-05
1143 1145 -8.00103e-06
1144 1145 -0.00151456
1145 1145 0.0174548
1146 1145 -0.084419
1147 1145 -0.138587
1149 1145 -0.0112288
1205 1145 -0.0489551
1784 1145 -7.15744e-05
1812 1145 -0.000804274
1814 1145 -0.332798
1140 1146 -0.00237956
1142 1146 -0.000335983
1143 1146 -4.46708e-05
1144 1146 -0.000603406
1145 1146 -0.00140563
1146 1146 0.0123768
1147 1146 -0.0238991
1149 1146 -0.00833717
1205 1146 -0.0629625
1784 1146 -0.000571693
1812 1146 -0.00144931
1814 1146 -0.437709
1144 1147 -0.00151204
1145 1147 -0.00297833
1146 1147 -0.000386978
1147 1147 0.0163181
1148 1147 -0.0376947
1149 1147 -0.0142382
1150 1147 -0.132628
1153 1147 -8.15101e-13
1205 1147 -0.0627694
1784 1147 -2.66211e-05
1812 1147 -0.0929312
1814 1147 -0.0859749
1147 1148 -0.000615084
1148 1148 0.00939086
1149 1148 -0.0664308
1150 1148 -0.0741851
1153 1148 -0.0654982
1205 1148 -0.00411128
1784 1148 -1.74363e-06
1812 1148 -0.177549
1814 1148 -0.0590546
1144 1149 -0.00151241
1145 1149 -0.000251991
1146 1149 8.9237e-05
1147 1149 -0.000285922
1148 1149 -0.000625862
1149 1149 0.00832905
1150 1149 -0.0101273
1153 1149 0.0134774
1205 1149 -0.10582
1784 1149 2.91477e-06
1812 1149 -0.175328
1814 1149 -0.0418751
1147 1150 -0.00272793
1148 1150 -0.000717934
1149 1150 -8.65337e-05
1150 1150 0.016628
1151 1150 -0.130236
1152 1150 -0.0369922
1153 1150 -0.00275783
1205 1150 -0.011026
1784 1150 -4.42749e-06
1812 1150 -0.205805
1814 1150 -0.0168725
1150 1151 -0.00273228
1151 1151 0.0192773
1152 1151 -0.0371514
1153 1151 -0.000390883
1205 1151 -0.00156277
1784 1151 -6.27533e-07
1812 1151 -0.272757
1814 1151 -0.0603236
1150 1152 -0.000615084
1151 1152 -0.000695191
1152 1152 0.00936545
1153 1152 -0.065886
1205 1152 -0.000840143
1784 1152 -3.37361e-07
1812 1152 -0.271364
1814 1152 -0.0591544
1147 1153 -3.40232e-16
1148 1153 -0.000615084
1149 1153 3.05899e-05
1150 1153 -4.53203e-05
1151 1153 -5.90235e-06
1152 1153 -0.00061698
1153 1153 0.0083906
1205 1153 -3.80229e-05
1784 1153 -1.87609e-07
1812 1153 -0.293218
1814 1153 -0.00865974
1154 1154 0.00941398
1155 1154 -0.0653374
1157 1154 -0.0653374
1158 1154 -0.0653374
1161 1154 -0.0653374
1812 1154 -0.171031
1814 1154 -0.0532932
1154 1155 -0.000615105
1155 1155 0.0171815
1156 1155 -0.0358005
1157 1155 -0.00233911
1158 1155 -0.00233911
1161 1155 -0.130395
1180 1155 -0.160963
1181 1155 -1.72263e-11
1812 1155 -0.182296
1814 1155 -0.00190792
1155 1156 -0.000615084
1156 1156 0.0098672
1157 1156 -0.0624821
1158 1156 -0.000145811
1161 1156 -0.00812834
1180 1156 -0.0723701
1181 1156 -0.0623363
1812 1156 -0.175206
1814 1156 -0.0509642
1154 1157 -0.000615084
1155 1157 -4.0188e-05
1156 1157 -0.000616523
1157 1157 0.00714763
1158 1157 -0.00564831
1161 1157 -0.00705683
1180 1157 -0.00714735
1181 1157 -0.00537689
1812 1157 -0.202967
1814 1157 -0.00899278
1154 1158 -0.000615084
1155 1158 -4.0188e-05
1156 1158 -1.43875e-06
1157 1158 -4.0372e-05
1158 1158 0.00718592
1159 1158 -0.0855973
1160 1158 -6.43939e-13
1161 1158 -0.00636312
1180 1158 -0.000954844
1181 1158 -4.26894e-05
1808 1158 -0.0855957
1812 1158 -0.10243
1814 1158 -0.00463306
1158 1159 -0.000615085
1159 1159 0.00806419
1160 1159 -0.191937
1161 1159 -0.192422
1180 1159 -7.28294e-05
1181 1159 -3.25607e-06
1808 1159 -0.187822
1812 1159 -0.0840862
1814 1159 -0.139626
1158 1160 -1.92207e-13
1159 1160 -0.0015093
1160 1160 0.0194487
1161 1160 -0.157131
1180 1160 -5.65187e-06
1181 1160 -2.52685e-07
1808 1160 -0.0462029
1812 1160 -0.170387
1814 1160 -0.0681744
1154 1161 -0.000615105
1155 1161 -0.00280576
1156 1161 -0.000100448
1157 1161 -5.30285e-05
1158 1161 -4.70665e-05
1159 1161 -0.00152164
1160 1161 -0.00249225
1161 1161 0.0161297
1180 1161 -0.0284841
1181 1161 -0.000406346
1808 1161 -0.0632423
1812 1161 -0.168122
1814 1161 -0.0264305
1162 1162 0.0111291
1163 1162 -0.287386
1808 1162 -0.131684
1814 1162 -0.276756
1162 1163 -0.00315095
1163 1163 0.0144432
1178 1163 -0.0519121
1179 1163 -0.0348962
1322 1163 -1.89729e-11
1808 1163 -0.0287284
1814 1163 -0.188115
1164 1164 0.0151286
1165 1164 -0.102662
1177 1164 -0.195096
1178 1164 -0.0406571
1179 1164 -0.0620052
1814 1164 -0.0887781
1164 1165 -0.00155318
1165 1165 0.0233347
1177 1165 -0.118182
1178 1165 -0.00270618
1179 1165 -0.0981123
1315 1165 -0.194239
1814 1165 -0.231999
1166 1166 0.00634861
1176 1166 -0.209298
1812 1166 -0.232904
1167 1167 0.00503496
1176 1167 5.29507e-12
1812 1167 -0.297834
1814 1167 -0.702166
1168 1168 0.00837958
1173 1168 -0.397199
1814 1168 -0.407188
1169 1169 0.00634868
1173 1169 -0.209299
1812 1169 -0.232901
1170 1170 0.00939484
1173 1170 -1.15436e-12
1205 1170 -0.0286846
1812 1170 -0.199858
1171 1171 0.00783147
1173 1171 0.0857852
1205 1171 -0.314104
1812 1171 -0.263599
1814 1171 -0.508081
1172 1172 0.00503496
1173 1172 5.29504e-12
1812 1172 -0.297834
1814 1172 -0.702166
1168 1173 -0.00335271
1169 1173 -0.00105558
1170 1173 -1.19823e-14
1171 1173 -5.44514e-06
1172 1173 -2.13339e-16
1173 1173 0.0135766
1205 1173 -0.0746604
1812 1173 -0.122362
1814 1173 -0.416711
1174 1174 0.00939484
1176 1174 -1.15433e-12
1205 1174 -0.0286846
1812 1174 -0.199858
1175 1175 0.00783147
1176 1175 0.0857853
1205 1175 -0.314104
1812 1175 -0.263599
1814 1175 -0.508082
1166 1176 -0.00105555
1167 1176 -2.13337e-16
1174 1176 -1.19714e-14
1175 1176 -5.44514e-06
1176 1176 0.0149083
1177 1176 -0.224891
1205 1176 -0.0679917
1812 1176 -0.111432
1814 1176 -0.287916
1164 1177 -0.00299596
1165 1177 -0.00279225
1176 1177 -0.00332843
1177 1177 0.0262646
1178 1177 -0.0640594
1179 1177 -0.16798
1205 1177 -0.00861637
1315 1177 -0.02065
1322 1177 -0.0279927
1812 1177 -0.0141214
1814 1177 -0.36873
1163 1178 -0.000749778
1164 1178 -0.000615084
1165 1178 -6.3146e-05
1177 1178 -0.00168084
1178 1178 0.0152448
1179 1178 -0.0231453
1180 1178 -0.197989
1205 1178 -0.000950007
1315 1178 -0.00308134
1322 1178 -0.0926159
1808 1178 -0.00141293
1812 1178 -0.00155697
1814 1178 -0.420828
1163 1179 -0.000503997
1164 1179 -0.00093805
1165 1179 -0.00285497
1177 1179 -0.00447208
1178 1179 -0.000358507
1179 1179 0.0216519
1180 1179 -0.00327825
1181 1179 -0.113377
1205 1179 -0.00179539
1315 1179 -0.029928
1322 1179 -0.14335
1808 1179 -0.000692112
1812 1179 -0.00294248
1814 1179 -0.225087
1155 1180 -0.00220019
1156 1180 -0.000693873
1157 1180 -4.85011e-05
1158 1180 -5.52162e-06
1159 1180 -4.72635e-07
1160 1180 -9.07164e-08
1161 1180 -0.000293017
1178 1180 -0.00305655
1179 1180 -7.07447e-05
1180 1180 0.0174287
1181 1180 -0.0801169
1205 1180 -0.000173895
1315 1180 -0.000661869
1322 1180 -0.0168243
1808 1180 -0.0013463
1812 1180 -0.120775
1814 1180 -0.302235
1155 1181 -6.68931e-15
1156 1181 -0.000615084
1157 1181 -3.84318e-05
1158 1181 -3.06761e-07
1159 1181 -2.62579e-08
1160 1181 -5.03987e-09
1161 1181 -5.27862e-06
1179 1181 -0.00248478
1180 1181 -0.00138448
1181 1181 0.0123328
1205 1181 -0.000381253
1315 1181 -0.00610413
1322 1181 -0.0307706
1808 1181 -0.000320198
1812 1181 -0.0734705
1814 1181 -0.398719
1182 1182 0.0130134
1183 1182 -0.224597
1812 1182 -0.124196
1814 1182 -0.188771
1182 1183 -0.00290101
1183 1183 0.012103
1184 1183 0.0610078
1186 1183 -0.0416422
1188 1183 -0.211334
1812 1183 -0.029769
1814 1183 -0.445916
1183 1184 -2.04609e-06
1184 1184 0.0207166
1186 1184 -0.0696142
1188 1184 -0.105826
1204 1184 -0.0728626
1317 1184 -0.145512
1812 1184 -2.94016e-06
1814 1184 -0.289984
1185 1185 0.0120121
1186 1185 -0.078092
1187 1185 -0.233355
1188 1185 -0.0514818
1204 1185 -0.228567
1814 1185 -0.252071
1183 1186 -0.000503997
1184 1186 -0.0014113
1185 1186 -0.00093805
1186 1186 0.0160619
1187 1186 -0.0136284
1188 1186 -0.0189365
1197 1186 -0.152705
1204 1186 -0.117009
1317 1186 -0.0127856
1812 1186 -0.000934361
1814 1186 -0.223221
1185 1187 -0.00295405
1186 1187 -0.000230687
1187 1187 0.0239372
1188 1187 -0.00151269
1197 1187 -0.00147165
1204 1187 -0.140323
1316 1187 -0.217331
1317 1187 -0.000123218
1812 1187 -9.00462e-06
1814 1187 -0.342565
1183 1188 -0.00179214
1184 1188 -0.00263567
1185 1188 -0.000602048
1186 1188 -0.000305123
1187 1188 -0.000361588
1188 1188 0.0183779
1197 1188 -0.00256428
1198 1188 -0.13734
1204 1188 -0.258671
1316 1188 -0.00427603
1317 1188 -0.0210834
1812 1188 -0.00291906
1814 1188 -0.345325
1189 1189 0.0196177
1190 1189 -0.0313547
1191 1189 -3.45224e-12
1193 1189 -0.138982
1812 1189 -0.239368
1814 1189 -0.0569385
1189 1190 -0.000615084
1190 1190 0.0093947
1191 1190 -0.0654714
1193 1190 -0.0745708
1812 1190 -0.252526
1814 1190 -0.0571302
1189 1191 -1.70755e-15
1190 1191 -0.000615084
1191 1191 0.00848361
1192 1191 -0.0725027
1193 1191 -0.00540658
1194 1191 0.0108771
1196 1191 -2.46048e-14
1812 1191 -0.28079
1814 1191 -0.00414209
1191 1192 -0.000615084
1192 1192 0.00984455
1193 1192 -0.0628175
1194 1192 -0.0618001
1196 1192 -0.0624797
1812 1192 -0.181762
1814 1192 -0.0512212
1189 1193 -0.00215946
1190 1193 -0.000682814
1191 1193 -4.47048e-05
1192 1193 -0.000618346
1193 1193 0.016622
1194 1193 -0.00226973
1196 1193 -0.165884
1812 1193 -0.23105
1814 1193 -0.0116606
1191 1194 0.000122052
1192 1194 -0.000606235
1193 1194 -3.74223e-05
1194 1194 0.00855293
1195 1194 -0.184982
1196 1194 -0.00515439
1197 1194 0.0306673
1198 1194 -1.05178e-14
1205 1194 -0.071915
1812 1194 -0.158663
1814 1194 -0.00362249
1194 1195 -0.00124734
1195 1195 0.00873337
1196 1195 -0.178607
1197 1195 -0.0923886
1198 1195 -0.176567
1205 1195 -0.177839
1812 1195 -0.0226609
1814 1195 -0.129057
1191 1196 -8.12227e-15
1192 1196 -0.000615105
1193 1196 -0.00219355
1194 1196 -4.29923e-05
1195 1196 -0.00152157
1196 1196 0.0162679
1197 1196 -0.00856021
1198 1196 -0.183385
1205 1196 -0.0546345
1812 1196 -0.133527
1814 1196 -0.0155895
1186 1197 -0.00248819
1187 1197 -3.39101e-05
1188 1197 -4.71688e-05
1194 1197 -1.00756e-05
1195 1197 -0.000604368
1196 1197 -0.000107996
1197 1197 0.0124481
1198 1197 -0.115177
1204 1197 -0.0247508
1205 1197 -0.0585784
1316 1197 -0.000608239
1317 1197 -0.00263588
1812 1197 -0.00258493
1814 1197 -0.376984
1188 1198 -0.00279713
1194 1198 -3.47317e-15
1195 1198 -0.00151289
1196 1198 -0.00242408
1197 1198 -0.00149679
1198 1198 0.0168792
1204 1198 -0.0450604
1205 1198 -0.0654223
1316 1198 -0.000762539
1317 1198 -0.00372757
1812 1198 -0.0219204
1814 1198 -0.347191
1199 1199 0.00255329
1203 1199 -4.90598e-11
1808 1199 -0.235258
1200 1200 0.00874904
1203 1200 -0.0688839
1808 1200 -0.440602
1814 1200 -0.490514
1201 1201 0.00334426
1203 1201 0.0104988
1785 1201 -0.122714
1808 1201 -0.227593
1202 1202 0.0152846
1203 1202 2.43837e-12
1785 1202 -0.0490564
1808 1202 -0.348052
1814 1202 -0.602892
1199 1203 -2.9023e-15
1200 1203 8.30838e-05
1201 1203 -1.52165e-06
1202 1203 -2.67004e-15
1203 1203 0.0163638
1204 1203 -0.193288
1785 1203 -0.0621849
1808 1203 -0.132129
1814 1203 -0.400646
1184 1204 -0.00208435
1185 1204 -0.00274569
1186 1204 -0.00191265
1187 1204 -0.0035478
1188 1204 -0.00448669
1197 1204 -0.000308798
1198 1204 -0.000651766
1203 1204 -0.00313548
1204 1204 0.0277865
1205 1204 -0.00218556
1316 1204 -0.0284641
1317 1204 -0.0153322
1785 1204 -0.00701706
1808 1204 -0.0149097
1812 1204 -0.00107993
1814 1204 -0.367869
1205 1205 1
1144 1206 -0.00147518
1145 1206 -0.000860873
1146 1206 -0.000820004
1147 1206 -0.00100089
1148 1206 -3.77282e-05
1149 1206 -0.000839245
1150 1206 -0.000144044
1151 1206 -1.87597e-05
1152 1206 -6.02545e-06
1153 1206 8.0381e-06
1170 1206 -0.000269478
1171 1206 -0.00175874
1173 1206 -0.00144802
1174 1206 -0.000269478
1175 1206 -0.00175874
1176 1206 -0.00144802
1177 1206 -0.000325647
1178 1206 -2.08608e-05
1179 1206 -5.51852e-05
1180 1206 -4.31112e-06
1181 1206 -6.60213e-06
1194 1206 -0.000615084
1195 1206 -0.00158944
1196 1206 -0.000902139
1197 1206 -0.00075079
1198 1206 -0.00114764
1204 1206 -7.02957e-05
1205 1206 0.0203622
1206 1206 1
1315 1206 -8.48362e-06
1316 1206 -3.33268e-06
1317 1206 -7.33469e-06
1322 1206 -1.92343e-05
1784 1206 -5.55321e-07
1785 1206 -4.9327e-07
1808 1206 -1.12367e-06
1812 1206 -0.00194328
1814 1206 -0.00738744
1207 1207 0.00849543
1208 1207 -0.0979889
1211 1207 -0.182241
1222 1207 -0.182146
1223 1207 -0.0985459
1808 1207 -0.172131
1814 1207 -0.132188
1207 1208 -0.000761085
1208 1208 0.00786381
1209 1208 -0.0782171
1210 1208 0.0158168
1211 1208 -0.0176379
1222 1208 -0.0176287
1223 1208 -0.00502603
1808 1208 -0.0948766
1812 1208 -0.138288
1814 1208 -0.0127936
1208 1209 -0.000615084
1209 1209 0.00984085
1210 1209 -0.0615146
1211 1209 -0.0636056
1222 1209 -0.00110185
1223 1209 -0.000314143
1808 1209 -0.0684333
1812 1209 -0.172923
1814 1209 -0.0517815
1208 1210 -5.00712e-06
1209 1210 -0.000615476
1210 1210 0.011827
1211 1210 -0.0033175
1222 1210 -6.48035e-05
1223 1210 -1.84758e-05
1808 1210 -0.284922
1812 1210 -0.0605386
1814 1210 -0.290924
1207 1211 -0.0015096
1208 1211 -0.000147924
1209 1211 -0.000626675
1210 1211 -3.621e-05
1211 1211 0.0168944
1222 1211 -0.180036
1223 1211 -0.00886128
1808 1211 -0.18586
1812 1211 -0.0975624
1814 1211 -0.014468
1212 1212 0.0129881
1213 1212 -0.190745
1214 1212 -0.119799
1218 1212 -0.0722236
1814 1212 -0.281428
1212 1213 -0.00244908
1213 1213 0.0227975
1214 1213 -0.106973
1218 1213 -0.0077588
1313 1213 -0.190979
1814 1213 -0.268064
1212 1214 -0.00151547
1213 1214 -0.00299894
1214 1214 0.021414
1216 1214 -0.0930105
1217 1214 -0.116759
1218 1214 -0.00619784
1220 1214 -0.114213
1313 1214 -0.0267458
1814 1214 -0.16265
1215 1215 0.0129934
1216 1215 -0.220362
1812 1215 -0.124346
1814 1215 -0.19272
1214 1216 -0.00204311
1215 1216 -0.00277028
1216 1216 0.011428
1217 1216 -0.0572777
1218 1216 -0.0452102
1220 1216 -0.0204192
1313 1216 -0.00478166
1812 1216 -0.0301432
1814 1216 -0.403278
1214 1217 -0.00240311
1216 1217 -0.000128661
1217 1217 0.0223231
1218 1217 -0.0655287
1220 1217 -0.0124128
1313 1217 -0.00290678
1314 1217 -0.253407
1812 1217 -0.000173733
1814 1217 -0.344333
1212 1218 -0.000988311
1213 1218 -0.000188515
1214 1218 -0.000138564
1216 1218 -0.000516884
1217 1218 -0.00148783
1218 1218 0.015579
1220 1218 -0.00287876
1221 1218 -0.194935
1313 1218 -0.00298509
1314 1218 -0.0242009
1812 1218 -0.00101669
1814 1218 -0.439315
1219 1219 0.00988812
1220 1219 -0.0622044
1221 1219 -0.0622044
1222 1219 -0.0622044
1223 1219 -0.0622044
1785 1219 -0.163488
1814 1219 -0.0507395
1214 1220 -0.00247283
1216 1220 -0.000229999
1217 1220 -0.000301899
1218 1220 -4.55076e-05
1219 1220 -0.000615084
1220 1220 0.0127289
1221 1220 -0.107899
1222 1220 -0.00300582
1223 1220 -0.00340438
1313 1220 -0.00536187
1314 1220 -0.00609671
1785 1220 -0.0557266
1812 1220 -0.000552412
1814 1220 -0.381017
1218 1221 -0.00305949
1219 1221 -0.000615105
1220 1221 -0.00138791
1221 1221 0.017652
1222 1221 -0.126914
1223 1221 -0.00243525
1313 1221 -0.000938966
1314 1221 -0.00467391
1785 1221 -0.0960386
1812 1221 -0.000219649
1814 1221 -0.329836
1207 1222 -0.00151729
1208 1222 -0.000148677
1209 1222 -1.16291e-05
1210 1222 1.63625e-06
1211 1222 -0.0024778
1219 1222 -0.000615105
1220 1222 -3.82622e-05
1221 1222 -0.00280541
1222 1222 0.0160881
1223 1222 -0.0135164
1313 1222 -0.000176487
1314 1222 -0.000829525
1785 1222 -0.116958
1808 1222 -0.0839897
1812 1222 -0.0164624
1814 1222 -0.0751831
1207 1223 -0.000895876
1208 1223 -5.11761e-05
1209 1223 -4.00285e-06
1210 1223 5.63211e-07
1211 1223 -0.000164421
1219 1223 -0.000615084
1220 1223 8.84719e-05
1221 1223 -2.87149e-05
1222 1223 -0.000235328
1223 1223 0.00781873
1313 1223 5.19113e-05
1314 1223 2.68542e-05
1785 1223 -0.156054
1808 1223 -0.105463
1812 1223 -0.003531
1814 1223 -0.0186942
1224 1224 0.00231612
1315 1224 -0.164262
1317 1224 -0.164316
1318 1224 -6.38073e-05
1319 1224 5.89318e-21
1225 1225 0.00418889
1227 1225 -1.8602e-05
1313 1225 -0.176291
1319 1225 -4.11011e-17
1814 1225 -0.176307
1226 1226 0.00321582
1228 1226 2.31845e-20
1314 1226 -0.15673
1316 1226 -0.156729
1319 1226 4.19309e-20
1225 1227 -1.10482e-06
1227 1227 0.00951045
1228 1227 2.92258e-20
1313 1227 -0.0780955
1314 1227 -0.126976
1316 1227 -0.126975
1319 1227 -4.77468e-21
1814 1227 -2.04814e-05
1226 1228 -8.51948e-23
1227 1228 -4.69589e-22
1228 1228 0.0180401
1313 1228 -2.03285e-21
1314 1228 -0.0669372
1315 1228 -0.216762
1316 1228 -0.0948749
1317 1228 -0.066939
1318 1228 0.0273491
1319 1228 7.37153e-41
1814 1228 -5.33136e-25
1229 1229 0.0181417
1312 1229 -0.000945699
1315 1229 -0.163652
1317 1229 -0.163921
1230 1230 0.00652429
1312 1230 -0.0942761
1315 1230 -0.196577
1317 1230 -0.0942761
1814 1230 -0.0928921
1231 1231 0.00500979
1312 1231 -0.122776
1315 1231 -0.122776
1317 1231 -0.314875
1814 1231 -0.255287
1232 1232 0.00691259
1242 1232 -0.182686
1249 1232 -0.11762
1250 1232 -0.118194
1233 1233 0.111657
1234 1233 -0.157749
1814 1233 -0.122949
1233 1234 -0.0177543
1234 1234 0.0561694
1235 1234 -0.0131005
1236 1234 3.48734e-13
1814 1234 -0.586538
1234 1235 0.000102189
1235 1235 0.0147124
1236 1235 -2.42224e-15
1241 1235 -0.197452
1814 1235 -0.458983
1234 1236 1.58472e-14
1235 1236 2.07606e-16
1236 1236 0.0107795
1238 1236 -0.269492
1241 1236 3.8028e-15
1814 1236 -0.492641
1237 1237 0.00808906
1238 1237 -0.0345033
1239 1237 -0.127194
1243 1237 -0.199046
1814 1237 -0.193942
1236 1238 -0.00292447
1237 1238 -0.000279106
1238 1238 0.0119511
1239 1238 -0.160581
1241 1238 9.30554e-16
1243 1238 -0.0475261
1814 1238 -0.39902
1237 1239 -0.00102888
1238 1239 -0.00213477
1239 1239 0.0126897
1241 1239 1.56546e-16
1243 1239 -0.0855845
1249 1239 -0.161179
1814 1239 -0.195879
1240 1240 0.00808906
1241 1240 -0.0345033
1242 1240 -0.127194
1243 1240 -0.199047
1814 1240 -0.193942
1235 1241 -0.00292447
1236 1241 -7.08377e-18
1238 1241 -1.90902e-18
1239 1241 -3.06552e-19
1240 1241 -0.000279106
1241 1241 0.0121619
1242 1241 -0.157796
1243 1241 -0.046702
1249 1241 -4.06267e-18
1814 1241 -0.38401
1232 1242 -0.00159124
1240 1242 -0.00102888
1241 1242 -0.00213479
1242 1242 0.0129267
1243 1242 -0.0838811
1249 1242 -0.0870454
1250 1242 -0.177813
1814 1242 -0.340025
1237 1243 -0.00164152
1238 1243 -0.000579451
1239 1243 -0.00109415
1240 1243 -0.00164152
1241 1243 -0.000579441
1242 1243 -0.00109254
1243 1243 0.0165686
1244 1243 -0.16372
1249 1243 -0.0163837
1250 1243 -0.0117251
1814 1243 -0.315777
1243 1244 -0.00274026
1244 1244 0.0101594
1249 1244 -0.00441909
1250 1244 -0.00316256
1312 1244 -0.103257
1814 1244 -0.299125
1245 1245 0.001465
1247 1245 -5.17443e-14
1249 1245 -5.65134e-16
1313 1245 -0.158668
1814 1245 -0.158671
1246 1246 0.00160272
1248 1246 1.64042e-20
1249 1246 2.93006e-20
1314 1246 -0.145039
1316 1246 -0.145039
1245 1247 -1.6651e-15
1247 1247 0.00856109
1248 1247 -2.88821e-20
1249 1247 -1.09916e-28
1250 1247 -0.00011804
1313 1247 -0.103326
1314 1247 -0.0761718
1316 1247 -0.0761718
1814 1247 -0.0767551
1246 1248 -4.09589e-23
1247 1248 1.60374e-22
1248 1248 0.0068535
1249 1248 1.75022e-40
1250 1248 2.76218e-24
1313 1248 2.41785e-21
1314 1248 -0.0951539
1316 1248 -0.129071
1809 1248 -0.0951504
1814 1248 1.7961e-21
1232 1249 -0.000833442
1239 1249 -0.00207295
1241 1249 3.24512e-19
1242 1249 -0.00109031
1243 1249 -0.000268869
1244 1249 -4.40193e-05
1245 1249 -4.72188e-20
1246 1249 -4.09563e-23
1247 1249 -2.4433e-33
1248 1249 6.71222e-43
1249 1249 0.0138307
1250 1249 -0.0213779
1312 1249 -0.000328639
1313 1249 -5.41702e-19
1314 1249 -0.0168068
1316 1249 -4.29499e-22
1809 1249 -0.10459
1814 1249 -0.458932
1232 1250 -0.00083342
1242 1250 -0.00228071
1243 1250 -0.000191309
1244 1250 -3.13211e-05
1247 1250 -9.50589e-08
1248 1250 -2.7455e-27
1249 1250 -0.000299825
1250 1250 0.0117448
1312 1250 -0.000283756
1313 1250 -0.0555244
1314 1250 -0.000429665
1316 1250 -6.16512e-07
1809 1250 -0.126041
1814 1250 -0.490982
1251 1251 0.00875875
1290 1251 -2.54907e-07
1314 1251 -0.13347
1316 1251 -0.174914
1252 1252 0.00691604
1290 1252 -0.22036
1314 1252 -0.215119
1316 1252 -0.227091
1814 1252 -0.241414
1253 1253 0.00577776
1290 1253 -0.244115
1314 1253 -0.289043
1316 1253 -0.15995
1814 1253 -0.179918
1254 1254 0.0023214
1255 1254 2.70736e-08
1289 1254 -0.20809
1814 1254 -0.583816
1254 1255 -2.8531e-12
1255 1255 0.0104688
1289 1255 -0.0576637
1321 1255 -0.175478
1814 1255 -0.0594518
1256 1256 0.135422
1257 1256 -0.24657
1814 1256 -0.242705
1256 1257 -0.0339594
1257 1257 0.071993
1258 1257 -1.84617e-12
1259 1257 -0.0254062
1814 1257 -0.611904
1257 1258 2.37367e-14
1258 1258 0.010779
1259 1258 5.59476e-14
1260 1258 -0.269499
1814 1258 -0.492619
1257 1259 -0.00230436
1258 1259 -4.25423e-15
1259 1259 0.018504
1260 1259 -6.19601e-14
1261 1259 -0.17031
1814 1259 -0.253171
1258 1260 -0.00292444
1259 1260 1.63616e-16
1260 1260 0.0122491
1261 1260 -0.131997
1814 1260 -0.318028
1259 1261 -0.00319824
1260 1261 -0.00164135
1261 1261 0.0165007
1262 1261 -0.166902
1814 1261 -0.341131
1261 1262 -0.00286695
1262 1262 0.00910966
1266 1262 -0.0617889
1814 1262 -0.349461
1263 1263 0.00639518
1266 1263 -0.0961794
1313 1263 -0.200234
1814 1263 -0.190919
1264 1264 0.00653606
1266 1264 -0.0941063
1313 1264 -0.0941063
1814 1264 -0.289055
1265 1265 0.0200926
1266 1265 -0.193828
1313 1265 -0.146718
1814 1265 -0.111863
1262 1266 -0.000624338
1263 1266 -0.000615105
1264 1266 -0.000615105
1265 1266 -0.00309882
1266 1266 0.0229889
1267 1266 -0.0525277
1289 1266 -0.0525277
1313 1266 -0.0684508
1814 1266 -0.307733
1266 1267 -0.0012076
1267 1267 0.00709693
1288 1267 2.08114e-20
1289 1267 -0.00893798
1290 1267 -0.170157
1313 1267 -0.0116474
1814 1267 -0.0523631
1268 1268 0.0297396
1270 1268 -0.0406042
1289 1268 -0.277577
1814 1268 -0.0496206
1269 1269 0.00693683
1270 1269 -2.50437e-08
1288 1269 -1.02116e-06
1312 1269 -0.174083
1320 1269 -0.174078
1268 1270 -0.0012076
1269 1270 -3.85579e-10
1270 1270 0.013541
1288 1270 -2.90775e-14
1289 1270 -0.0247547
1312 1270 -4.95701e-09
1320 1270 -0.0891794
1809 1270 -0.172128
1814 1270 -0.00442523
1271 1271 0.00918609
1283 1271 -0.326065
1290 1271 -0.0985241
1814 1271 -0.253471
1272 1272 0.00691312
1279 1272 -0.182725
1284 1272 -0.117614
1285 1272 -0.118185
1273 1273 0.135423
1274 1273 -0.246563
1814 1273 -0.242716
1273 1274 -0.0339593
1274 1274 0.0715207
1275 1274 -1.72177e-13
1276 1274 -0.0322295
1814 1274 -0.615858
1274 1275 -1.21756e-14
1275 1275 0.0144724
1276 1275 -2.71146e-14
1282 1275 -0.217722
1814 1275 -0.179288
1274 1276 -0.00182983
1275 1276 -3.15055e-16
1276 1276 0.0189467
1278 1276 -0.166306
1282 1276 -3.62039e-15
1814 1276 -0.23265
1277 1277 0.00842799
1278 1277 -0.104877
1279 1277 -0.261148
1283 1277 -0.173481
1814 1277 -0.349605
1276 1278 -0.00319835
1277 1278 -0.000196229
1278 1278 0.0139112
1279 1278 -0.161928
1282 1278 -8.32371e-16
1283 1278 -0.017382
1814 1278 -0.433101
1272 1279 -0.00159166
1277 1279 -0.00223057
1278 1279 -0.00245482
1279 1279 0.0131662
1282 1279 -1.55195e-16
1283 1279 -0.0688889
1284 1279 -0.0854654
1285 1279 -0.174589
1814 1279 -0.366992
1280 1280 0.0139151
1281 1280 -0.160299
1282 1280 -0.159603
1283 1280 -0.0342972
1284 1280 -0.146988
1814 1280 -0.0752528
1280 1281 -0.00220098
1281 1281 0.0080752
1282 1281 -0.152966
1283 1281 -0.190412
1284 1281 -0.0400631
1814 1281 -0.38538
1275 1282 -0.00319835
1276 1282 -8.6722e-17
1278 1282 -1.44224e-17
1279 1282 -2.33539e-18
1280 1282 -0.00220138
1281 1282 -0.000549154
1282 1282 0.0133322
1283 1282 -0.0290898
1284 1282 -0.0259205
1285 1282 -3.05828e-17
1814 1282 -0.462274
1271 1283 -0.00294953
1277 1283 -0.00147543
1278 1283 -0.000362501
1279 1283 -0.000921255
1280 1283 -0.00047725
1281 1283 -0.00155194
1282 1283 -0.000521327
1283 1283 0.0196931
1284 1283 -0.0114037
1285 1283 -0.0081674
1290 1283 -0.0147565
1814 1283 -0.275973
1272 1284 -0.000833456
1279 1284 -0.00109034
1280 1284 -0.00207298
1281 1284 -0.000332297
1282 1284 -0.000381686
1283 1284 -0.000220587
1284 1284 0.0114132
1285 1284 -0.0254676
1287 1284 -4.13793e-18
1290 1284 -0.000285204
1809 1284 -0.0629948
1814 1284 -0.474723
1272 1285 -0.000833411
1279 1285 -0.00228103
1282 1285 -3.54004e-19
1283 1285 -0.000157138
1284 1285 -0.000294762
1285 1285 0.00915167
1286 1285 -4.92727e-17
1287 1285 -1.33277e-19
1290 1285 -0.00026256
1313 1285 -0.0483279
1809 1285 -0.0809108
1814 1285 -0.531612
1285 1286 -8.28832e-18
1286 1286 0.00464543
1287 1286 -9.81489e-18
1290 1286 -4.68456e-19
1313 1286 -0.145249
1809 1286 -0.0952079
1814 1286 -0.0952096
1284 1287 -8.15956e-19
1285 1287 -2.07804e-20
1286 1287 1.74273e-20
1287 1287 0.001465
1290 1287 -1.62573e-19
1313 1287 -0.158668
1809 1287 -3.51011e-17
1814 1287 -0.158671
1267 1288 -2.48989e-22
1269 1288 -3.04609e-10
1270 1288 -7.62855e-18
1288 1288 0.00858063
1289 1288 -2.20082e-17
1290 1288 -0.14073
1312 1288 -0.14073
1313 1288 -3.37981e-22
1320 1288 -6.17971e-09
1809 1288 -0.0832124
1814 1288 -0.133059
1254 1289 -0.00048306
1255 1289 -0.000615926
1266 1289 -0.00120755
1267 1289 -6.34299e-05
1268 1289 -0.00836285
1270 1289 -0.000339567
1288 1289 -9.87376e-18
1289 1289 0.0283441
1290 1289 -0.000380786
1312 1289 -5.93858e-11
1313 1289 -0.00294229
1320 1289 -0.00106838
1321 1289 -0.00381319
1809 1289 -0.0868352
1814 1289 -0.28632
1251 1290 -8.24407e-11
1252 1290 -0.00149946
1253 1290 -0.00142057
1267 1290 -0.00120755
1271 1290 -0.000923595
1283 1290 -0.000301152
1284 1290 -3.43425e-06
1285 1290 -2.54709e-06
1286 1290 -1.25502e-22
1287 1290 -1.45502e-23
1288 1290 -0.00120755
1289 1290 -1.07931e-05
1290 1290 0.0231863
1312 1290 -0.00732928
1313 1290 -0.000613282
1314 1290 -0.165225
1316 1290 -0.149863
1320 1290 -4.97648e-07
1321 1290 -1.77502e-06
1809 1290 -0.00439238
1814 1290 -0.175155
1291 1291 0.0014916
1292 1291 -7.01577e-06
1310 1291 1.96271e-21
1315 1291 -0.155834
1317 1291 -0.155843
1291 1292 -1.22241e-07
1292 1292 0.00822896
1310 1292 2.91559e-26
1311 1292 -0.00335928
1315 1292 -0.129393
1317 1292 -0.103248
1809 1292 -0.103246
1293 1293 0.00691471
1303 1293 -0.23025
1309 1293 -0.117571
1310 1293 -0.118153
1294 1294 0.111657
1295 1294 -0.157749
1814 1294 -0.122949
1294 1295 -0.0177543
1295 1295 0.0561694
1296 1295 -0.0131005
1297 1295 2.82598e-13
1814 1295 -0.586539
1295 1296 0.000102189
1296 1296 0.0147124
1297 1296 -1.96287e-15
1302 1296 -0.197452
1814 1296 -0.458983
1295 1297 1.95737e-14
1296 1297 2.56426e-16
1297 1297 0.0100921
1299 1297 -0.286826
1302 1297 5.01697e-15
1814 1297 -0.459105
1298 1298 0.00808906
1299 1298 -0.0345033
1300 1298 -0.127194
1304 1298 -0.199045
1814 1298 -0.193943
1297 1299 -0.00292448
1298 1299 -0.000279106
1299 1299 0.0119002
1300 1299 -0.161266
1302 1299 1.23292e-15
1304 1299 -0.0477294
1814 1299 -0.392488
1298 1300 -0.00102888
1299 1300 -0.00213473
1300 1300 0.0126901
1302 1300 2.07402e-16
1304 1300 -0.0856159
1310 1300 -0.16119
1814 1300 -0.194758
1301 1301 0.00808906
1302 1301 -0.0345033
1303 1301 -0.127194
1304 1301 -0.199045
1814 1301 -0.193943
1296 1302 -0.00292447
1297 1302 -5.74037e-18
1299 1302 -1.64649e-18
1300 1302 -2.65522e-19
1301 1302 -0.000279106
1302 1302 0.0121617
1303 1302 -0.157797
1304 1302 -0.0467029
1310 1302 -3.51921e-18
1814 1302 -0.384019
1293 1303 -0.00126373
1301 1303 -0.00102888
1302 1303 -0.00213474
1303 1303 0.0132556
1304 1303 -0.0817984
1309 1303 -0.170738
1310 1303 -0.0820305
1814 1303 -0.331582
1298 1304 -0.00164151
1299 1304 -0.000579451
1300 1304 -0.00109454
1301 1304 -0.00164151
1302 1304 -0.000579444
1303 1304 -0.00109254
1304 1304 0.0172199
1305 1304 -0.158071
1309 1304 -0.0108327
1310 1304 -0.0154502
1814 1304 -0.340167
1304 1305 -0.00274026
1305 1305 0.0101609
1309 1305 -0.00292143
1310 1305 -0.00416672
1320 1305 -0.10324
1814 1305 -0.305654
1306 1306 0.001465
1308 1306 -1.93476e-13
1310 1306 -5.48199e-16
1313 1306 -0.158668
1814 1306 -0.158671
1307 1307 0.00160347
1310 1307 2.96017e-20
1311 1307 2.0018e-20
1314 1307 -0.144972
1316 1307 -0.144971
1306 1308 -6.32493e-15
1308 1308 0.0108046
1309 1308 -5.13979e-05
1310 1308 -3.20913e-28
1311 1308 -3.34192e-20
1313 1308 -0.10015
1314 1308 -0.0786338
1316 1308 -0.0786338
1814 1308 -0.0809095
1293 1309 -0.00083343
1303 1309 -0.00232101
1304 1309 -0.000189855
1305 1309 -3.00105e-05
1308 1309 -3.91596e-07
1309 1309 0.0128154
1310 1309 -0.0227792
1311 1309 -1.02118e-24
1313 1309 -0.0662986
1314 1309 -2.40279e-06
1316 1309 -2.40279e-06
1320 1309 -0.000241764
1809 1309 -0.113271
1814 1309 -0.45463
1291 1310 -5.59406e-23
1292 1310 -3.92466e-28
1293 1310 -0.000833417
1300 1310 -0.0020735
1302 1310 4.30049e-19
1303 1310 -0.00112994
1304 1310 -0.000269952
1305 1310 -4.26717e-05
1306 1310 -4.73121e-20
1307 1310 -4.0875e-23
1308 1310 -9.15374e-33
1309 1310 -0.000293958
1310 1310 0.0139249
1311 1310 -2.16521e-26
1313 1310 -0.00139958
1314 1310 -0.0166931
1315 1310 -6.26039e-22
1316 1310 -5.07236e-08
1317 1310 -0.0166931
1320 1310 -0.000321475
1809 1310 -0.106075
1814 1310 -0.421361
1292 1311 0.000373736
1307 1311 -4.08757e-23
1308 1311 2.25134e-24
1309 1311 1.15714e-28
1310 1311 -8.26073e-30
1311 1311 0.0124268
1313 1311 1.81446e-23
1314 1311 -0.0683713
1315 1311 -0.216149
1316 1311 -0.0870767
1317 1311 -0.0652654
1320 1311 2.03753e-30
1809 1311 0.00310511
1814 1311 1.46622e-23
1229 1312 -2.64053e-05
1230 1312 -0.000615084
1231 1312 -0.000615084
1244 1312 -0.00106512
1249 1312 -4.70688e-06
1250 1312 -3.46914e-06
1269 1312 -0.00120757
1270 1312 -3.0242e-11
1288 1312 -0.00120755
1289 1312 -7.48632e-13
1290 1312 -0.000169938
1312 1312 0.0188411
1313 1312 -1.5755e-05
1314 1312 -0.00149453
1315 1312 -0.109174
1316 1312 -0.00135169
1317 1312 -0.192048
1320 1312 -0.0111571
1321 1312 -1.601e-08
1809 1312 -0.00542212
1814 1312 -0.265967
1213 1313 -0.00413591
1214 1313 -0.000442429
1216 1313 -4.11506e-05
1217 1313 -5.40147e-05
1218 1313 -4.02318e-05
1220 1313 -5.21575e-05
1221 1313 -1.34703e-05
1222 1313 -1.86635e-06
1223 1313 -2.35594e-07
1225 1313 -0.000737563
1227 1313 -0.000743071
1228 1313 2.17169e-23
1245 1313 -0.000232449
1247 1313 -0.000884562
1248 1313 -2.5548e-23
1249 1313 -1.31365e-19
1250 1313 -0.000652218
1263 1313 -0.00132142
1264 1313 -0.000615084
1265 1313 -0.00299967
1266 1313 -0.00175004
1267 1313 -9.19256e-05
1285 1313 -0.000442281
1286 1313 -0.00067473
1287 1313 -0.000232449
1288 1313 1.9131e-24
1289 1313 -9.27472e-05
1290 1313 -1.57932e-05
1306 1313 -0.000232449
1308 1313 -0.00108205
1309 1313 -0.000849658
1310 1313 -1.93545e-05
1311 1313 -3.61622e-23
1312 1313 -3.00824e-07
1313 1313 0.0327519
1314 1313 -0.00809343
1315 1313 -1.00275e-06
1316 1313 -0.00760828
1317 1313 -1.16286e-05
1318 1313 -1.81344e-23
1319 1313 -9.25692e-19
1320 1313 -9.59005e-06
1321 1313 -1.07991e-05
1785 1313 -0.000136031
1808 1313 -5.54473e-06
1809 1313 -0.00881324
1812 1313 -4.13418e-05
1814 1313 -0.39456
1217 1314 -0.00472334
1218 1314 -0.000309515
1220 1314 -5.95211e-05
1221 1314 -6.67574e-05
1222 1314 -8.65136e-06
1223 1314 -4.82139e-07
1226 1314 -0.000503997
1227 1314 -0.00120755
1228 1314 -0.00120755
1246 1314 -0.000232449
1247 1314 -0.000652114
1248 1314 -0.000652114
1249 1314 -0.000232449
1250 1314 -5.04624e-06
1251 1314 -0.000911323
1252 1314 -0.00152621
1253 1314 -0.00159731
1290 1314 -0.0043953
1307 1314 -0.000232449
1308 1314 -0.000849603
1309 1314 -4.36678e-08
1310 1314 -0.00023245
1311 1314 -0.000849603
1312 1314 -3.22922e-05
1313 1314 -0.000265113
1314 1314 0.0392643
1315 1314 -0.0114333
1316 1314 -0.101549
1317 1314 -0.00372774
1318 1314 0.000841109
1319 1314 -0.012836
1320 1314 -1.11998e-05
1321 1314 -2.71627e-07
1785 1314 -0.000276367
1808 1314 -1.98385e-05
1809 1314 -0.00333224
1812 1314 -3.40745e-05
1814 1314 -0.201424
1165 1315 -0.0045443
1177 1315 -0.000537056
1178 1315 -4.67012e-05
1179 1315 -0.000537147
1180 1315 -1.10072e-05
1181 1315 -6.17821e-05
1205 1315 -5.6617e-06
1224 1315 -0.000380637
1228 1315 -0.00318465
1229 1315 -0.00302395
1230 1315 -0.00129796
1231 1315 -0.000615096
1291 1315 -0.000232344
1292 1315 -0.00142519
1310 1315 4.56065e-25
1311 1315 -0.00220676
1312 1315 -0.000906565
1313 1315 -1.42829e-08
1314 1315 -0.000365406
1315 1315 0.0373178
1316 1315 -0.0142729
1317 1315 -0.131894
1318 1315 -0.0533249
1319 1315 -0.000125687
1320 1315 -0.000271149
1321 1315 -3.05276e-09
1322 1315 -0.00263803
1785 1315 -2.70616e-06
1808 1315 -1.28518e-05
1809 1315 -0.00392373
1812 1315 -0.000405123
1814 1315 -0.29282
1187 1316 -0.00456506
1188 1316 -6.90551e-06
1197 1316 -6.73587e-06
1198 1316 -1.72422e-06
1204 1316 -0.000642612
1205 1316 -1.91185e-06
1226 1316 -0.000503997
1227 1316 -0.00120755
1228 1316 -0.00171155
1246 1316 -0.000232449
1247 1316 -0.000652114
1248 1316 -0.000884562
1249 1316 6.8109e-24
1250 1316 -7.69757e-08
1251 1316 -0.00120777
1252 1316 -0.00152634
1253 1316 -0.00115494
1290 1316 -0.00407865
1307 1316 -0.000232449
1308 1316 -0.000849603
1309 1316 -4.36678e-08
1310 1316 -9.94717e-10
1311 1316 -0.00108205
1312 1316 -2.98936e-05
1313 1316 -0.000249281
1314 1316 -0.00406436
1315 1316 -0.000654616
1316 1316 0.0386223
1317 1316 -0.00784546
1318 1316 0.000396678
1319 1316 -0.00135291
1320 1316 -1.45246e-05
1321 1316 -2.85797e-07
1322 1316 -4.47123e-05
1785 1316 -0.000146759
1808 1316 -0.000250414
1809 1316 -0.00303471
1812 1316 -3.1703e-05
1814 1316 -0.227556
1184 1317 -0.0026385
1186 1317 -0.000183677
1187 1317 -2.50323e-06
1188 1317 -0.000282703
1197 1317 -2.8777e-05
1198 1317 -4.21408e-05
1204 1317 -0.000289829
1205 1317 -5.0761e-06
1224 1317 -0.000380566
1228 1317 -0.00120755
1229 1317 -0.00277099
1230 1317 -0.000615106
1231 1317 -0.00153152
1291 1317 -0.000232449
1292 1317 -0.000849604
1310 1317 -0.000232449
1311 1317 -0.000852457
1312 1317 -0.00358963
1313 1317 -3.81886e-07
1314 1317 -0.000148362
1315 1317 -0.00518348
1316 1317 -0.000292752
1317 1317 0.0289829
1318 1317 -0.0500542
1319 1317 -0.0132325
1320 1317 -0.00143311
1321 1317 -6.94838e-09
1322 1317 -0.000472251
1785 1317 -7.35534e-05
1808 1317 -0.000154026
1809 1317 -0.00520706
1812 1317 -0.00015285
1814 1317 -0.281842
691 1318 -0.0012076
692 1318 -4.12606e-05
716 1318 -0.00134606
1126 1318 -9.0587e-07
1224 1318 4.93434e-08
1228 1318 -4.85444e-05
1313 1318 -9.86835e-26
1314 1318 -3.24943e-06
1315 1318 -0.00159608
1316 1318 -2.77162e-05
1317 1318 -0.00142154
1318 1318 0.0150369
1319 1318 -0.002118
1320 1318 -0.0122461
1321 1318 -4.1283e-09
1322 1318 -0.0125478
1323 1318 -1.79998e-16
1328 1318 -1.48694e-09
1785 1318 -7.57097e-06
1789 1318 -1.8888e-08
1808 1318 -1.77973e-05
1809 1318 -0.00209008
1812 1318 -0.000121265
1814 1318 -0.100748
690 1319 -7.64207e-23
691 1319 -0.000331193
692 1319 -1.11728e-05
716 1319 -3.74826e-05
717 1319 -0.000740284
718 1319 -0.00106356
719 1319 -0.00233098
1126 1319 -2.52251e-08
1224 1319 -9.12185e-23
1225 1319 -4.8066e-21
1226 1319 -8.51936e-23
1227 1319 -8.94125e-26
1228 1319 1.97863e-42
1313 1319 -8.47367e-22
1314 1319 -0.000503997
1315 1319 -5.76232e-06
1316 1319 -5.12628e-05
1317 1319 -0.000383607
1318 1319 -3.18287e-05
1319 1319 0.0139043
1320 1319 -0.00258981
1321 1319 -0.0488547
1322 1319 -0.00327172
1323 1319 -5.83255e-18
1328 1319 -4.81822e-11
1785 1319 -1.26064e-05
1789 1319 -0.0171963
1808 1319 -5.98015e-06
1809 1319 -0.104438
1812 1319 -7.9342e-06
1814 1319 -0.401051
687 1320 -1.02472e-14
688 1320 -0.000615084
689 1320 -0.000615084
691 1320 -0.00355885
692 1320 -0.000120057
716 1320 -0.00227218
1126 1320 -1.52913e-06
1269 1320 -0.00120755
1270 1320 -0.00120755
1288 1320 -1.2331e-09
1289 1320 -2.98926e-05
1290 1320 -1.15562e-08
1305 1320 -0.00106546
1309 1320 -3.11266e-06
1310 1320 -4.51037e-06
1311 1320 -3.27625e-30
1312 1320 -0.000210214
1313 1320 -3.03949e-07
1314 1320 -3.93841e-07
1315 1320 -2.29545e-05
1316 1320 -6.55818e-07
1317 1320 -4.34808e-05
1318 1320 -0.000218398
1319 1320 -3.66879e-05
1320 1320 0.0184338
1321 1320 -0.00010342
1322 1320 -0.0280145
1323 1320 -2.49994e-16
1328 1320 -2.06518e-09
1785 1320 -3.05021e-07
1789 1320 -3.42511e-05
1808 1320 -2.54772e-06
1809 1320 -0.0138273
1812 1320 -9.00988e-05
1814 1320 -0.349035
717 1321 -0.000740162
718 1321 -0.00106356
719 1321 -0.00427059
906 1321 -0.00201519
907 1321 -7.78298e-08
908 1321 -3.20981e-09
909 1321 -4.26515e-08
910 1321 -4.00392e-08
911 1321 -2.27515e-09
912 1321 -2.42508e-08
913 1321 -5.42778e-09
921 1321 -0.00183705
923 1321 -0.00183705
1121 1321 -0.000271509
1122 1321 -0.000330954
1123 1321 -4.91422e-06
1124 1321 -0.000189928
1125 1321 -1.86114e-06
1126 1321 -1.69082e-06
1255 1321 -0.00183705
1289 1321 -0.000105931
1290 1321 -4.03371e-08
1312 1321 -2.95648e-10
1313 1321 -3.11705e-07
1314 1321 -9.1879e-09
1315 1321 -1.37637e-10
1316 1321 -9.35195e-09
1317 1321 -1.86177e-10
1318 1321 -4.08996e-11
1319 1321 -0.000670395
1320 1321 -1.84941e-06
1321 1321 0.0335756
1322 1321 -6.68692e-05
1323 1321 -3.77686e-10
1328 1321 -0.00768657
1785 1321 -2.53105e-07
1789 1321 -0.00967367
1808 1321 -1.23413e-07
1809 1321 -0.0574212
1812 1321 -2.4797e-07
1814 1321 -0.273865
691 1322 -0.00486439
692 1322 -0.0001641
716 1322 -0.000550524
1126 1322 -3.70492e-07
1163 1322 2.02518e-14
1177 1322 0.000102698
1178 1322 -0.00135832
1179 1322 -0.00293533
1180 1322 -0.000278556
1181 1322 -0.000355117
1205 1322 -5.85943e-06
1315 1322 -9.22654e-05
1316 1322 -1.31689e-06
1317 1322 -1.21796e-05
1318 1322 -0.000193009
1319 1322 -4.63512e-05
1320 1322 -0.000517499
1321 1322 -2.31801e-06
1322 1322 0.0213449
1323 1322 -4.10755e-14
1328 1322 -8.35238e-07
1785 1322 -1.6598e-07
1789 1322 -3.92289e-05
1808 1322 -0.00020879
1809 1322 -0.00204506
1812 1322 -0.00325777
1814 1322 -0.478753
529 1323 -0.000911318
530 1323 -0.00154762
531 1323 -0.000615105
533 1323 -0.00358366
547 1323 -0.000232449
548 1323 -0.000442281
549 1323 -0.000232449
550 1323 -0.000448269
551 1323 -3.82265e-05
565 1323 -0.000232449
568 1323 -0.000652114
569 1323 -0.000232449
570 1323 -0.00065705
638 1323 -0.000232449
639 1323 -0.000849603
640 1323 -9.60628e-11
668 1323 -0.000738515
669 1323 -0.000182381
674 1323 -3.29608e-05
675 1323 -3.20199e-06
676 1323 -1.62893e-06
677 1323 -1.73447e-07
678 1323 -0.000232459
679 1323 -9.24678e-07
680 1323 -0.000854294
681 1323 -0.000144182
682 1323 -0.000165453
683 1323 -0.00461364
684 1323 -4.39979e-06
685 1323 -2.31462e-06
686 1323 -2.65902e-06
963 1323 -0.00479343
964 1323 4.60391e-15
965 1323 -0.000616357
966 1323 -0.00030395
968 1323 -7.22714e-05
969 1323 -6.54682e-05
970 1323 -8.52098e-06
971 1323 -3.11479e-07
972 1323 -4.15319e-07
973 1323 -6.16163e-06
974 1323 -2.16565e-08
975 1323 -1.85323e-09
976 1323 -3.40176e-10
977 1323 -1.1398e-06
978 1323 -1.99371e-05
979 1323 -2.27757e-06
1117 1323 -1.29278e-06
1118 1323 -2.44323e-09
1119 1323 -2.17751e-06
1120 1323 -2.62861e-08
1121 1323 -2.17944e-09
1122 1323 -3.56763e-11
1123 1323 -5.29653e-13
1124 1323 -2.15886e-11
1125 1323 -2.46457e-09
1126 1323 -1.73605e-13
1318 1323 -3.66332e-18
1319 1323 -1.09265e-19
1320 1323 -3.96091e-18
1321 1323 -1.83628e-11
1322 1323 -1.22952e-15
1323 1323 0.0398993
1324 1323 -4.48406e-05
1325 1323 -6.03629e-07
1326 1323 -0.00581553
1327 1323 -0.0185778
1328 1323 -5.0751e-06
1785 1323 -1.16492e-16
1789 1323 -1.08819e-08
1808 1323 -2.51477e-05
1809 1323 -0.00863556
1812 1323 -0.000477245
1814 1323 -0.256714
490 1324 -0.00449067
491 1324 -4.60041e-05
492 1324 -2.13949e-06
493 1324 -0.000531245
495 1324 -1.03178e-05
496 1324 -6.09961e-05
497 1324 -2.31098e-06
498 1324 -8.44761e-08
499 1324 -2.31515e-07
500 1324 -3.14746e-06
501 1324 -6.51403e-09
502 1324 -4.19432e-21
503 1324 -5.57431e-10
504 1324 -3.10032e-07
517 1324 -9.6862e-05
518 1324 -4.69596e-08
572 1324 -0.00303872
573 1324 -0.000615084
574 1324 -0.0013008
588 1324 -0.00186499
671 1324 -0.000833426
672 1324 -0.00408167
673 1324 -0.00379869
674 1324 -0.000556377
675 1324 -0.000501649
676 1324 -0.000221197
677 1324 -0.0045459
678 1324 -1.91197e-06
679 1324 -7.36101e-05
680 1324 -4.00489e-07
681 1324 -3.10804e-05
682 1324 -0.000100743
683 1324 -1.14179e-05
684 1324 -5.10893e-06
685 1324 -3.92017e-08
686 1324 -8.52217e-08
1323 1324 -2.99982e-06
1324 1324 0.0343635
1325 1324 -0.00412076
1326 1324 -2.10109e-06
1327 1324 -0.00133197
1328 1324 -2.41671e-07
1329 1324 -0.000559224
1785 1324 -1.01694e-20
1789 1324 -3.26912e-07
1802 1324 -2.86747e-07
1804 1324 -3.05295e-08
1808 1324 -1.77961e-05
1809 1324 -0.011577
1812 1324 -0.000719928
1814 1324 -0.34179
459 1325 -0.0012076
460 1325 -2.7779e-05
481 1325 -4.99867e-06
571 1325 -3.7747e-10
588 1325 -0.00120757
677 1325 -0.000216431
678 1325 -2.74153e-07
679 1325 -1.31239e-05
680 1325 -1.9611e-07
681 1325 -8.91742e-08
682 1325 -2.64933e-07
683 1325 -4.15488e-08
684 1325 -8.16787e-07
685 1325 -1.95423e-08
686 1325 -4.25097e-08
1323 1325 -2.67392e-08
1324 1325 -8.95533e-05
1325 1325 0.0134687
1326 1325 -0.0234386
1327 1325 -0.000162259
1328 1325 -3.95238e-07
1329 1325 -3.71828e-06
1330 1325 -0.000408303
1331 1325 -1.01849e-05
1785 1325 -2.98886e-22
1788 1325 -5.06073e-06
1789 1325 -4.72649e-06
1796 1325 -1.86531e-06
1802 1325 -1.90659e-09
1804 1325 -2.02991e-10
1806 1325 -0.000376159
1808 1325 -5.53216e-07
1809 1325 -0.173222
1812 1325 -1.23224e-05
1814 1325 -0.0425381
459 1326 -0.00836603
460 1326 -0.000192448
464 1326 -0.00093805
465 1326 9.83034e-11
466 1326 -0.000616003
476 1326 -0.0021775
477 1326 -0.0021775
478 1326 1.06645e-14
479 1326 -0.000740245
480 1326 -0.000722469
481 1326 -3.87758e-05
506 1326 -0.00126827
507 1326 -0.00154993
516 1326 -0.00170883
517 1326 -3.91447e-06
518 1326 -0.000158678
532 1326 -3.15346e-12
533 1326 -0.00120755
551 1326 -1.2801e-05
681 1326 -2.2946e-06
682 1326 -9.31576e-07
683 1326 -6.24147e-05
684 1326 -8.03047e-07
685 1326 -2.0745e-07
686 1326 -2.09944e-07
1323 1326 -0.000224376
1324 1326 -3.81617e-08
1325 1326 -0.000319815
1326 1326 0.0444392
1327 1326 -0.00740506
1328 1326 -0.0118208
1329 1326 -1.76314e-05
1330 1326 -0.00894671
1331 1326 -2.40188e-05
1785 1326 -5.88175e-19
1788 1326 -0.00144804
1789 1326 -5.79644e-05
1796 1326 -0.00223056
1802 1326 -0.000749241
1804 1326 -7.97705e-05
1806 1326 -0.00451895
1808 1326 -1.64654e-07
1809 1326 -0.0558305
1812 1326 -3.61887e-06
1814 1326 -0.417489
467 1327 -0.000864439
469 1327 -0.000740245
472 1327 -0.00106356
473 1327 -0.00229462
480 1327 -5.14335e-05
481 1327 -3.35122e-09
506 1327 -0.00145464
516 1327 -0.00265339
517 1327 -6.07818e-06
518 1327 -0.000246386
667 1327 -5.19253e-15
668 1327 -7.76342e-15
669 1327 -1.91723e-15
670 1327 -3.97685e-15
671 1327 -3.53565e-15
672 1327 -8.88854e-16
673 1327 -1.15617e-15
674 1327 -1.8082e-15
675 1327 -9.66246e-16
676 1327 -0.000380566
677 1327 -0.000332001
678 1327 -2.30385e-06
679 1327 -3.80142e-05
680 1327 -5.26594e-08
681 1327 -0.000505754
682 1327 -6.3804e-05
683 1327 -5.23029e-06
684 1327 -5.28426e-06
685 1327 -5.57335e-09
686 1327 -1.41816e-08
1323 1327 -0.000741342
1324 1327 -4.41953e-05
1325 1327 -2.26311e-06
1326 1327 -0.000332633
1327 1327 0.0220449
1328 1327 -0.00726028
1329 1327 -5.64903e-05
1330 1327 -0.000135902
1331 1327 -3.67633e-07
1785 1327 -3.92636e-18
1788 1327 -2.41918e-05
1789 1327 -0.0111237
1796 1327 -3.72849e-05
1802 1327 -0.0023565
1804 1327 -0.000250893
1806 1327 -0.0161181
1808 1327 -2.35312e-06
1809 1327 -0.0672312
1812 1327 -4.4762e-05
1814 1327 -0.428805
466 1328 -0.00183705
479 1328 -0.00183705
480 1328 -0.000200889
481 1328 -1.01852e-05
506 1328 -0.0014857
507 1328 -0.00154993
516 1328 -0.000186143
517 1328 -4.26403e-07
518 1328 -1.72847e-05
686 1328 -0.00285478
919 1328 -0.00183705
921 1328 -0.00183713
924 1328 -0.000740245
925 1328 -0.00106356
926 1328 -0.00424034
1120 1328 -0.000689538
1121 1328 -0.000382759
1122 1328 -0.000334295
1123 1328 -4.96298e-06
1124 1328 -0.000107373
1125 1328 -3.76977e-05
1126 1328 -9.75663e-07
1318 1328 -2.0588e-11
1319 1328 -6.14075e-13
1320 1328 -2.22604e-11
1321 1328 -0.000258077
1322 1328 -1.72665e-08
1323 1328 -1.84685e-07
1324 1328 -5.3095e-09
1325 1328 -5.16348e-09
1326 1328 -0.000518922
1327 1328 -0.000155444
1328 1328 0.04868
1329 1328 -2.11896e-06
1330 1328 -0.00128625
1331 1328 -5.99901e-06
1785 1328 -1.3419e-09
1788 1328 -0.00323903
1789 1328 -0.00682618
1796 1328 -0.00501743
1802 1328 -9.00164e-05
1804 1328 -9.5839e-06
1806 1328 -0.00618134
1808 1328 -6.35647e-08
1809 1328 -0.0407808
1812 1328 -1.21094e-06
1814 1328 -0.329105
270 1329 -0.000738515
271 1329 -0.000243899
272 1329 -5.57429e-05
358 1329 -7.98728e-06
362 1329 -0.000911318
363 1329 -0.00154762
364 1329 -0.000615105
367 1329 -0.00358366
378 1329 -4.9738e-05
379 1329 -0.000232449
380 1329 -0.000442281
399 1329 -0.000232449
400 1329 -0.00044846
401 1329 -3.82467e-05
402 1329 -0.000232449
405 1329 -0.000652114
422 1329 -0.000232449
423 1329 -0.000657212
427 1329 -0.000232449
428 1329 -0.000849603
429 1329 -9.60628e-11
448 1329 -0.000232449
449 1329 -0.000854492
450 1329 -0.000159819
451 1329 -0.00464244
452 1329 -0.000217264
453 1329 -1.68479e-05
454 1329 -1.18313e-05
455 1329 -1.90765e-05
456 1329 -6.42199e-07
457 1329 -4.43767e-06
505 1329 -0.00319461
517 1329 -0.00545252
518 1329 -2.64343e-06
1324 1329 -1.76728e-05
1325 1329 -7.28252e-08
1326 1329 -7.93415e-07
1327 1329 -1.2362e-06
1328 1329 -1.21957e-07
1329 1329 0.043029
1330 1329 -0.0053961
1331 1329 -0.0172249
1785 1329 -3.80334e-15
1788 1329 -3.65844e-08
1789 1329 -1.50365e-05
1796 1329 -5.64246e-08
1802 1329 -0.000198785
1803 1329 -5.63152e-09
1804 1329 -3.75748e-05
1805 1329 -8.3783e-08
1806 1329 -5.89966e-05
1807 1329 -4.72288e-05
1808 1329 -5.13594e-05
1809 1329 -0.00835839
1812 1329 -0.000341495
1814 1329 -0.445159
241 1330 -2.83649e-22
366 1330 -3.15346e-12
367 1330 -0.00120755
378 1330 -1.67597e-05
401 1330 -1.28013e-05
450 1330 -6.61325e-07
451 1330 -6.23931e-05
452 1330 -3.02648e-06
453 1330 -1.82139e-08
454 1330 -6.16087e-08
455 1330 -1.4782e-07
456 1330 -2.82775e-09
457 1330 -8.02328e-07
458 1330 -0.00048306
459 1330 -0.000100467
460 1330 -0.000618314
477 1330 -0.0021775
478 1330 -0.0021775
479 1330 -0.000740245
480 1330 -9.44691e-06
481 1330 -0.000115361
1325 1330 -5.54024e-06
1326 1330 -0.000397369
1327 1330 -2.9632e-06
1328 1330 -6.38385e-05
1329 1330 -0.000224456
1330 1330 0.0383409
1331 1330 -0.000184615
1785 1330 -2.23431e-12
1788 1330 -0.0017073
1789 1330 -5.13766e-05
1796 1330 -0.0113583
1802 1330 -2.45804e-05
1803 1330 -8.24861e-11
1804 1330 -7.86878e-06
1805 1330 -0.218201
1806 1330 -0.00303283
1807 1330 -4.35084e-06
1808 1330 -7.75669e-07
1809 1330 -0.0640085
1812 1330 -2.19876e-06
1814 1330 -0.358493
268 1331 -3.97685e-15
269 1331 -5.19253e-15
270 1331 -7.76342e-15
271 1331 -2.56391e-15
272 1331 -1.87835e-15
328 1331 -3.53565e-15
329 1331 -5.76498e-16
330 1331 -9.52602e-16
356 1331 -8.65834e-17
357 1331 -0.000331193
358 1331 -1.56119e-05
450 1331 -2.68621e-07
451 1331 -2.55957e-08
452 1331 -0.000504113
453 1331 -5.68692e-08
454 1331 -0.000383211
455 1331 -4.82247e-05
456 1331 -3.35364e-05
457 1331 -4.9171e-06
461 1331 -0.000740245
462 1331 -0.00106356
463 1331 -0.00232976
481 1331 -0.000678956
1325 1331 -1.38963e-07
1326 1331 -1.06656e-06
1327 1331 -8.01514e-09
1328 1331 -2.95822e-07
1329 1331 -0.000741071
1330 1331 -7.18212e-06
1331 1331 0.0299749
1785 1331 -1.38725e-14
1788 1331 -0.000309358
1789 1331 -0.008262
1796 1331 -0.000116695
1802 1331 -5.88443e-06
1803 1331 -1.10251e-07
1804 1331 -1.05016e-06
1805 1331 -5.84987e-05
1806 1331 -0.000309342
1807 1331 -1.60621e-06
1808 1331 -3.88196e-06
1809 1331 -0.0503366
1810 1331 -0.235176
1812 1331 -2.5552e-05
1814 1331 -0.293338
1332 1332 0.0158872
1625 1332 -2.24036e-11
1774 1332 -0.187567
1779 1332 -0.0573638
1333 1333 0.00550113
1625 1333 -0.111811
1774 1333 -0.111811
1779 1333 -0.279082
1814 1333 -0.329673
1334 1334 0.00620927
1625 1334 -0.099059
1774 1334 -0.206217
1779 1334 -0.099059
1814 1334 -0.0974548
1335 1335 0.00150237
1336 1335 -1.30132e-07
1356 1335 7.24782e-21
1775 1335 -0.154728
1777 1335 -0.154725
1335 1336 -1.65073e-10
1336 1336 0.00474936
1337 1336 -6.97624e-08
1356 1336 2.51912e-28
1775 1336 -0.0931282
1777 1336 -0.142069
1809 1336 -0.0931244
1336 1337 -1.41708e-11
1337 1337 0.00702376
1356 1337 -1.40879e-16
1357 1337 -1.51955e-16
1773 1337 -0.062972
1775 1337 -0.0629693
1777 1337 -0.0629693
1782 1337 -0.062972
1809 1337 -0.102361
1814 1337 -0.165185
1338 1338 0.010262
1350 1338 -0.267029
1625 1338 -0.101846
1814 1338 -0.211807
1339 1339 0.0073526
1342 1339 -0.0685491
1355 1339 -3.25997e-11
1804 1339 -0.169114
1340 1340 0.00856432
1341 1340 -0.120137
1342 1340 -0.0325886
1350 1340 -0.188768
1814 1340 -0.183179
1340 1341 -0.00102888
1341 1341 0.0132559
1342 1341 -0.144628
1350 1341 -0.0736382
1356 1341 -0.154298
1814 1341 -0.122415
1339 1342 -0.000503997
1340 1342 -0.000279099
1341 1342 -0.00213285
1342 1342 0.0127319
1343 1342 -0.230246
1350 1342 -0.056555
1355 1342 -0.269832
1356 1342 -0.0258481
1804 1342 -0.00669445
1814 1342 -0.12846
1342 1343 -0.00290257
1343 1343 0.0123193
1350 1343 -0.013325
1355 1343 -0.0538278
1356 1343 -0.00609009
1802 1343 -0.234149
1804 1343 -0.00157729
1814 1343 -0.624502
1344 1344 0.0073526
1349 1344 -0.0685491
1354 1344 -3.25991e-11
1804 1344 -0.169114
1345 1345 0.0129876
1349 1345 -0.223489
1354 1345 0.00924615
1802 1345 -0.2221
1814 1345 -0.563657
1346 1346 0.00690961
1348 1346 -0.22984
1356 1346 -0.118239
1357 1346 -0.117666
1347 1347 0.00856432
1348 1347 -0.120137
1349 1347 -0.0325886
1350 1347 -0.188768
1814 1347 -0.183179
1346 1348 -0.00125983
1347 1348 -0.00102888
1348 1348 0.0138129
1349 1348 -0.138796
1350 1348 -0.0706685
1356 1348 -0.0786951
1357 1348 -0.163772
1814 1348 -0.2581
1344 1349 -0.000503997
1345 1349 -0.00293147
1347 1349 -0.000279099
1348 1349 -0.00213285
1349 1349 0.0120892
1350 1349 -0.0590378
1354 1349 -0.281935
1356 1349 -0.0138839
1357 1349 -0.0288937
1802 1349 -0.0538563
1804 1349 -0.00705035
1814 1349 -0.295908
1338 1350 -0.00271257
1340 1350 -0.00164151
1341 1350 -0.000989505
1342 1350 -0.000719426
1343 1350 -0.000165645
1347 1350 -0.00164151
1348 1350 -0.000989505
1349 1350 -0.000713654
1350 1350 0.0158903
1354 1350 -0.0126621
1355 1350 -0.0127776
1356 1350 -0.016366
1357 1350 -0.0114959
1625 1350 -0.0173858
1802 1350 -0.00485961
1804 1350 -0.000636172
1814 1350 -0.347095
1351 1351 0.0923789
1352 1351 -0.110194
1814 1351 -0.0828668
1351 1352 -0.0102647
1352 1352 0.0419746
1353 1352 8.98714e-13
1354 1352 4.72265e-13
1355 1352 -0.0144023
1778 1352 -0.052202
1788 1352 -0.0242862
1802 1352 -0.0175943
1804 1352 -0.0335681
1814 1352 -0.521861
1352 1353 3.00085e-14
1353 1353 0.020503
1354 1353 -6.91212e-25
1355 1353 2.10794e-14
1778 1353 7.64035e-14
1788 1353 3.55456e-14
1802 1353 -0.0360214
1804 1353 -0.0687084
1808 1353 -0.289579
1814 1353 -0.341356
1344 1354 -5.44782e-15
1345 1354 -0.000864925
1349 1354 -0.00358184
1350 1354 -0.000211464
1352 1354 1.5727e-14
1353 1354 -1.41341e-26
1354 1354 0.00977347
1355 1354 -0.000276464
1356 1354 -0.00544236
1357 1354 -0.0108379
1625 1354 -0.000376169
1778 1354 -0.0275736
1788 1354 -0.0767157
1802 1354 -0.039498
1804 1354 -0.00259762
1808 1354 -4.1878e-25
1814 1354 -0.577137
1339 1355 -5.4479e-15
1342 1355 -0.00338857
1343 1355 -0.00164518
1350 1355 -0.000213563
1352 1355 8.29394e-05
1353 1355 -7.45388e-17
1354 1355 -2.70415e-06
1355 1355 0.0119805
1356 1355 -0.00844014
1357 1355 -0.000207371
1625 1355 -0.000310002
1778 1355 -0.160904
1788 1355 -0.0223426
1802 1355 -0.0321275
1804 1355 -0.00188959
1808 1355 -1.80167e-15
1814 1355 -0.552778
1335 1356 -5.41915e-23
1336 1356 -7.05204e-30
1337 1356 4.9093e-19
1341 1356 -0.002073
1342 1356 -0.000299814
1343 1356 -6.9031e-05
1346 1356 -0.000833426
1348 1356 -0.0011296
1349 1356 -0.000156784
1350 1356 -0.000259611
1354 1356 -4.74901e-05
1355 1356 -8.79455e-05
1356 1356 0.0144031
1357 1356 -0.0202117
1625 1356 -0.000316508
1773 1356 2.14641e-18
1775 1356 -0.0161388
1777 1356 2.14573e-18
1778 1356 -0.0010734
1782 1356 -0.0307074
1788 1356 -0.000389373
1802 1356 -0.00212248
1804 1356 -0.000255228
1808 1356 -1.1001e-17
1809 1356 -0.100445
1814 1356 -0.422192
1337 1357 5.37613e-19
1346 1357 -0.000833426
1348 1357 -0.00231777
1349 1357 -0.000321696
1350 1357 -0.000182786
1354 1357 -9.30118e-05
1355 1357 -2.36128e-06
1356 1357 -0.000288924
1357 1357 0.00931591
1625 1357 -0.000354774
1773 1357 -0.0474759
1775 1357 -0.000500532
1777 1357 3.70045e-18
1778 1357 -0.000349374
1782 1357 -0.000952364
1788 1357 -0.000783683
1802 1357 -0.00242344
1804 1357 -0.000290274
1808 1357 -7.97852e-19
1809 1357 -0.157686
1814 1357 -0.54307
1358 1358 0.020503
1375 1358 1.46362e-12
1802 1358 -0.0360214
1804 1358 -0.0687084
1808 1358 -0.289579
1814 1358 -0.341356
1359 1359 0.0073526
1365 1359 -0.0685491
1374 1359 -3.25991e-11
1804 1359 -0.169114
1360 1360 0.0129876
1365 1360 -0.223489
1374 1360 0.00924615
1802 1360 -0.2221
1814 1360 -0.563657
1361 1361 0.00856431
1362 1361 -0.120137
1365 1361 -0.0325886
1624 1361 -0.188768
1814 1361 -0.183179
1361 1362 -0.00102888
1362 1362 0.0108631
1364 1362 -0.13119
1365 1362 -0.176486
1624 1362 -0.0898586
1814 1362 -0.12647
1363 1363 0.00453032
1364 1363 0.0082759
1773 1363 -0.211462
1782 1363 -0.212244
1814 1363 -0.58457
1362 1364 -0.00145419
1363 1364 -0.000330596
1364 1364 0.00609736
1365 1364 -0.042091
1624 1364 -0.0214308
1773 1364 -0.0354179
1782 1364 -0.192576
1814 1364 -0.288893
1359 1365 -0.000503997
1360 1365 -0.00293147
1361 1365 -0.000279099
1362 1365 -0.00213285
1364 1365 -0.000279809
1365 1365 0.011997
1374 1365 -0.284101
1624 1365 -0.0634028
1773 1365 -0.00082606
1782 1365 -0.00449149
1802 1365 -0.0542701
1804 1365 -0.00710452
1814 1365 -0.281517
1366 1366 0.0923789
1375 1366 -0.110194
1814 1366 -0.0828668
1367 1367 0.0073526
1371 1367 -0.0685491
1373 1367 -3.25987e-11
1804 1367 -0.169114
1368 1368 0.0048281
1370 1368 -0.301193
1782 1368 -0.128735
1814 1368 -0.255013
1369 1369 0.00856431
1370 1369 -0.120137
1371 1369 -0.0325886
1624 1369 -0.188768
1814 1369 -0.183179
1368 1370 -0.00142513
1369 1370 -0.00102888
1370 1370 0.0104338
1371 1370 -0.183746
1624 1370 -0.0935553
1782 1370 -0.0175835
1814 1370 -0.166505
1367 1371 -0.000503997
1369 1371 -0.000279099
1370 1371 -0.00213285
1371 1371 0.0126485
1372 1371 -0.231764
1373 1371 -0.271611
1624 1371 -0.0602866
1782 1371 -0.00296503
1804 1371 -0.00673861
1814 1371 -0.136742
1371 1372 -0.00290257
1372 1372 0.0123149
1373 1372 -0.0542666
1624 1372 -0.0142093
1782 1372 -0.000698844
1802 1372 -0.234233
1804 1372 -0.00158826
1814 1372 -0.626678
1367 1373 -5.44774e-15
1371 1373 -0.00338857
1372 1373 -0.00165033
1373 1373 0.011975
1375 1373 0.00692604
1624 1373 -0.0190176
1778 1373 -0.161333
1782 1373 -0.000935324
1788 1373 -0.0225038
1802 1373 -0.0322807
1804 1373 -0.00212571
1814 1373 -0.553237
1359 1374 -5.44783e-15
1360 1374 -0.000864925
1365 1374 -0.00358184
1374 1374 0.00976839
1375 1374 1.60984e-12
1624 1374 -0.0232483
1773 1374 -0.000302897
1778 1374 -0.0275879
1782 1374 -0.00164692
1788 1374 -0.0767556
1802 1374 -0.039565
1804 1374 -0.00260506
1814 1374 -0.564647
1358 1375 3.77236e-14
1366 1375 -0.0102647
1373 1375 -0.000604532
1374 1375 1.98246e-14
1375 1375 0.0419788
1624 1375 -0.00027387
1773 1375 1.43044e-16
1778 1375 -0.0545202
1782 1375 -1.34695e-05
1788 1375 -0.0246079
1802 1375 -0.0180574
1804 1375 -0.0335954
1808 1375 2.60226e-13
1814 1375 -0.529776
1376 1376 0.00232269
1377 1376 4.06697e-08
1622 1376 -0.207975
1814 1376 -0.584046
1376 1377 -4.19008e-12
1377 1377 0.0104761
1387 1377 -0.175357
1622 1377 -0.0576358
1788 1377 -0.175357
1814 1377 -0.0594079
1378 1378 0.00622002
1380 1378 -0.230676
1387 1378 -0.116658
1623 1378 -0.11611
1379 1379 0.0129811
1380 1379 5.63154e-12
1387 1379 -0.0819346
1623 1379 -0.0819346
1789 1379 -0.143571
1814 1379 -0.69256
1378 1380 -0.00113949
1379 1380 -6.04238e-16
1380 1380 0.019589
1387 1380 -0.216957
1623 1380 -0.116412
1789 1380 -0.0370419
1814 1380 -0.20987
1381 1381 0.00232268
1382 1381 4.06355e-08
1398 1381 -0.207975
1814 1381 -0.584045
1381 1382 -4.18675e-12
1382 1382 0.0104761
1386 1382 -0.175357
1387 1382 -0.175357
1398 1382 -0.0576359
1814 1382 -0.059408
1383 1383 0.00622001
1385 1383 -0.230698
1386 1383 -0.116657
1776 1383 -0.116111
1384 1384 0.0129815
1385 1384 5.5492e-12
1386 1384 -0.0819324
1776 1384 -0.0819324
1789 1384 -0.143568
1814 1384 -0.692568
1383 1385 -0.00113962
1384 1385 -5.95368e-16
1385 1385 0.0195888
1386 1385 -0.21696
1776 1385 -0.116415
1789 1385 -0.0370418
1814 1385 -0.209872
1382 1386 -0.00183705
1383 1386 -0.000740231
1384 1386 -0.00106356
1385 1386 -0.00427042
1386 1386 0.0197426
1387 1386 -0.016317
1398 1386 -0.00536302
1776 1386 -0.0339485
1789 1386 -0.0157465
1809 1386 -0.0912374
1814 1386 -0.317905
1377 1387 -0.00183705
1378 1387 -0.000740245
1379 1387 -0.00106356
1380 1387 -0.0042704
1382 1387 -0.00183713
1386 1387 -0.000322153
1387 1387 0.0244261
1398 1387 -0.00440562
1622 1387 -0.0043347
1623 1387 -0.0274385
1776 1387 -0.000447742
1788 1387 -0.0131883
1789 1387 -0.0129351
1809 1387 -0.074946
1814 1387 -0.265609
1388 1388 0.0297883
1390 1388 -0.0405378
1398 1388 -0.277211
1814 1388 -0.0494957
1389 1389 0.00707999
1390 1389 -1.27236e-09
1397 1389 1.14565e-20
1780 1389 -0.170558
1781 1389 -0.170563
1388 1390 -0.00120759
1389 1390 -3.70989e-10
1390 1390 0.0184214
1397 1390 2.30723e-28
1398 1390 -0.0181722
1780 1390 -0.0655535
1781 1390 -3.43497e-09
1809 1390 -0.126525
1814 1390 -0.00324463
1391 1391 0.0158951
1396 1391 -2.71362e-11
1775 1391 -0.0573353
1777 1391 -0.187483
1392 1392 0.00621175
1396 1392 -0.0990196
1775 1392 -0.0990196
1777 1392 -0.20613
1814 1392 -0.0974159
1393 1393 0.00550089
1396 1393 -0.111815
1775 1393 -0.279098
1777 1393 -0.111815
1814 1393 -0.329644
1394 1394 0.0102647
1396 1394 -0.101814
1624 1394 -0.26696
1814 1394 -0.211753
1395 1395 0.00693109
1396 1395 -0.174226
1397 1395 -5.10803e-09
1398 1395 -1.01599e-08
1625 1395 -0.174226
1391 1396 -9.65169e-15
1392 1396 -0.000615084
1393 1396 -0.000615084
1394 1396 -0.00106547
1395 1396 -0.00120755
1396 1396 0.018998
1397 1396 -3.24678e-10
1398 1396 -0.0635622
1624 1396 -0.0149719
1625 1396 -0.0110742
1775 1396 -0.186719
1777 1396 -0.0982886
1814 1396 -0.261724
1389 1397 -2.61554e-22
1390 1397 -3.3279e-31
1395 1397 -1.5842e-12
1396 1397 -2.76008e-13
1397 1397 0.0085567
1398 1397 -2.05029e-12
1624 1397 -4.82941e-13
1625 1397 -0.141124
1775 1397 -6.02287e-12
1777 1397 -3.17044e-12
1780 1397 -5.21349e-21
1781 1397 -0.141124
1809 1397 -0.0818126
1814 1397 -0.128195
1381 1398 -0.00048306
1382 1398 -0.000616002
1386 1398 -0.00010802
1387 1398 -0.000109783
1388 1398 -0.00836595
1390 1398 -0.000339137
1395 1398 -3.01536e-12
1396 1398 -0.00120755
1397 1398 -3.92065e-13
1398 1398 0.0284314
1622 1398 -1.67377e-05
1623 1398 -0.000105949
1624 1398 -0.000635896
1625 1398 -0.000470347
1775 1398 -0.0079304
1776 1398 -0.00013071
1777 1398 -0.00417457
1780 1398 -0.000781941
1781 1398 -4.29193e-11
1788 1398 -5.09243e-05
1789 1398 -0.000109773
1809 1398 -0.087165
1814 1398 -0.288792
1399 1399 0.0158995
1616 1399 -2.88767e-11
1618 1399 -0.187435
1787 1399 -0.0573192
1400 1400 0.00654144
1616 1400 -0.0940289
1618 1400 -0.196341
1787 1400 -0.0940289
1814 1400 -0.0925062
1401 1401 0.00550089
1616 1401 -0.111815
1618 1401 -0.111815
1787 1401 -0.279102
1814 1401 -0.329641
1402 1402 0.0105942
1412 1402 -0.258657
1616 1402 -0.0990183
1814 1402 -0.205167
1403 1403 0.0073526
1404 1403 -0.0685491
1410 1403 -3.25996e-11
1804 1403 -0.169114
1403 1404 -0.000503997
1404 1404 0.0117694
1405 1404 -0.249075
1410 1404 -0.291898
1412 1404 -0.103082
1804 1404 -0.00724192
1814 1404 -0.034059
1404 1405 -0.00290257
1405 1405 0.0122647
1410 1405 -0.05929
1412 1405 -0.0243956
1802 1405 -0.235193
1804 1405 -0.00171388
1814 1405 -0.604944
1406 1406 0.0101533
1409 1406 -0.227028
1412 1406 -0.121817
1804 1406 -0.122465
1407 1407 0.0923789
1411 1407 -0.110194
1814 1407 -0.0828668
1408 1408 0.012014
1409 1408 4.16634e-12
1412 1408 -0.117262
1802 1408 -0.300189
1814 1408 -0.58255
1406 1409 -0.00182984
1408 1409 -4.22919e-16
1409 1409 0.010774
1411 1409 -1.28296e-11
1412 1409 -0.266853
1778 1409 -0.0250128
1788 1409 -0.0695916
1802 1409 -1.17835e-14
1804 1409 -0.0207994
1814 1409 -0.237122
1403 1410 -5.44789e-15
1404 1410 -0.00338857
1405 1410 -0.00170899
1410 1410 0.0118945
1411 1410 0.00697292
1412 1410 -0.0328717
1778 1410 -0.162425
1788 1410 -0.0226561
1802 1410 -0.0337922
1804 1410 -0.00230937
1814 1410 -0.527697
1407 1411 -0.0102647
1409 1411 2.40342e-14
1410 1411 -0.000604533
1411 1411 0.0419788
1412 1411 -0.000473382
1413 1411 8.98652e-13
1778 1411 -0.0545359
1788 1411 -0.0246101
1802 1411 -0.0180792
1804 1411 -0.033598
1814 1411 -0.529408
1402 1412 -0.00272197
1404 1412 -0.00123677
1405 1412 -0.000308048
1406 1412 -0.00126827
1408 1412 -0.00140873
1409 1412 -0.00296494
1410 1412 -0.000379275
1411 1412 2.64465e-06
1412 1412 0.0147348
1413 1412 -1.61293e-16
1616 1412 -0.0182917
1778 1412 -0.0092041
1788 1412 -0.014582
1802 1412 -0.0344832
1804 1412 -0.0154233
1814 1412 -0.495103
1411 1413 3.00081e-14
1412 1413 1.42053e-17
1413 1413 0.020503
1616 1413 1.26732e-17
1778 1413 7.98247e-14
1788 1413 3.60292e-14
1802 1413 -0.0360214
1804 1413 -0.0687084
1808 1413 -0.289579
1814 1413 -0.341356
1414 1414 0.0158995
1419 1414 -2.88767e-11
1619 1414 -0.187435
1620 1414 -0.0573192
1415 1415 0.00654144
1419 1415 -0.0940289
1619 1415 -0.196341
1620 1415 -0.0940289
1814 1415 -0.0925062
1416 1416 0.00550089
1419 1416 -0.111815
1619 1416 -0.111815
1620 1416 -0.279102
1814 1416 -0.329641
1417 1417 0.0105942
1419 1417 -0.0990183
1615 1417 -0.258657
1814 1417 -0.205167
1418 1418 0.00692919
1419 1418 -0.174273
1422 1418 -1.06148e-08
1616 1418 -0.174273
1622 1418 -1.06149e-08
1414 1419 -1.02665e-14
1415 1419 -0.000615084
1416 1419 -0.000615096
1417 1419 -0.00106546
1418 1419 -0.00120755
1419 1419 0.0198564
1422 1419 -0.0608144
1615 1419 -0.0138791
1616 1419 -0.0105983
1619 1419 -0.0516429
1620 1419 -0.179191
1622 1419 -6.45536e-10
1814 1419 -0.334344
1420 1420 0.00694361
1421 1420 -4.44769e-08
1422 1420 -5.21052e-08
1617 1420 -0.173908
1621 1420 -0.173912
1420 1421 -3.77468e-10
1421 1421 0.01359
1422 1421 -1.44724e-15
1617 1421 -0.0888575
1621 1421 -4.83046e-09
1622 1421 -7.67336e-22
1773 1421 -0.0888595
1809 1421 -0.171506
1418 1422 -3.15346e-12
1419 1422 -0.00120755
1420 1422 -1.52624e-11
1421 1422 -6.78825e-19
1422 1422 0.00851755
1615 1422 -0.00196767
1616 1422 -0.00150255
1617 1422 -3.11623e-10
1619 1422 -0.00732153
1620 1422 -0.0254044
1621 1422 -0.141772
1622 1422 -9.15191e-11
1773 1422 -7.08185e-18
1809 1422 -0.0844108
1814 1422 -0.183622
1423 1423 0.00150224
1424 1423 -1.64321e-07
1442 1423 7.18702e-21
1618 1423 -0.154738
1787 1423 -0.154741
1423 1424 -2.09838e-10
1424 1424 0.00474902
1441 1424 -8.87567e-08
1442 1424 3.17562e-28
1618 1424 -0.14208
1787 1424 -0.0931349
1809 1424 -0.0931311
1425 1425 0.020503
1440 1425 1.46361e-12
1802 1425 -0.0360214
1804 1425 -0.0687084
1808 1425 -0.289579
1814 1425 -0.341356
1426 1426 0.0073526
1431 1426 -0.0685491
1439 1426 -3.25978e-11
1804 1426 -0.169114
1427 1427 0.0129876
1431 1427 -0.223489
1439 1427 0.00924614
1802 1427 -0.2221
1814 1427 -0.563657
1428 1428 0.00690961
1430 1428 -0.18233
1441 1428 -0.118239
1442 1428 -0.117666
1429 1429 0.00856431
1430 1429 -0.120137
1431 1429 -0.0325886
1615 1429 -0.188768
1814 1429 -0.183179
1428 1430 -0.0015881
1429 1430 -0.00102888
1430 1430 0.0134847
1431 1430 -0.142174
1441 1430 -0.170397
1442 1430 -0.0834218
1615 1430 -0.0723888
1814 1430 -0.264383
1426 1431 -0.000503997
1427 1431 -0.00293147
1429 1431 -0.000279099
1430 1431 -0.00213285
1431 1431 0.012082
1439 1431 -0.282103
1441 1431 -0.0300805
1442 1431 -0.0147266
1615 1431 -0.0593767
1802 1431 -0.0538884
1804 1431 -0.00705456
1814 1431 -0.297193
1432 1432 0.0923789
1440 1432 -0.110194
1814 1432 -0.0828668
1433 1433 0.0073526
1436 1433 -0.0685491
1438 1433 -3.25987e-11
1804 1433 -0.169114
1434 1434 0.00856431
1435 1434 -0.120137
1436 1434 -0.0325886
1615 1434 -0.188768
1814 1434 -0.183179
1434 1435 -0.00102888
1435 1435 0.0126905
1436 1435 -0.151071
1442 1435 -0.160517
1615 1435 -0.0769189
1814 1435 -0.127869
1433 1436 -0.000503997
1434 1436 -0.000279099
1435 1436 -0.00213285
1436 1436 0.0127182
1437 1436 -0.230494
1438 1436 -0.270123
1442 1436 -0.026919
1615 1436 -0.0571663
1804 1436 -0.00670168
1814 1436 -0.129514
1436 1437 -0.00290257
1437 1437 0.0123186
1438 1437 -0.0538997
1442 1437 -0.00634279
1615 1437 -0.0134698
1802 1437 -0.234163
1804 1437 -0.00157909
1814 1437 -0.624787
1433 1438 -5.44773e-15
1436 1438 -0.00338857
1437 1438 -0.00164603
1438 1438 0.0119809
1440 1438 0.00692264
1442 1438 -0.00848495
1615 1438 -0.018019
1778 1438 -0.161254
1788 1438 -0.0224927
1802 1438 -0.0321711
1804 1438 -0.00211239
1814 1438 -0.550437
1426 1439 -5.4476e-15
1427 1439 -0.000864925
1431 1439 -0.00358184
1439 1439 0.00977555
1440 1439 1.60869e-12
1441 1439 -0.0110218
1442 1439 -0.00539595
1615 1439 -0.0217561
1778 1439 -0.0275677
1788 1439 -0.0766994
1802 1439 -0.0393962
1804 1439 -0.00258485
1814 1439 -0.569977
1425 1440 3.77235e-14
1432 1440 -0.0102647
1438 1440 -0.000604532
1439 1440 1.98244e-14
1440 1440 0.0419788
1441 1440 5.205e-15
1442 1440 -0.000122191
1615 1440 -0.00025949
1778 1440 -0.054519
1788 1440 -0.0246077
1802 1440 -0.0180559
1804 1440 -0.0335952
1808 1440 2.60225e-13
1814 1440 -0.529736
1424 1441 -1.80323e-11
1428 1441 -0.000833426
1430 1441 -0.00227818
1431 1441 -0.000323898
1439 1441 -9.13725e-05
1440 1441 1.4699e-16
1441 1441 0.00914488
1442 1441 -0.0320812
1615 1441 -0.0203539
1618 1441 -0.0483638
1778 1441 -0.000275447
1787 1441 -0.0483638
1788 1441 -0.000766354
1802 1441 -0.00230228
1804 1441 -0.000275689
1808 1441 -4.18273e-27
1809 1441 -0.0783862
1814 1441 -0.453104
1423 1442 -5.42115e-23
1424 1442 -8.90809e-30
1428 1442 -0.000833426
1430 1442 -0.00109001
1431 1442 -0.000154971
1435 1442 -0.00207291
1436 1442 -0.000313158
1437 1442 -7.21811e-05
1438 1442 -8.84817e-05
1439 1442 -4.37178e-05
1440 1442 6.12527e-07
1441 1442 -0.000289421
1442 1442 0.0110069
1615 1442 -0.0249718
1618 1442 -0.0012717
1778 1442 -0.00140998
1787 1442 -0.0223901
1788 1442 -0.000504233
1802 1442 -0.00276894
1804 1442 -0.000332976
1808 1442 -1.44813e-17
1809 1442 -0.0671867
1814 1442 -0.433457
1443 1443 0.0073526
1446 1443 -3.25978e-11
1466 1443 -0.0685491
1804 1443 -0.169114
1444 1444 0.0923789
1450 1444 -0.110194
1814 1444 -0.0828668
1445 1445 0.0129876
1446 1445 0.00924614
1466 1445 -0.223489
1802 1445 -0.2221
1814 1445 -0.563657
1443 1446 -5.4476e-15
1445 1446 -0.000864925
1446 1446 0.010786
1450 1446 1.45799e-12
1466 1446 -0.332082
1778 1446 -0.0249851
1788 1446 -0.0695141
1802 1446 -0.0178101
1804 1446 -8.54132e-14
1814 1446 -0.417888
1447 1447 0.0073526
1449 1447 -3.25986e-11
1465 1447 -0.0685491
1804 1447 -0.169114
1448 1448 0.0129876
1449 1448 0.00924595
1465 1448 -0.223487
1802 1448 -0.222101
1814 1448 -0.563658
1447 1449 -5.44773e-15
1448 1449 -0.00086498
1449 1449 0.0129929
1450 1449 0.00638342
1465 1449 -0.275679
1778 1449 -0.148693
1788 1449 -0.0207407
1802 1449 -0.0147859
1804 1449 -7.09069e-14
1814 1449 -0.432157
1444 1450 -0.0102647
1446 1450 1.98245e-14
1449 1450 -0.000604532
1450 1450 0.0419785
1451 1450 8.98637e-13
1465 1450 -0.00397006
1466 1450 1.56827e-13
1778 1450 -0.0543386
1788 1450 -0.0245827
1802 1450 -0.0178056
1804 1450 -0.033565
1814 1450 -0.528037
1450 1451 3.00086e-14
1451 1451 0.020503
1465 1451 5.81065e-15
1466 1451 -2.29535e-25
1778 1451 7.9531e-14
1788 1451 3.59797e-14
1802 1451 -0.0360214
1804 1451 -0.0687084
1808 1451 -0.289579
1814 1451 -0.341356
1452 1452 0.0105942
1458 1452 -0.258657
1621 1452 -0.0990183
1814 1452 -0.205167
1453 1453 0.00856431
1454 1453 -0.120137
1458 1453 -0.188768
1465 1453 -0.0325886
1814 1453 -0.183179
1453 1454 -0.00102888
1454 1454 0.0126905
1458 1454 -0.0769189
1463 1454 -0.160517
1465 1454 -0.151071
1814 1454 -0.127869
1455 1455 0.00690961
1457 1455 -0.18233
1463 1455 -0.117666
1464 1455 -0.118239
1456 1456 0.00856431
1457 1456 -0.120137
1458 1456 -0.188768
1466 1456 -0.0325886
1814 1456 -0.183179
1455 1457 -0.0015881
1456 1457 -0.00102888
1457 1457 0.0134847
1458 1457 -0.0723888
1463 1457 -0.0834218
1464 1457 -0.170397
1466 1457 -0.142174
1814 1457 -0.264383
1452 1458 -0.00271257
1453 1458 -0.00164151
1454 1458 -0.000989505
1456 1458 -0.00164151
1457 1458 -0.000989506
1458 1458 0.015993
1463 1458 -0.0150928
1464 1458 -0.0105427
1465 1458 -0.0453824
1466 1458 -0.0448319
1621 1458 -0.0167944
1814 1458 -0.319013
1459 1459 0.00150265
1462 1459 -1.97986e-07
1463 1459 7.3834e-21
1618 1459 -0.154696
1787 1459 -0.154699
1460 1460 0.00150352
1461 1460 -3.00912e-07
1463 1460 7.8013e-21
1619 1460 -0.154607
1620 1460 -0.15461
1460 1461 -4.64916e-10
1461 1461 0.00653768
1462 1461 -1.25821e-07
1463 1461 5.54776e-28
1619 1461 -0.135304
1620 1461 -0.099751
1809 1461 -0.099747
1459 1462 -2.79934e-10
1461 1462 -7.34566e-10
1462 1462 0.00845904
1463 1462 2.44338e-28
1464 1462 -1.07968e-07
1618 1462 -0.104572
1619 1462 -0.0770907
1620 1462 -0.0770907
1787 1462 -0.0770938
1809 1462 -8.66183e-09
1454 1463 -0.00207291
1455 1463 -0.000833426
1457 1463 -0.00109001
1458 1463 -0.00023835
1459 1463 -5.41469e-23
1460 1463 -5.40094e-23
1461 1463 -1.62521e-29
1462 1463 -1.07203e-29
1463 1463 0.0132043
1464 1463 -0.0217194
1465 1463 -0.0245355
1466 1463 -0.0125456
1618 1463 -6.3436e-22
1619 1463 -6.32385e-22
1620 1463 -0.017604
1621 1463 -0.000303154
1787 1463 -0.017604
1809 1463 -0.109052
1814 1463 -0.397093
1455 1464 -0.000833426
1457 1464 -0.00227818
1458 1464 -0.000164914
1462 1464 -3.86059e-11
1463 1464 -0.000290604
1464 1464 0.0117483
1465 1464 -0.00124396
1466 1464 -0.0285095
1618 1464 -0.0555072
1619 1464 -2.53328e-10
1620 1464 -0.000435451
1621 1464 -0.000243248
1787 1464 -0.0559427
1809 1464 -0.125266
1814 1464 -0.416716
1447 1465 -0.000503997
1448 1465 -0.00293146
1449 1465 -0.00340836
1450 1465 2.1757e-05
1451 1465 -1.95517e-17
1453 1465 -0.000279099
1454 1465 -0.00213285
1458 1465 -0.00072705
1463 1465 -0.000353333
1464 1465 -1.53392e-05
1465 1465 0.0110818
1466 1465 -0.00338078
1618 1465 -7.68321e-05
1619 1465 -3.50652e-13
1620 1465 -0.000561889
1621 1465 -0.00111184
1778 1465 -0.045626
1787 1465 -0.000638721
1788 1465 -0.00633084
1802 1465 -0.0632649
1804 1465 -0.00762537
1808 1465 -5.10906e-16
1809 1465 -0.00365043
1814 1465 -0.463789
1443 1466 -0.000503997
1445 1466 -0.00293147
1446 1466 -0.00340836
1450 1466 4.96935e-15
1451 1466 -4.46564e-27
1456 1466 -0.000279099
1457 1466 -0.00213285
1458 1466 -0.000717388
1463 1466 -0.000188754
1464 1466 -0.000375095
1465 1466 -3.76546e-05
1466 1466 0.0109048
1618 1466 -0.00190957
1619 1466 -8.71502e-12
1620 1466 -0.000321631
1621 1466 -0.0011223
1778 1466 -0.00796682
1787 1466 -0.0022312
1788 1466 -0.021749
1802 1466 -0.065491
1804 1466 -0.00784245
1808 1466 -1.76417e-18
1809 1466 -0.00620904
1814 1466 -0.503686
1467 1467 0.0105942
1473 1467 -0.258657
1617 1467 -0.0990183
1814 1467 -0.205167
1468 1468 0.00856431
1469 1468 -0.120137
1473 1468 -0.188768
1483 1468 -0.0325886
1814 1468 -0.183179
1468 1469 -0.00102888
1469 1469 0.0126905
1473 1469 -0.0769189
1483 1469 -0.151071
1613 1469 -0.160517
1814 1469 -0.127869
1470 1470 0.00690961
1472 1470 -0.18233
1613 1470 -0.117666
1614 1470 -0.118239
1471 1471 0.00856431
1472 1471 -0.120137
1473 1471 -0.188768
1484 1471 -0.0325886
1814 1471 -0.183179
1470 1472 -0.0015881
1471 1472 -0.00102888
1472 1472 0.0134847
1473 1472 -0.0723888
1484 1472 -0.142174
1613 1472 -0.0834218
1614 1472 -0.170397
1814 1472 -0.264383
1467 1473 -0.00271257
1468 1473 -0.00164151
1469 1473 -0.000989505
1471 1473 -0.00164151
1472 1473 -0.000989506
1473 1473 0.015993
1483 1473 -0.0453824
1484 1473 -0.0448319
1613 1473 -0.0150928
1614 1473 -0.0105427
1617 1473 -0.0167944
1814 1473 -0.319013
1474 1474 0.0073526
1477 1474 -3.25978e-11
1484 1474 -0.0685491
1804 1474 -0.169114
1475 1475 0.0923789
1481 1475 -0.110194
1814 1475 -0.0828668
1476 1476 0.0129876
1477 1476 0.00924614
1484 1476 -0.223489
1802 1476 -0.2221
1814 1476 -0.563657
1474 1477 -5.4476e-15
1476 1477 -0.000864925
1477 1477 0.010786
1481 1477 1.45799e-12
1484 1477 -0.332082
1778 1477 -0.0249851
1788 1477 -0.0695141
1802 1477 -0.0178101
1804 1477 -8.54132e-14
1814 1477 -0.417888
1478 1478 0.0073526
1480 1478 -3.25987e-11
1483 1478 -0.0685491
1804 1478 -0.169114
1479 1479 0.0129876
1480 1479 0.00924595
1483 1479 -0.223487
1802 1479 -0.222101
1814 1479 -0.563658
1478 1480 -5.44773e-15
1479 1480 -0.00086498
1480 1480 0.0129929
1481 1480 0.00638342
1483 1480 -0.275679
1778 1480 -0.148693
1788 1480 -0.0207407
1802 1480 -0.0147859
1804 1480 -7.09069e-14
1814 1480 -0.432157
1475 1481 -0.0102647
1477 1481 1.98244e-14
1480 1481 -0.000604532
1481 1481 0.0419785
1482 1481 8.98639e-13
1483 1481 -0.00397006
1484 1481 1.56826e-13
1778 1481 -0.0543386
1788 1481 -0.0245827
1802 1481 -0.0178056
1804 1481 -0.033565
1814 1481 -0.528037
1481 1482 3.00085e-14
1482 1482 0.020503
1483 1482 5.81063e-15
1484 1482 -2.29533e-25
1778 1482 7.95307e-14
1788 1482 3.59796e-14
1802 1482 -0.0360214
1804 1482 -0.0687084
1808 1482 -0.289579
1814 1482 -0.341356
1468 1483 -0.000279099
1469 1483 -0.00213285
1473 1483 -0.00072705
1478 1483 -0.000503997
1479 1483 -0.00293146
1480 1483 -0.00340836
1481 1483 2.1757e-05
1482 1483 -1.95517e-17
1483 1483 0.0110905
1484 1483 -0.00293901
1613 1483 -0.0318591
1614 1483 -0.000691137
1617 1483 -0.00110098
1778 1483 -0.0455903
1788 1483 -0.00632588
1802 1483 -0.0632154
1804 1483 -0.00761939
1808 1483 -5.10506e-16
1814 1483 -0.450198
1471 1484 -0.000279099
1472 1484 -0.00213285
1473 1484 -0.000717388
1474 1484 -0.000503997
1476 1484 -0.00293147
1477 1484 -0.00340836
1481 1484 4.96935e-15
1482 1484 -4.46565e-27
1483 1484 -3.25568e-05
1484 1484 0.0109179
1613 1484 -0.0173835
1614 1484 -0.0339827
1617 1484 -0.00110681
1778 1484 -0.00793586
1788 1484 -0.0217199
1802 1484 -0.0653828
1804 1484 -0.00782947
1808 1484 -1.52232e-18
1814 1484 -0.481643
1485 1485 0.00150439
1486 1485 -4.68445e-07
1611 1485 -0.154517
1612 1485 -0.15452
1613 1485 8.21973e-21
1485 1486 -7.2217e-10
1486 1486 0.00817939
1490 1486 -2.31239e-07
1611 1486 -0.132292
1612 1486 -0.103875
1613 1486 7.25732e-28
1809 1486 -0.103871
1487 1487 0.00150398
1490 1487 -3.8095e-07
1613 1487 8.02608e-21
1619 1487 -0.154559
1620 1487 -0.154562
1488 1488 0.00150282
1489 1488 -2.14392e-07
1613 1488 7.4653e-21
1618 1488 -0.154678
1787 1488 -0.154682
1488 1489 -3.11935e-10
1489 1489 0.0106399
1490 1489 -1.13068e-07
1613 1489 2.18865e-28
1614 1489 -1.3204e-07
1618 1489 -0.1017
1619 1489 -0.079851
1620 1489 -0.079851
1787 1489 -0.0798542
1486 1490 -1.93914e-09
1487 1490 -5.91965e-10
1489 1490 -1.50912e-09
1490 1490 0.0106516
1611 1490 -0.079763
1612 1490 -0.0797629
1613 1490 4.46051e-28
1614 1490 -1.87074e-14
1618 1490 -1.44088e-08
1619 1490 -0.101588
1620 1490 -0.0797662
1787 1490 -1.13137e-08
1809 1490 -1.89099e-08
1491 1491 0.0158995
1611 1491 -0.187435
1612 1491 -0.0573192
1621 1491 -2.88767e-11
1492 1492 0.00654144
1611 1492 -0.196341
1612 1492 -0.0940289
1621 1492 -0.0940289
1814 1492 -0.0925062
1493 1493 0.00550089
1611 1493 -0.111815
1612 1493 -0.279102
1621 1493 -0.111815
1814 1493 -0.329641
1494 1494 0.0179185
1500 1494 -0.124778
1620 1494 -0.222684
1814 1494 -0.125503
1495 1495 0.010974
1499 1495 -0.121458
1812 1495 -0.231393
1496 1496 0.00635995
1499 1496 -0.209574
1812 1496 -0.232494
1497 1497 0.00503496
1499 1497 5.29112e-12
1812 1497 -0.297834
1814 1497 -0.702166
1498 1498 0.00927248
1499 1498 2.89114e-12
1812 1498 -0.303498
1814 1498 -0.696502
1495 1499 -0.0010599
1496 1499 -0.0010599
1497 1499 -2.13465e-16
1498 1499 -2.14784e-16
1499 1499 0.0166473
1507 1499 -0.2014
1812 1499 -0.19947
1814 1499 -0.257611
1494 1500 -0.00229327
1500 1500 0.0245943
1501 1500 8.82018e-13
1507 1500 0.004155
1508 1500 -0.118778
1509 1500 -0.0554966
1620 1500 -0.228062
1814 1500 -0.468659
1500 1501 -2.39915e-13
1501 1501 0.0153488
1502 1501 -0.20529
1507 1501 6.49461e-14
1508 1501 -0.0328373
1509 1501 -0.0488493
1620 1501 -3.56479e-12
1814 1501 -0.120201
1501 1502 -0.00319835
1502 1502 0.0104725
1507 1502 1.98348e-14
1508 1502 -0.0100286
1509 1502 -0.0149188
1620 1502 -1.0887e-12
1808 1502 -0.13994
1814 1502 -0.330817
1503 1503 0.0151289
1504 1503 -0.10266
1507 1503 -0.195093
1508 1503 -0.0620039
1509 1503 -0.0406563
1814 1503 -0.0887756
1503 1504 -0.00155318
1504 1504 0.0207503
1505 1504 -0.0452065
1506 1504 -0.133279
1507 1504 -0.132946
1508 1504 -0.110673
1509 1504 -0.00304315
1814 1504 -0.240606
1504 1505 -0.00093805
1505 1505 0.0109591
1506 1505 -0.131729
1507 1505 -0.0113795
1508 1505 -0.00947308
1509 1505 -0.000260479
1808 1505 -0.0347259
1814 1505 -0.301326
1504 1506 -0.0022002
1505 1506 -0.0014181
1506 1506 0.0213764
1507 1506 -0.0144386
1508 1506 -0.0120196
1509 1506 -0.0003305
1618 1506 -0.211482
1808 1506 -0.0023037
1814 1506 -0.370322
1499 1507 -0.00332858
1500 1507 -0.00073585
1501 1507 6.49033e-16
1502 1507 1.3324e-16
1503 1507 -0.00299598
1504 1507 -0.00279344
1505 1507 -0.000126281
1506 1507 -0.000388941
1507 1507 0.0263001
1508 1507 -0.172591
1509 1507 -0.0655678
1618 1507 -0.00312752
1620 1507 -0.00638093
1808 1507 -0.000200807
1812 1507 -0.0252452
1814 1507 -0.385436
1500 1508 -0.00294545
1501 1508 -0.000503997
1502 1508 -0.000103465
1503 1508 -0.00093805
1504 1508 -0.00286188
1505 1508 -0.000129376
1506 1508 -0.00039847
1507 1508 -0.00450922
1508 1508 0.0212593
1509 1508 -0.0250383
1511 1508 -0.11551
1618 1508 -0.00462724
1620 1508 -0.032951
1808 1508 -0.000978163
1812 1508 -0.00535464
1814 1508 -0.301238
1500 1509 -0.00136486
1501 1509 -0.000749778
1502 1509 -0.000153922
1503 1509 -0.000615084
1504 1509 -6.31446e-05
1505 1509 -2.85455e-06
1506 1509 -8.79187e-06
1507 1509 -0.00167605
1508 1509 -0.00052281
1509 1509 0.0159917
1511 1509 -0.00377632
1512 1509 -0.18962
1618 1509 -0.000595334
1620 1509 -0.0212107
1808 1509 -0.00140744
1812 1509 -0.00282095
1814 1509 -0.504485
1510 1510 0.00988922
1511 1510 -0.0621975
1512 1510 -0.0621975
1513 1510 -0.0621975
1515 1510 -0.0621975
1812 1510 -0.163477
1814 1510 -0.0507321
1508 1511 -0.00248587
1509 1511 -6.2242e-05
1510 1511 -0.000615084
1511 1511 0.012806
1512 1511 -0.108139
1513 1511 -0.0029874
1515 1511 -0.0029874
1618 1511 -0.000901119
1620 1511 -0.00649945
1808 1511 -0.000196719
1812 1511 -0.0569359
1814 1511 -0.396955
1509 1512 -0.00305654
1510 1512 -0.000615105
1511 1512 -0.00139445
1512 1512 0.0176786
1513 1512 -0.00239972
1515 1512 -0.126855
1618 1512 -0.000174009
1620 1512 -0.00417989
1808 1512 -0.000258855
1812 1512 -0.0965111
1814 1512 -0.341899
1510 1513 -0.000615084
1511 1513 -3.8257e-05
1512 1513 -4.23937e-05
1513 1513 0.00718796
1514 1513 -0.0855715
1515 1513 -0.00608641
1516 1513 -1.80294e-08
1519 1513 -6.43883e-13
1618 1513 -5.82237e-06
1620 1513 -5.9245e-05
1808 1513 -2.57371e-06
1812 1513 -0.186006
1814 1513 -0.00847044
1513 1514 -0.000615084
1514 1514 0.00983659
1515 1514 -0.0629108
1516 1514 -0.0625303
1519 1514 -0.0625303
1618 1514 -3.64074e-07
1620 1514 -3.7046e-06
1808 1514 -1.60935e-07
1812 1514 -0.175983
1814 1514 -0.0515332
1510 1515 -0.000615105
1511 1515 -3.8258e-05
1512 1515 -0.00280797
1513 1515 -4.51106e-05
1514 1515 -0.000618965
1515 1515 0.0167879
1516 1515 -0.00230547
1519 1515 -0.133364
1618 1515 -3.11876e-05
1620 1515 -0.000714243
1808 1515 -4.37577e-05
1812 1515 -0.209553
1814 1515 -0.0618728
1513 1516 -1.56953e-10
1514 1516 -0.000615084
1515 1516 -3.86955e-05
1516 1516 0.00718788
1517 1516 -0.085574
1518 1516 -6.4389e-13
1519 1516 -0.00606882
1618 1516 -1.99051e-07
1620 1516 -4.16209e-06
1808 1516 -0.0855727
1812 1516 -0.101761
1814 1516 -0.00474291
1516 1517 -0.000615085
1517 1517 0.0084323
1518 1517 -0.183558
1519 1517 -0.184001
1618 1517 -1.45196e-08
1620 1517 -3.036e-07
1808 1517 -0.180042
1812 1517 -0.0803667
1814 1517 -0.176771
1516 1518 -1.92246e-13
1517 1518 -0.0015093
1518 1518 0.0194613
1519 1518 -0.156376
1618 1518 -1.12605e-09
1620 1518 -2.35453e-08
1808 1518 -0.0455694
1812 1518 -0.169987
1814 1518 -0.0710107
1513 1519 -1.92245e-13
1514 1519 -0.000615105
1515 1519 -0.00280428
1516 1519 -4.49278e-05
1517 1519 -0.00152145
1518 1519 -0.00247947
1519 1519 0.0161413
1618 1519 -5.43428e-06
1620 1519 -0.000124273
1808 1519 -0.0623237
1812 1519 -0.170588
1814 1519 -0.0402965
1520 1520 0.0179185
1526 1520 -0.124778
1612 1520 -0.222684
1814 1520 -0.125503
1521 1521 0.010974
1525 1521 -0.121458
1812 1521 -0.231393
1522 1522 0.00635995
1525 1522 -0.209574
1812 1522 -0.232494
1523 1523 0.00503496
1525 1523 5.29112e-12
1812 1523 -0.297834
1814 1523 -0.702166
1524 1524 0.00927248
1525 1524 2.89114e-12
1812 1524 -0.303498
1814 1524 -0.696502
1521 1525 -0.0010599
1522 1525 -0.0010599
1523 1525 -2.13465e-16
1524 1525 -2.14784e-16
1525 1525 0.0166473
1533 1525 -0.2014
1812 1525 -0.19947
1814 1525 -0.257611
1520 1526 -0.00229327
1526 1526 0.0245943
1527 1526 8.82018e-13
1533 1526 0.004155
1534 1526 -0.118778
1535 1526 -0.0554966
1612 1526 -0.228062
1814 1526 -0.468659
1526 1527 -2.39915e-13
1527 1527 0.0153488
1528 1527 -0.20529
1533 1527 6.49461e-14
1534 1527 -0.0328373
1535 1527 -0.0488493
1612 1527 -3.56479e-12
1814 1527 -0.120201
1527 1528 -0.00319835
1528 1528 0.0104725
1533 1528 1.98348e-14
1534 1528 -0.0100286
1535 1528 -0.0149188
1612 1528 -1.0887e-12
1808 1528 -0.13994
1814 1528 -0.330817
1529 1529 0.0151289
1530 1529 -0.10266
1533 1529 -0.195093
1534 1529 -0.0620039
1535 1529 -0.0406563
1814 1529 -0.0887756
1529 1530 -0.00155318
1530 1530 0.0207503
1531 1530 -0.0452065
1532 1530 -0.133279
1533 1530 -0.132946
1534 1530 -0.110673
1535 1530 -0.00304315
1814 1530 -0.240606
1530 1531 -0.00093805
1531 1531 0.0109591
1532 1531 -0.131729
1533 1531 -0.0113795
1534 1531 -0.00947308
1535 1531 -0.000260479
1808 1531 -0.0347259
1814 1531 -0.301326
1530 1532 -0.0022002
1531 1532 -0.0014181
1532 1532 0.0213764
1533 1532 -0.0144386
1534 1532 -0.0120196
1535 1532 -0.0003305
1619 1532 -0.211482
1808 1532 -0.0023037
1814 1532 -0.370322
1525 1533 -0.00332858
1526 1533 -0.00073585
1527 1533 6.49033e-16
1528 1533 1.3324e-16
1529 1533 -0.00299598
1530 1533 -0.00279344
1531 1533 -0.000126281
1532 1533 -0.000388941
1533 1533 0.0263001
1534 1533 -0.172591
1535 1533 -0.0655678
1612 1533 -0.00638093
1619 1533 -0.00312752
1808 1533 -0.000200807
1812 1533 -0.0252452
1814 1533 -0.385436
1526 1534 -0.00294545
1527 1534 -0.000503997
1528 1534 -0.000103465
1529 1534 -0.00093805
1530 1534 -0.00286188
1531 1534 -0.000129376
1532 1534 -0.00039847
1533 1534 -0.00450922
1534 1534 0.0212593
1535 1534 -0.0250383
1537 1534 -0.11551
1612 1534 -0.032951
1619 1534 -0.00462724
1808 1534 -0.000978163
1812 1534 -0.00535464
1814 1534 -0.301238
1526 1535 -0.00136486
1527 1535 -0.000749778
1528 1535 -0.000153922
1529 1535 -0.000615084
1530 1535 -6.31446e-05
1531 1535 -2.85455e-06
1532 1535 -8.79187e-06
1533 1535 -0.00167605
1534 1535 -0.00052281
1535 1535 0.0159917
1537 1535 -0.00377632
1538 1535 -0.18962
1612 1535 -0.0212107
1619 1535 -0.000595334
1808 1535 -0.00140744
1812 1535 -0.00282095
1814 1535 -0.504485
1536 1536 0.00988922
1537 1536 -0.0621975
1538 1536 -0.0621975
1539 1536 -0.0621975
1541 1536 -0.0621975
1812 1536 -0.163477
1814 1536 -0.0507321
1534 1537 -0.00248587
1535 1537 -6.2242e-05
1536 1537 -0.000615084
1537 1537 0.012806
1538 1537 -0.108139
1539 1537 -0.0029874
1541 1537 -0.0029874
1612 1537 -0.00649945
1619 1537 -0.000901119
1808 1537 -0.000196719
1812 1537 -0.0569359
1814 1537 -0.396955
1535 1538 -0.00305654
1536 1538 -0.000615105
1537 1538 -0.00139445
1538 1538 0.0176786
1539 1538 -0.126855
1541 1538 -0.00239972
1612 1538 -0.00417989
1619 1538 -0.000174009
1808 1538 -0.000258855
1812 1538 -0.0965111
1814 1538 -0.341899
1536 1539 -0.000615105
1537 1539 -3.8258e-05
1538 1539 -0.00280797
1539 1539 0.0168271
1540 1539 -0.0365544
1541 1539 -0.00268083
1542 1539 -1.14247e-11
1545 1539 -0.130753
1612 1539 -0.000712284
1619 1539 -3.10859e-05
1808 1539 -4.36429e-05
1812 1539 -0.202093
1814 1539 -0.0598103
1539 1540 -0.000615084
1540 1540 0.00986674
1541 1540 -0.0625063
1542 1540 -0.0623392
1545 1540 -0.0704902
1612 1540 -4.44032e-05
1619 1540 -1.93787e-06
1808 1540 -2.72067e-06
1812 1540 -0.176448
1814 1540 -0.0545762
1536 1541 -0.000615084
1537 1541 -3.8257e-05
1538 1541 -4.23937e-05
1539 1541 -4.37488e-05
1540 1541 -0.000616684
1541 1541 0.0071493
1542 1541 -0.00537727
1545 1541 -0.00688046
1612 1541 -6.77542e-05
1619 1541 -6.21124e-06
1808 1541 -3.08937e-06
1812 1541 -0.203468
1814 1541 -0.0135899
1539 1542 -4.62821e-15
1540 1542 -0.000615084
1541 1542 -3.84468e-05
1542 1542 0.00718788
1543 1542 -0.085574
1544 1542 -6.4389e-13
1545 1542 -0.00606882
1612 1542 -4.16209e-06
1619 1542 -1.99051e-07
1808 1542 -0.0855727
1812 1542 -0.101761
1814 1542 -0.00474291
1542 1543 -0.000615085
1543 1543 0.0084323
1544 1543 -0.183558
1545 1543 -0.184001
1612 1543 -3.036e-07
1619 1543 -1.45196e-08
1808 1543 -0.180042
1812 1543 -0.0803667
1814 1543 -0.176771
1542 1544 -1.92245e-13
1543 1544 -0.0015093
1544 1544 0.0194613
1545 1544 -0.156376
1612 1544 -2.35453e-08
1619 1544 -1.12605e-09
1808 1544 -0.0455694
1812 1544 -0.169987
1814 1544 -0.0710107
1539 1545 -0.00276558
1540 1545 -0.000716199
1541 1545 -5.2181e-05
1542 1545 -4.49278e-05
1543 1545 -0.00152145
1544 1545 -0.00247947
1545 1545 0.0161413
1612 1545 -0.000124273
1619 1545 -5.43429e-06
1808 1545 -0.0623237
1812 1545 -0.170588
1814 1545 -0.0402965
1546 1546 0.00533441
1610 1546 -0.336036
1611 1546 -0.175112
1612 1546 -0.0713441
1623 1546 -3.25301e-11
1547 1547 0.00991921
1549 1547 -0.330256
1618 1547 -0.182678
1623 1547 -3.47896e-11
1787 1547 -0.0744555
1548 1548 0.00687578
1550 1548 -0.335191
1619 1548 -0.179885
1620 1548 -0.0733027
1623 1548 -3.32123e-11
1547 1549 -0.00261326
1549 1549 0.022796
1550 1549 -0.228549
1618 1549 -0.100879
1619 1549 -0.12995
1620 1549 -0.0529738
1623 1549 -3.98815e-12
1787 1549 -0.00853531
1548 1550 -0.00182957
1549 1550 -0.00419352
1550 1550 0.0367961
1610 1550 -0.141592
1611 1550 -0.080507
1612 1550 -0.0328185
1618 1550 -0.0114969
1619 1550 -0.138536
1620 1550 -0.0424994
1623 1550 -2.10589e-12
1787 1550 -0.00097274
1551 1551 0.0179185
1557 1551 -0.124778
1609 1551 -0.222684
1814 1551 -0.125503
1552 1552 0.00635995
1556 1552 -0.209574
1812 1552 -0.232494
1553 1553 0.010974
1556 1553 -0.121458
1812 1553 -0.231393
1554 1554 0.00503496
1556 1554 5.29112e-12
1812 1554 -0.297834
1814 1554 -0.702166
1555 1555 0.00927248
1556 1555 2.89114e-12
1812 1555 -0.303498
1814 1555 -0.696502
1552 1556 -0.0010599
1553 1556 -0.0010599
1554 1556 -2.13464e-16
1555 1556 -2.14784e-16
1556 1556 0.0166473
1564 1556 -0.2014
1812 1556 -0.19947
1814 1556 -0.257611
1551 1557 -0.00229327
1557 1557 0.0245943
1558 1557 8.82021e-13
1564 1557 0.004155
1565 1557 -0.0554966
1566 1557 -0.118778
1609 1557 -0.228062
1814 1557 -0.468659
1557 1558 -2.39915e-13
1558 1558 0.0153488
1559 1558 -0.20529
1564 1558 6.49461e-14
1565 1558 -0.0488493
1566 1558 -0.0328373
1609 1558 -3.56479e-12
1814 1558 -0.120201
1558 1559 -0.00319835
1559 1559 0.0104725
1564 1559 1.98348e-14
1565 1559 -0.0149188
1566 1559 -0.0100286
1609 1559 -1.0887e-12
1808 1559 -0.13994
1814 1559 -0.330817
1560 1560 0.0151289
1561 1560 -0.10266
1564 1560 -0.195093
1565 1560 -0.0406563
1566 1560 -0.0620039
1814 1560 -0.0887756
1560 1561 -0.00155318
1561 1561 0.0207503
1562 1561 -0.0452065
1563 1561 -0.133279
1564 1561 -0.132946
1565 1561 -0.00304315
1566 1561 -0.110673
1814 1561 -0.240606
1561 1562 -0.00093805
1562 1562 0.0109591
1563 1562 -0.131729
1564 1562 -0.0113795
1565 1562 -0.000260479
1566 1562 -0.00947308
1808 1562 -0.0347259
1814 1562 -0.301326
1561 1563 -0.0022002
1562 1563 -0.0014181
1563 1563 0.0213764
1564 1563 -0.0144386
1565 1563 -0.0003305
1566 1563 -0.0120196
1611 1563 -0.211482
1808 1563 -0.0023037
1814 1563 -0.370322
1556 1564 -0.00332858
1557 1564 -0.00073585
1558 1564 6.49035e-16
1559 1564 1.3324e-16
1560 1564 -0.00299598
1561 1564 -0.00279344
1562 1564 -0.000126281
1563 1564 -0.000388941
1564 1564 0.0263001
1565 1564 -0.0655678
1566 1564 -0.172591
1609 1564 -0.00638093
1611 1564 -0.00312752
1808 1564 -0.000200807
1812 1564 -0.0252452
1814 1564 -0.385436
1557 1565 -0.00136486
1558 1565 -0.000749778
1559 1565 -0.000153922
1560 1565 -0.000615084
1561 1565 -6.31446e-05
1562 1565 -2.85455e-06
1563 1565 -8.79187e-06
1564 1565 -0.00167605
1565 1565 0.0160047
1566 1565 -0.0326659
1568 1565 -0.189465
1609 1565 -0.020117
1611 1565 -0.000443694
1808 1565 -0.00137433
1812 1565 -0.00264373
1814 1565 -0.494232
1557 1566 -0.00294545
1558 1566 -0.000503997
1559 1566 -0.000103465
1560 1566 -0.00093805
1561 1566 -0.00286188
1562 1566 -0.000129376
1563 1566 -0.00039847
1564 1566 -0.00450922
1565 1566 -0.000532298
1566 1566 0.021242
1568 1566 -0.00474777
1569 1566 -0.115604
1609 1566 -0.0334821
1611 1566 -0.00464214
1808 1566 -0.0010134
1812 1566 -0.00542527
1814 1566 -0.313869
1567 1567 0.00988922
1568 1567 -0.0621975
1569 1567 -0.0621975
1570 1567 -0.0621975
1572 1567 -0.0621975
1812 1567 -0.163477
1814 1567 -0.0507321
1565 1568 -0.00305654
1566 1568 -9.98447e-05
1567 1568 -0.000615105
1568 1568 0.0178294
1569 1568 -0.0782109
1570 1568 -0.125549
1572 1568 -0.00214578
1609 1568 -0.00363621
1611 1568 -0.00010206
1808 1568 -0.00024128
1812 1568 -0.0912419
1814 1568 -0.307961
1566 1569 -0.00248587
1567 1569 -0.000615084
1568 1569 -0.00138483
1569 1569 0.0126977
1570 1569 -0.0167054
1572 1569 -0.0032469
1609 1569 -0.00695146
1611 1569 -0.000919936
1808 1569 -0.000224711
1812 1569 -0.0673725
1814 1569 -0.433928
1567 1570 -0.000615105
1568 1570 -0.00280384
1569 1570 -0.000257549
1570 1570 0.0168271
1571 1570 -0.0365544
1572 1570 -0.00268083
1573 1570 -1.14247e-11
1576 1570 -0.130753
1609 1570 -0.000712284
1611 1570 -3.10859e-05
1808 1570 -4.36429e-05
1812 1570 -0.202093
1814 1570 -0.0598103
1570 1571 -0.000615084
1571 1571 0.00986674
1572 1571 -0.0625063
1573 1571 -0.0623392
1576 1571 -0.0704902
1609 1571 -4.44032e-05
1611 1571 -1.93787e-06
1808 1571 -2.72066e-06
1812 1571 -0.176448
1814 1571 -0.0545762
1567 1572 -0.000615084
1568 1572 -3.82567e-05
1569 1572 -4.12491e-05
1570 1572 -4.37488e-05
1571 1572 -0.000616684
1572 1572 0.00714929
1573 1572 -0.00537727
1576 1572 -0.00688046
1609 1572 -6.77542e-05
1611 1572 -6.21124e-06
1808 1572 -3.08937e-06
1812 1572 -0.203468
1814 1572 -0.0135899
1570 1573 -4.62821e-15
1571 1573 -0.000615084
1572 1573 -3.84468e-05
1573 1573 0.00718788
1574 1573 -6.4389e-13
1575 1573 -0.085574
1576 1573 -0.00606882
1609 1573 -4.16209e-06
1611 1573 -1.99051e-07
1808 1573 -0.0855727
1812 1573 -0.101761
1814 1573 -0.00474291
1573 1574 -1.92246e-13
1574 1574 0.0197384
1575 1574 -0.0764651
1576 1574 -0.140112
1609 1574 -4.05375e-17
1611 1574 -1.9387e-18
1808 1574 -0.0311629
1812 1574 -0.161456
1814 1574 -0.0564972
1573 1575 -0.000615085
1574 1575 -0.00154782
1575 1575 0.00831394
1576 1575 -0.212705
1609 1575 -3.07922e-07
1611 1575 -1.47263e-08
1808 1575 -0.188406
1812 1575 -0.111569
1814 1575 -0.189806
1570 1576 -0.00276558
1571 1576 -0.000716199
1572 1576 -5.2181e-05
1573 1576 -4.49278e-05
1574 1576 -0.0022002
1575 1576 -0.00168969
1576 1576 0.0161413
1609 1576 -0.000124273
1611 1576 -5.43429e-06
1808 1576 -0.0623237
1812 1576 -0.170588
1814 1576 -0.0402965
1577 1577 0.0158995
1581 1577 -0.187435
1609 1577 -0.0573192
1617 1577 -2.88767e-11
1578 1578 0.00504987
1581 1578 -0.121802
1609 1578 -0.303021
1617 1578 -0.121802
1814 1578 -0.270778
1579 1579 0.00654144
1581 1579 -0.196341
1609 1579 -0.0940289
1617 1579 -0.0940289
1814 1579 -0.0925062
1580 1580 0.00501052
1581 1580 -0.163053
1582 1580 -0.251398
1609 1580 -0.0661018
1623 1580 -3.06741e-11
1577 1581 -0.00303872
1578 1581 -0.000615084
1579 1581 -0.0013008
1580 1581 -0.000833426
1581 1581 0.0358848
1582 1581 -0.113744
1608 1581 -0.124611
1609 1581 -0.108101
1610 1581 -0.0846801
1617 1581 -0.0521428
1623 1581 -7.12409e-13
1814 1581 -0.206152
1580 1582 -0.00158782
1581 1582 -0.00405203
1582 1582 0.0285379
1608 1582 -0.0176932
1609 1582 -0.0613407
1610 1582 -0.158969
1617 1582 -0.00740363
1623 1582 -1.80783e-12
1809 1582 -0.0816728
1814 1582 -0.029271
1583 1583 0.0110015
1596 1583 -0.0852653
1608 1583 -0.119857
1808 1583 -0.0345921
1814 1583 -0.279649
1584 1584 0.0151289
1594 1584 -0.195093
1595 1584 -0.0406564
1596 1584 -0.10266
1597 1584 -0.062004
1814 1584 -0.0887759
1585 1585 0.0179179
1591 1585 -0.125494
1775 1585 -0.178235
1814 1585 -0.124822
1586 1586 0.00635995
1590 1586 -0.209574
1812 1586 -0.232494
1587 1587 0.010974
1590 1587 -0.121458
1812 1587 -0.231393
1588 1588 0.00503496
1590 1588 5.29112e-12
1812 1588 -0.297834
1814 1588 -0.702166
1589 1589 0.00927248
1590 1589 2.89114e-12
1812 1589 -0.303498
1814 1589 -0.696502
1586 1590 -0.0010599
1587 1590 -0.0010599
1588 1590 -2.13465e-16
1589 1590 -2.14785e-16
1590 1590 0.0166473
1594 1590 -0.201399
1812 1590 -0.19947
1814 1590 -0.257612
1585 1591 -0.00229294
1591 1591 0.0245922
1592 1591 8.7487e-13
1594 1591 0.00415551
1595 1591 -0.0555014
1597 1591 -0.118787
1775 1591 -0.223947
1814 1591 -0.468613
1591 1592 -2.39915e-13
1592 1592 0.0153488
1593 1592 -0.20529
1594 1592 6.4954e-14
1595 1592 -0.0488493
1597 1592 -0.0328373
1775 1592 -3.50048e-12
1814 1592 -0.120201
1592 1593 -0.00319835
1593 1593 0.0101044
1594 1593 2.05599e-14
1595 1593 -0.0154622
1597 1593 -0.010394
1775 1593 -1.108e-12
1808 1593 -0.144688
1814 1593 -0.30679
1584 1594 -0.00299598
1590 1594 -0.00332855
1591 1594 -0.00073582
1592 1594 6.43747e-16
1593 1594 1.32155e-16
1594 1594 0.0266782
1595 1594 -0.0643139
1596 1594 -0.104709
1597 1594 -0.158337
1775 1594 -0.00617675
1808 1594 7.16733e-16
1812 1594 -0.0248871
1814 1594 -0.347942
1584 1595 -0.000615084
1591 1595 -0.00136486
1592 1595 -0.000749778
1593 1595 -0.000153922
1594 1595 -0.0016675
1595 1595 0.0151695
1596 1595 -0.0156727
1597 1595 -0.0323356
1599 1595 -0.198968
1775 1595 -0.0208285
1808 1595 -0.00146812
1812 1595 -0.00273572
1814 1595 -0.461271
1583 1596 -0.00093807
1584 1596 -0.00155316
1594 1596 -0.00275036
1595 1596 -0.000240032
1596 1596 0.0203786
1597 1596 -0.162185
1599 1596 -0.00234357
1608 1596 -0.113483
1775 1596 -0.00107897
1808 1596 -0.00160964
1812 1596 -0.00339107
1814 1596 -0.310668
1584 1597 -0.00093807
1591 1597 -0.00294544
1592 1597 -0.000503997
1593 1597 -0.000103465
1594 1597 -0.00412984
1595 1597 -0.000493441
1596 1597 -0.00273664
1597 1597 0.0218119
1599 1597 -0.0047952
1600 1597 -0.112583
1608 1597 -0.0142382
1775 1597 -0.0320175
1808 1597 -0.000921497
1812 1597 -0.00519945
1814 1597 -0.288974
1598 1598 0.00988922
1599 1598 -0.0621975
1600 1598 -0.0621975
1601 1598 -0.0621975
1603 1598 -0.0621975
1812 1598 -0.163477
1814 1598 -0.0507321
1595 1599 -0.00305654
1596 1599 -4.79043e-05
1597 1599 -0.000106605
1598 1599 -0.000615105
1599 1599 0.0178002
1600 1599 -0.078365
1601 1599 -0.125755
1603 1599 -0.0021493
1608 1599 -0.000390682
1775 1599 -0.00377119
1808 1599 -0.000261947
1812 1599 -0.0914171
1814 1599 -0.303612
1597 1600 -0.00248587
1598 1600 -0.000615084
1599 1600 -0.0013814
1600 1600 0.0123372
1601 1600 -0.0171817
1603 1600 -0.00334158
1608 1600 -0.00291266
1775 1600 -0.00687359
1808 1600 -0.000215006
1812 1600 -0.0692901
1814 1600 -0.411471
1598 1601 -0.000615105
1599 1601 -0.00280384
1600 1601 -0.000257981
1601 1601 0.0168264
1602 1601 -0.0365559
1603 1601 -0.00268306
1604 1601 -1.1425e-11
1607 1601 -0.130759
1608 1601 -0.000109757
1775 1601 -0.00073379
1808 1601 -4.69455e-05
1812 1601 -0.202162
1814 1601 -0.058755
1601 1602 -0.000615084
1602 1602 0.00986674
1603 1602 -0.0625064
1604 1602 -0.0623392
1607 1602 -0.0704906
1608 1602 -6.84216e-06
1775 1602 -4.57439e-05
1808 1602 -2.92655e-06
1812 1602 -0.176453
1814 1602 -0.0545104
1598 1603 -0.000615084
1599 1603 -3.82567e-05
1600 1603 -4.12549e-05
1601 1603 -4.37765e-05
1602 1603 -0.000616685
1603 1603 0.00714929
1604 1603 -0.00537728
1607 1603 -0.00688105
1608 1603 -2.01603e-05
1775 1603 -6.8283e-05
1808 1603 -3.1823e-06
1812 1603 -0.203482
1814 1603 -0.0134255
1601 1604 -4.62811e-15
1602 1604 -0.000615084
1603 1604 -3.84469e-05
1604 1604 0.00718788
1605 1604 -6.43888e-13
1606 1604 -0.085574
1607 1604 -0.00606885
1608 1604 -6.93335e-07
1775 1604 -4.27965e-06
1808 1604 -0.0855727
1812 1604 -0.101762
1814 1604 -0.0047364
1604 1605 -1.92245e-13
1605 1605 0.0197384
1606 1605 -0.0764651
1607 1605 -0.140112
1608 1605 -6.75283e-18
1775 1605 -4.16822e-17
1808 1605 -0.0311629
1812 1605 -0.161456
1814 1605 -0.0564972
1604 1606 -0.000615085
1605 1606 -0.00154782
1606 1606 0.00794585
1607 1606 -0.222559
1608 1606 -5.36707e-08
1775 1606 -3.31286e-07
1808 1606 -0.196688
1812 1606 -0.116738
1814 1606 -0.152719
1601 1607 -0.00276558
1602 1607 -0.000716203
1603 1607 -5.21875e-05
1604 1607 -4.49282e-05
1605 1607 -0.0022002
1606 1607 -0.00168969
1607 1607 0.0161246
1608 1607 -1.92014e-05
1775 1607 -0.000128154
1808 1607 -0.0632565
1812 1607 -0.171318
1814 1607 -0.0362674
1581 1608 -0.00452073
1582 1608 -0.000514205
1583 1608 -0.00131863
1596 1608 -0.00287801
1597 1608 -0.00046677
1599 1608 -8.98309e-06
1600 1608 -5.32545e-05
1601 1608 -2.04467e-06
1602 1608 -7.47448e-08
1603 1608 -2.0742e-07
1604 1608 -5.77488e-09
1605 1608 -3.71838e-21
1606 1608 -4.9418e-10
1607 1608 -2.74199e-07
1608 1608 0.0202272
1609 1608 -0.0257196
1610 1608 -0.022967
1617 1608 -0.011842
1623 1608 -2.0518e-13
1775 1608 -0.000912217
1808 1608 -0.00250696
1809 1608 -0.00207624
1812 1608 -0.000851037
1814 1608 -0.460801
1551 1609 -0.00319461
1557 1609 -0.00545252
1558 1609 4.80924e-15
1559 1609 9.87288e-16
1564 1609 2.26552e-05
1565 1609 -0.000301111
1566 1609 -0.000653564
1568 1609 -6.01531e-05
1569 1609 -8.02593e-05
1570 1609 -8.8929e-06
1571 1609 -3.25074e-07
1572 1609 -4.33829e-07
1573 1609 -2.25977e-08
1574 1609 -1.45504e-20
1575 1609 -1.93377e-09
1576 1609 -1.18922e-06
1577 1609 -0.000911318
1578 1609 -0.00154762
1579 1609 -0.000615105
1580 1609 -0.000331193
1581 1609 -0.00391359
1582 1609 -0.00173596
1608 1609 -0.000518391
1609 1609 0.0383941
1610 1609 -0.0475809
1611 1609 -8.27456e-05
1617 1609 -0.0995511
1623 1609 -0.00862616
1775 1609 -1.23166e-05
1808 1609 -6.46073e-05
1809 1609 -0.00372081
1812 1609 -0.000449418
1814 1609 -0.427533
1546 1610 -0.00142134
1550 1610 -0.00419352
1581 1610 -0.00296234
1582 1610 -0.00554697
1608 1610 -0.000467283
1609 1610 -0.0018801
1610 1610 0.034866
1611 1610 -0.129226
1612 1610 -0.0414898
1617 1610 -0.011135
1618 1610 -0.00138279
1619 1610 -0.0166625
1620 1610 -0.00511164
1623 1610 -0.000465153
1775 1610 -1.28899e-05
1787 1610 -0.000116997
1808 1610 -3.70828e-05
1809 1610 -0.0132221
1812 1610 -3.56401e-05
1814 1610 -0.0514021
1485 1611 -0.00023245
1486 1611 -0.00108206
1490 1611 -0.000849605
1491 1611 -0.00303872
1492 1611 -0.0013008
1493 1611 -0.000615084
1546 1611 -0.000957668
1550 1611 -0.00303872
1563 1611 -0.00449067
1564 1611 -6.48388e-05
1565 1611 -5.73551e-06
1566 1611 -6.53541e-05
1568 1611 -1.39697e-06
1569 1611 -7.66446e-06
1570 1611 -3.03425e-07
1571 1611 -1.10915e-08
1572 1611 -2.939e-08
1573 1611 -8.49473e-10
1574 1611 -5.46968e-22
1575 1611 -7.26928e-11
1576 1611 -4.06784e-08
1609 1611 -2.77589e-06
1610 1611 -0.00474859
1611 1611 0.0377128
1612 1611 -0.11642
1613 1611 5.06639e-23
1614 1611 -4.21445e-16
1617 1611 -0.00140939
1618 1611 -0.00110048
1619 1611 -0.0155493
1620 1611 -0.00586504
1621 1611 -0.0494524
1623 1611 -5.92046e-05
1775 1611 -1.62394e-06
1787 1611 -9.31108e-05
1808 1611 -0.000281423
1809 1611 -0.00464541
1812 1611 -7.6823e-05
1814 1611 -0.275677
1485 1612 -0.000232449
1486 1612 -0.000849603
1490 1612 -0.000849603
1491 1612 -0.000911318
1492 1612 -0.000615105
1493 1612 -0.00154762
1520 1612 -0.00319461
1526 1612 -0.00545252
1527 1612 4.80922e-15
1528 1612 9.87285e-16
1533 1612 2.26552e-05
1534 1612 -0.000643727
1535 1612 -0.000317229
1537 1612 -7.55547e-05
1538 1612 -6.83234e-05
1539 1612 -8.8929e-06
1540 1612 -3.25074e-07
1541 1612 -4.33829e-07
1542 1612 -2.25977e-08
1543 1612 -1.93377e-09
1544 1612 -3.5496e-10
1545 1612 -1.18922e-06
1546 1612 -0.000380566
1550 1612 -0.00120755
1610 1612 -0.00150642
1611 1612 -0.00441874
1612 1612 0.0415625
1613 1612 -0.00559275
1614 1612 -4.27214e-16
1617 1612 -0.000553422
1618 1612 -0.000501145
1619 1612 -0.00843511
1620 1612 -0.00367413
1621 1612 -0.0914809
1623 1612 -0.00917962
1775 1612 -6.3984e-07
1787 1612 -4.24017e-05
1808 1612 -5.96776e-05
1809 1612 -0.0030964
1812 1612 -0.000414002
1814 1612 -0.401923
1469 1613 -0.00207291
1470 1613 -0.000833426
1472 1613 -0.00109001
1473 1613 -0.00023835
1483 1613 -0.000323975
1484 1613 -0.000166609
1485 1613 -5.38717e-23
1486 1613 -2.52359e-29
1487 1613 -5.39354e-23
1488 1613 -5.412e-23
1489 1613 -1.16029e-29
1490 1613 -2.05467e-29
1611 1613 -8.32411e-24
1612 1613 -0.000232449
1613 1613 0.0139138
1614 1613 -0.0210349
1617 1613 -0.00033583
1618 1613 -8.37228e-06
1619 1613 -0.00014092
1620 1613 -0.0167677
1621 1613 -0.00152831
1623 1613 -0.000153357
1775 1613 -1.06894e-08
1778 1613 -0.00115657
1787 1613 -0.016707
1788 1613 -0.000407376
1802 1613 -0.00225484
1804 1613 -0.000271165
1808 1613 -9.96992e-07
1809 1613 -0.103543
1812 1613 -6.91645e-06
1814 1613 -0.399809
1470 1614 -0.000833426
1472 1614 -0.00227818
1473 1614 -0.000164914
1483 1614 -7.48421e-06
1484 1614 -0.000331313
1489 1614 -5.8967e-11
1490 1614 -6.66728e-18
1611 1614 -5.31803e-19
1612 1614 -5.93714e-19
1613 1614 -0.000296602
1614 1614 0.0127878
1617 1614 -0.000253694
1618 1614 -0.0664386
1619 1614 -3.26887e-06
1620 1614 -0.000388912
1621 1614 -3.54477e-05
1623 1614 -3.55699e-06
1775 1614 -2.4793e-10
1778 1614 -0.000259114
1787 1614 -0.0668259
1788 1614 -0.000575881
1802 1614 -0.00178327
1804 1614 -0.000213599
1808 1614 -2.31244e-08
1809 1614 -0.115006
1812 1614 -1.60421e-07
1814 1614 -0.395831
1417 1615 -0.00271257
1419 1615 -0.000268594
1422 1615 -1.63344e-05
1429 1615 -0.00164151
1430 1615 -0.000989506
1431 1615 -0.000716998
1434 1615 -0.00164151
1435 1615 -0.000989505
1436 1615 -0.000725802
1437 1615 -0.000167293
1438 1615 -0.000205073
1439 1615 -0.000202267
1440 1615 1.41965e-06
1441 1615 -0.000192406
1442 1615 -0.000281541
1615 1615 0.0158839
1616 1615 -0.000180761
1617 1615 -3.2046e-13
1618 1615 -0.000608385
1619 1615 -0.000880799
1620 1615 -0.00305621
1621 1615 -0.000145793
1622 1615 -1.101e-11
1773 1615 -7.28268e-21
1778 1615 -0.00245641
1787 1615 -0.000982707
1788 1615 -0.00128312
1802 1615 -0.00589116
1804 1615 -0.000707728
1808 1615 -2.35146e-17
1809 1615 -0.0022272
1814 1615 -0.38045
1399 1616 -1.02665e-14
1400 1616 -0.000615084
1401 1616 -0.000615096
1402 1616 -0.00106546
1412 1616 -0.000275589
1413 1616 -4.44505e-20
1418 1616 -0.00120755
1419 1616 -0.000210444
1422 1616 -1.2798e-05
1615 1616 -2.94596e-06
1616 1616 0.0198491
1617 1616 -2.00972e-13
1618 1616 -0.0516619
1619 1616 -0.00055238
1620 1616 -0.00191666
1621 1616 -9.14319e-05
1622 1616 -0.0608367
1773 1616 -4.56723e-21
1778 1616 -0.000128156
1787 1616 -0.179257
1788 1616 -0.000202649
1802 1616 -0.000479647
1804 1616 -0.000214246
1808 1616 -6.51981e-19
1809 1616 -5.47559e-05
1814 1616 -0.345061
1420 1617 -0.00120755
1421 1617 -0.00120755
1422 1617 -6.29197e-11
1467 1617 -0.00106546
1473 1617 -0.000275589
1483 1617 -1.25069e-05
1484 1617 -1.23919e-05
1577 1617 -1.02665e-14
1578 1617 -0.000615096
1579 1617 -0.000615084
1581 1617 -0.00103158
1582 1617 -0.000117336
1608 1617 -0.000130622
1609 1617 -0.00369487
1610 1617 -0.000284813
1611 1617 -3.71108e-05
1612 1617 -1.61373e-05
1613 1617 -4.86352e-06
1614 1617 -3.43749e-06
1615 1617 -1.23805e-13
1616 1617 -9.45624e-14
1617 1617 0.0193114
1618 1617 -3.47559e-05
1619 1617 -0.000282711
1620 1617 -9.40217e-05
1621 1617 -0.0110466
1622 1617 -2.979e-13
1623 1617 -0.00166513
1773 1617 -0.00555642
1775 1617 -8.72054e-06
1778 1617 -3.49558e-05
1787 1617 -1.80427e-05
1788 1617 -1.82394e-05
1802 1617 -8.37814e-05
1804 1617 -1.0065e-05
1808 1617 -3.04562e-05
1809 1617 -0.0121996
1812 1617 -9.27649e-05
1814 1617 -0.444959
1399 1618 -0.00303872
1400 1618 -0.0013008
1401 1618 -0.000615084
1423 1618 -0.000232449
1424 1618 -0.000674731
1441 1618 -0.000442281
1442 1618 -1.41889e-05
1459 1618 -0.000232449
1462 1618 -0.000884565
1463 1618 1.71627e-24
1464 1618 -0.000652113
1465 1618 -8.112e-07
1466 1618 -1.85942e-05
1488 1618 -0.000232449
1489 1618 -0.00108205
1490 1618 -1.22346e-10
1506 1618 -0.00449067
1507 1618 -6.48388e-05
1508 1618 -6.51668e-05
1509 1618 -7.36717e-06
1511 1618 -7.55521e-06
1512 1618 -2.21398e-06
1513 1618 -2.78833e-08
1514 1618 -2.38602e-09
1515 1618 -3.03745e-07
1516 1618 -8.49473e-10
1517 1618 -7.26928e-11
1518 1618 -1.33434e-11
1519 1618 -4.06784e-08
1547 1618 -0.00185842
1549 1618 -0.00247218
1550 1618 -0.000565015
1610 1618 -8.00015e-05
1611 1618 -5.58259e-05
1612 1618 -2.83614e-05
1613 1618 -1.58619e-07
1614 1618 -0.000849605
1615 1618 -9.35648e-06
1616 1618 -0.00186499
1617 1618 -1.20078e-06
1618 1618 0.0372986
1619 1618 -0.0149499
1620 1618 -0.00851
1621 1618 -0.000154192
1622 1618 -0.00304193
1623 1618 -8.20167e-06
1773 1618 -1.78882e-07
1775 1618 -3.08511e-08
1778 1618 -2.1699e-05
1787 1618 -0.127191
1788 1618 -4.38338e-05
1802 1618 -0.000128471
1804 1618 -2.32283e-05
1808 1618 -0.000280369
1809 1618 -0.00749451
1812 1618 -7.3618e-05
1814 1618 -0.312457
1414 1619 -0.00303872
1415 1619 -0.0013008
1416 1619 -0.000615084
1419 1619 -0.00186499
1422 1619 -0.000113418
1460 1619 -0.00023245
1461 1619 -0.000884564
1462 1619 -0.000652114
1463 1619 1.81341e-24
1464 1619 -7.04071e-11
1465 1619 -8.75834e-14
1466 1619 -2.00757e-12
1487 1619 -0.00023245
1489 1619 -0.000849603
1490 1619 -0.00108206
1532 1619 -0.00449067
1533 1619 -6.48388e-05
1534 1619 -6.51668e-05
1535 1619 -7.36717e-06
1537 1619 -7.55521e-06
1538 1619 -2.21398e-06
1539 1619 -3.03425e-07
1540 1619 -1.10915e-08
1541 1619 -2.939e-08
1542 1619 -8.49474e-10
1543 1619 -7.26928e-11
1544 1619 -1.33434e-11
1545 1619 -4.06784e-08
1548 1619 -0.00126827
1549 1619 -0.00303872
1550 1619 -0.00542661
1610 1619 -0.000768363
1611 1619 -0.00062248
1612 1619 -0.000371525
1613 1619 -2.07785e-06
1614 1619 -4.38196e-08
1615 1619 -2.61075e-05
1616 1619 -1.99409e-05
1617 1619 -9.63934e-06
1618 1619 -0.000526513
1619 1619 0.0398394
1620 1619 -0.125732
1621 1619 -0.00203433
1622 1619 -7.06525e-05
1623 1619 -9.60207e-05
1773 1619 -1.34677e-06
1775 1619 -2.82461e-07
1778 1619 -2.02971e-06
1787 1619 -0.00552475
1788 1619 -1.54788e-06
1802 1619 -5.93837e-06
1804 1619 -8.9482e-07
1808 1619 -0.000271358
1809 1619 -0.00292049
1812 1619 -7.5187e-05
1814 1619 -0.284706
1414 1620 -0.000911318
1415 1620 -0.000615105
1416 1620 -0.00154762
1419 1620 -0.00358366
1422 1620 -0.000217938
1460 1620 -0.000232449
1461 1620 -0.000652114
1462 1620 -0.000652114
1463 1620 -0.000232449
1464 1620 -5.04872e-06
1465 1620 -5.70952e-06
1466 1620 -3.07946e-06
1487 1620 -0.000232449
1489 1620 -0.000849603
1490 1620 -0.000849603
1494 1620 -0.00319461
1500 1620 -0.00545252
1501 1620 4.80922e-15
1502 1620 9.87285e-16
1507 1620 2.26552e-05
1508 1620 -0.000643727
1509 1620 -0.000317229
1511 1620 -7.55547e-05
1512 1620 -6.83234e-05
1513 1620 -3.89669e-07
1514 1620 -3.33446e-08
1515 1620 -8.89737e-06
1516 1620 -2.25977e-08
1517 1620 -1.93377e-09
1518 1620 -3.5496e-10
1519 1620 -1.18922e-06
1548 1620 -0.000503997
1549 1620 -0.00120755
1550 1620 -0.00165247
1610 1620 -0.000233976
1611 1620 -0.000231038
1612 1620 -0.000158604
1613 1620 -0.000233336
1614 1620 -4.90831e-06
1615 1620 -5.01668e-05
1616 1620 -3.83173e-05
1617 1620 -3.09832e-06
1618 1620 -0.000301871
1619 1620 -0.00488527
1620 1620 0.0436596
1621 1620 -0.00154148
1622 1620 -8.23307e-05
1623 1620 -0.0115917
1773 1620 -5.46246e-07
1775 1620 -1.12492e-07
1778 1620 -1.60535e-05
1787 1620 -0.0048329
1788 1620 -6.73364e-06
1802 1620 -3.38929e-05
1804 1620 -4.28627e-06
1808 1620 -6.12633e-05
1809 1620 -0.00356229
1812 1620 -0.000396179
1814 1620 -0.423726
1420 1621 -0.00120755
1421 1621 -5.37083e-11
1422 1621 -0.00120755
1452 1621 -0.00106546
1458 1621 -0.000275589
1463 1621 -4.15939e-06
1464 1621 -2.99578e-06
1465 1621 -1.26126e-05
1466 1621 -1.25354e-05
1491 1621 -1.02665e-14
1492 1621 -0.000615084
1493 1621 -0.000615096
1611 1621 -0.00102544
1612 1621 -0.00367747
1613 1621 -2.05672e-05
1614 1621 -4.32629e-07
1615 1621 -2.37607e-06
1616 1621 -1.81484e-06
1617 1621 -0.000213491
1618 1621 -3.29415e-06
1619 1621 -5.59214e-05
1620 1621 -5.77235e-05
1621 1621 0.0192912
1622 1621 -6.69386e-06
1623 1621 -0.00180661
1773 1621 -6.14973e-05
1775 1621 -3.05974e-07
1778 1621 -3.70051e-05
1787 1621 -0.000116073
1788 1621 -1.91298e-05
1802 1621 -8.82011e-05
1804 1621 -1.06135e-05
1808 1621 -2.76915e-05
1809 1621 -0.00643902
1812 1621 -8.54544e-05
1814 1621 -0.459829
1376 1622 -0.00048306
1377 1622 -0.000616002
1387 1622 -0.00010802
1398 1622 -4.75896e-07
1418 1622 -3.15347e-12
1419 1622 -5.49565e-13
1421 1622 -2.83649e-22
1422 1622 -3.34215e-14
1615 1622 -7.69324e-15
1616 1622 -0.00120755
1617 1622 -2.42684e-16
1618 1622 -6.23845e-05
1619 1622 -1.59967e-06
1620 1622 -3.04649e-06
1621 1622 -1.27978e-07
1622 1622 0.0297768
1623 1622 -0.000100756
1624 1622 -1.0163e-08
1625 1622 -7.51715e-09
1773 1622 -0.280943
1775 1622 -1.26837e-07
1776 1622 -1.62635e-06
1777 1622 -6.67184e-08
1778 1622 -5.24456e-06
1780 1622 -1.24971e-08
1781 1622 -6.85942e-16
1787 1622 -0.00753678
1788 1622 -0.00368382
1789 1622 -4.69259e-05
1802 1622 -1.97247e-05
1804 1622 -8.73762e-06
1808 1622 -6.08359e-07
1809 1622 -0.0809974
1812 1622 -1.99175e-07
1814 1622 -0.232187
1378 1623 -0.000740245
1379 1623 -0.00106356
1380 1623 -0.00232931
1387 1623 -0.000678857
1398 1623 -2.99079e-06
1546 1623 -3.97685e-15
1547 1623 -7.76342e-15
1548 1623 -5.19254e-15
1549 1623 -2.56392e-15
1550 1623 -2.32647e-15
1580 1623 -3.53565e-15
1581 1623 -5.76498e-16
1582 1623 -9.54427e-16
1608 1623 -8.87247e-17
1609 1623 -0.000331193
1610 1623 -1.57585e-05
1611 1623 -2.06381e-06
1612 1623 -0.00038146
1613 1623 -2.13341e-06
1614 1623 -4.48761e-08
1617 1623 -3.33609e-05
1618 1623 -2.19388e-07
1619 1623 -3.52534e-06
1620 1623 -0.000505975
1621 1623 -3.61573e-05
1622 1623 -2.98551e-06
1623 1623 0.0292078
1624 1623 -6.51148e-08
1625 1623 -4.81629e-08
1773 1623 -3.51492e-05
1775 1623 -9.79472e-07
1776 1623 -1.04201e-05
1777 1623 -4.27469e-07
1778 1623 -4.49657e-07
1780 1623 -8.00696e-08
1781 1623 -4.39488e-15
1782 1623 -0.241349
1787 1623 -0.0253731
1788 1623 -0.000307101
1789 1623 -0.00848271
1802 1623 -9.63155e-07
1804 1623 -1.20198e-07
1808 1623 -2.71724e-06
1809 1623 -0.0512418
1812 1623 -1.76127e-05
1814 1623 -0.263263
1361 1624 -0.00164151
1362 1624 -0.000989506
1364 1624 -0.000129813
1365 1624 -0.000756413
1369 1624 -0.00164151
1370 1624 -0.000989505
1371 1624 -0.000758133
1372 1624 -0.000175708
1373 1624 -0.000215453
1374 1624 -0.000214897
1375 1624 1.49223e-06
1394 1624 -0.00271257
1396 1624 -0.000276178
1397 1624 -8.96688e-14
1398 1624 -1.75545e-05
1622 1624 -2.93821e-10
1623 1624 -1.85991e-09
1624 1624 0.0158246
1625 1624 -0.000193793
1773 1624 -0.000334147
1775 1624 -0.00326749
1776 1624 -1.45e-07
1777 1624 -0.00172001
1778 1624 -0.00256606
1780 1624 -8.67419e-07
1781 1624 -8.47277e-13
1782 1624 -0.00307887
1787 1624 -3.12211e-09
1788 1624 -0.00134646
1789 1624 -1.22771e-07
1802 1624 -0.00617
1804 1624 -0.000741218
1808 1624 -3.30685e-13
1809 1624 -9.67011e-05
1812 1624 -2.07377e-12
1814 1624 -0.366704
1332 1625 -7.97752e-15
1333 1625 -0.000615096
1334 1625 -0.000615084
1338 1625 -0.00106547
1350 1625 -0.000284513
1354 1625 -3.60252e-06
1355 1625 -3.6364e-06
1356 1625 -4.70664e-06
1357 1625 -3.40567e-06
1395 1625 -0.00120755
1396 1625 -0.000210387
1397 1625 -0.00120755
1398 1625 -1.33726e-05
1622 1625 -2.23827e-10
1623 1625 -1.41684e-09
1624 1625 -3.1584e-06
1625 1625 0.0196212
1773 1625 -8.29742e-06
1774 1625 -0.0525645
1775 1625 -0.00201196
1776 1625 -8.91085e-08
1777 1625 -0.00105701
1778 1625 -3.5614e-05
1779 1625 -0.181487
1780 1625 -5.33063e-07
1781 1625 -0.0086852
1782 1625 -8.04429e-06
1787 1625 -1.91866e-09
1788 1625 -1.8707e-05
1789 1625 -7.54474e-08
1802 1625 -8.55947e-05
1804 1625 -1.02827e-05
1808 1625 -2.03204e-13
1809 1625 -0.0051459
1812 1625 -1.27441e-12
1814 1625 -0.352276
1626 1626 0.00735258
1629 1626 -3.31068e-11
1650 1626 -0.0685492
1804 1626 -0.169115
1627 1627 0.0934951
1633 1627 -0.109092
1814 1627 -0.0818775
1628 1628 0.0129877
1629 1628 0.00925093
1650 1628 -0.223485
1802 1628 -0.222104
1814 1628 -0.563661
1626 1629 -5.53243e-15
1628 1629 -0.000865021
1629 1629 0.0107861
1633 1629 1.83882e-12
1650 1629 -0.33209
1778 1629 -0.0249839
1788 1629 -0.0695375
1802 1629 -0.0178123
1804 1629 -8.67428e-14
1814 1629 -0.417857
1630 1630 0.00735258
1632 1630 -3.30041e-11
1649 1630 -0.0685492
1804 1630 -0.169115
1631 1631 0.0129877
1632 1631 0.00924993
1649 1631 -0.223486
1802 1631 -0.222104
1814 1631 -0.56366
1630 1632 -5.5153e-15
1631 1632 -0.000865008
1632 1632 0.0123055
1633 1632 -0.0491301
1649 1632 -0.291084
1778 1632 -0.156166
1788 1632 -0.021899
1802 1632 -0.0156127
1804 1632 -7.57969e-14
1814 1632 -0.345394
1627 1633 -0.0102647
1629 1633 1.58148e-14
1632 1633 8.29381e-05
1633 1633 0.0426775
1634 1633 9.87785e-13
1649 1633 0.000565683
1650 1633 1.23061e-13
1778 1633 -0.0512799
1788 1633 -0.0238403
1802 1633 -0.0172742
1804 1633 -0.033016
1814 1633 -0.544337
1633 1634 -3.62594e-13
1634 1634 0.0324113
1649 1634 6.32845e-15
1650 1634 1.37672e-24
1778 1634 -5.73681e-13
1785 1634 -0.22097
1788 1634 -2.66708e-13
1802 1634 -0.0227865
1804 1634 -0.0434641
1814 1634 -0.100723
1635 1635 0.00150277
1638 1635 -1.56219e-07
1647 1635 7.44453e-21
1775 1635 -0.154686
1777 1635 -0.154683
1636 1636 0.00150389
1637 1636 -1.61487e-07
1647 1636 7.98043e-21
1774 1636 -0.154568
1779 1636 -0.154572
1636 1637 -2.47253e-10
1637 1637 0.006539
1638 1637 -6.55876e-08
1647 1637 3.01756e-28
1774 1637 -0.135277
1779 1637 -0.0997308
1809 1637 -0.0997268
1635 1638 -2.28518e-10
1637 1638 -3.77374e-10
1638 1638 0.00846053
1647 1638 2.01076e-28
1648 1638 -9.173e-08
1774 1638 -0.0770772
1775 1638 -0.0770802
1777 1638 -0.104553
1779 1638 -0.0770771
1809 1638 -4.44822e-09
1639 1639 0.00856515
1640 1639 -0.120126
1645 1639 -0.188742
1649 1639 -0.0325855
1814 1639 -0.183169
1639 1640 -0.00102888
1640 1640 0.0130404
1645 1640 -0.0746893
1647 1640 -0.156844
1649 1640 -0.163619
1814 1640 -0.12444
1641 1641 0.00941774
1645 1641 -0.291047
1781 1641 -0.104478
1814 1641 -0.231357
1642 1642 0.00690909
1644 1642 -0.229828
1646 1642 -0.117679
1647 1642 -0.118244
1643 1643 0.00856513
1644 1643 -0.120126
1645 1643 -0.188743
1650 1643 -0.0325855
1814 1643 -0.183169
1642 1644 -0.00125962
1643 1644 -0.00102888
1644 1644 0.0135976
1645 1644 -0.0716279
1646 1644 -0.166363
1647 1644 -0.0799398
1650 1644 -0.156914
1814 1644 -0.262195
1639 1645 -0.0016414
1640 1645 -0.000989487
1641 1645 -0.00271742
1643 1645 -0.00164139
1644 1645 -0.000989477
1645 1645 0.0159075
1646 1645 -0.0103481
1647 1645 -0.0147285
1649 1645 -0.0464052
1650 1645 -0.0459887
1781 1645 -0.0178475
1814 1645 -0.32473
1642 1646 -0.000833464
1644 1646 -0.00231774
1645 1646 -0.000166015
1646 1646 0.00989902
1647 1646 -0.0289198
1648 1646 7.17123e-17
1649 1646 -0.000778254
1650 1646 -0.0375109
1773 1646 -0.0658766
1781 1646 -0.000299318
1809 1646 -0.145469
1814 1646 -0.483582
1635 1647 -5.41269e-23
1636 1647 -5.39506e-23
1637 1647 -8.7123e-30
1638 1647 -8.45565e-30
1640 1647 -0.00207285
1642 1647 -0.000833394
1644 1647 -0.00112959
1645 1647 -0.00023573
1646 1647 -0.000288433
1647 1647 0.0150626
1648 1647 4.85577e-17
1649 1647 -0.0232576
1650 1647 -0.0132054
1773 1647 -0.00126147
1774 1647 -5.53625e-22
1775 1647 -0.0154322
1777 1647 -5.55846e-22
1779 1647 -0.0154322
1781 1647 -0.000285045
1782 1647 -0.0432935
1809 1647 -0.0983854
1814 1647 -0.357457
1638 1648 -3.27753e-11
1646 1648 -1.43401e-18
1647 1648 -1.47715e-18
1648 1648 0.00931397
1649 1648 -3.80837e-18
1650 1648 -7.86961e-18
1773 1648 -0.0700175
1774 1648 -2.7123e-10
1775 1648 -0.0700145
1777 1648 -0.0700145
1779 1648 -2.7123e-10
1781 1648 -9.12909e-20
1782 1648 -0.0700175
1809 1648 -0.0771909
1814 1648 -0.124565
1630 1649 -0.000503997
1631 1649 -0.00293146
1632 1649 -0.00340835
1633 1649 -0.000167453
1634 1649 1.65407e-16
1639 1649 -0.000279106
1640 1649 -0.00191797
1645 1649 -0.000708373
1646 1649 -7.3303e-06
1647 1649 -0.000311467
1648 1649 1.56498e-20
1649 1649 0.0112554
1650 1649 -0.00328421
1773 1649 -7.78112e-05
1774 1649 -1.53198e-23
1775 1649 -0.000427047
1777 1649 9.73342e-20
1778 1649 -0.0480528
1779 1649 -0.000427047
1781 1649 -0.00113134
1782 1649 -0.00119804
1785 1649 3.24732e-15
1788 1649 -0.00698611
1802 1649 -0.0628314
1804 1649 -0.00806381
1809 1649 -0.00281732
1814 1649 -0.433461
1626 1650 -0.000503997
1628 1650 -0.00293146
1629 1650 -0.00340835
1633 1650 6.26735e-15
1634 1650 -6.19079e-27
1643 1650 -0.000279106
1644 1650 -0.001918
1645 1650 -0.00070251
1646 1650 -0.000326352
1647 1650 -0.000173109
1648 1650 3.18092e-20
1649 1650 -3.68802e-05
1650 1650 0.0111216
1773 1650 -0.00195298
1774 1650 -8.6673e-24
1775 1650 -0.00024162
1777 1650 2.00566e-19
1778 1650 -0.007816
1779 1650 -0.00024162
1781 1650 -0.00114434
1782 1650 -0.000677844
1785 1650 1.07684e-17
1788 1650 -0.0213339
1802 1650 -0.0642103
1804 1650 -0.00769052
1809 1650 -0.00580938
1814 1650 -0.487139
1651 1651 0.00842782
1652 1651 -0.26113
1657 1651 -0.173473
1667 1651 -0.104842
1814 1651 -0.349662
1651 1652 -0.00223054
1652 1652 0.0133326
1657 1652 -0.0648175
1667 1652 -0.184118
1771 1652 -0.153409
1814 1652 -0.137039
1653 1653 0.00911703
1657 1653 -0.328594
1780 1653 -0.102174
1814 1653 -0.24603
1654 1654 0.00690952
1656 1654 -0.229842
1669 1654 -0.117668
1771 1654 -0.11824
1655 1655 0.00842782
1656 1655 -0.26113
1657 1655 -0.173473
1668 1655 -0.104842
1814 1655 -0.349661
1654 1656 -0.00125983
1655 1656 -0.00223054
1656 1656 0.0138898
1657 1656 -0.0622174
1668 1656 -0.176733
1669 1656 -0.162866
1771 1656 -0.0782598
1814 1656 -0.271385
1651 1657 -0.00147541
1652 1657 -0.000862525
1653 1657 -0.00295151
1655 1657 -0.00147541
1656 1657 -0.000862525
1657 1657 0.0198207
1667 1657 -0.0262985
1668 1657 -0.0259771
1669 1657 -0.00708735
1771 1657 -0.0100814
1780 1657 -0.0152148
1814 1657 -0.247792
1658 1658 0.0101533
1661 1658 -0.227028
1668 1658 -0.121817
1804 1658 -0.122465
1659 1659 0.110167
1666 1659 -0.173295
1814 1659 -0.212197
1660 1660 0.00971673
1661 1660 4.11639e-12
1668 1660 -0.11592
1802 1660 -0.296863
1814 1660 -0.587216
1658 1661 -0.00182984
1660 1661 -3.31996e-16
1661 1661 0.0102025
1666 1661 -1.20578e-12
1668 1661 -0.254119
1778 1661 -0.0264138
1788 1661 -0.0734894
1802 1661 -9.66011e-15
1804 1661 -0.0219644
1814 1661 -0.222074
1662 1662 0.0101533
1664 1662 -0.227028
1667 1662 -0.121817
1804 1662 -0.122466
1663 1663 0.00971673
1664 1663 4.11669e-12
1667 1663 -0.11592
1802 1663 -0.296863
1814 1663 -0.587216
1662 1664 -0.00182983
1663 1664 -3.32019e-16
1664 1664 0.0117816
1666 1664 -0.113131
1667 1664 -0.220059
1778 1664 -0.0636396
1788 1664 -0.0561608
1802 1664 -8.36591e-15
1804 1664 -0.0190204
1814 1664 -0.192309
1665 1665 0.0324113
1666 1665 -9.47729e-13
1802 1665 -0.0227865
1804 1665 -0.0434641
1812 1665 -0.22097
1814 1665 -0.100723
1659 1666 -0.019261
1661 1666 -1.21834e-14
1664 1666 -0.00105988
1665 1666 -3.04116e-14
1666 1666 0.0499365
1667 1666 -0.00467066
1668 1666 -6.19994e-14
1778 1666 -0.0217621
1788 1666 -0.0295183
1802 1666 -0.0147891
1804 1666 -0.0286155
1812 1666 -1.34572e-13
1814 1666 -0.514685
1651 1667 -0.000196184
1652 1667 -0.00225267
1657 1667 -0.000387808
1662 1667 -0.00126828
1663 1667 -0.00112632
1664 1667 -0.00268253
1666 1667 -0.000303476
1667 1667 0.0119559
1668 1667 -0.000842611
1669 1667 -0.00022989
1771 1667 -0.0292317
1778 1667 -0.0148311
1780 1667 -0.000493517
1788 1667 -0.01335
1802 1667 -0.0283419
1804 1667 -0.0179851
1812 1667 -3.41584e-15
1814 1667 -0.559751
1655 1668 -0.000196185
1656 1668 -0.00225268
1657 1668 -0.000381951
1658 1668 -0.00126827
1660 1668 -0.00112632
1661 1668 -0.00268253
1666 1668 -3.23455e-15
1667 1668 -1.00448e-05
1668 1668 0.0118828
1669 1668 -0.0311032
1771 1668 -0.0151848
1778 1668 -0.0059754
1780 1668 -0.000489469
1788 1668 -0.0166014
1802 1668 -0.0281624
1804 1668 -0.0180446
1812 1668 -2.88747e-18
1814 1668 -0.582586
1654 1669 -0.000833427
1656 1669 -0.00231777
1657 1669 -0.000144206
1667 1669 -3.7924e-06
1668 1669 -0.000413375
1669 1669 0.0104203
1771 1669 -0.0276167
1772 1669 9.63733e-17
1773 1669 -0.0815334
1778 1669 -0.000242443
1780 1669 -0.000230154
1788 1669 -0.00066344
1802 1669 -0.00112752
1804 1669 -0.000722376
1809 1669 -0.138189
1812 1669 -1.35772e-18
1814 1669 -0.483005
1670 1670 0.0110015
1671 1670 -0.119858
1685 1670 -0.0852655
1808 1670 -0.0345921
1814 1670 -0.27965
1670 1671 -0.00131888
1671 1671 0.0211334
1685 1671 -0.136191
1777 1671 -0.213842
1808 1671 -0.0021588
1814 1671 -0.346443
1672 1672 0.0151287
1682 1672 -0.195095
1683 1672 -0.0406567
1684 1672 -0.0620046
1685 1672 -0.102661
1814 1672 -0.0887767
1673 1673 0.0179162
1679 1673 -0.125464
1779 1673 -0.178079
1814 1673 -0.124958
1674 1674 0.00635994
1678 1674 -0.209574
1812 1674 -0.232494
1675 1675 0.010974
1678 1675 -0.121458
1812 1675 -0.231393
1676 1676 0.00503496
1678 1676 5.29113e-12
1812 1676 -0.297834
1814 1676 -0.702166
1677 1677 0.00927248
1678 1677 2.89116e-12
1812 1677 -0.303498
1814 1677 -0.696502
1674 1678 -0.00105989
1675 1678 -0.00105989
1676 1678 -2.13464e-16
1677 1678 -2.14784e-16
1678 1678 0.0166473
1682 1678 -0.201397
1812 1678 -0.19947
1814 1678 -0.257614
1673 1679 -0.00229192
1679 1679 0.0245909
1680 1679 8.55246e-13
1682 1679 0.00415558
1683 1679 -0.0555043
1684 1679 -0.118791
1779 1679 -0.223977
1814 1679 -0.468585
1679 1680 -2.38948e-13
1680 1680 0.0153488
1681 1680 -0.20529
1682 1680 6.46935e-14
1683 1680 -0.0488493
1684 1680 -0.0328373
1779 1680 -3.48684e-12
1814 1680 -0.120201
1680 1681 -0.00319835
1681 1681 0.0101044
1682 1681 2.04774e-14
1683 1681 -0.0154622
1684 1681 -0.010394
1779 1681 -1.10369e-12
1808 1681 -0.144688
1814 1681 -0.30679
1672 1682 -0.00299598
1678 1682 -0.00332846
1679 1682 -0.000735744
1680 1682 6.29242e-16
1681 1682 1.29177e-16
1682 1682 0.0266773
1683 1682 -0.0643161
1684 1682 -0.158343
1685 1682 -0.104714
1779 1682 -0.00617716
1808 1682 7.00609e-16
1812 1682 -0.0248873
1814 1682 -0.347919
1672 1683 -0.000615084
1679 1683 -0.00136486
1680 1683 -0.000749778
1681 1683 -0.000153922
1682 1683 -0.00166754
1683 1683 0.0151695
1684 1683 -0.032337
1685 1683 -0.0156736
1687 1683 -0.198969
1779 1683 -0.0208312
1808 1683 -0.00146812
1812 1683 -0.0027358
1814 1683 -0.461265
1672 1684 -0.00093807
1679 1684 -0.00294543
1680 1684 -0.000503997
1681 1684 -0.000103465
1682 1684 -0.00412983
1683 1684 -0.000493457
1684 1684 0.0216902
1685 1684 -0.126162
1687 1684 -0.00452658
1688 1684 -0.112835
1779 1684 -0.032065
1808 1684 -0.000723581
1812 1684 -0.0048008
1814 1684 -0.251389
1670 1685 -0.00093807
1671 1685 -0.00231261
1672 1685 -0.00155346
1682 1685 -0.00275053
1683 1685 -0.000240062
1684 1685 -0.00330512
1685 1685 0.0196468
1687 1685 -0.00319267
1688 1685 -0.0189819
1777 1685 -0.0251712
1779 1685 -0.00651354
1808 1685 -0.00204544
1812 1685 -0.00432525
1814 1685 -0.405308
1686 1686 0.00988922
1687 1686 -0.0621975
1688 1686 -0.0621975
1689 1686 -0.0621975
1691 1686 -0.0621975
1812 1686 -0.163477
1814 1686 -0.0507321
1683 1687 -0.00305654
1684 1687 -9.88395e-05
1685 1687 -6.03767e-05
1686 1687 -0.000615105
1687 1687 0.0178002
1688 1687 -0.0783818
1689 1687 -0.125755
1691 1687 -0.00214931
1777 1687 -8.53788e-05
1779 1687 -0.00377716
1808 1687 -0.000263053
1812 1687 -0.0914184
1814 1687 -0.303816
1684 1688 -0.0024859
1685 1688 -0.000313626
1686 1688 -0.000615084
1687 1688 -0.00138174
1688 1688 0.0123306
1689 1688 -0.0171944
1691 1688 -0.00334344
1777 1688 -0.000649795
1779 1688 -0.00705339
1808 1688 -0.00022738
1812 1688 -0.0693597
1814 1688 -0.414456
1686 1689 -0.000615105
1687 1689 -0.00280383
1688 1689 -0.000258027
1689 1689 0.0168264
1690 1689 -0.0365559
1691 1689 -0.0026831
1692 1689 -1.1424e-11
1695 1689 -0.130759
1777 1689 -2.41913e-05
1779 1689 -0.00073756
1808 1689 -4.73201e-05
1812 1689 -0.202163
1814 1689 -0.0588358
1689 1690 -0.000615084
1690 1690 0.00986674
1691 1690 -0.0625065
1692 1690 -0.0623392
1695 1690 -0.0704906
1777 1690 -1.50807e-06
1779 1690 -4.59789e-05
1808 1690 -2.94989e-06
1812 1690 -0.176453
1814 1690 -0.0545154
1686 1691 -0.000615084
1687 1691 -3.82567e-05
1688 1691 -4.12556e-05
1689 1691 -4.3777e-05
1690 1691 -0.000616685
1691 1691 0.00714929
1692 1691 -0.00537728
1695 1691 -0.00688106
1777 1691 -4.48478e-06
1779 1691 -6.93965e-05
1808 1691 -3.26395e-06
1812 1691 -0.203483
1814 1691 -0.0134448
1689 1692 -4.6277e-15
1690 1692 -0.000615084
1691 1692 -3.84469e-05
1692 1692 0.00718788
1693 1692 -0.085574
1694 1692 -6.43876e-13
1695 1692 -0.00606885
1777 1692 -1.53037e-07
1779 1692 -4.30572e-06
1808 1692 -0.0855727
1812 1692 -0.101762
1814 1692 -0.00473693
1692 1693 -0.000615085
1693 1693 0.00806421
1694 1693 -0.191937
1695 1693 -0.1924
1777 1693 -1.16727e-08
1779 1693 -3.28412e-07
1808 1693 -0.18782
1812 1693 -0.0840351
1814 1693 -0.139634
1692 1694 -1.92241e-13
1693 1694 -0.0015093
1694 1694 0.0194487
1695 1694 -0.15713
1777 1694 -9.05849e-10
1779 1694 -2.54861e-08
1808 1694 -0.0462027
1812 1694 -0.170382
1814 1694 -0.0681749
1689 1695 -0.00276558
1690 1695 -0.000716203
1691 1695 -5.21876e-05
1692 1695 -4.49282e-05
1693 1695 -0.00152145
1694 1695 -0.00249222
1695 1695 0.0161246
1777 1695 -4.23228e-06
1779 1695 -0.000128815
1808 1695 -0.0632566
1812 1695 -0.171319
1814 1695 -0.0362816
1696 1696 0.0110014
1697 1696 -0.119858
1711 1696 -0.0852661
1808 1696 -0.0345924
1814 1696 -0.279652
1696 1697 -0.00131947
1697 1697 0.0211342
1711 1697 -0.136202
1774 1697 -0.213708
1808 1697 -0.0021597
1814 1697 -0.346565
1698 1698 0.015126
1708 1698 -0.195126
1709 1698 -0.0406639
1710 1698 -0.0620155
1711 1698 -0.102679
1814 1698 -0.0887929
1699 1699 0.0178834
1705 1699 -0.124815
1770 1699 -0.174765
1814 1699 -0.127681
1700 1700 0.0105043
1704 1700 -0.1009
1812 1700 -0.241133
1701 1701 0.00630466
1704 1701 -0.168113
1812 1701 -0.234388
1702 1702 0.00927248
1704 1702 2.89115e-12
1812 1702 -0.303498
1814 1702 -0.696502
1703 1703 0.00503496
1704 1703 5.29113e-12
1812 1703 -0.297834
1814 1703 -0.702166
1700 1704 -0.00133288
1701 1704 -0.00133289
1702 1704 -2.14784e-16
1703 1704 -2.13465e-16
1704 1704 0.0160936
1708 1704 -0.208271
1812 1704 -0.214787
1814 1704 -0.266529
1699 1705 -0.00227135
1705 1705 0.0245567
1706 1705 4.48507e-13
1708 1705 0.0041711
1709 1705 -0.0555818
1710 1705 -0.1189
1770 1705 -0.224632
1814 1705 -0.467858
1705 1706 -2.37276e-13
1706 1706 0.0153487
1707 1706 -0.205291
1708 1706 6.44811e-14
1709 1706 -0.0488495
1710 1706 -0.0328375
1770 1706 -3.47259e-12
1814 1706 -0.120202
1706 1707 -0.00319834
1707 1707 0.0101044
1708 1707 2.04101e-14
1709 1707 -0.0154623
1710 1707 -0.010394
1770 1707 -1.09917e-12
1808 1707 -0.144688
1814 1707 -0.306791
1698 1708 -0.00299596
1704 1708 -0.00332635
1705 1708 -0.000733621
1706 1708 3.29034e-16
1707 1708 6.75476e-17
1708 1708 0.026633
1709 1708 -0.0644215
1710 1708 -0.15864
1711 1708 -0.104895
1770 1708 -0.00618762
1808 1708 3.66962e-16
1812 1708 -0.026826
1814 1708 -0.34879
1698 1709 -0.000615084
1705 1709 -0.00136486
1706 1709 -0.000749778
1707 1709 -0.000153922
1708 1709 -0.00166784
1709 1709 0.0151694
1710 1709 -0.0323832
1711 1709 -0.0156964
1713 1709 -0.198977
1770 1709 -0.0208916
1808 1709 -0.00146813
1812 1709 -0.00294947
1814 1709 -0.461294
1698 1710 -0.00093807
1705 1710 -0.00294485
1706 1710 -0.000503997
1707 1710 -0.000103466
1708 1710 -0.00413021
1709 1710 -0.00049412
1710 1710 0.0216863
1711 1710 -0.126121
1713 1710 -0.00453368
1714 1710 -0.112855
1770 1710 -0.032158
1808 1710 -0.00072376
1812 1710 -0.00517629
1814 1710 -0.251512
1696 1711 -0.00093807
1697 1711 -0.0023125
1698 1711 -0.00155411
1708 1711 -0.00275101
1709 1711 -0.000240421
1710 1711 -0.00330415
1711 1711 0.019645
1713 1711 -0.00319767
1714 1711 -0.0189815
1770 1711 -0.00653092
1774 1711 -0.0251566
1808 1711 -0.00204575
1812 1711 -0.00466334
1814 1711 -0.405499
1712 1712 0.0098892
1713 1712 -0.0621975
1714 1712 -0.0621975
1715 1712 -0.0621975
1717 1712 -0.0621975
1812 1712 -0.163478
1814 1712 -0.0507322
1709 1713 -0.00305656
1710 1713 -9.89813e-05
1711 1713 -6.04605e-05
1712 1713 -0.000615105
1713 1713 0.0177999
1714 1713 -0.0783841
1715 1713 -0.125753
1717 1713 -0.00214933
1770 1713 -0.00378845
1774 1713 -8.54486e-05
1808 1713 -0.000263078
1812 1713 -0.091459
1814 1713 -0.303829
1710 1714 -0.0024859
1711 1714 -0.000313523
1712 1714 -0.000615084
1713 1714 -0.00138179
1714 1714 0.0123306
1715 1714 -0.0171947
1717 1714 -0.00334345
1770 1714 -0.0070738
1774 1714 -0.000649219
1808 1714 -0.00022741
1812 1714 -0.0694488
1814 1714 -0.414488
1712 1715 -0.000615105
1713 1715 -0.00280378
1714 1715 -0.00025803
1715 1715 0.0168263
1716 1715 -0.0365562
1717 1715 -0.00268313
1718 1715 -0.130758
1721 1715 -1.14116e-11
1770 1715 -0.000739749
1774 1715 -2.41941e-05
1808 1715 -4.73242e-05
1812 1715 -0.202173
1814 1715 -0.0588381
1715 1716 -0.000615084
1716 1716 0.00986673
1717 1716 -0.0625065
1718 1716 -0.0704906
1721 1716 -0.0623392
1770 1716 -4.61154e-05
1774 1716 -1.50824e-06
1808 1716 -2.95015e-06
1812 1716 -0.176453
1814 1716 -0.0545156
1712 1717 -0.000615084
1713 1717 -3.82567e-05
1714 1717 -4.12557e-05
1715 1717 -4.3777e-05
1716 1717 -0.000616685
1717 1717 0.00714929
1718 1717 -0.00688105
1721 1717 -0.00537728
1770 1717 -6.96001e-05
1774 1717 -4.48188e-06
1808 1717 -3.26431e-06
1812 1717 -0.203484
1814 1717 -0.0134451
1715 1718 -0.00276555
1716 1718 -0.000716203
1717 1718 -5.21877e-05
1718 1718 0.0168092
1719 1718 -0.0902844
1720 1718 -0.130892
1721 1718 -0.00267284
1770 1718 -0.000123889
1774 1718 -4.05875e-06
1808 1718 -0.0366013
1812 1718 -0.131203
1814 1718 -0.012045
1718 1719 -0.00154782
1719 1719 0.0079771
1720 1719 -0.21943
1721 1719 -0.077625
1770 1719 -2.40385e-05
1774 1719 -7.87529e-07
1808 1719 -0.190375
1812 1719 -0.102564
1814 1719 -0.143131
1718 1720 -0.00276557
1719 1720 -0.00175899
1720 1720 0.0189904
1721 1720 -0.00757927
1770 1720 -2.02685e-05
1774 1720 -6.6402e-07
1808 1720 -0.0553541
1812 1720 -0.196422
1814 1720 -0.0737341
1715 1721 -4.62269e-15
1716 1721 -0.000615084
1717 1721 -3.84469e-05
1718 1721 -4.36222e-05
1719 1721 -0.000619034
1720 1721 -0.000141545
1721 1721 0.00713864
1770 1721 -7.59173e-06
1774 1721 -2.60352e-07
1808 1721 -0.103993
1812 1721 -0.116054
1814 1721 -0.0187169
1722 1722 0.00154474
1723 1722 -1.10564e-17
1769 1722 -0.150482
1770 1722 -0.150484
1771 1722 1.72505e-20
1722 1723 5.93072e-21
1723 1723 0.00836279
1727 1723 1.43156e-20
1769 1723 -0.129392
1770 1723 -0.101597
1771 1723 -1.22338e-38
1809 1723 -0.101593
1724 1724 0.00150442
1727 1724 -6.67576e-05
1771 1724 8.2214e-21
1774 1724 -0.15446
1779 1724 -0.154517
1725 1725 0.00150294
1726 1725 -1.69425e-07
1771 1725 7.52385e-21
1775 1725 -0.154669
1777 1725 -0.154665
1725 1726 -2.54916e-10
1726 1726 0.010642
1727 1726 -3.20557e-05
1771 1726 1.80225e-28
1772 1726 -1.1357e-07
1774 1726 -0.079811
1775 1726 -0.0798382
1777 1726 -0.101679
1779 1726 -0.079835
1723 1727 -3.57825e-22
1724 1727 1.89211e-07
1726 1727 5.69722e-08
1727 1727 0.0108204
1769 1727 -0.0785184
1770 1727 -0.0785184
1771 1727 -1.43763e-25
1772 1727 5.97974e-13
1774 1727 -0.102372
1775 1727 4.20367e-07
1777 1727 5.35365e-07
1779 1727 -0.0785184
1809 1727 -3.35963e-21
1728 1728 0.0110587
1769 1728 -0.35759
1770 1728 -0.0972248
1781 1728 -7.69786e-12
1729 1729 0.00687279
1769 1729 -0.269636
1770 1729 -0.216234
1781 1729 -0.169025
1814 1729 -0.243162
1730 1730 0.00513537
1769 1730 -0.154159
1770 1730 -0.349616
1781 1730 -0.132062
1814 1730 -0.130207
1731 1731 0.0111049
1733 1731 -0.240833
1775 1731 -0.0910051
1776 1731 -1.26228e-06
1777 1731 -0.164147
1732 1732 0.00773445
1768 1732 -0.242331
1774 1732 -0.160834
1776 1732 -1.67359e-06
1779 1732 -0.0900082
1731 1733 -0.00347917
1733 1733 0.024208
1768 1733 -0.176578
1774 1733 -0.12306
1775 1733 -0.0130792
1776 1733 -1.81415e-07
1777 1733 -0.101428
1779 1733 -0.0498823
1734 1734 0.0175774
1735 1734 -0.163667
1747 1734 -0.167772
1748 1734 -0.0349928
1749 1734 -0.142921
1814 1734 -0.0515285
1734 1735 -0.00266198
1735 1735 0.0177887
1736 1735 -0.14418
1737 1735 -0.0214818
1747 1735 -0.19097
1748 1735 -0.00523648
1749 1735 -0.0104064
1814 1735 -0.343912
1735 1736 -0.00248677
1736 1736 0.0131077
1737 1736 -0.212804
1747 1736 -0.0362306
1748 1736 -0.000993459
1749 1736 -0.00197429
1785 1736 -0.0290338
1814 1736 -0.264088
1735 1737 2.83052e-05
1736 1737 -0.00258064
1737 1737 0.0221696
1747 1737 -0.00397359
1748 1737 -0.000108957
1749 1737 -0.00021653
1769 1737 -0.150833
1785 1737 -0.00337967
1814 1737 -0.453974
1738 1738 0.0176231
1744 1738 -0.12779
1767 1738 -0.221357
1814 1738 -0.126724
1739 1739 0.010504
1743 1739 -0.100879
1812 1739 -0.241147
1740 1740 0.00630452
1743 1740 -0.16809
1812 1740 -0.234401
1741 1741 0.00927248
1743 1741 2.89098e-12
1812 1741 -0.303498
1814 1741 -0.696502
1742 1742 0.00503496
1743 1742 5.29083e-12
1812 1742 -0.297834
1814 1742 -0.702166
1739 1743 -0.00133283
1740 1743 -0.00133291
1741 1743 -2.14793e-16
1742 1743 -2.13474e-16
1743 1743 0.0160933
1747 1743 -0.208831
1812 1743 -0.214813
1814 1743 -0.265933
1738 1744 -0.00231481
1744 1744 0.0250503
1745 1744 -0.027385
1747 1744 0.023096
1748 1744 -0.102932
1749 1744 -0.137794
1767 1744 -0.223081
1814 1744 -0.401453
1744 1745 8.0615e-05
1745 1745 0.0129849
1746 1745 -0.22514
1747 1745 -0.000143389
1748 1745 -0.14723
1749 1745 -0.0379594
1767 1745 0.00138497
1814 1745 -0.386075
1745 1746 -0.00292915
1746 1746 0.0123591
1747 1746 -3.39836e-05
1748 1746 -0.0348939
1749 1746 -0.00899651
1767 1746 0.000328243
1785 1746 -0.130802
1814 1746 -0.289722
1734 1747 -0.00299227
1735 1747 -0.00319584
1736 1747 -0.000460775
1737 1747 -0.000166707
1743 1747 -0.00336377
1744 1747 0.000470442
1745 1747 1.2883e-05
1746 1747 2.90049e-06
1747 1747 0.0243347
1748 1747 -0.0667631
1749 1747 -0.119422
1767 1747 0.00431187
1769 1747 -0.0010333
1785 1747 -0.000557315
1812 1747 -0.0296935
1814 1747 -0.426164
1734 1748 -0.000615105
1735 1748 -0.000100672
1736 1748 -1.45149e-05
1737 1748 -5.25146e-06
1744 1748 -0.00257109
1745 1748 -0.00201662
1746 1748 -0.000454023
1747 1748 -0.00161703
1748 1748 0.0180022
1749 1748 -0.0398291
1750 1748 -0.136337
1767 1748 -0.0313099
1769 1748 -0.000136815
1785 1748 -0.00337334
1812 1748 -0.00266719
1814 1748 -0.274244
1734 1749 -0.00269243
1735 1749 -0.000743636
1736 1749 -0.000107217
1737 1749 -3.87909e-05
1744 1749 -0.00289918
1745 1749 -0.00058339
1746 1749 -0.000131345
1747 1749 -0.00345196
1748 1749 -0.000717577
1749 1749 0.0176819
1750 1749 -0.00553291
1752 1749 -0.151219
1767 1749 -0.0369577
1769 1749 -0.000538177
1785 1749 -0.00140079
1812 1749 -0.00590516
1814 1749 -0.444796
1748 1750 -0.00248482
1749 1750 -9.89682e-05
1750 1750 0.012651
1751 1750 -0.0486196
1752 1750 -0.105314
1753 1750 -7.99837e-14
1755 1750 -0.00058343
1767 1750 -0.00643882
1769 1750 -3.10824e-05
1785 1750 -0.000673528
1812 1750 -0.0484546
1814 1750 -0.384031
1750 1751 -0.000615084
1751 1751 0.00985773
1752 1751 -0.0689673
1753 1751 -0.0623961
1755 1751 -0.0624325
1767 1751 -0.000401757
1769 1751 -1.93942e-06
1785 1751 -4.20255e-05
1812 1751 -0.167013
1814 1751 -0.0748587
1749 1752 -0.0028827
1750 1752 -0.00135276
1751 1752 -0.000680876
1752 1752 0.0176356
1753 1752 -0.125456
1755 1752 -0.00245515
1767 1752 -0.0065505
1769 1752 -9.04293e-05
1785 1752 -0.000282258
1812 1752 -0.0970136
1814 1752 -0.334494
1750 1753 -4.3646e-14
1751 1753 -0.000615105
1752 1753 -0.00277478
1753 1753 0.016654
1754 1753 -0.0369345
1755 1753 -0.00271498
1756 1753 -0.130379
1759 1753 -1.4132e-12
1767 1753 -0.00110624
1769 1753 -1.51384e-05
1785 1753 -4.85804e-05
1812 1753 -0.204047
1814 1753 -0.0584962
1753 1754 -0.000615084
1754 1754 0.00986634
1755 1754 -0.0625109
1756 1754 -0.0704697
1759 1754 -0.0623417
1767 1754 -6.89651e-05
1769 1754 -9.43756e-07
1785 1754 -3.02858e-06
1812 1754 -0.176576
1814 1754 -0.0544967
1750 1755 0.000194674
1751 1755 -0.000605619
1752 1755 -2.12661e-05
1753 1755 -4.04562e-05
1754 1755 -0.000616579
1755 1755 0.00817342
1756 1755 -0.00596136
1759 1755 0.00497284
1767 1755 9.58691e-05
1769 1755 2.15206e-07
1785 1755 1.17248e-05
1812 1755 -0.319278
1814 1755 -0.00167084
1753 1756 -0.00273568
1754 1756 -0.000716146
1755 1756 -5.21943e-05
1756 1756 0.0166796
1757 1756 -0.13035
1758 1756 -0.0368777
1759 1756 -0.00266111
1767 1756 -0.0001841
1769 1756 -2.52276e-06
1785 1756 -0.0907799
1812 1756 -0.132723
1814 1756 -0.0119392
1756 1757 -0.00274063
1757 1757 0.0193039
1758 1757 -0.0370999
1759 1757 -0.000377805
1767 1757 -2.61372e-05
1769 1757 -3.58163e-07
1785 1757 -0.0912501
1812 1757 -0.183746
1814 1757 -0.0595245
1756 1758 -0.000615084
1757 1758 -0.00069526
1758 1758 0.00984071
1759 1758 -0.0626971
1767 1758 -1.33536e-05
1769 1758 -1.82987e-07
1785 1758 -0.176404
1812 1758 -0.0837817
1814 1758 -0.055934
1753 1759 -5.98048e-16
1754 1759 -0.000615084
1755 1759 2.09147e-05
1756 1759 -4.32201e-05
1757 1759 -5.63374e-06
1758 1759 -0.000616887
1759 1759 0.00813729
1767 1759 -7.46762e-06
1769 1759 -9.94095e-08
1785 1759 -0.175999
1812 1759 -0.0987642
1814 1759 -0.00845999
1760 1760 0.00820727
1767 1760 -0.111041
1780 1760 -7.81037e-12
1784 1760 -0.147132
1761 1761 0.00663476
1767 1761 -0.239008
1780 1761 -0.227213
1784 1761 -0.236029
1814 1761 -0.199635
1762 1762 0.00665447
1767 1762 -0.234652
1780 1762 -0.243005
1784 1762 -0.221337
1814 1762 -0.202931
1763 1763 0.00437118
1766 1763 -0.118805
1769 1763 -0.243744
1770 1763 -0.127348
1776 1763 -7.2406e-07
1764 1764 0.00273893
1765 1764 -1.7938e-06
1767 1764 -0.120925
1776 1764 -1.13339e-10
1784 1764 -0.120921
1764 1765 -7.48813e-09
1765 1765 0.0197833
1766 1765 -0.00148643
1767 1765 -0.0610385
1776 1765 -4.28995e-17
1784 1765 -0.0768079
1809 1765 -0.117815
1763 1766 -0.000184785
1765 1766 0.000621626
1766 1766 0.0283776
1767 1766 -0.0575451
1768 1766 -0.0493787
1769 1766 -0.148824
1770 1766 -0.0617841
1776 1766 -4.71482e-09
1784 1766 -0.14238
1809 1766 0.00258079
1738 1767 -0.00310134
1744 1767 -0.00543294
1745 1767 -0.000148781
1746 1767 -3.34966e-05
1747 1767 0.000125457
1748 1767 -0.00057392
1749 1767 -0.00076245
1750 1767 -8.24653e-05
1751 1767 -4.00943e-06
1752 1767 -0.000124258
1753 1767 -1.5839e-05
1754 1767 -5.85006e-07
1755 1767 -6.83075e-07
1756 1767 -2.11036e-06
1757 1767 -2.75086e-07
1758 1767 -8.8031e-08
1759 1767 -4.43125e-08
1760 1767 -0.000911318
1761 1767 -0.0015368
1762 1767 -0.00155306
1764 1767 -0.000331193
1765 1767 -0.00120726
1766 1767 -0.00121057
1767 1767 0.0388529
1768 1767 -0.00153854
1769 1767 -0.00464667
1770 1767 -0.00192507
1776 1767 -0.0085243
1780 1767 -0.13293
1784 1767 -0.0777755
1785 1767 -0.000196822
1809 1767 -0.00358039
1812 1767 -0.000590014
1814 1767 -0.407282
1732 1768 -0.00245377
1733 1768 -0.00552353
1766 1768 -0.000506778
1767 1768 -2.91626e-05
1768 1768 0.0337127
1769 1768 -0.0832843
1770 1768 -0.0367493
1774 1768 -0.16158
1775 1768 -0.00214291
1776 1768 -7.52541e-06
1777 1768 -0.0166181
1779 1768 -0.0643571
1780 1768 -0.000114989
1784 1768 -0.00220758
1785 1768 -1.70258e-07
1809 1768 3.5698e-05
1812 1768 -5.10382e-07
1814 1768 -0.000352313
1722 1769 -0.000232449
1723 1769 -0.00108205
1727 1769 -0.000849603
1728 1769 -0.00311437
1729 1769 -0.00171693
1730 1769 -0.00110213
1737 1769 -0.00313401
1747 1769 -1.24533e-05
1748 1769 -1.17289e-06
1749 1769 -2.21251e-06
1750 1769 -1.72151e-07
1751 1769 -8.3699e-09
1752 1769 -3.5328e-07
1753 1769 -4.48432e-08
1754 1769 -1.65626e-09
1755 1769 -1.71563e-09
1756 1769 -5.97353e-09
1757 1769 -7.78649e-10
1758 1769 -2.49178e-10
1759 1769 -1.26536e-10
1763 1769 -0.000992332
1766 1769 -0.00413556
1767 1769 -0.000238049
1768 1769 -0.00314992
1769 1769 0.0359504
1770 1769 -0.101192
1771 1769 1.11535e-22
1772 1769 1.41317e-14
1774 1769 -0.0165767
1775 1769 -0.000187749
1776 1769 -5.71244e-05
1777 1769 -0.00145604
1779 1769 -0.00749446
1780 1769 -0.000890283
1781 1769 -0.0825615
1784 1769 -0.0170871
1785 1769 -0.000296358
1809 1769 -0.00278149
1812 1769 -1.6217e-05
1814 1769 -0.190974
1699 1770 -0.00401245
1705 1770 -0.0056104
1706 1770 2.5163e-15
1707 1770 5.16574e-16
1708 1770 2.34016e-05
1709 1770 -0.000310329
1710 1770 -0.000673412
1711 1770 -8.73475e-05
1713 1770 -6.50807e-05
1714 1770 -8.27573e-05
1715 1770 -9.60708e-06
1716 1770 -3.51199e-07
1717 1770 -4.64304e-07
1718 1770 -1.28415e-06
1719 1770 -1.15939e-07
1720 1770 -1.93526e-07
1721 1770 -3.8289e-08
1722 1770 -0.000232449
1723 1770 -0.000849603
1727 1770 -0.000849603
1728 1770 -0.000911318
1729 1770 -0.00152514
1730 1770 -0.00207451
1763 1770 -0.000380571
1766 1770 -0.00125277
1767 1770 -7.20906e-05
1768 1770 -0.00126952
1769 1770 -0.00426137
1770 1770 0.041244
1771 1770 -0.00563594
1772 1770 1.3778e-14
1774 1770 -0.00884979
1775 1770 -8.53503e-05
1776 1770 -0.00924816
1777 1770 -0.000661948
1779 1770 -0.00437273
1780 1770 -0.000327873
1781 1770 -0.0950992
1784 1770 -0.00629408
1785 1770 -3.09692e-05
1808 1770 -3.01098e-05
1809 1770 -0.00230692
1812 1770 -0.000444043
1814 1770 -0.40676
1652 1771 -0.00207298
1654 1771 -0.000833422
1656 1771 -0.00112961
1657 1771 -0.000204647
1667 1771 -0.000387056
1668 1771 -0.00020528
1669 1771 -0.000289965
1722 1771 -4.79882e-23
1723 1771 -5.30578e-40
1724 1771 -5.38703e-23
1725 1771 -5.41e-23
1726 1771 -9.16591e-30
1727 1771 -3.59625e-27
1769 1771 -7.22166e-24
1770 1771 -0.000232449
1771 1771 0.0169407
1772 1771 7.13919e-17
1773 1771 -0.00139557
1774 1771 -0.000121431
1775 1771 -0.0137225
1776 1771 -0.000126897
1777 1771 -9.08281e-06
1778 1771 -0.000415415
1779 1771 -0.0137813
1780 1771 -0.000209443
1781 1771 -0.00130489
1782 1771 -0.0501537
1784 1771 -8.63632e-05
1785 1771 -4.24939e-07
1788 1771 -0.000517542
1802 1771 -0.00100811
1804 1771 -0.000641939
1808 1771 -4.13147e-07
1809 1771 -0.0877927
1812 1771 -6.09286e-06
1814 1771 -0.380926
1669 1772 -2.00096e-18
1726 1772 -5.06756e-11
1727 1772 -1.62444e-15
1769 1772 -1.27548e-16
1770 1772 -1.40455e-16
1771 1772 1.67522e-19
1772 1772 0.0114155
1773 1772 -0.0744286
1774 1772 -3.54311e-10
1775 1772 -0.0744255
1776 1772 -1.14425e-16
1777 1772 -0.0744254
1778 1772 -3.64003e-20
1779 1772 -3.54414e-10
1780 1772 -1.40188e-17
1781 1772 -2.09256e-15
1782 1772 -0.0744255
1784 1772 -2.6836e-16
1785 1772 -3.69232e-18
1788 1772 -1.08696e-19
1802 1772 -1.82843e-19
1804 1772 -1.17201e-19
1808 1772 -3.70463e-19
1809 1772 -0.06298
1812 1772 -5.64458e-18
1814 1772 -0.101631
1337 1773 -0.000442281
1356 1773 -6.2308e-20
1357 1773 -0.000442281
1363 1773 -0.000971416
1364 1773 -0.000138008
1365 1773 -5.80889e-06
1374 1773 -1.65031e-06
1375 1773 2.65673e-18
1421 1773 -0.00120755
1422 1773 -1.74762e-18
1615 1773 -3.43874e-21
1616 1773 -2.62651e-21
1617 1773 -0.0001073
1618 1773 -3.72931e-09
1619 1773 -3.03907e-08
1620 1773 -1.39414e-08
1621 1773 -1.18539e-06
1622 1773 -0.0082577
1623 1773 -1.01298e-06
1624 1773 -3.36438e-06
1625 1773 -1.57624e-07
1646 1773 -0.000652114
1647 1773 -1.8859e-05
1648 1773 -0.000652114
1649 1773 -9.46124e-07
1650 1773 -2.47135e-05
1669 1773 -0.000849603
1771 1773 -2.34632e-05
1772 1773 -0.000849603
1773 1773 0.0351095
1774 1773 -3.17153e-07
1775 1773 -0.00391899
1776 1773 -4.67634e-07
1777 1773 -0.00389486
1778 1773 -2.02266e-05
1779 1773 -1.84956e-05
1780 1773 -5.71241e-06
1781 1773 -7.45958e-06
1782 1773 -0.0106015
1784 1773 -5.77155e-08
1785 1773 -2.83982e-10
1787 1773 -0.00177345
1788 1773 -0.00091171
1789 1773 -1.12817e-05
1802 1773 -0.000121706
1804 1773 -3.0652e-05
1808 1773 -2.37743e-07
1809 1773 -0.0373835
1812 1773 -3.38045e-07
1814 1773 -0.178266
1332 1774 -0.00303871
1333 1774 -0.000615084
1334 1774 -0.0013008
1625 1774 -0.00186488
1636 1774 -0.000232449
1637 1774 -0.000884563
1638 1774 -0.000652114
1647 1774 1.85505e-24
1648 1774 -5.98184e-11
1649 1774 4.29161e-26
1650 1774 2.41668e-26
1697 1774 -0.0044807
1711 1774 -0.000610282
1713 1774 -1.95148e-06
1714 1774 -1.1737e-05
1715 1774 -4.47219e-07
1716 1774 -1.63486e-08
1717 1774 -4.56583e-08
1718 1774 -5.99441e-08
1719 1774 -5.41201e-09
1720 1774 -9.03376e-09
1721 1774 -1.91348e-09
1724 1774 -0.000232638
1726 1774 -0.000849726
1727 1774 -0.00110477
1732 1774 -0.00126729
1733 1774 -0.00303387
1768 1774 -0.00515545
1769 1774 -0.000516113
1770 1774 -0.000332507
1771 1774 -1.87399e-06
1772 1774 -9.65028e-11
1773 1774 -1.81003e-08
1774 1774 0.0397252
1775 1774 -0.00434829
1776 1774 -7.9205e-05
1777 1774 -0.0138682
1778 1774 -1.69149e-06
1779 1774 -0.128921
1780 1774 -2.92689e-05
1781 1774 -0.00227643
1782 1774 -2.7487e-06
1784 1774 -0.000561178
1785 1774 -4.13164e-06
1787 1774 -8.98123e-10
1788 1774 -9.03018e-07
1789 1774 -3.54698e-09
1802 1774 -4.0658e-06
1804 1774 -5.13013e-07
1808 1774 -0.000275458
1809 1774 -0.00251717
1812 1774 -0.000103491
1814 1774 -0.278607
1335 1775 -0.000232449
1336 1775 -0.000442281
1337 1775 -0.000442281
1356 1775 -0.000232449
1357 1775 -4.6982e-06
1391 1775 -0.000911318
1392 1775 -0.000617332
1393 1775 -0.0015476
1396 1775 -0.0035871
1397 1775 -1.16465e-12
1398 1775 -0.000228004
1585 1775 -0.00399055
1591 1775 -0.00554286
1592 1775 4.84928e-15
1593 1775 9.95509e-16
1594 1775 2.30334e-05
1595 1775 -0.000306155
1596 1775 -2.38649e-06
1597 1775 -0.00066506
1599 1775 -6.41098e-05
1600 1775 -7.98986e-05
1601 1775 -9.4349e-06
1602 1775 -3.44901e-07
1603 1775 -4.51652e-07
1604 1775 -2.39295e-08
1605 1775 -1.54079e-20
1606 1775 -2.04775e-09
1607 1775 -1.26172e-06
1608 1775 -9.99894e-06
1609 1775 -2.57169e-07
1610 1775 -2.41882e-07
1611 1775 -3.12787e-08
1612 1775 -1.36771e-08
1613 1775 -7.64926e-11
1614 1775 -1.60902e-12
1617 1775 -1.46754e-07
1618 1775 -3.80957e-10
1619 1775 -4.67929e-09
1620 1775 -2.07678e-09
1621 1775 -4.43203e-09
1622 1775 -3.81795e-09
1623 1775 -2.68924e-08
1624 1775 -5.38509e-05
1625 1775 -3.99171e-05
1635 1775 -0.000232449
1638 1775 -0.000652114
1647 1775 -0.000232449
1648 1775 -0.000652114
1649 1775 -5.40619e-06
1650 1775 -3.08734e-06
1725 1775 -0.000232449
1726 1775 -0.000849603
1727 1775 -2.72346e-08
1731 1775 -0.000738538
1733 1775 -0.000177864
1768 1775 -3.14069e-05
1769 1775 -2.61784e-06
1770 1775 -1.42123e-06
1771 1775 -0.000232457
1772 1775 -0.000849603
1773 1775 -0.000137613
1774 1775 -0.000147219
1775 1775 0.0425622
1776 1775 -0.0173532
1777 1775 -0.112977
1778 1775 -1.81916e-05
1779 1775 -0.00380697
1780 1775 -5.60458e-06
1781 1775 -3.32073e-05
1782 1775 -0.00392949
1784 1775 -5.30305e-06
1785 1775 -3.60004e-08
1787 1775 -5.75351e-06
1788 1775 -1.24199e-05
1789 1775 -6.30128e-07
1802 1775 -3.82981e-05
1804 1775 -7.56241e-06
1808 1775 -2.93377e-05
1809 1775 -0.00665714
1812 1775 -0.000409572
1814 1775 -0.403114
1383 1776 -0.000740248
1384 1776 -0.00106356
1385 1776 -0.00232945
1386 1776 -0.000678893
1387 1776 -1.10775e-05
1398 1776 -3.68973e-06
1622 1776 -4.80793e-08
1623 1776 -3.04346e-07
1624 1776 -2.3463e-09
1625 1776 -1.73592e-09
1731 1776 -3.18374e-10
1732 1776 -2.98849e-10
1733 1776 -7.6675e-11
1763 1776 -7.28645e-11
1764 1776 -7.26363e-15
1765 1776 -1.30295e-20
1766 1776 -8.65666e-12
1767 1776 -0.000331193
1768 1776 -5.09641e-07
1769 1776 -1.58141e-06
1770 1776 -0.000381382
1771 1776 -2.14945e-06
1772 1776 5.2772e-18
1773 1776 -1.65188e-08
1774 1776 -3.48412e-06
1775 1776 -0.000738623
1776 1776 0.0138683
1777 1776 -0.0060407
1778 1776 -1.03418e-06
1779 1776 -0.0367024
1780 1776 -0.00318421
1781 1776 -0.00262721
1782 1776 -0.000222367
1784 1776 -0.00203294
1785 1776 -5.58885e-06
1787 1776 -8.91495e-07
1788 1776 -1.13106e-05
1789 1776 -0.0180135
1802 1776 -2.1983e-06
1804 1776 -5.02591e-07
1808 1776 -2.45988e-06
1809 1776 -0.108939
1812 1776 -4.81445e-05
1814 1776 -0.386779
1335 1777 -0.000232449
1336 1777 -0.000674731
1337 1777 -0.000442281
1356 1777 -6.23063e-20
1357 1777 -6.84662e-20
1391 1777 -0.00303872
1392 1777 -0.0013008
1393 1777 -0.000615096
1396 1777 -0.00103335
1397 1777 -3.35507e-13
1398 1777 -6.56822e-05
1622 1777 -1.09937e-09
1623 1777 -6.95908e-09
1624 1777 -1.55131e-05
1625 1777 -1.14774e-05
1635 1777 -0.000232449
1638 1777 -0.000884564
1647 1777 1.73048e-24
1648 1777 -0.000652113
1649 1777 -2.48345e-21
1650 1777 -5.14001e-21
1671 1777 -0.00448702
1685 1777 -0.000611093
1687 1777 -1.95102e-06
1688 1777 -1.17526e-05
1689 1777 -4.47429e-07
1690 1777 -1.63562e-08
1691 1777 -4.57103e-08
1692 1777 -1.26543e-09
1693 1777 -1.08288e-10
1694 1777 -2.07844e-11
1695 1777 -6.00044e-08
1725 1777 -0.000232449
1726 1777 -0.00108205
1727 1777 -3.4686e-08
1731 1777 -0.0018568
1733 1777 -0.00230717
1768 1777 -0.000407396
1769 1777 -3.39324e-05
1770 1777 -1.8408e-05
1771 1777 -1.03746e-07
1772 1777 -0.000849602
1773 1777 -0.000136751
1774 1777 -0.00050562
1775 1777 -0.00468788
1776 1777 -8.15763e-05
1777 1777 0.03755
1778 1777 -3.44195e-06
1779 1777 -0.0103433
1780 1777 -1.16139e-05
1781 1777 -0.000164419
1782 1777 -0.00417277
1784 1777 -5.51128e-05
1785 1777 -3.57108e-07
1787 1777 -7.18379e-06
1788 1777 -5.56023e-06
1789 1777 -3.94473e-05
1802 1777 -7.862e-06
1804 1777 -1.37489e-06
1808 1777 -0.000298835
1809 1777 -0.00703991
1812 1777 -0.000152729
1814 1777 -0.386697
1352 1778 -0.00222092
1353 1778 1.99598e-15
1354 1778 -0.000269478
1355 1778 -0.0019835
1356 1778 -1.82076e-05
1357 1778 -3.6999e-06
1373 1778 -0.00195144
1374 1778 -0.000269478
1375 1778 -0.00220741
1409 1778 -0.000269478
1410 1778 -0.00195144
1411 1778 -0.00220732
1412 1778 -0.000137103
1413 1778 1.98359e-15
1438 1778 -0.00195144
1439 1778 -0.000269478
1440 1778 -0.00220741
1441 1778 -2.97012e-06
1442 1778 -1.8377e-05
1446 1778 -0.000269478
1449 1778 -0.00195144
1450 1778 -0.00220847
1451 1778 1.98461e-15
1465 1778 -0.000546739
1466 1778 -9.13373e-05
1477 1778 -0.000269478
1480 1778 -0.00195144
1481 1778 -0.00220847
1482 1778 1.98461e-15
1483 1778 -0.000546739
1484 1778 -9.10958e-05
1613 1778 -1.90022e-05
1614 1778 -3.87326e-06
1615 1778 -4.2118e-05
1616 1778 -2.51546e-06
1617 1778 -7.10137e-07
1618 1778 -7.96534e-07
1619 1778 -5.32863e-08
1620 1778 -8.038e-07
1621 1778 -7.5526e-07
1622 1778 -1.5553e-07
1623 1778 -1.48195e-08
1624 1778 -4.39811e-05
1625 1778 -7.31857e-07
1629 1778 -0.000269478
1632 1778 -0.00195145
1633 1778 -0.00231679
1634 1778 2.28849e-15
1649 1778 -0.000566724
1650 1778 -9.13523e-05
1661 1778 -0.000269478
1664 1778 -0.000749778
1666 1778 -0.00110408
1667 1778 -0.000170152
1668 1778 -6.86229e-05
1669 1778 -2.17351e-06
1771 1778 -6.07589e-06
1772 1778 6.43238e-22
1773 1778 -7.27871e-07
1774 1778 -3.92078e-08
1775 1778 -7.91379e-07
1776 1778 -1.45142e-08
1777 1778 -1.6935e-07
1778 1778 0.0482297
1779 1778 -1.01807e-05
1780 1778 -2.4763e-06
1781 1778 -1.57614e-05
1782 1778 -8.41296e-05
1784 1778 -1.22293e-08
1785 1778 -6.04121e-11
1787 1778 -4.73807e-05
1788 1778 -0.113429
1789 1778 -8.61101e-09
1802 1778 -0.016968
1804 1778 -0.012841
1808 1778 -9.04172e-09
1809 1778 -0.000248603
1812 1778 -2.14777e-08
1814 1778 -0.398119
1332 1779 -0.000911318
1333 1779 -0.00154759
1334 1779 -0.000624215
1625 1779 -0.00358764
1636 1779 -0.000232449
1637 1779 -0.000652114
1638 1779 -0.000652114
1647 1779 -0.000232449
1648 1779 -5.98184e-11
1649 1779 -5.40619e-06
1650 1779 -3.08734e-06
1673 1779 -0.00399179
1679 1779 -0.00554649
1680 1779 4.74362e-15
1681 1779 9.73817e-16
1682 1779 2.30489e-05
1683 1779 -0.000306372
1684 1779 -0.000665134
1685 1779 -8.63032e-05
1687 1779 -6.42448e-05
1688 1779 -8.1724e-05
1689 1779 -9.48428e-06
1690 1779 -3.46707e-07
1691 1779 -4.58439e-07
1692 1779 -2.40786e-08
1693 1779 -2.0605e-09
1694 1779 -3.95486e-10
1695 1779 -1.26835e-06
1724 1779 -0.000232449
1726 1779 -0.000849603
1727 1779 -0.000849646
1732 1779 -0.000504018
1733 1779 -0.00120755
1768 1779 -0.00154293
1769 1779 -0.000195214
1770 1779 -0.000143169
1771 1779 -0.000233256
1772 1779 -9.6489e-11
1773 1779 -6.5498e-07
1774 1779 -0.00488939
1775 1779 -0.000172517
1776 1779 -0.000508745
1777 1779 -0.000399465
1778 1779 -5.21905e-07
1779 1779 0.0427558
1780 1779 -5.18665e-05
1781 1779 -0.00172633
1782 1779 -0.000567829
1784 1779 -0.000268128
1785 1779 -2.00774e-06
1787 1779 -1.2895e-07
1788 1779 -8.55548e-06
1789 1779 -0.000214718
1802 1779 -2.61913e-05
1804 1779 -6.2051e-06
1808 1779 -6.32229e-05
1809 1779 -0.0046639
1812 1779 -0.000430245
1814 1779 -0.441098
1389 1780 -0.00120755
1390 1780 -0.00120755
1397 1780 1.38343e-23
1398 1780 -2.19439e-05
1622 1780 -3.6729e-10
1623 1780 -2.32497e-09
1624 1780 -1.3954e-08
1625 1780 -1.0324e-08
1653 1780 -0.000935822
1657 1780 -0.000307506
1667 1780 -8.08694e-06
1668 1780 -7.99493e-06
1669 1780 -2.42993e-06
1760 1780 -3.17813e-15
1761 1780 -0.00148822
1762 1780 -0.00155739
1767 1780 -0.0045875
1768 1780 -7.05805e-06
1769 1780 -2.19044e-05
1770 1780 -1.13072e-05
1771 1780 -3.58871e-06
1772 1780 4.65828e-19
1773 1780 -2.03236e-07
1774 1780 -1.60459e-06
1775 1780 -2.51313e-07
1776 1780 -3.92189e-05
1777 1780 -5.36691e-07
1778 1780 -1.69882e-07
1779 1780 -2.37198e-06
1780 1780 0.023001
1781 1780 -0.00908493
1782 1780 -8.52396e-06
1784 1780 -0.192425
1785 1780 -3.95634e-05
1787 1780 -2.04691e-08
1788 1780 -1.15309e-05
1789 1780 -3.08435e-05
1802 1780 -2.01676e-05
1804 1780 -1.28692e-05
1808 1780 -5.20927e-08
1809 1780 -0.00765888
1812 1780 -0.000118053
1814 1780 -0.248614
1389 1781 -0.00120755
1390 1781 -1.53644e-12
1397 1781 -0.00120755
1398 1781 -3.03964e-14
1622 1781 -5.08765e-19
1623 1781 -3.22052e-18
1624 1781 -6.02506e-16
1625 1781 -0.000170414
1641 1781 -0.0011057
1645 1781 -0.00032181
1646 1781 -3.33011e-06
1647 1781 -4.83609e-06
1648 1781 4.73639e-22
1649 1781 -1.50487e-05
1650 1781 -1.50378e-05
1728 1781 -2.47487e-15
1729 1781 -0.00126118
1730 1781 -0.000602402
1769 1781 -0.00156922
1770 1781 -0.00465545
1771 1781 -2.62378e-05
1772 1781 8.63205e-17
1773 1781 -2.94047e-07
1774 1781 -7.61731e-05
1775 1781 -1.81195e-06
1776 1781 -4.31848e-05
1777 1781 -7.06999e-06
1778 1781 -8.57875e-07
1779 1781 -7.4977e-05
1780 1781 -0.000209031
1781 1781 0.0197359
1782 1781 -8.35466e-05
1784 1781 -0.00488912
1785 1781 -3.13245e-05
1787 1781 -3.42615e-08
1788 1781 -2.7562e-05
1789 1781 -4.05734e-05
1802 1781 -9.9993e-05
1804 1781 -1.36735e-05
1808 1781 -8.5221e-06
1809 1781 -0.00633808
1812 1781 -0.000109524
1814 1781 -0.343889
1337 1782 -0.000442281
1356 1782 -0.000442281
1357 1782 -8.93927e-06
1363 1782 -0.000971416
1364 1782 -0.00110942
1365 1782 -4.66968e-05
1368 1782 -0.000627451
1370 1782 -0.000188984
1371 1782 -3.4725e-05
1372 1782 -8.04802e-06
1373 1782 -9.86845e-06
1374 1782 -1.32666e-05
1375 1782 6.83493e-08
1623 1782 -0.0069399
1624 1782 -4.71214e-05
1625 1782 -1.52623e-07
1647 1782 -0.000652114
1648 1782 -0.000652114
1649 1782 -1.51666e-05
1650 1782 -8.66124e-06
1771 1782 -0.000849603
1772 1782 -0.000849603
1773 1782 -0.00038421
1774 1782 -1.11313e-07
1775 1782 -0.00016728
1776 1782 -3.08316e-06
1777 1782 -0.000157247
1778 1782 -3.71707e-06
1779 1782 -2.42064e-05
1780 1782 -1.94584e-07
1781 1782 -1.40916e-06
1782 1782 0.0331612
1784 1782 -4.22491e-06
1785 1782 -1.63277e-08
1787 1782 -0.00533064
1788 1782 -0.000154343
1789 1782 -0.0017774
1802 1782 -0.000271499
1804 1782 -4.76004e-05
1808 1782 -2.1947e-06
1809 1782 -0.0213037
1812 1782 -6.96049e-06
1814 1782 -0.181452
1201 1783 -0.000363606
1202 1783 -0.000749778
1203 1783 -0.00104626
1204 1783 -0.000202228
1205 1783 -4.41982e-07
1219 1783 -0.00164141
1220 1783 -0.000828399
1221 1783 -0.00173902
1222 1783 -0.00187339
1223 1783 -0.00106585
1313 1783 -6.34995e-06
1314 1783 -1.47554e-05
1315 1783 -1.68708e-07
1316 1783 -7.30536e-06
1317 1783 -3.23525e-06
1318 1783 -1.55626e-07
1319 1783 -2.42445e-07
1320 1783 -7.54819e-09
1321 1783 -1.192e-08
1322 1783 -5.25778e-09
1323 1783 -4.50228e-18
1324 1783 -2.01885e-22
1325 1783 -3.54963e-24
1326 1783 -2.61832e-20
1327 1783 -8.38367e-20
1328 1783 -9.16289e-11
1329 1783 -1.94158e-16
1330 1783 -1.17859e-13
1331 1783 -5.74786e-16
1634 1783 -0.00727396
1649 1783 4.60329e-17
1650 1783 1.51181e-19
1736 1783 -0.000380566
1737 1783 -8.09859e-05
1746 1783 -0.00164141
1747 1783 -1.41657e-05
1748 1783 -5.86079e-05
1749 1783 -1.95618e-05
1750 1783 -8.09867e-06
1751 1783 -3.93754e-07
1752 1783 -3.83817e-06
1753 1783 -5.06088e-07
1754 1783 -1.86921e-08
1755 1783 -4.12738e-08
1756 1783 -0.00154326
1757 1783 -0.00175345
1758 1783 -0.00176347
1759 1783 -0.00119002
1767 1783 -2.39849e-06
1768 1783 -3.69017e-09
1769 1783 -1.22655e-05
1770 1783 -1.24593e-06
1771 1783 -7.022e-09
1772 1783 1.905e-19
1773 1783 -9.79967e-12
1774 1783 -2.14945e-07
1775 1783 -3.44813e-09
1776 1783 -3.27465e-08
1777 1783 -2.23136e-08
1778 1783 -3.45838e-12
1779 1783 -1.26863e-07
1780 1783 -3.30279e-07
1781 1783 -1.13495e-06
1782 1783 -6.36488e-10
1783 1783 1
1784 1783 -4.73302e-07
1785 1783 0.0399656
1787 1783 -3.68196e-12
1788 1783 -4.13393e-11
1789 1783 -4.96092e-09
1796 1783 -4.6108e-13
1802 1783 -0.000165748
1803 1783 -7.41856e-23
1804 1783 -0.000316156
1805 1783 -2.5717e-14
1806 1783 -5.66747e-13
1807 1783 -5.22879e-19
1808 1783 -0.000754727
1809 1783 -2.32071e-07
1810 1783 -1.35176e-16
1812 1783 -0.00161291
1814 1783 -0.0118279
1143 1784 -0.00263388
1145 1784 -7.97044e-07
1146 1784 -3.80521e-06
1147 1784 -2.01401e-07
1148 1784 -7.59174e-09
1149 1784 -4.40464e-08
1150 1784 -2.77205e-08
1151 1784 -3.61022e-09
1152 1784 -1.15957e-09
1153 1784 -5.78755e-11
1205 1784 -2.96251e-07
1760 1784 -0.00120746
1761 1784 -0.00155366
1762 1784 -0.00146559
1764 1784 -0.000331193
1765 1784 -0.00205867
1766 1784 -0.00308383
1767 1784 -0.0030686
1768 1784 -0.000156997
1769 1784 -0.000486283
1770 1784 -0.000251416
1771 1784 -1.41697e-06
1772 1784 1.03361e-17
1773 1784 -1.97747e-09
1774 1784 -3.56536e-05
1775 1784 -6.23672e-07
1776 1784 -2.85257e-05
1777 1784 -4.22071e-06
1778 1784 -7.04351e-10
1779 1784 -2.05567e-05
1780 1784 -0.00392145
1781 1784 -9.98779e-05
1782 1784 -1.51035e-07
1784 1784 0.0283541
1785 1784 -3.22536e-05
1787 1784 -3.36588e-08
1788 1784 -1.74122e-06
1789 1784 -2.27022e-05
1802 1784 -3.22204e-06
1804 1784 -1.86668e-06
1808 1784 -7.44053e-07
1809 1784 -0.00993222
1812 1784 -0.000369226
1814 1784 -0.30533
1785 1785 1
115 1786 -0.00186372
116 1786 -0.000740245
234 1786 -0.000238876
462 1786 -0.00186372
463 1786 -0.000740245
472 1786 -0.00186372
473 1786 -0.000740245
480 1786 -1.65925e-05
481 1786 -0.000313305
508 1786 -0.000875293
515 1786 -0.00146023
516 1786 -2.01365e-05
517 1786 -3.24175e-06
518 1786 -1.96005e-06
718 1786 -0.00186372
719 1786 -0.000740121
915 1786 -0.00186372
916 1786 -0.000740245
925 1786 -0.00186372
926 1786 -0.000740245
1120 1786 -0.000242789
1121 1786 -1.77106e-09
1122 1786 -0.000319609
1123 1786 -0.000247534
1124 1786 -9.53693e-07
1125 1786 -1.23789e-05
1126 1786 -1.26131e-05
1318 1786 -2.66155e-10
1319 1786 -0.000238947
1320 1786 -6.19116e-07
1321 1786 -0.000327395
1322 1786 -8.21117e-07
1323 1786 -4.60671e-10
1324 1786 -1.05083e-08
1325 1786 -6.41678e-08
1326 1786 -2.63439e-06
1327 1786 -0.000248203
1328 1786 -0.000338349
1329 1786 -6.58006e-07
1330 1786 -1.94677e-06
1331 1786 -0.000247488
1379 1786 -0.00186372
1380 1786 -0.000740245
1384 1786 -0.00186372
1385 1786 -0.000740228
1386 1786 -0.000313299
1387 1786 -0.000318416
1398 1786 -3.08305e-06
1622 1786 -1.38029e-06
1623 1786 -0.000247613
1624 1786 -1.97664e-09
1625 1786 -1.46242e-09
1773 1786 -3.96487e-07
1774 1786 -7.69974e-11
1775 1786 -2.62561e-08
1776 1786 -0.000249655
1777 1786 -1.52558e-06
1778 1786 -3.95641e-10
1779 1786 -9.17908e-06
1780 1786 -7.97879e-07
1781 1786 -6.79258e-07
1782 1786 -5.98328e-05
1784 1786 -6.67183e-07
1785 1786 -4.58551e-09
1786 1786 1
1787 1786 -6.61306e-06
1788 1786 -0.000334733
1789 1786 0.0596405
1792 1786 -3.58115e-08
1794 1786 -5.64975e-07
1795 1786 -8.65849e-06
1796 1786 -3.36423e-06
1798 1786 -3.78886e-10
1799 1786 -6.5483e-06
1801 1786 -4.61405e-09
1802 1786 -1.0477e-06
1803 1786 -1.26854e-05
1804 1786 -1.12928e-07
1805 1786 -4.39265e-07
1806 1786 -0.000221435
1807 1786 -4.37066e-10
1808 1786 -8.30071e-09
1809 1786 -0.000291231
1810 1786 -5.82032e-05
1812 1786 -8.82299e-08
1814 1786 -0.0464944
202 1787 -0.00319461
208 1787 -0.00545252
209 1787 4.80925e-15
210 1787 9.8729e-16
211 1787 2.26552e-05
212 1787 -0.00030114
213 1787 -0.000653277
214 1787 -0.000101503
216 1787 -6.01485e-05
217 1787 -8.02343e-05
218 1787 -3.89576e-07
219 1787 -3.33366e-08
220 1787 -8.89636e-06
221 1787 -2.25948e-08
222 1787 -1.45486e-20
223 1787 -1.93353e-09
224 1787 -1.18909e-06
231 1787 -1.50141e-05
232 1787 -3.63477e-07
233 1787 -3.4289e-07
234 1787 -3.29051e-09
1399 1787 -0.000911318
1400 1787 -0.000615105
1401 1787 -0.00154762
1423 1787 -0.000232449
1424 1787 -0.000442281
1441 1787 -0.000442281
1442 1787 -0.000246638
1459 1787 -0.000232449
1462 1787 -0.000652114
1463 1787 -0.000232449
1464 1787 -0.000657162
1465 1787 -6.52072e-06
1466 1787 -2.16736e-05
1488 1787 -0.000232449
1489 1787 -0.000849603
1490 1787 -9.60629e-11
1547 1787 -0.000738515
1549 1787 -0.000243899
1550 1787 -5.57429e-05
1610 1787 -7.89274e-06
1611 1787 -5.50765e-06
1612 1787 -2.79808e-06
1613 1787 -0.000232464
1614 1787 -0.000854493
1615 1787 -1.51612e-05
1616 1787 -0.00358366
1617 1787 -3.92045e-07
1618 1787 -0.00462977
1619 1787 -0.000229015
1620 1787 -0.000217214
1621 1787 -3.0246e-06
1622 1787 -0.000232136
1623 1787 -0.000741191
1624 1787 -5.06217e-11
1625 1787 -3.74527e-11
1773 1787 -6.52466e-05
1774 1787 -2.26618e-11
1775 1787 -2.56808e-07
1776 1787 -1.25878e-08
1777 1787 -2.83548e-07
1778 1787 -2.03396e-06
1779 1787 -5.6097e-09
1780 1787 -4.85106e-10
1781 1787 -6.21458e-10
1782 1787 -0.00017958
1784 1787 -9.02981e-10
1785 1787 -3.21077e-12
1787 1787 0.042824
1788 1787 -9.13997e-05
1789 1787 -0.000154549
1792 1787 -1.05596e-06
1794 1787 -4.83584e-06
1795 1787 -4.52442e-08
1798 1787 -1.13131e-08
1799 1787 -3.42122e-07
1801 1787 -1.3777e-07
1802 1787 -0.000188904
1803 1787 -5.03762e-09
1804 1787 -3.7253e-05
1808 1787 -5.97898e-05
1809 1787 -0.00985944
1812 1787 -0.000403437
1814 1787 -0.459418
114 1788 -0.000740245
115 1788 -0.00106356
116 1788 -0.00427549
234 1788 -0.000670809
475 1788 -0.00183713
479 1788 -0.00196477
480 1788 -2.50741e-05
481 1788 -0.000333034
1325 1788 -6.81623e-08
1326 1788 -6.31077e-05
1327 1788 -5.19778e-07
1328 1788 -0.000157677
1329 1788 -1.4764e-09
1330 1788 -6.41625e-05
1331 1788 -9.15372e-06
1352 1788 -0.00101926
1353 1788 9.16021e-16
1354 1788 -0.000749778
1355 1788 -0.000284365
1356 1788 -6.48065e-06
1357 1788 -8.31596e-06
1373 1788 -0.000269478
1374 1788 -0.000749778
1375 1788 -0.00101739
1377 1788 -0.00183713
1387 1788 -0.000322153
1398 1788 -1.41928e-06
1409 1788 -0.000749778
1410 1788 -0.000269478
1411 1788 -0.00101738
1412 1788 -0.00020942
1413 1788 9.14235e-16
1438 1788 -0.000269478
1439 1788 -0.000749778
1440 1788 -0.00101739
1441 1788 -8.26387e-06
1442 1788 -6.7217e-06
1446 1788 -0.000749778
1449 1788 -0.000269478
1450 1788 -0.00101754
1451 1788 9.14396e-16
1465 1788 -7.83291e-05
1466 1788 -0.000249253
1477 1788 -0.000749778
1480 1788 -0.000269478
1481 1788 -0.00101754
1482 1788 9.14397e-16
1483 1788 -7.83291e-05
1484 1788 -0.000249218
1613 1788 -6.8278e-06
1614 1788 -8.66687e-06
1615 1788 -2.1768e-05
1616 1788 -3.83459e-06
1617 1788 -3.66567e-07
1618 1788 -1.67743e-06
1619 1788 -4.7463e-08
1620 1788 -3.36191e-07
1621 1788 -3.86016e-07
1622 1788 -0.000107519
1623 1788 -8.85667e-06
1624 1788 -2.28354e-05
1625 1788 -3.80293e-07
1629 1788 -0.000749778
1632 1788 -0.000269478
1633 1788 -0.0010325
1634 1788 1.01988e-15
1649 1788 -7.78567e-05
1650 1788 -0.00024925
1661 1788 -0.000749778
1664 1788 -0.000678126
1666 1788 -0.00150462
1667 1788 -0.000156255
1668 1788 -0.000190665
1669 1788 -5.9662e-06
1771 1788 -7.62758e-06
1772 1788 1.11953e-21
1773 1788 -3.18286e-05
1774 1788 -2.09262e-08
1775 1788 -5.18383e-07
1776 1788 -1.54677e-07
1777 1788 -2.29442e-07
1778 1788 -0.0055659
1779 1788 -3.37583e-07
1780 1788 -1.89022e-07
1781 1788 -4.77337e-07
1782 1788 -5.3691e-06
1784 1788 -3.98898e-08
1785 1788 -2.93323e-11
1787 1788 -4.15764e-06
1788 1788 0.0639488
1789 1788 -0.005196
1792 1788 -1.57266e-06
1794 1788 -2.48101e-05
1795 1788 -0.000380221
1796 1788 -0.00576798
1798 1788 -1.66388e-08
1799 1788 -0.000287556
1801 1788 -2.02626e-07
1802 1788 -0.00784069
1803 1788 -0.000557054
1804 1788 -0.00662984
1805 1788 -0.000218939
1806 1788 -0.000133136
1807 1788 -4.59639e-09
1808 1788 -3.41308e-08
1809 1788 -0.0307329
1810 1788 -3.36634e-05
1812 1788 -1.70389e-07
1814 1788 -0.441594
1789 1789 1
40 1790 -0.00599726
41 1790 -4.14586e-27
42 1790 1.2642e-16
43 1790 -0.00599726
58 1790 8.77769e-15
64 1790 1.07255e-18
65 1790 2.06198e-20
69 1790 -0.00599726
84 1790 8.77769e-15
85 1790 1.07255e-18
86 1790 2.2563e-20
109 1790 -0.00599726
110 1790 3.48483e-17
111 1790 1.03185e-19
112 1790 1.1128e-18
113 1790 -7.4007e-35
125 1790 -0.00147541
128 1790 -0.000380579
129 1790 -5.01333e-05
130 1790 -5.05466e-06
131 1790 -2.24585e-05
132 1790 -2.06102e-05
134 1790 -4.35295e-06
135 1790 -2.72308e-06
136 1790 -5.91998e-07
137 1790 -2.16401e-08
138 1790 -2.11217e-08
139 1790 -0.000615086
140 1790 -0.000615084
141 1790 -0.00157508
142 1790 -0.0010401
151 1790 -0.00147541
154 1790 -0.000380579
155 1790 -5.01333e-05
156 1790 -5.05466e-06
157 1790 -2.24585e-05
158 1790 -2.06102e-05
160 1790 -4.35295e-06
161 1790 -2.72308e-06
162 1790 -5.91998e-07
163 1790 -2.16401e-08
164 1790 -2.11217e-08
165 1790 -0.000615086
166 1790 -0.00152805
167 1790 -0.00089557
168 1790 -0.0010401
174 1790 -0.000380579
175 1790 -4.56152e-05
185 1790 -0.00147541
186 1790 2.92645e-17
187 1790 -2.20113e-05
188 1790 -3.76388e-05
189 1790 -2.06102e-05
190 1790 -4.35295e-06
191 1790 -1.49853e-07
192 1790 -2.72308e-06
193 1790 -1.8182e-08
194 1790 -1.55586e-09
195 1790 -5.92206e-07
196 1790 -0.000615086
197 1790 -0.00152805
198 1790 -0.00089557
199 1790 -0.0010401
200 1790 -0.000380579
210 1790 -0.00147541
211 1790 2.92645e-17
212 1790 -2.20113e-05
213 1790 -1.54708e-05
214 1790 -3.51311e-05
216 1790 -4.33719e-06
217 1790 -2.63658e-06
218 1790 -1.78673e-08
219 1790 -1.52893e-09
220 1790 -5.88777e-07
221 1790 -0.000615086
222 1790 -0.000615084
223 1790 -0.00157508
224 1790 -0.0010401
231 1790 -5.07215e-05
232 1790 -2.56953e-06
233 1790 -1.22161e-06
234 1790 -2.2702e-08
250 1790 -0.00147541
253 1790 -0.000380579
254 1790 -5.01333e-05
255 1790 -5.05466e-06
256 1790 -2.24585e-05
257 1790 -2.06102e-05
259 1790 -4.35295e-06
260 1790 -2.72308e-06
261 1790 -1.8182e-08
262 1790 -1.55586e-09
263 1790 -5.92206e-07
264 1790 -0.000615086
265 1790 -0.00152805
266 1790 -0.00089557
267 1790 -0.0010401
281 1790 -0.00147541
284 1790 -0.000380579
285 1790 -5.01333e-05
286 1790 -5.05466e-06
287 1790 -2.24585e-05
288 1790 -2.06102e-05
290 1790 -4.35295e-06
291 1790 -2.72308e-06
292 1790 -5.91998e-07
293 1790 -2.16401e-08
294 1790 -2.11217e-08
295 1790 -0.000615086
296 1790 -0.000615084
297 1790 -0.00157508
298 1790 -0.0010401
307 1790 -0.00147541
310 1790 -0.000380579
311 1790 -5.01333e-05
312 1790 -5.05466e-06
313 1790 -2.24585e-05
314 1790 -2.06102e-05
316 1790 -4.35295e-06
317 1790 -2.72308e-06
318 1790 -1.8182e-08
319 1790 -1.55586e-09
320 1790 -5.92206e-07
321 1790 -0.000615086
322 1790 -0.00152805
323 1790 -0.00089557
324 1790 -0.0010401
333 1790 -0.000380579
342 1790 -0.00147541
343 1790 -4.33081e-06
344 1790 -2.23944e-05
345 1790 -1.9879e-05
346 1790 -4.33719e-06
347 1790 -1.4931e-07
348 1790 -2.63658e-06
349 1790 -1.78673e-08
350 1790 -1.52893e-09
351 1790 -5.88777e-07
352 1790 -0.000615086
353 1790 -0.000615084
354 1790 -0.00157508
355 1790 -0.0010401
356 1790 -5.07215e-05
357 1790 -2.56953e-06
358 1790 -1.22161e-06
377 1790 -0.00599726
378 1790 2.98386e-18
396 1790 -0.00599726
397 1790 -2.96702e-27
398 1790 9.07799e-17
399 1790 7.98536e-19
400 1790 4.1019e-20
401 1790 2.85556e-20
406 1790 -0.00599726
421 1790 8.80075e-15
422 1790 7.70206e-19
423 1790 1.68928e-20
445 1790 -0.00599726
446 1790 2.50244e-17
447 1790 7.35471e-20
448 1790 7.98536e-19
449 1790 3.65902e-20
450 1790 -1.07535e-05
451 1790 -1.08759e-05
452 1790 -2.80764e-06
453 1790 -3.43209e-09
454 1790 -1.49269e-06
455 1790 -1.12656e-05
456 1790 -8.6118e-07
457 1790 -9.79162e-08
500 1790 -0.00147541
501 1790 -0.000615086
502 1790 -0.000615084
503 1790 -0.00157508
504 1790 -0.0010401
517 1790 -4.81354e-06
518 1790 -2.33365e-09
607 1790 -0.00147541
608 1790 -0.000615086
609 1790 -0.00152805
610 1790 -0.00089557
611 1790 -0.0010401
630 1790 -0.00147541
631 1790 -0.000615086
632 1790 -0.000615084
633 1790 -0.00157508
634 1790 -0.0010401
659 1790 -0.00147541
660 1790 -0.000615086
661 1790 -0.000615084
662 1790 -0.00157508
663 1790 -0.0010401
675 1790 -5.90354e-07
676 1790 -1.13133e-06
677 1790 -1.06839e-06
678 1790 -6.85182e-09
679 1790 -1.42281e-07
680 1790 -1.5861e-10
681 1790 -1.07174e-06
682 1790 -7.39091e-07
683 1790 -6.11542e-07
684 1790 -1.73284e-08
685 1790 -3.97269e-11
686 1790 -5.92175e-11
711 1790 -0.00147541
712 1790 -0.000615086
713 1790 -0.00152805
714 1790 -0.000908373
715 1790 -0.00105563
716 1790 -6.2468e-07
738 1790 -0.00147541
739 1790 -0.000615086
740 1790 -0.000615084
741 1790 -0.00157508
742 1790 -0.0010401
761 1790 -0.00147541
762 1790 -0.000615086
763 1790 -0.00152805
764 1790 -0.00089557
765 1790 -0.0010401
773 1790 -1.06278e-06
774 1790 -7.15676e-07
796 1790 -0.00147541
797 1790 -0.00061516
798 1790 -0.00153095
799 1790 -0.00101672
800 1790 -0.000737705
819 1790 -0.00147541
820 1790 -0.000615086
821 1790 -0.000615084
822 1790 -0.00157508
823 1790 -0.0010401
907 1790 -5.90354e-07
908 1790 -5.9793e-07
909 1790 -1.13794e-06
910 1790 -1.53467e-07
911 1790 -6.09349e-07
912 1790 -1.14571e-06
913 1790 -2.8303e-07
945 1790 -0.00147541
946 1790 -0.000615086
947 1790 -0.00152805
948 1790 -0.00089557
949 1790 -0.0010401
973 1790 -0.00147541
974 1790 -0.000615086
975 1790 -0.00152805
976 1790 -0.00089557
977 1790 -0.0010401
978 1790 -5.90354e-07
979 1790 -1.13022e-06
1003 1790 -0.00147541
1004 1790 -0.000615086
1005 1790 -0.00152805
1006 1790 -0.00089557
1007 1790 -0.0010401
1026 1790 -0.00147541
1027 1790 -0.00061516
1028 1790 -0.00153095
1029 1790 -0.00101672
1030 1790 -0.000737705
1113 1790 -5.90354e-07
1114 1790 -5.99163e-07
1115 1790 -1.14306e-06
1116 1790 -1.07205e-06
1117 1790 -1.53114e-07
1118 1790 -7.29892e-07
1119 1790 -2.77462e-07
1120 1790 -3.69058e-08
1121 1790 -2.20504e-09
1122 1790 -5.50732e-11
1123 1790 -3.69145e-08
1124 1790 -1.46649e-09
1125 1790 -1.15018e-06
1126 1790 -1.22293e-06
1158 1790 -0.000615084
1159 1790 -0.00152806
1160 1790 -0.000908377
1161 1790 -0.00105577
1162 1790 -0.00147541
1163 1790 -0.000424012
1178 1790 -2.20114e-05
1179 1790 -1.53059e-05
1180 1790 -3.51844e-05
1181 1790 -5.01467e-06
1199 1790 -0.000600672
1200 1790 -0.00390336
1201 1790 -0.000761132
1202 1790 -0.00537292
1203 1790 -0.00248053
1204 1790 -0.000479455
1205 1790 -1.1043e-06
1207 1790 -0.00147547
1208 1790 -0.000759664
1209 1790 -0.000674524
1210 1790 -0.00338166
1211 1790 -0.00371494
1222 1790 -0.00156701
1223 1790 -0.000818678
1313 1790 -2.34058e-07
1314 1790 -1.27979e-06
1315 1790 -5.94429e-07
1316 1790 -1.37875e-05
1317 1790 -7.54246e-06
1318 1790 -4.28719e-07
1319 1790 -1.36591e-07
1320 1790 -4.46207e-08
1321 1790 -6.83477e-09
1322 1790 -5.00217e-06
1323 1790 -1.14816e-06
1324 1790 -7.35789e-07
1325 1790 -9.74399e-09
1326 1790 -9.55227e-09
1327 1790 -5.93677e-08
1328 1790 -3.61867e-09
1329 1790 -2.40428e-06
1330 1790 -4.68306e-08
1331 1790 -1.26956e-07
1353 1790 -0.00599726
1354 1790 -4.14538e-27
1355 1790 1.26419e-16
1356 1790 1.06699e-18
1357 1790 4.77814e-20
1358 1790 -0.00599726
1375 1790 8.77772e-15
1413 1790 -0.00599726
1425 1790 -0.00599726
1440 1790 8.77767e-15
1441 1790 -4.56877e-29
1442 1790 1.07255e-18
1451 1790 -0.00599726
1465 1790 3.4848e-17
1466 1790 1.17813e-19
1482 1790 -0.00599726
1483 1790 3.48478e-17
1484 1790 1.02418e-19
1502 1790 -0.00147541
1505 1790 -0.000380579
1506 1790 -5.01333e-05
1507 1790 -5.05466e-06
1508 1790 -1.98766e-05
1509 1790 -2.29561e-05
1511 1790 -2.38263e-06
1512 1790 -4.61061e-06
1513 1790 -1.8182e-08
1514 1790 -1.55586e-09
1515 1790 -5.92206e-07
1516 1790 -0.000615086
1517 1790 -0.00152805
1518 1790 -0.00089557
1519 1790 -0.0010401
1528 1790 -0.00147541
1531 1790 -0.000380579
1532 1790 -5.01333e-05
1533 1790 -5.05466e-06
1534 1790 -1.98766e-05
1535 1790 -2.29561e-05
1537 1790 -2.38263e-06
1538 1790 -4.61061e-06
1539 1790 -5.91998e-07
1540 1790 -2.16401e-08
1541 1790 -2.11217e-08
1542 1790 -0.000615086
1543 1790 -0.00152805
1544 1790 -0.00089557
1545 1790 -0.0010401
1559 1790 -0.00147541
1562 1790 -0.000380579
1563 1790 -5.01333e-05
1564 1790 -5.05466e-06
1565 1790 -2.24585e-05
1566 1790 -2.06102e-05
1568 1790 -4.35295e-06
1569 1790 -2.72308e-06
1570 1790 -5.91998e-07
1571 1790 -2.16401e-08
1572 1790 -2.11217e-08
1573 1790 -0.000615086
1574 1790 -0.000615084
1575 1790 -0.00157508
1576 1790 -0.0010401
1583 1790 -0.000380566
1593 1790 -0.00147541
1594 1790 3.03343e-17
1595 1790 -2.28132e-05
1596 1790 -3.28066e-05
1597 1790 -2.13938e-05
1599 1790 -4.71857e-06
1600 1790 -2.77836e-06
1601 1790 -6.41119e-07
1602 1790 -2.34367e-08
1603 1790 -2.26108e-08
1604 1790 -0.000615086
1605 1790 -0.000615084
1606 1790 -0.00157508
1607 1790 -0.00105563
1608 1790 -4.9672e-05
1609 1790 -2.61915e-06
1610 1790 -1.26544e-06
1611 1790 -1.08963e-05
1612 1790 -2.66265e-06
1613 1790 -1.48916e-08
1614 1790 -3.13243e-10
1615 1790 2.3045e-18
1616 1790 7.64211e-20
1617 1790 -8.79882e-07
1618 1790 -1.07476e-05
1619 1790 -1.11064e-05
1620 1790 -2.91e-06
1621 1790 -8.20908e-07
1622 1790 -3.37233e-08
1623 1790 -8.61093e-08
1624 1790 -5.94732e-15
1625 1790 -4.40189e-15
1670 1790 -0.000380566
1671 1790 -4.56137e-05
1681 1790 -0.00147541
1682 1790 3.02126e-17
1683 1790 -2.28132e-05
1684 1790 -1.60731e-05
1685 1790 -4.10467e-05
1687 1790 -4.74292e-06
1688 1790 -2.96451e-06
1689 1790 -6.47417e-07
1690 1790 -2.36669e-08
1691 1790 -2.3322e-08
1692 1790 -0.000615086
1693 1790 -0.00152805
1694 1790 -0.000908373
1695 1790 -0.00105563
1696 1790 -0.000380566
1697 1790 -4.5614e-05
1707 1790 -0.00147541
1708 1790 3.01133e-17
1709 1790 -2.28132e-05
1710 1790 -1.60742e-05
1711 1790 -4.10475e-05
1713 1790 -4.74345e-06
1714 1790 -2.96501e-06
1715 1790 -6.47485e-07
1716 1790 -2.36696e-08
1717 1790 -2.33254e-08
1718 1790 -0.000615171
1719 1790 -0.00153095
1720 1790 -0.00103154
1721 1790 -0.000743389
1770 1790 -1.44059e-06
1771 1790 -8.11908e-09
1772 1790 1.98491e-20
1773 1790 -1.44466e-08
1774 1790 -1.08004e-05
1775 1790 -1.46399e-06
1776 1790 -3.9585e-08
1777 1790 -1.11107e-05
1778 1790 -4.67972e-10
1779 1790 -2.95719e-06
1780 1790 -1.20691e-09
1781 1790 -1.68691e-07
1782 1790 -7.51896e-08
1784 1790 -1.76796e-08
1785 1790 -0.000825629
1787 1790 -2.78952e-06
1788 1790 -2.40829e-09
1789 1790 -1.04039e-08
1790 1790 1
1792 1790 -1.08937e-05
1793 1790 2.29916e-18
1794 1790 -8.32882e-07
1795 1790 -1.34891e-06
1796 1790 -6.02452e-10
1797 1790 4.07148e-20
1798 1790 -1.07342e-05
1799 1790 -1.39411e-06
1800 1790 2.29728e-18
1801 1790 -1.07535e-05
1802 1790 -0.00302442
1803 1790 -1.34386e-06
1804 1790 -0.00576887
1805 1790 -1.50099e-08
1806 1790 -1.89537e-09
1807 1790 -4.94082e-10
1808 1790 0.534941
1809 1790 -1.25206e-06
1810 1790 -2.9857e-08
1812 1790 -0.0340562
1814 1790 -0.197042
21 1791 -0.00233077
22 1791 -0.00072641
61 1791 -0.000652114
62 1791 -8.20493e-11
63 1791 -0.00072641
64 1791 -0.00146143
65 1791 -0.00148953
67 1791 -0.000442281
68 1791 -0.00072641
85 1791 -0.00146143
86 1791 -0.00149217
88 1791 -0.000849603
92 1791 -1.96461e-10
100 1791 -0.00146143
110 1791 -1.04955e-06
111 1791 -4.64619e-05
112 1791 -0.00150307
113 1791 -0.00072641
230 1791 -0.00233077
231 1791 -4.02435e-05
232 1791 -0.000142754
233 1791 -0.000377177
234 1791 -0.00146283
241 1791 -0.00233077
330 1791 -0.00233077
356 1791 -4.02435e-05
357 1791 -0.000142754
358 1791 -0.000377177
380 1791 -0.000442281
399 1791 -0.00072641
400 1791 -0.000745717
401 1791 -5.66463e-07
404 1791 -0.000652114
405 1791 -8.20493e-11
422 1791 -0.00146143
423 1791 -0.00149348
425 1791 -0.000849603
429 1791 -1.96461e-10
448 1791 -0.00146143
449 1791 -0.00149217
450 1791 -9.47528e-05
451 1791 -0.000282827
452 1791 -0.000133348
453 1791 -5.43259e-05
454 1791 -0.00013086
455 1791 -0.000179616
456 1791 -0.000243962
457 1791 -0.000729047
481 1791 -0.00182894
518 1791 -0.00146144
548 1791 -0.000442281
549 1791 -0.00072641
550 1791 -0.000745121
551 1791 -5.23524e-07
567 1791 -0.000652114
568 1791 -8.20493e-11
569 1791 -0.00146143
570 1791 -0.00149246
636 1791 -0.000849603
640 1791 -1.96461e-10
672 1791 -0.00233077
673 1791 -0.000433966
674 1791 -6.35611e-05
675 1791 -0.000169705
676 1791 -0.000126573
677 1791 -0.000127946
678 1791 -0.0014622
679 1791 -2.41891e-05
680 1791 -0.00149094
681 1791 -0.000118805
682 1791 -0.000116099
683 1791 -0.000273674
684 1791 -0.000729043
685 1791 -3.85229e-06
686 1791 -6.44012e-06
692 1791 -0.00233077
716 1791 -0.000266262
771 1791 -0.00233077
772 1791 -0.000429359
773 1791 -0.000123593
774 1791 -0.000386761
845 1791 -0.000652114
846 1791 -8.20494e-11
847 1791 -0.00146143
848 1791 -0.00149216
855 1791 -0.00233077
856 1791 -0.00072641
865 1791 -0.000442281
879 1791 -0.00072641
880 1791 -0.000744942
881 1791 -4.64684e-14
882 1791 -0.000102625
897 1791 -0.000849603
901 1791 -1.96461e-10
902 1791 -0.00146143
903 1791 -0.00149063
904 1791 -0.000103822
905 1791 -3.43537e-06
906 1791 -5.60341e-06
907 1791 -0.00026966
908 1791 -9.70886e-05
909 1791 -0.000146423
910 1791 -0.000247718
911 1791 -0.000174344
912 1791 -0.000170676
913 1791 -0.000120111
951 1791 -0.00233077
978 1791 -0.000325681
979 1791 -0.000142698
1052 1791 -0.000652114
1053 1791 -8.20493e-11
1054 1791 -0.00146143
1055 1791 -0.00149246
1059 1791 -0.00233077
1060 1791 -0.00072641
1085 1791 -0.000442281
1086 1791 -0.00072641
1087 1791 -0.000745121
1088 1791 -4.64684e-14
1089 1791 -0.000102628
1104 1791 -0.000849603
1108 1791 -1.96461e-10
1109 1791 -0.00146143
1110 1791 -0.00149092
1111 1791 -0.000103827
1112 1791 -5.69105e-06
1113 1791 -0.000269757
1114 1791 -9.76534e-05
1115 1791 -0.000147404
1116 1791 -0.000132314
1117 1791 -0.000242341
1118 1791 -0.000135824
1119 1791 -0.000407567
1120 1791 -0.00146702
1121 1791 -0.0025039
1122 1791 -0.00184207
1123 1791 -0.0014945
1124 1791 -0.00253374
1125 1791 -0.000440491
1126 1791 -0.000441166
1248 1791 -0.000652114
1249 1791 -0.00146136
1250 1791 -0.00149414
1270 1791 -0.00233077
1284 1791 -0.000726408
1285 1791 -0.000745831
1286 1791 -0.000442281
1287 1791 -7.44617e-21
1288 1791 -0.000724081
1289 1791 -0.00249305
1290 1791 -0.000103252
1292 1791 -0.000849603
1309 1791 -0.00146334
1310 1791 -0.00149538
1311 1791 -2.85405e-06
1312 1791 -0.000103561
1313 1791 -0.000289757
1314 1791 -0.000131975
1315 1791 -0.000123365
1316 1791 -0.000117403
1317 1791 -0.000150445
1318 1791 -3.15475e-05
1319 1791 -0.00146845
1320 1791 -0.000248165
1321 1791 -0.00195852
1322 1791 -4.27668e-05
1323 1791 -0.000348669
1324 1791 -0.000400241
1325 1791 -0.00233372
1326 1791 -0.00250515
1327 1791 -0.00149709
1328 1791 -0.00200674
1329 1791 -0.000364737
1330 1791 -0.00247895
1331 1791 -0.00152367
1336 1791 -0.000442281
1337 1791 -0.000726404
1356 1791 -0.00146143
1357 1791 -0.00149097
1386 1791 -0.00182894
1387 1791 -0.00185878
1390 1791 -0.00233077
1397 1791 -0.000717402
1398 1791 -0.0025018
1421 1791 -0.00233077
1422 1791 -0.00072641
1424 1791 -0.000442281
1441 1791 -0.00072641
1442 1791 -0.000749714
1461 1791 -0.000652114
1462 1791 -8.20493e-11
1463 1791 -0.00146143
1464 1791 -0.00149317
1465 1791 -3.77143e-05
1466 1791 -6.10316e-05
1486 1791 -0.000849603
1490 1791 -1.96461e-10
1582 1791 -0.00233077
1608 1791 -4.12388e-05
1609 1791 -0.000144032
1610 1791 -0.000378321
1611 1791 -0.000161297
1612 1791 -0.000122727
1613 1791 -0.00146212
1614 1791 -0.00149218
1615 1791 -3.49364e-05
1616 1791 -1.09778e-06
1617 1791 -0.000244567
1618 1791 -0.000281925
1619 1791 -0.000107925
1620 1791 -0.000154449
1621 1791 -0.000128601
1622 1791 -0.0024505
1623 1791 -0.00151817
1624 1791 -1.59101e-06
1625 1791 -0.000103411
1637 1791 -0.000652114
1638 1791 -4.27706e-11
1646 1791 -0.00146143
1647 1791 -0.0015037
1648 1791 -0.000726401
1649 1791 -3.61097e-05
1650 1791 -7.47952e-05
1669 1791 -0.00146143
1723 1791 -0.000849603
1727 1791 1.21626e-23
1765 1791 -0.00233077
1766 1791 -3.46453e-06
1767 1791 -0.000142466
1768 1791 -3.90264e-07
1769 1791 -0.000111142
1770 1791 -9.80668e-05
1771 1791 -0.00150232
1772 1791 -0.000726398
1773 1791 -0.00133801
1774 1791 -9.66077e-05
1775 1791 -0.000285833
1776 1791 -0.00153207
1777 1791 -0.000272399
1778 1791 -1.10939e-05
1779 1791 -0.000201649
1780 1791 -0.000179371
1781 1791 -0.000129883
1782 1791 -0.000720832
1784 1791 -0.000231635
1785 1791 -2.16627e-07
1787 1791 -0.00042743
1788 1791 -0.00198632
1789 1791 -0.000303428
1791 1791 1
1792 1791 -0.000167704
1793 1791 -6.07716e-05
1794 1791 -0.000248737
1795 1791 -0.000184137
1796 1791 -0.00256378
1797 1791 -1.10096e-06
1798 1791 -0.000214038
1799 1791 -0.000185002
1800 1791 -5.6401e-05
1801 1791 -0.000100117
1802 1791 -0.000397241
1803 1791 -0.000340903
1804 1791 -5.66063e-05
1805 1791 -0.00119126
1806 1791 -0.00191959
1807 1791 -1.16133e-05
1808 1791 -1.13334e-06
1809 1791 0.3793
1810 1791 -0.000701169
1812 1791 -5.51023e-06
1814 1791 -0.168173
15 1792 -0.00303872
16 1792 -0.000615084
17 1792 -0.0013008
20 1792 -0.00186499
21 1792 -5.04439e-12
22 1792 -0.000113416
87 1792 -0.00023245
88 1792 -0.00108206
92 1792 -0.000849605
112 1792 1.91068e-24
113 1792 -1.58939e-17
169 1792 -0.000957668
173 1792 -0.00303872
175 1792 -0.00449067
188 1792 -0.000478619
189 1792 -6.53541e-05
190 1792 -1.39697e-06
191 1792 -4.80915e-08
192 1792 -7.66446e-06
193 1792 -2.78833e-08
194 1792 -2.38602e-09
195 1792 -3.03745e-07
196 1792 -8.49473e-10
197 1792 -7.26928e-11
198 1792 -1.33434e-11
199 1792 -4.06784e-08
232 1792 -2.77589e-06
233 1792 -0.0046705
234 1792 -2.19744e-06
1787 1792 -4.12712e-08
1788 1792 -1.07271e-07
1789 1792 -3.83251e-08
1792 1792 0.0376209
1793 1792 -5.98352e-06
1794 1792 -0.00189803
1795 1792 -0.00606607
1796 1792 -1.64502e-08
1797 1792 -4.56912e-06
1798 1792 -0.00111516
1799 1792 -0.125614
1800 1792 -0.000693999
1801 1792 -0.0158967
1802 1792 -2.25638e-08
1803 1792 -9.7456e-05
1804 1792 -1.89449e-08
1805 1792 -6.24273e-10
1806 1792 -3.79617e-10
1807 1792 -1.31059e-14
1808 1792 -0.000281758
1809 1792 -0.00490381
1810 1792 -9.59863e-11
1812 1792 -7.65228e-05
1814 1792 -0.293858
11 1793 -0.00271257
13 1793 -0.000268594
22 1793 -1.63344e-05
73 1793 -0.00164151
74 1793 -0.000989506
75 1793 -0.000716998
78 1793 -0.00164151
79 1793 -0.000989505
80 1793 -0.000725802
81 1793 -0.000167293
82 1793 -0.000205073
83 1793 -0.000202267
84 1793 1.41964e-06
85 1793 -0.000275368
86 1793 -0.000198199
1792 1793 -1.2063e-07
1793 1793 0.0158854
1794 1793 -1.56957e-06
1795 1793 -0.0030562
1796 1793 -1.11445e-11
1797 1793 -0.000180757
1798 1793 -8.46822e-09
1799 1793 -2.73028e-05
1800 1793 -2.04611e-06
1801 1793 -0.000880904
1802 1793 -0.00588029
1803 1793 -0.000299526
1804 1793 -0.000706421
1805 1793 -0.000592842
1806 1793 -0.00128104
1807 1793 -0.00245112
1808 1793 -2.1396e-09
1809 1793 -0.00387323
1810 1793 -0.000569907
1812 1793 -5.81096e-10
1814 1793 -0.380755
19 1794 -0.00120755
20 1794 -0.000210007
21 1794 -0.00120755
22 1794 -1.27712e-05
95 1794 -0.00106546
99 1794 -0.000275589
100 1794 -2.90544e-06
110 1794 -1.25089e-05
111 1794 -1.24846e-05
112 1794 -4.86829e-06
113 1794 6.37355e-22
225 1794 -1.02665e-14
226 1794 -0.000615084
227 1794 -0.000615096
229 1794 -0.00102544
230 1794 -0.000113391
231 1794 -0.000126711
232 1794 -0.00367541
233 1794 -0.000278399
234 1794 -3.1789e-05
1787 1794 -1.13473e-07
1788 1794 -1.55177e-06
1789 1794 -5.54351e-07
1792 1794 -4.79384e-05
1793 1794 -2.5635e-08
1794 1794 0.0193218
1795 1794 -0.000171657
1796 1794 -0.00154547
1797 1794 -1.01336e-06
1798 1794 -2.31271e-05
1799 1794 -0.00293674
1800 1794 -0.000153881
1801 1794 -0.00029227
1802 1794 -8.4352e-05
1803 1794 -9.29738e-05
1804 1794 -1.05905e-05
1805 1794 -1.44754e-05
1806 1794 -1.82479e-05
1807 1794 -3.49024e-05
1808 1794 -2.8648e-05
1809 1794 -0.0124297
1810 1794 -1.31436e-05
1812 1794 -8.95025e-05
1814 1794 -0.452323
8 1795 -0.000911318
9 1795 -0.000615105
10 1795 -0.00154762
13 1795 -0.00358366
22 1795 -0.000217938
60 1795 -0.000232449
61 1795 -0.000652114
62 1795 -0.000652114
63 1795 -7.04071e-11
64 1795 -0.000232449
65 1795 -4.46881e-06
89 1795 -0.000232449
91 1795 -0.000849603
92 1795 -0.000849603
112 1795 -0.000232449
113 1795 -1.12181e-10
143 1795 -0.00319461
149 1795 -0.00545252
150 1795 4.8092e-15
151 1795 9.87281e-16
156 1795 2.26552e-05
157 1795 -0.000301111
158 1795 -0.000653564
160 1795 -6.01531e-05
161 1795 -8.02593e-05
162 1795 -8.8929e-06
163 1795 -3.25074e-07
164 1795 -4.33829e-07
165 1795 -2.25977e-08
166 1795 -1.93377e-09
167 1795 -3.5496e-10
168 1795 -1.18922e-06
170 1795 -0.000503997
172 1795 -0.00120755
173 1795 -0.00160898
233 1795 -0.000230546
234 1795 -0.000504104
1787 1795 -2.14096e-09
1788 1795 -2.46076e-05
1789 1795 -8.79051e-06
1792 1795 -0.000230921
1793 1795 -5.01719e-05
1794 1795 -4.55584e-06
1795 1795 0.0442586
1796 1795 -3.36619e-06
1797 1795 -0.000865848
1798 1795 -0.00675337
1799 1795 -0.00412898
1800 1795 -0.000109204
1801 1795 -0.110346
1802 1795 -3.19707e-05
1803 1795 -0.00370022
1804 1795 -7.00582e-06
1805 1795 -1.516e-05
1806 1795 -5.35267e-06
1807 1795 -1.34125e-05
1808 1795 -2.8355e-05
1809 1795 -0.00418184
1810 1795 -0.000502205
1812 1795 -0.000380598
1814 1795 -0.386505
12 1796 -3.15346e-12
13 1796 -5.49565e-13
14 1796 -0.00836603
21 1796 -0.000339131
22 1796 -1.33404e-13
474 1796 -0.00048306
475 1796 -0.000616003
478 1796 -0.0021775
479 1796 -0.00306101
480 1796 -3.90643e-05
481 1796 -0.000124972
1325 1796 -2.55782e-08
1326 1796 -9.77001e-05
1327 1796 -8.0514e-07
1328 1796 -0.000245482
1329 1796 -2.28833e-09
1330 1796 -0.000434007
1331 1796 -3.51358e-06
1785 1796 -3.30382e-13
1788 1796 -0.000372347
1789 1796 -5.2927e-06
1792 1796 -5.85663e-10
1793 1796 -1.13966e-14
1794 1796 -3.02525e-05
1795 1796 -1.46771e-07
1796 1796 0.0360392
1797 1796 -0.0335067
1798 1796 -4.7107e-08
1799 1796 -5.45502e-06
1800 1796 -1.2963e-07
1801 1796 -6.97081e-07
1802 1796 -8.40725e-05
1803 1796 -5.84846e-06
1804 1796 -6.88887e-05
1805 1796 -0.00263
1806 1796 -0.000249345
1807 1796 -8.19557e-08
1808 1796 -3.51759e-08
1809 1796 -0.0704831
1810 1796 -2.32889e-05
1812 1796 -1.26503e-07
1814 1796 -0.352539
5 1797 -1.02665e-14
6 1797 -0.000615096
7 1797 -0.000615084
12 1797 -0.00120755
13 1797 -0.000210444
22 1797 -1.2798e-05
29 1797 -0.00106546
37 1797 -0.000275589
41 1797 -3.734e-06
42 1797 -3.74323e-06
1792 1797 -9.45141e-08
1793 1797 -2.94618e-06
1794 1797 -1.95399e-08
1795 1797 -3.80473e-05
1796 1797 -0.00120755
1797 1797 0.0198089
1798 1797 -0.0517795
1799 1797 -2.54249e-05
1800 1797 -1.50371e-06
1801 1797 -0.000765602
1802 1797 -9.17365e-05
1803 1797 -0.179628
1804 1797 -1.46104e-05
1805 1797 -0.000165083
1806 1797 -3.4099e-05
1807 1797 -3.60215e-05
1808 1797 -5.7979e-08
1809 1797 -0.0043603
1810 1797 -4.45567e-05
1812 1797 -7.39184e-07
1814 1797 -0.366152
5 1798 -0.00303872
6 1798 -0.000615084
7 1798 -0.0013008
59 1798 -0.000232449
62 1798 -0.000884565
63 1798 -0.000652113
64 1798 -1.0954e-19
65 1798 -1.11647e-19
66 1798 -0.000232449
67 1798 -0.000674731
68 1798 -0.000442281
85 1798 -6.75527e-20
86 1798 -6.40413e-20
90 1798 -0.000232449
91 1798 -0.00108205
92 1798 -1.22346e-10
112 1798 1.73531e-24
113 1798 -0.000849602
155 1798 -0.00449067
156 1798 -6.48388e-05
157 1798 -5.73551e-06
158 1798 -6.53541e-05
160 1798 -1.39697e-06
161 1798 -7.66446e-06
162 1798 -3.03425e-07
163 1798 -1.10915e-08
164 1798 -2.939e-08
165 1798 -8.49473e-10
166 1798 -7.26928e-11
167 1798 -1.33434e-11
168 1798 -4.06784e-08
171 1798 -0.00185842
172 1798 -0.00247218
173 1798 -0.000565015
233 1798 -8.09597e-05
234 1798 -3.76765e-08
1787 1798 -7.15005e-10
1788 1798 -1.83923e-09
1789 1798 -6.5711e-10
1792 1798 -5.67022e-05
1793 1798 -3.39279e-10
1794 1798 -9.9576e-07
1795 1798 -0.000313778
1796 1798 -2.60669e-09
1797 1798 -0.00186526
1798 1798 0.0372383
1799 1798 -0.000823684
1800 1798 -2.05636e-06
1801 1798 -0.0159582
1802 1798 -4.8672e-06
1803 1798 -0.128351
1804 1798 -7.91515e-07
1805 1798 -0.00368055
1806 1798 -1.75364e-06
1807 1798 -1.91828e-06
1808 1798 -0.000281023
1809 1798 -0.00598248
1810 1798 -0.00367862
1812 1798 -7.66567e-05
1814 1798 -0.30124
15 1799 -0.000911318
16 1799 -0.00154762
17 1799 -0.000615105
20 1799 -0.00358366
21 1799 -9.69303e-12
22 1799 -0.000217933
87 1799 -0.000232449
88 1799 -0.000849603
92 1799 -0.000849603
112 1799 -0.000232449
113 1799 -1.58789e-17
117 1799 -0.00319461
123 1799 -0.00545252
124 1799 4.80923e-15
125 1799 9.87286e-16
130 1799 2.26552e-05
131 1799 -0.000301111
132 1799 -0.000653564
134 1799 -6.01531e-05
135 1799 -8.02593e-05
136 1799 -8.8929e-06
137 1799 -3.25074e-07
138 1799 -4.33829e-07
139 1799 -2.25977e-08
140 1799 -1.45504e-20
141 1799 -1.93377e-09
142 1799 -1.18922e-06
169 1799 -0.000380566
173 1799 -0.00120755
233 1799 -0.00147538
234 1799 -0.000381252
1787 1799 -1.31092e-08
1788 1799 -1.86106e-05
1789 1799 -6.64824e-06
1792 1799 -0.00460239
1793 1799 -4.60089e-07
1794 1799 -6.41173e-05
1795 1799 -0.000178981
1796 1799 -2.07115e-07
1797 1799 -5.1339e-07
1798 1799 -2.25037e-05
1799 1799 0.0408375
1800 1799 -0.00130745
1801 1799 -0.00932652
1802 1799 -1.50982e-05
1803 1799 -0.00071101
1804 1799 -4.4241e-06
1805 1799 -1.05853e-05
1806 1799 -2.18153e-06
1807 1799 -5.79454e-06
1808 1799 -6.22704e-05
1809 1799 -0.00518961
1810 1799 -0.000301123
1812 1799 -0.000423467
1814 1799 -0.450878
18 1800 -0.00271257
20 1800 -0.000268594
21 1800 -7.26488e-13
22 1800 -1.6334e-05
47 1800 -0.00164151
48 1800 -0.000989506
49 1800 -0.000716998
52 1800 -0.00164151
53 1800 -0.000989505
54 1800 -0.000725802
55 1800 -0.000167293
56 1800 -0.000205073
57 1800 -0.000202267
58 1800 1.41964e-06
64 1800 -0.000275368
65 1800 -0.0001977
1792 1800 -1.39913e-05
1793 1800 -3.25032e-08
1794 1800 -2.89188e-06
1795 1800 -4.84649e-06
1796 1800 -4.48587e-09
1797 1800 -2.91754e-08
1798 1800 -4.99101e-08
1799 1800 -5.03332e-05
1800 1800 0.015886
1801 1800 -8.49149e-05
1802 1800 -0.00587508
1803 1800 -0.000277569
1804 1800 -0.000705804
1805 1800 -0.000821358
1806 1800 -0.00127983
1807 1800 -0.00244912
1808 1800 -4.60197e-07
1809 1800 -0.00361881
1810 1800 -0.000767982
1812 1800 -1.54175e-06
1814 1800 -0.381628
8 1801 -0.00303872
9 1801 -0.0013008
10 1801 -0.000615084
13 1801 -0.00186499
22 1801 -0.000113418
60 1801 -0.00023245
61 1801 -0.000884564
62 1801 -0.000652114
63 1801 -7.04071e-11
64 1801 1.80158e-24
65 1801 2.28084e-26
89 1801 -0.00023245
91 1801 -0.000849603
92 1801 -0.00108206
112 1801 1.86566e-24
113 1801 -1.12181e-10
129 1801 -0.00449067
130 1801 -6.48388e-05
131 1801 -5.73551e-06
132 1801 -6.53541e-05
134 1801 -1.39697e-06
135 1801 -7.66446e-06
136 1801 -3.03425e-07
137 1801 -1.10915e-08
138 1801 -2.939e-08
139 1801 -8.49473e-10
140 1801 -5.46968e-22
141 1801 -7.26928e-11
142 1801 -4.06784e-08
170 1801 -0.00126827
172 1801 -0.00303872
173 1801 -0.00531716
233 1801 -0.000761883
234 1801 -3.5456e-07
1787 1801 -6.72866e-09
1788 1801 -1.73083e-08
1789 1801 -6.18382e-09
1792 1801 -0.00062075
1793 1801 -2.61132e-05
1794 1801 -9.70772e-06
1795 1801 -0.0050109
1796 1801 -3.19819e-08
1797 1801 -2.4285e-05
1798 1801 -0.000559871
1799 1801 -0.0004001
1800 1801 -1.72896e-06
1801 1801 0.0392611
1802 1801 -8.55501e-06
1803 1801 -0.00622797
1804 1801 -1.4664e-06
1805 1801 -5.50669e-05
1806 1801 -1.66467e-06
1807 1801 -3.56729e-06
1808 1801 -0.000279235
1809 1801 -0.00351068
1810 1801 -0.000120067
1812 1801 -0.000125295
1814 1801 -0.339639
28 1802 -0.00293147
31 1802 -0.00293147
36 1802 -0.00065515
37 1802 -8.31732e-05
39 1802 -0.000738515
40 1802 -0.000738515
41 1802 -0.000160151
42 1802 -0.000170888
43 1802 -0.000738515
45 1802 -0.00293147
49 1802 -0.00065515
55 1802 -0.00293147
56 1802 -0.000158005
57 1802 -0.000157715
58 1802 -0.000737421
64 1802 -3.05236e-05
65 1802 -2.20324e-05
69 1802 -0.000738515
71 1802 -0.00293147
75 1802 -0.00065515
81 1802 -0.00293147
82 1802 -0.000158005
83 1802 -0.000157715
84 1802 -0.000737421
85 1802 -3.05236e-05
86 1802 -2.20877e-05
103 1802 -0.00293147
104 1802 2.71048e-05
106 1802 -0.00293147
107 1802 2.71042e-05
108 1802 -0.000738688
109 1802 -0.000738515
110 1802 -0.000650608
111 1802 -0.000648076
112 1802 -3.26337e-05
113 1802 4.28367e-21
370 1802 -0.00293147
373 1802 -0.00366649
374 1802 1.52758e-14
375 1802 -0.000173807
376 1802 -0.000737303
377 1802 -0.000738515
378 1802 -0.000507417
385 1802 -0.00293147
388 1802 -0.00293147
392 1802 -0.00065515
393 1802 -7.83871e-05
395 1802 -0.000738515
396 1802 -0.000738515
397 1802 -0.000158712
398 1802 -0.000166678
399 1802 -3.19669e-05
400 1802 -2.33215e-05
401 1802 -1.55259e-06
406 1802 -0.000738515
408 1802 -0.00293147
412 1802 -0.00065515
418 1802 -0.00293147
419 1802 -0.000158005
420 1802 -0.000157715
421 1802 -0.000737421
422 1802 -3.04981e-05
423 1802 -2.21145e-05
439 1802 -0.00293147
440 1802 2.71048e-05
442 1802 -0.00293147
443 1802 2.71044e-05
444 1802 -0.000738688
445 1802 -0.000738515
446 1802 -0.000649776
447 1802 -0.000648059
448 1802 -3.19669e-05
449 1802 -2.31442e-05
450 1802 -8.02082e-08
451 1802 -4.37667e-06
452 1802 -1.42381e-06
453 1802 -8.57875e-05
454 1802 -8.12348e-07
455 1802 -1.84413e-07
456 1802 -1.46604e-06
457 1802 -1.96946e-07
518 1802 -0.0154506
1324 1802 -9.07498e-09
1325 1802 -3.73958e-11
1326 1802 -3.37429e-05
1327 1802 -5.16853e-05
1328 1802 -5.18975e-06
1329 1802 -8.56208e-06
1330 1802 -9.41038e-07
1331 1802 -1.75597e-07
1343 1802 -0.00293147
1345 1802 -0.00293147
1349 1802 -0.00065515
1350 1802 -7.77405e-05
1352 1802 -0.000738515
1353 1802 -0.000738515
1354 1802 -0.000158589
1355 1802 -0.000169468
1356 1802 -3.05147e-05
1357 1802 -2.21941e-05
1358 1802 -0.000738515
1360 1802 -0.00293147
1365 1802 -0.00065515
1372 1802 -0.00293147
1373 1802 -0.000159081
1374 1802 -0.000159024
1375 1802 -0.000737413
1405 1802 -0.00293147
1408 1802 -0.00366649
1409 1802 1.52758e-14
1410 1802 -0.000173807
1411 1802 -0.000737303
1412 1802 -0.000507516
1413 1802 -0.000738515
1425 1802 -0.000738515
1427 1802 -0.00293147
1431 1802 -0.00065515
1437 1802 -0.00293147
1438 1802 -0.000158005
1439 1802 -0.000157715
1440 1802 -0.000737421
1441 1802 -2.14456e-05
1442 1802 -3.12116e-05
1445 1802 -0.00293147
1446 1802 2.71048e-05
1448 1802 -0.00293147
1449 1802 2.71042e-05
1450 1802 -0.000738688
1451 1802 -0.000738515
1465 1802 -0.000650608
1466 1802 -0.000648349
1476 1802 -0.00293147
1477 1802 2.71048e-05
1479 1802 -0.00293147
1480 1802 2.71042e-05
1481 1802 -0.000738688
1482 1802 -0.000738515
1483 1802 -0.000650608
1484 1802 -0.000648062
1613 1802 -3.19934e-05
1614 1802 -2.31455e-05
1615 1802 -8.60727e-05
1616 1802 -9.29888e-06
1617 1802 -1.4502e-06
1618 1802 -4.43577e-06
1619 1802 -1.52258e-07
1620 1802 -1.45746e-06
1621 1802 -1.53339e-06
1622 1802 -5.79348e-07
1623 1802 -2.71776e-08
1624 1802 -9.01169e-05
1625 1802 -1.49877e-06
1628 1802 -0.00293148
1629 1802 2.71189e-05
1631 1802 -0.00293148
1632 1802 2.7116e-05
1633 1802 -0.000737183
1634 1802 -0.000738515
1649 1802 -0.000646834
1650 1802 -0.000648261
1660 1802 -0.00293147
1661 1802 1.20671e-14
1663 1802 -0.00293147
1664 1802 1.20679e-14
1665 1802 -0.000738515
1666 1802 -0.000738515
1667 1802 -0.000343266
1668 1802 -0.000340106
1669 1802 -1.06573e-05
1771 1802 -1.5493e-05
1772 1802 2.13316e-21
1773 1802 -4.05101e-06
1774 1802 -8.06648e-08
1775 1802 -1.46276e-06
1776 1802 -2.73722e-08
1777 1802 -3.39047e-07
1778 1802 -0.000516929
1779 1802 -9.44201e-07
1780 1802 -3.4311e-07
1781 1802 -1.52014e-06
1782 1802 -8.73972e-06
1784 1802 -7.5217e-08
1785 1802 -0.00016319
1787 1802 -8.0865e-06
1788 1802 -0.000323458
1789 1802 -2.71746e-06
1792 1802 -5.17229e-10
1793 1802 -8.59088e-05
1794 1802 -1.45785e-06
1795 1802 -1.33283e-06
1796 1802 -1.9819e-06
1797 1802 -1.60971e-06
1798 1802 -9.23918e-08
1799 1802 -5.70976e-07
1800 1802 -8.58302e-05
1801 1802 -2.38573e-07
1802 1802 0.239165
1803 1802 -8.41361e-06
1804 1802 -0.00695207
1805 1802 -2.26475e-05
1806 1802 -0.0010353
1807 1802 -0.00217277
1808 1802 -0.0125186
1809 1802 -0.00160459
1810 1802 -4.10764e-05
1812 1802 -0.000682419
1814 1802 -0.783235
5 1803 -0.000911318
6 1803 -0.00154762
7 1803 -0.000615105
59 1803 -0.000232449
62 1803 -0.000652114
63 1803 -0.000652114
64 1803 -0.000232449
65 1803 -4.46881e-06
66 1803 -0.000232449
67 1803 -0.000442281
68 1803 -0.000442281
85 1803 -0.000232449
86 1803 -4.88996e-06
90 1803 -0.000232449
91 1803 -0.000849603
92 1803 -9.60629e-11
112 1803 -0.000232449
113 1803 -0.000849603
171 1803 -0.000738515
172 1803 -0.000243899
173 1803 -5.57429e-05
233 1803 -7.98728e-06
234 1803 -0.000738519
334 1803 -0.00319461
340 1803 -0.00545252
341 1803 4.80925e-15
342 1803 9.87291e-16
343 1803 2.26552e-05
344 1803 -0.000301112
345 1803 -0.000653559
346 1803 -6.01485e-05
347 1803 -2.07065e-06
348 1803 -8.02343e-05
349 1803 -3.89576e-07
350 1803 -3.33366e-08
351 1803 -8.89636e-06
352 1803 -2.25948e-08
353 1803 -1.45486e-20
354 1803 -1.93353e-09
355 1803 -1.18909e-06
356 1803 -1.50141e-05
357 1803 -3.63477e-07
358 1803 -3.4289e-07
450 1803 -5.89981e-09
451 1803 -5.62167e-10
452 1803 -2.56281e-09
453 1803 -4.50108e-13
454 1803 -1.46154e-08
455 1803 -4.69555e-08
456 1803 -2.07201e-07
457 1803 -4.29771e-10
1329 1803 -1.75661e-10
1330 1803 -3.40668e-12
1331 1803 -3.868e-09
1785 1803 -6.19387e-23
1787 1803 -2.24191e-10
1788 1803 -3.60504e-05
1789 1803 -1.28782e-05
1792 1803 -5.70488e-06
1793 1803 -4.64529e-06
1794 1803 -1.91214e-06
1795 1803 -0.00016725
1796 1803 -2.11457e-07
1797 1803 -0.00358381
1798 1803 -0.00466365
1799 1803 -3.1108e-05
1800 1803 -4.31779e-06
1801 1803 -0.000253866
1802 1803 -2.13669e-06
1803 1803 0.0427731
1804 1803 -1.14869e-05
1805 1803 -0.00363318
1806 1803 -9.66462e-06
1807 1803 -2.10621e-05
1808 1803 -6.07888e-05
1809 1803 -0.00894521
1810 1803 -0.00429867
1812 1803 -0.000404302
1814 1803 -0.445732
23 1804 -0.00126827
27 1804 -8.6939e-05
28 1804 -2.01484e-05
30 1804 -0.00126827
36 1804 -8.6939e-05
37 1804 -1.10372e-05
39 1804 -0.00140873
40 1804 -0.00140873
41 1804 -2.48489e-05
42 1804 -4.51525e-05
43 1804 -0.00140873
44 1804 -0.00126827
49 1804 -8.6939e-05
51 1804 -0.00126827
54 1804 -8.6939e-05
55 1804 -2.0039e-05
56 1804 -2.45643e-05
57 1804 -2.45257e-05
58 1804 -0.00140856
64 1804 -4.26061e-06
65 1804 -2.9674e-06
69 1804 -0.00140873
70 1804 -0.00126827
75 1804 -8.6939e-05
77 1804 -0.00126827
80 1804 -8.6939e-05
81 1804 -2.0039e-05
82 1804 -2.45643e-05
83 1804 -2.45257e-05
84 1804 -0.00140856
85 1804 -4.26061e-06
86 1804 -2.97512e-06
101 1804 -0.00126827
104 1804 -4.13428e-14
105 1804 -0.00126827
107 1804 -4.1344e-14
108 1804 -0.00140873
109 1804 -0.00140873
110 1804 -9.25317e-05
111 1804 -8.7213e-05
112 1804 -4.55028e-06
113 1804 5.86969e-22
368 1804 -0.00126827
369 1804 -8.6939e-05
370 1804 -2.16543e-05
371 1804 -0.00126827
374 1804 -0.000287933
375 1804 -2.66612e-05
376 1804 -0.00140854
377 1804 -0.00140873
378 1804 -0.000242177
381 1804 -0.00126827
384 1804 -8.6939e-05
385 1804 -2.0039e-05
387 1804 -0.00126827
392 1804 -8.6939e-05
393 1804 -1.04021e-05
395 1804 -0.00140873
396 1804 -0.00140873
397 1804 -2.4658e-05
398 1804 -3.92364e-05
399 1804 -4.41337e-06
400 1804 -3.14366e-06
401 1804 -2.46555e-07
406 1804 -0.00140873
407 1804 -0.00126827
412 1804 -8.6939e-05
414 1804 -0.00126827
417 1804 -8.6939e-05
418 1804 -2.0039e-05
419 1804 -2.45643e-05
420 1804 -2.45257e-05
421 1804 -0.00140856
422 1804 -4.21177e-06
423 1804 -2.97786e-06
437 1804 -0.00126827
440 1804 -4.13428e-14
441 1804 -0.00126827
443 1804 -4.13448e-14
444 1804 -0.00140873
445 1804 -0.00140873
446 1804 -9.09446e-05
447 1804 -8.72063e-05
448 1804 -4.41337e-06
449 1804 -3.11918e-06
450 1804 -1.27372e-08
451 1804 -7.53995e-07
452 1804 -2.04069e-07
453 1804 -1.17749e-05
454 1804 -1.12064e-07
455 1804 -2.57308e-08
456 1804 -2.01232e-07
457 1804 -2.9134e-08
482 1804 -0.014765
518 1804 -0.00161572
1324 1804 -9.48999e-10
1325 1804 -3.9106e-12
1326 1804 -3.5286e-06
1327 1804 -5.40489e-06
1328 1804 -5.42708e-07
1329 1804 -1.73381e-06
1330 1804 -3.14324e-07
1331 1804 -3.38368e-08
1339 1804 -0.00126827
1342 1804 -8.6939e-05
1343 1804 -2.00173e-05
1344 1804 -0.00126827
1349 1804 -8.6939e-05
1350 1804 -1.03163e-05
1352 1804 -0.00140873
1353 1804 -0.00140873
1354 1804 -2.46417e-05
1355 1804 -4.4964e-05
1356 1804 -4.25861e-06
1357 1804 -2.99305e-06
1358 1804 -0.00140873
1359 1804 -0.00126827
1365 1804 -8.6939e-05
1367 1804 -0.00126827
1371 1804 -8.6939e-05
1372 1804 -2.01494e-05
1373 1804 -2.47071e-05
1374 1804 -2.46994e-05
1375 1804 -0.00140856
1403 1804 -0.00126827
1404 1804 -8.6939e-05
1405 1804 -2.16543e-05
1406 1804 -0.00126827
1409 1804 -0.000287933
1410 1804 -2.66612e-05
1411 1804 -0.00140854
1412 1804 -0.000242366
1413 1804 -0.00140873
1425 1804 -0.00140873
1426 1804 -0.00126827
1431 1804 -8.6939e-05
1433 1804 -0.00126827
1436 1804 -8.6939e-05
1437 1804 -2.0039e-05
1438 1804 -2.45643e-05
1439 1804 -2.45257e-05
1440 1804 -0.00140856
1441 1804 -2.88549e-06
1442 1804 -4.35318e-06
1443 1804 -0.00126827
1446 1804 -4.13429e-14
1447 1804 -0.00126827
1449 1804 -4.1344e-14
1450 1804 -0.00140873
1451 1804 -0.00140873
1465 1804 -9.25317e-05
1466 1804 -8.72518e-05
1474 1804 -0.00126827
1477 1804 -4.13429e-14
1478 1804 -0.00126827
1480 1804 -4.1344e-14
1481 1804 -0.00140873
1482 1804 -0.00140873
1483 1804 -9.25317e-05
1484 1804 -8.72109e-05
1613 1804 -4.46401e-06
1614 1804 -3.12151e-06
1615 1804 -1.19112e-05
1616 1804 -4.43544e-06
1617 1804 -2.00692e-07
1618 1804 -7.62635e-07
1619 1804 -2.50388e-08
1620 1804 -2.10682e-07
1621 1804 -2.12589e-07
1622 1804 -2.72178e-07
1623 1804 -3.89217e-09
1624 1804 -1.24696e-05
1625 1804 -2.07391e-07
1626 1804 -0.00126827
1629 1804 -4.19885e-14
1630 1804 -0.00126827
1632 1804 -4.18581e-14
1633 1804 -0.00140873
1634 1804 -0.00140873
1649 1804 -8.61422e-05
1650 1804 -8.7222e-05
1658 1804 -0.00126827
1661 1804 -0.000287934
1662 1804 -0.00126827
1664 1804 -0.000287933
1665 1804 -0.00140873
1666 1804 -0.0014413
1667 1804 -0.000224591
1668 1804 -0.000227856
1669 1804 -7.13867e-06
1771 1804 -1.02223e-05
1772 1804 1.41777e-21
1773 1804 -1.07651e-06
1774 1804 -1.21431e-08
1775 1804 -3.13799e-07
1776 1804 -6.74636e-09
1777 1804 -6.16139e-08
1778 1804 -0.000636984
1779 1804 -2.46527e-07
1780 1804 -2.27784e-07
1781 1804 -2.25016e-07
1782 1804 -1.65972e-06
1784 1804 -4.59207e-08
1785 1804 -0.000311287
1787 1804 -1.72204e-06
1788 1804 -0.000439401
1789 1804 -2.3933e-06
1792 1804 -6.92849e-10
1793 1804 -1.18884e-05
1794 1804 -2.11539e-07
1795 1804 -3.35516e-07
1796 1804 -2.54915e-06
1797 1804 -2.99093e-07
1798 1804 -1.77659e-08
1799 1804 -1.93734e-07
1800 1804 -1.18777e-05
1801 1804 -5.09872e-08
1802 1804 -0.0016881
1803 1804 -5.29212e-07
1804 1804 0.173587
1805 1804 -5.20847e-06
1806 1804 -0.00162006
1807 1804 -0.00332607
1808 1804 -0.0330226
1809 1804 -0.0003421
1810 1804 -8.33617e-06
1812 1804 -0.00179992
1814 1804 -0.405113
32 1805 -0.000971416
33 1805 -0.000138008
35 1805 -3.19157e-05
36 1805 -5.80889e-06
37 1805 -3.32593e-06
41 1805 -1.69537e-06
42 1805 -4.56961e-08
63 1805 -0.000652114
64 1805 -1.09541e-19
65 1805 -0.000652114
68 1805 -0.000442281
85 1805 -6.75544e-20
86 1805 -0.000442281
100 1805 -0.000849603
110 1805 -6.10157e-07
111 1805 -2.70107e-05
112 1805 -2.4207e-05
113 1805 -0.000849603
241 1805 -0.00120755
453 1805 -8.0956e-14
454 1805 -1.04546e-12
455 1805 -4.17543e-13
456 1805 -0.0001073
457 1805 -7.36732e-08
1329 1805 -2.78624e-09
1330 1805 -0.0082577
1331 1805 -1.7042e-06
1785 1805 -1.84503e-14
1788 1805 -1.40989e-05
1789 1805 -5.11591e-07
1792 1805 -2.21728e-11
1793 1805 -9.1168e-06
1794 1805 -2.6389e-07
1795 1805 -6.77622e-07
1796 1805 -9.38752e-05
1797 1805 -3.20469e-06
1798 1805 -0.00013691
1799 1805 -4.66643e-07
1800 1805 -1.26309e-05
1801 1805 -2.27566e-06
1802 1805 -5.17313e-06
1803 1805 -0.0001558
1804 1805 -7.83847e-07
1805 1805 0.0356262
1806 1805 -0.000747966
1807 1805 -2.11246e-05
1808 1805 -4.17693e-06
1809 1805 -0.0331793
1810 1805 -0.0104889
1812 1805 -3.00818e-06
1814 1805 -0.209146
39 1806 -0.00101926
40 1806 9.16007e-16
41 1806 -0.000749778
42 1806 -0.000284395
56 1806 -0.000269478
57 1806 -0.000749778
58 1806 -0.00101739
64 1806 -6.45659e-06
65 1806 -8.388e-06
82 1806 -0.000269478
83 1806 -0.000749778
84 1806 -0.00101739
85 1806 -6.45659e-06
86 1806 -8.3997e-06
104 1806 -0.000749778
107 1806 -0.000269478
108 1806 -0.00101754
109 1806 9.14384e-16
110 1806 -7.83291e-05
111 1806 -0.00024922
112 1806 -7.07064e-06
113 1806 1.2846e-21
374 1806 -0.000749778
375 1806 -0.000269478
376 1806 -0.00101738
377 1806 6.52605e-16
378 1806 -0.000209283
395 1806 -0.00101926
396 1806 6.53852e-16
397 1806 -0.000749778
398 1806 -0.000280202
399 1806 -6.79122e-06
400 1806 -8.70284e-06
401 1806 -4.07307e-07
419 1806 -0.000269478
420 1806 -0.000749778
421 1806 -0.00101739
422 1806 -6.42131e-06
423 1806 -8.40471e-06
440 1806 -0.000749778
443 1806 -0.000269478
444 1806 -0.00101754
445 1806 6.52702e-16
446 1806 -7.71826e-05
447 1806 -0.000249215
448 1806 -6.79122e-06
449 1806 -8.66518e-06
450 1806 -2.10418e-08
451 1806 -1.66221e-06
452 1806 -3.26552e-07
453 1806 -2.1626e-05
454 1806 -1.8499e-07
455 1806 -4.50546e-08
456 1806 -3.69514e-07
457 1806 -5.03779e-08
460 1806 -0.00183713
466 1806 -0.00183713
468 1806 -0.00101591
469 1806 -0.000740245
470 1806 -0.00183708
471 1806 -0.000287271
472 1806 -0.00106356
473 1806 -0.0012537
480 1806 -0.00241662
481 1806 -0.000330738
1325 1806 -5.06643e-06
1326 1806 -0.000195776
1327 1806 -0.000337372
1328 1806 -0.000299917
1329 1806 -2.7947e-06
1330 1806 -0.000113447
1331 1806 -9.15841e-06
1785 1806 -4.02711e-13
1788 1806 -8.39332e-06
1789 1806 -0.00021358
1792 1806 -1.31999e-11
1793 1806 -2.17314e-05
1794 1806 -3.66903e-07
1795 1806 -2.74097e-07
1796 1806 -8.71219e-06
1797 1806 -6.82958e-07
1798 1806 -3.72235e-08
1799 1806 -1.06202e-07
1800 1806 -2.17101e-05
1801 1806 -5.34548e-08
1802 1806 -0.000412196
1803 1806 -4.67634e-07
1804 1806 -0.000274813
1805 1806 -2.67185e-05
1806 1806 0.06653
1807 1806 -0.108518
1808 1806 -0.000213994
1809 1806 -0.0285974
1810 1806 -7.39507e-05
1812 1806 -1.19416e-05
1814 1806 -0.445623
39 1807 -0.00222092
40 1807 1.99595e-15
41 1807 -0.000269478
42 1807 -0.00198351
56 1807 -0.00195144
57 1807 -0.000269478
58 1807 -0.00220741
64 1807 -1.82817e-05
65 1807 -3.32159e-06
82 1807 -0.00195144
83 1807 -0.000269478
84 1807 -0.00220741
85 1807 -1.82817e-05
86 1807 -3.35471e-06
104 1807 -0.000269478
107 1807 -0.00195144
108 1807 -0.00220847
109 1807 1.98458e-15
110 1807 -0.000546739
111 1807 -9.11078e-05
112 1807 -1.91011e-05
113 1807 1.56302e-21
374 1807 -0.000269478
375 1807 -0.00195144
376 1807 -0.00220731
377 1807 1.4159e-15
378 1807 -0.000136806
395 1807 -0.00222092
396 1807 1.42472e-15
397 1807 -0.000269478
398 1807 -0.00197442
399 1807 -1.89228e-05
400 1807 -3.97453e-06
401 1807 -7.35784e-07
419 1807 -0.00195144
420 1807 -0.000269478
421 1807 -0.00220741
422 1807 -1.82051e-05
423 1807 -3.36941e-06
440 1807 -0.000269478
443 1807 -0.00195144
444 1807 -0.00220847
445 1807 1.41663e-15
446 1807 -0.00054425
447 1807 -9.10885e-05
448 1807 -1.89228e-05
449 1807 -3.86958e-06
450 1807 -3.80112e-08
451 1807 -7.66873e-07
452 1807 -7.84401e-07
453 1807 -4.18625e-05
454 1807 -4.48415e-07
455 1807 -9.3979e-08
456 1807 -7.15556e-07
457 1807 -9.5437e-08
1329 1807 -2.2765e-06
1330 1807 -1.67482e-07
1331 1807 -5.39775e-08
1785 1807 -3.83614e-19
1788 1807 -3.02724e-10
1789 1807 -4.90371e-10
1792 1807 -4.76082e-16
1793 1807 -4.20252e-05
1794 1807 -7.0932e-07
1795 1807 -6.84908e-07
1796 1807 -3.00901e-09
1797 1807 -7.53226e-07
1798 1807 -4.36438e-08
1799 1807 -2.78661e-07
1800 1807 -4.19902e-05
1801 1807 -1.20242e-07
1802 1807 -0.000860378
1803 1807 -1.04295e-06
1804 1807 -0.0005613
1805 1807 -9.12844e-07
1806 1807 -0.00708284
1807 1807 0.0552045
1808 1807 -0.000558336
1809 1807 -0.00394834
1810 1807 -9.76609e-05
1812 1807 -3.05118e-05
1814 1807 -0.450515
1808 1808 1
1809 1809 1
24 1810 -0.000627451
26 1810 -0.00018174
27 1810 -3.33413e-05
28 1810 -7.72696e-06
32 1810 -0.000971416
33 1810 -0.00110942
35 1810 -0.000256565
36 1810 -4.66967e-05
37 1810 -4.58314e-05
41 1810 -1.38875e-05
42 1810 -1.01014e-05
63 1810 -0.000652114
64 1810 -0.000652114
65 1810 -1.25368e-05
68 1810 -0.000442281
85 1810 -0.000442281
86 1810 -9.30415e-06
112 1810 -0.000849603
113 1810 -0.000849603
1331 1810 -0.0069399
1785 1810 -9.62741e-17
1788 1810 -2.14691e-06
1789 1810 -5.73486e-05
1792 1810 -3.37637e-12
1793 1810 -8.83854e-06
1794 1810 -2.4166e-07
1795 1810 -2.22253e-05
1796 1810 -8.22681e-07
1797 1810 -8.33271e-07
1798 1810 -0.000136932
1799 1810 -1.23288e-05
1800 1810 -1.19127e-05
1801 1810 -4.76215e-06
1802 1810 -9.6078e-06
1803 1810 -0.000184268
1804 1810 -1.23803e-06
1805 1810 -0.000385628
1806 1810 -4.49306e-06
1807 1810 -4.61206e-06
1808 1810 -2.4567e-07
1809 1810 -0.000703466
1810 1810 0.033205
1812 1810 -8.6367e-06
1814 1810 -0.187407
118 1811 -0.00151155
119 1811 -0.00259346
120 1811 -0.00149956
121 1811 -0.00281415
122 1811 -0.00348758
130 1811 -0.000702399
131 1811 -4.60548e-05
132 1811 -0.000122732
133 1811 -0.00164151
134 1811 -0.00165922
135 1811 -0.00086114
136 1811 -0.00342043
137 1811 -0.00176654
138 1811 -0.00145821
139 1811 -0.00073305
140 1811 -0.00323132
141 1811 -0.000924898
142 1811 -0.00278353
144 1811 -0.00259346
145 1811 -0.00151155
146 1811 -0.00281415
147 1811 -0.00149956
148 1811 -0.00348758
156 1811 -0.000702399
157 1811 -4.60548e-05
158 1811 -0.000122732
159 1811 -0.00164151
160 1811 -0.00165922
161 1811 -0.00086114
162 1811 -0.00342043
163 1811 -0.00176654
164 1811 -0.00145821
165 1811 -0.00073305
166 1811 -0.000677814
167 1811 -0.00335574
168 1811 -0.00278353
178 1811 -0.00259346
179 1811 -0.00151155
180 1811 -0.00149956
181 1811 -0.00281415
182 1811 -0.00348758
186 1811 -0.000702399
187 1811 -4.51734e-05
188 1811 -7.42173e-05
189 1811 -0.000122732
190 1811 -0.00155713
191 1811 -0.00169511
192 1811 -0.00086114
193 1811 -0.00133862
194 1811 -0.00175606
195 1811 -0.00353906
196 1811 -0.00073305
197 1811 -0.000677814
198 1811 -0.00335574
199 1811 -0.00278353
203 1811 -0.00259346
204 1811 -0.00151155
205 1811 -0.00281415
206 1811 -0.00149956
207 1811 -0.00348758
211 1811 -0.000702399
212 1811 -4.51734e-05
213 1811 -0.000112598
214 1811 -9.13502e-05
215 1811 -0.00164151
216 1811 -0.00165922
217 1811 -0.000861116
218 1811 -0.00133862
219 1811 -0.00175606
220 1811 -0.00353906
221 1811 -0.00073305
222 1811 -0.00323132
223 1811 -0.000924898
224 1811 -0.00278353
231 1811 -1.83489e-05
232 1811 -2.49443e-05
233 1811 -1.57394e-06
234 1811 -2.15599e-07
243 1811 -0.00259346
244 1811 -0.00151155
245 1811 -0.00149956
246 1811 -0.00281415
247 1811 -0.00348758
255 1811 -0.000702399
256 1811 -4.60548e-05
257 1811 -0.000122732
258 1811 -0.00164151
259 1811 -0.00165922
260 1811 -0.00086114
261 1811 -0.00133862
262 1811 -0.00175606
263 1811 -0.00353906
264 1811 -0.00073305
265 1811 -0.000677814
266 1811 -0.00335574
267 1811 -0.00278353
274 1811 -0.00151155
275 1811 -0.00259346
276 1811 -0.00149956
277 1811 -0.00281415
278 1811 -0.00348758
286 1811 -0.000702399
287 1811 -4.60548e-05
288 1811 -0.000122732
289 1811 -0.00164151
290 1811 -0.00165922
291 1811 -0.00086114
292 1811 -0.00342043
293 1811 -0.00176654
294 1811 -0.00145821
295 1811 -0.00073305
296 1811 -0.00323132
297 1811 -0.000924898
298 1811 -0.00278353
300 1811 -0.00151155
301 1811 -0.00259346
302 1811 -0.00149956
303 1811 -0.00281415
304 1811 -0.00348758
312 1811 -0.000702399
313 1811 -4.60548e-05
314 1811 -0.000122732
315 1811 -0.00164151
316 1811 -0.00165922
317 1811 -0.00086114
318 1811 -0.00133862
319 1811 -0.00175606
320 1811 -0.00353906
321 1811 -0.00073305
322 1811 -0.000677814
323 1811 -0.00335574
324 1811 -0.00278353
335 1811 -0.00151155
336 1811 -0.00259346
337 1811 -0.00149956
338 1811 -0.00281415
339 1811 -0.00348758
343 1811 -0.000702399
344 1811 -4.60415e-05
345 1811 -0.00012258
346 1811 -0.00155712
347 1811 -0.00169511
348 1811 -0.000861116
349 1811 -0.00133862
350 1811 -0.00175606
351 1811 -0.00353906
352 1811 -0.00073305
353 1811 -0.00323132
354 1811 -0.000924898
355 1811 -0.00278353
356 1811 -1.83489e-05
357 1811 -2.49443e-05
358 1811 -1.57394e-06
450 1811 -3.90965e-06
451 1811 -3.93628e-06
452 1811 -2.50389e-05
453 1811 -3.95183e-09
454 1811 -2.46973e-05
455 1811 -7.08099e-06
456 1811 -2.73642e-06
457 1811 -3.04299e-07
483 1811 -0.00259346
484 1811 -0.00151155
485 1811 -0.00149956
486 1811 -0.00281415
487 1811 -0.00348758
489 1811 -0.000702399
490 1811 -7.35548e-05
491 1811 -4.48568e-05
492 1811 -2.08614e-06
493 1811 -0.000118588
494 1811 -0.00164151
495 1811 -0.00165874
496 1811 -0.000859955
497 1811 -0.00342027
498 1811 -0.00176653
499 1811 -0.0014582
500 1811 -5.81478e-06
501 1811 -0.00073305
502 1811 -0.00323132
503 1811 -0.000924898
504 1811 -0.00278351
517 1811 -0.000104602
518 1811 -5.0712e-08
589 1811 -0.00259346
590 1811 -0.00151155
591 1811 -0.00149956
592 1811 -0.00281415
593 1811 -0.00348758
595 1811 -0.000702399
596 1811 -7.35548e-05
597 1811 -0.000117611
598 1811 -2.73187e-06
599 1811 -4.67884e-05
600 1811 -4.05262e-05
601 1811 -0.00164151
602 1811 -0.000731229
603 1811 -0.00173831
604 1811 -0.00342044
605 1811 -0.00176654
606 1811 -0.00145821
607 1811 -5.94729e-06
608 1811 -0.00073305
609 1811 -0.000677814
610 1811 -0.00335574
611 1811 -0.00278353
612 1811 -0.00259346
613 1811 -0.00151155
614 1811 -0.00149956
615 1811 -0.00281415
616 1811 -0.00348758
618 1811 -0.000702399
619 1811 -7.35548e-05
620 1811 -4.48568e-05
621 1811 -2.08614e-06
622 1811 -2.35555e-05
623 1811 -0.000121664
624 1811 -0.00164151
625 1811 -0.00165923
626 1811 -0.000861018
627 1811 -0.00342044
628 1811 -0.00176654
629 1811 -0.00145821
630 1811 -5.94729e-06
631 1811 -0.00073305
632 1811 -0.00323132
633 1811 -0.000924898
634 1811 -0.00278353
641 1811 -0.00259346
642 1811 -0.00151155
643 1811 -0.00281415
644 1811 -0.00149956
645 1811 -0.00348758
647 1811 -0.000702399
648 1811 -7.35548e-05
649 1811 -0.000117611
650 1811 -2.73187e-06
651 1811 -3.62738e-05
652 1811 -4.90885e-05
653 1811 -0.00164151
654 1811 -0.000731229
655 1811 -0.00173831
656 1811 -0.00342044
657 1811 -0.00176654
658 1811 -0.00145821
659 1811 -5.94729e-06
660 1811 -0.00073305
661 1811 -0.00323132
662 1811 -0.000924898
663 1811 -0.00278353
675 1811 -2.54331e-05
676 1811 -2.60482e-05
677 1811 -2.32886e-05
678 1811 -1.5771e-07
679 1811 -3.85832e-06
680 1811 -3.64473e-09
681 1811 -2.33752e-05
682 1811 -2.89004e-05
683 1811 -2.61044e-05
684 1811 -4.73451e-07
685 1811 -1.42453e-09
686 1811 -1.82445e-09
693 1811 -0.00151155
694 1811 -0.00259346
695 1811 -0.00149956
696 1811 -0.00281415
697 1811 -0.00348758
699 1811 -0.000702399
700 1811 -7.59319e-05
701 1811 -4.63254e-05
702 1811 -2.27309e-06
703 1811 -2.45562e-05
704 1811 -0.000125764
705 1811 -0.00164151
706 1811 -0.00166003
707 1811 -0.000861869
708 1811 -0.00342132
709 1811 -0.00176658
710 1811 -0.00145832
711 1811 -6.27968e-06
712 1811 -0.000733053
713 1811 -0.000677815
714 1811 -0.00336142
715 1811 -0.00279279
716 1811 -2.64137e-05
720 1811 -0.00259346
721 1811 -0.00151155
722 1811 -0.00149956
723 1811 -0.00281415
724 1811 -0.00348758
726 1811 -0.000702399
727 1811 -7.35548e-05
728 1811 -1.96185e-05
729 1811 1.88428e-17
730 1811 -4.60368e-05
731 1811 -0.000121664
732 1811 -0.00164151
733 1811 -0.00165923
734 1811 -0.000861018
735 1811 -0.00342044
736 1811 -0.00176654
737 1811 -0.00145821
738 1811 -5.94729e-06
739 1811 -0.00073305
740 1811 -0.00323132
741 1811 -0.000924898
742 1811 -0.00278353
743 1811 -0.00259346
744 1811 -0.00151155
745 1811 -0.00149956
746 1811 -0.00281415
747 1811 -0.00348758
749 1811 -0.000702399
750 1811 -7.35548e-05
751 1811 -1.96185e-05
752 1811 1.88429e-17
753 1811 -4.60368e-05
754 1811 -0.000121664
755 1811 -0.00155713
756 1811 -0.00169511
757 1811 -0.000861018
758 1811 -0.00342044
759 1811 -0.00176654
760 1811 -0.00145821
761 1811 -5.94729e-06
762 1811 -0.00073305
763 1811 -0.000677814
764 1811 -0.00335574
765 1811 -0.00278353
773 1811 -2.3095e-05
774 1811 -2.81565e-05
778 1811 -0.00259346
779 1811 -0.00151155
780 1811 -0.00281415
781 1811 -0.00149956
782 1811 -0.00348758
784 1811 -0.000702399
785 1811 -7.35548e-05
786 1811 -0.000117611
787 1811 -2.73187e-06
788 1811 -4.67884e-05
789 1811 -4.05262e-05
790 1811 -0.00164151
791 1811 -0.000731229
792 1811 -0.00173831
793 1811 -0.00342044
794 1811 -0.00176654
795 1811 -0.00145821
796 1811 -5.94729e-06
797 1811 -0.00212961
798 1811 -0.000807354
799 1811 -0.00367941
800 1811 -0.000825345
801 1811 -0.00259346
802 1811 -0.00151155
803 1811 -0.00281415
804 1811 -0.00149956
805 1811 -0.00348758
807 1811 -0.000702399
808 1811 -7.35548e-05
809 1811 -0.000117611
810 1811 -2.73187e-06
811 1811 -4.67884e-05
812 1811 -4.05262e-05
813 1811 -0.000629131
814 1811 -0.00167164
815 1811 -0.00173831
816 1811 -0.00133862
817 1811 -0.00175606
818 1811 -0.00353906
819 1811 -5.94729e-06
820 1811 -0.00073305
821 1811 -0.00323132
822 1811 -0.000924898
823 1811 -0.00278353
907 1811 -2.54331e-05
908 1811 -2.57595e-05
909 1811 -2.63328e-05
910 1811 -4.16883e-06
911 1811 -2.60469e-05
912 1811 -2.65422e-05
913 1811 -9.63824e-06
927 1811 -0.00151155
928 1811 -0.00259346
929 1811 -0.00149956
930 1811 -0.00281415
931 1811 -0.00348758
933 1811 -0.000702399
934 1811 -7.35548e-05
935 1811 -0.000117611
936 1811 -2.73187e-06
937 1811 -4.67884e-05
938 1811 -4.05262e-05
939 1811 -0.000629131
940 1811 -0.00167164
941 1811 -0.00173831
942 1811 -0.00133862
943 1811 -0.00175606
944 1811 -0.00353906
945 1811 -5.94729e-06
946 1811 -0.00073305
947 1811 -0.000677814
948 1811 -0.00335574
949 1811 -0.00278353
955 1811 -0.00151155
956 1811 -0.00259346
957 1811 -0.00149956
958 1811 -0.00281415
959 1811 -0.00348758
961 1811 -0.000702399
962 1811 -7.35548e-05
963 1811 -1.96185e-05
964 1811 1.88428e-17
965 1811 -0.000120133
966 1811 -4.90885e-05
967 1811 -0.00164151
968 1811 -0.000731229
969 1811 -0.00173831
970 1811 -0.00342044
971 1811 -0.00176654
972 1811 -0.00145821
973 1811 -5.94729e-06
974 1811 -0.00073305
975 1811 -0.000677814
976 1811 -0.00335574
977 1811 -0.00278353
978 1811 -2.54331e-05
979 1811 -2.60005e-05
985 1811 -0.00151155
986 1811 -0.00259346
987 1811 -0.00149956
988 1811 -0.00281415
989 1811 -0.00348758
991 1811 -0.000702399
992 1811 -7.35548e-05
993 1811 -4.48568e-05
994 1811 -2.08614e-06
995 1811 -2.35555e-05
996 1811 -0.000121664
997 1811 -0.00164151
998 1811 -0.00165923
999 1811 -0.000861018
1000 1811 -0.00342044
1001 1811 -0.00176654
1002 1811 -0.00145821
1003 1811 -5.94729e-06
1004 1811 -0.00073305
1005 1811 -0.000677814
1006 1811 -0.00335574
1007 1811 -0.00278353
1008 1811 -0.00151155
1009 1811 -0.00259346
1010 1811 -0.00149956
1011 1811 -0.00281415
1012 1811 -0.00348758
1014 1811 -0.000702399
1015 1811 -7.35548e-05
1016 1811 -1.96185e-05
1017 1811 1.88429e-17
1018 1811 -4.60368e-05
1019 1811 -0.000121664
1020 1811 -0.00164151
1021 1811 -0.00165923
1022 1811 -0.000861018
1023 1811 -0.00342044
1024 1811 -0.00176654
1025 1811 -0.00145821
1026 1811 -5.94729e-06
1027 1811 -0.00212961
1028 1811 -0.000807354
1029 1811 -0.00367941
1030 1811 -0.000825345
1113 1811 -2.54331e-05
1114 1811 -2.58126e-05
1115 1811 -2.65534e-05
1116 1811 -2.3402e-05
1117 1811 -4.14484e-06
1118 1811 -2.86726e-05
1119 1811 -9.34367e-06
1120 1811 -8.59765e-07
1121 1811 -8.87943e-08
1122 1811 -1.97666e-09
1123 1811 -8.60054e-07
1124 1811 -5.7043e-08
1125 1811 -2.6695e-05
1126 1811 -2.77194e-05
1129 1811 -0.00259347
1130 1811 -0.00151156
1131 1811 -0.00149956
1132 1811 -0.00281415
1133 1811 -0.00348752
1135 1811 -0.00164153
1136 1811 -0.000382625
1138 1811 -0.000699653
1139 1811 -7.2565e-05
1140 1811 -0.000135401
1141 1811 -0.000380566
1142 1811 -0.000126708
1143 1811 -6.49479e-05
1145 1811 -1.48697e-05
1146 1811 -1.90444e-05
1147 1811 -0.00154518
1148 1811 -0.0016998
1149 1811 -0.00126951
1150 1811 -0.00343833
1151 1811 -0.00522647
1152 1811 -0.00257799
1153 1811 -0.00260438
1154 1811 -0.00164151
1155 1811 -0.00320289
1156 1811 -0.00175617
1157 1811 -0.00145464
1158 1811 -0.000738301
1159 1811 -0.000678281
1160 1811 -0.00336151
1161 1811 -0.00276066
1166 1811 -0.00151153
1167 1811 -0.00149956
1169 1811 -0.00151154
1170 1811 -0.00191534
1171 1811 -0.00206437
1172 1811 -0.00149956
1173 1811 -0.00156644
1174 1811 -0.00191534
1175 1811 -0.00206437
1176 1811 -0.00156643
1177 1811 -0.000352278
1178 1811 -2.25667e-05
1179 1811 -5.9698e-05
1180 1811 -0.00228493
1181 1811 -0.000923365
1182 1811 -0.00164091
1183 1811 -0.000368545
1184 1811 2.24841e-05
1186 1811 -1.37818e-05
1187 1811 -1.87825e-07
1188 1811 -7.5768e-05
1189 1811 -0.00477889
1190 1811 -0.00240644
1191 1811 -0.00250406
1192 1811 -0.00182305
1193 1811 -0.00406652
1194 1811 -0.00121674
1195 1811 -0.000225076
1196 1811 -0.002376
1197 1811 -6.11834e-06
1198 1811 -0.000486574
1204 1811 -4.16763e-05
1205 1811 -0.00221232
1208 1811 -0.000927419
1209 1811 -0.00171403
1210 1811 -0.000815007
1211 1811 -0.00167542
1215 1811 -0.00164018
1216 1811 -0.000361434
1217 1811 -2.07021e-05
1218 1811 -1.76971e-05
1220 1811 -7.68809e-06
1221 1811 -4.27931e-06
1222 1811 -0.000320494
1223 1811 -2.44296e-05
1313 1811 -1.94179e-06
1314 1811 -6.02213e-06
1315 1811 -1.63482e-05
1316 1811 -2.78549e-06
1317 1811 -3.17137e-06
1318 1811 -2.1247e-06
1319 1811 -1.60079e-07
1320 1811 -1.21173e-06
1321 1811 -1.18908e-08
1322 1811 -8.79089e-05
1323 1811 -2.66418e-05
1324 1811 -2.87967e-05
1325 1811 -2.65575e-07
1326 1811 -2.58112e-07
1327 1811 -1.37965e-06
1328 1811 -8.38294e-08
1329 1811 -2.14165e-05
1330 1811 -1.32552e-07
1331 1811 -1.11623e-06
1495 1811 -0.00259346
1496 1811 -0.00151155
1497 1811 -0.00149956
1498 1811 -0.00281415
1499 1811 -0.00348758
1507 1811 -0.000702399
1508 1811 -0.000121228
1509 1811 -4.90901e-05
1510 1811 -0.00164151
1511 1811 -0.00073137
1512 1811 -0.00173831
1513 1811 -0.00133862
1514 1811 -0.00175606
1515 1811 -0.00353906
1516 1811 -0.00073305
1517 1811 -0.000677814
1518 1811 -0.00335574
1519 1811 -0.00278353
1521 1811 -0.00259346
1522 1811 -0.00151155
1523 1811 -0.00149956
1524 1811 -0.00281415
1525 1811 -0.00348758
1533 1811 -0.000702399
1534 1811 -0.000121228
1535 1811 -4.90901e-05
1536 1811 -0.00164151
1537 1811 -0.00073137
1538 1811 -0.00173831
1539 1811 -0.00342043
1540 1811 -0.00176654
1541 1811 -0.00145821
1542 1811 -0.00073305
1543 1811 -0.000677814
1544 1811 -0.00335574
1545 1811 -0.00278353
1552 1811 -0.00151155
1553 1811 -0.00259346
1554 1811 -0.00149956
1555 1811 -0.00281415
1556 1811 -0.00348758
1564 1811 -0.000702399
1565 1811 -4.60548e-05
1566 1811 -0.000122732
1567 1811 -0.00164151
1568 1811 -0.00165922
1569 1811 -0.00086114
1570 1811 -0.00342043
1571 1811 -0.00176654
1572 1811 -0.00145821
1573 1811 -0.00073305
1574 1811 -0.00323132
1575 1811 -0.000924898
1576 1811 -0.00278353
1586 1811 -0.00151155
1587 1811 -0.00259346
1588 1811 -0.00149956
1589 1811 -0.00281415
1590 1811 -0.00348758
1594 1811 -0.000702396
1595 1811 -4.51738e-05
1596 1811 -7.42549e-05
1597 1811 -0.000124719
1598 1811 -0.00164151
1599 1811 -0.00165968
1600 1811 -0.000861284
1601 1811 -0.00342124
1602 1811 -0.00176658
1603 1811 -0.00145831
1604 1811 -0.000733053
1605 1811 -0.00323132
1606 1811 -0.000924898
1607 1811 -0.00279278
1608 1811 -1.38307e-05
1609 1811 -2.48558e-05
1610 1811 -1.50031e-06
1611 1811 -4.07851e-06
1612 1811 -2.50371e-05
1613 1811 -1.40027e-07
1614 1811 -2.94545e-09
1617 1811 -2.67456e-06
1618 1811 -3.90197e-06
1619 1811 -4.24129e-06
1620 1811 -2.51927e-05
1621 1811 -2.56993e-06
1622 1811 -1.42605e-08
1623 1811 -7.46765e-07
1624 1811 -4.87704e-14
1625 1811 -3.6083e-14
1665 1811 -0.00727396
1666 1811 -6.89375e-15
1667 1811 -3.21984e-17
1668 1811 -2.71307e-20
1669 1811 -8.24592e-21
1674 1811 -0.00151155
1675 1811 -0.00259346
1676 1811 -0.00149956
1677 1811 -0.00281415
1678 1811 -0.00348758
1682 1811 -0.000702388
1683 1811 -4.51749e-05
1684 1811 -0.000112679
1685 1811 -8.84735e-05
1686 1811 -0.00164151
1687 1811 -0.0016597
1688 1811 -0.000861665
1689 1811 -0.00342127
1690 1811 -0.00176658
1691 1811 -0.00145832
1692 1811 -0.000733053
1693 1811 -0.000677815
1694 1811 -0.00336142
1695 1811 -0.00279278
1700 1811 -0.00259346
1701 1811 -0.00151155
1702 1811 -0.00281415
1703 1811 -0.00149956
1704 1811 -0.0033716
1708 1811 -0.000702206
1709 1811 -4.52372e-05
1710 1811 -0.000112863
1711 1811 -8.86021e-05
1712 1811 -0.00164151
1713 1811 -0.0016597
1714 1811 -0.000861695
1715 1811 -0.00342127
1716 1811 -0.00176658
1717 1811 -0.00145832
1718 1811 -0.00212974
1719 1811 -0.000807367
1720 1811 -0.00368725
1721 1811 -0.000829364
1739 1811 -0.00259345
1740 1811 -0.00151154
1741 1811 -0.00281415
1742 1811 -0.00149956
1743 1811 -0.00337163
1747 1811 -0.000704101
1748 1811 -4.7008e-05
1749 1811 -8.59572e-05
1750 1811 -0.00079272
1751 1811 -0.00167991
1752 1811 -0.00175654
1753 1811 -0.00342007
1754 1811 -0.00176781
1755 1811 -0.00227588
1756 1811 -0.00213598
1757 1811 -0.0035051
1758 1811 -0.000823893
1759 1811 -0.0011237
1767 1811 -2.30893e-05
1768 1811 -3.55238e-08
1769 1811 -1.13708e-06
1770 1811 -2.51203e-05
1771 1811 -1.41576e-07
1772 1811 3.62187e-19
1773 1811 -1.92694e-08
1774 1811 -3.28101e-06
1775 1811 -2.46157e-05
1776 1811 -8.56649e-07
1777 1811 -5.88314e-06
1778 1811 -1.38311e-09
1779 1811 -2.56164e-05
1780 1811 -3.0829e-06
1781 1811 -2.56672e-06
1782 1811 -3.23798e-07
1784 1811 -1.28036e-05
1785 1811 -0.00150708
1787 1811 -2.51676e-05
1788 1811 -1.58594e-08
1789 1811 -1.25762e-07
1792 1811 -4.09212e-06
1793 1811 -2.44853e-11
1794 1811 -2.69464e-06
1795 1811 -2.45415e-05
1796 1811 -7.02393e-09
1797 1811 -2.1506e-08
1798 1811 -4.05627e-06
1799 1811 -2.51994e-05
1800 1811 -3.889e-08
1801 1811 -6.98333e-06
1802 1811 -0.00016578
1803 1811 -2.5191e-05
1804 1811 -0.000317314
1805 1811 -1.57169e-07
1806 1811 -7.12907e-07
1807 1811 -1.49607e-06
1808 1811 -0.0339571
1809 1811 -8.14186e-06
1810 1811 -4.17841e-07
1811 1811 1
1812 1811 1.37405
1814 1811 -0.538681
1812 1812 1
6 1813 -0.00180101
7 1813 -0.000605124
9 1813 -0.000605124
10 1813 -0.00180101
11 1813 -0.00220126
13 1813 -0.00577465
14 1813 -0.00147809
16 1813 -0.00180101
17 1813 -0.000605124
18 1813 -0.00220126
20 1813 -0.00577465
21 1813 -5.99167e-05
22 1813 -0.00185519
24 1813 -0.00141778
25 1813 -0.00156881
26 1813 -0.0017845
27 1813 -0.00177762
28 1813 -0.00667168
29 1813 -0.00220126
31 1813 -0.00625971
32 1813 -0.00225689
33 1813 -0.0017203
34 1813 -0.00156881
35 1813 -0.00177168
36 1813 -0.0031717
37 1813 -0.00542374
38 1813 -0.00765514
39 1813 -0.022556
40 1813 -0.00693881
41 1813 -0.00587459
42 1813 -0.00660384
43 1813 -0.00693881
45 1813 -0.00625971
47 1813 -0.00156881
48 1813 -0.00356927
49 1813 -0.0033567
50 1813 -0.00765514
52 1813 -0.00156881
53 1813 -0.00162537
54 1813 -0.00169579
55 1813 -0.00665058
56 1813 -0.00617519
57 1813 -0.00584696
58 1813 -0.0225133
63 1813 -0.00115283
64 1813 -0.00537258
65 1813 -0.00497664
68 1813 -0.00115283
69 1813 -0.00693881
71 1813 -0.00625971
73 1813 -0.00156881
74 1813 -0.00356927
75 1813 -0.0033567
76 1813 -0.00765514
78 1813 -0.00156881
79 1813 -0.00162537
80 1813 -0.00169579
81 1813 -0.00665058
82 1813 -0.00617519
83 1813 -0.00584696
84 1813 -0.0225133
85 1813 -0.00537258
86 1813 -0.00498637
93 1813 -0.00156881
94 1813 -0.00162537
95 1813 -0.00220126
97 1813 -0.00156881
98 1813 -0.00356927
99 1813 -0.0050733
100 1813 -0.00476142
102 1813 -0.00765514
103 1813 -0.00625971
104 1813 -0.00490002
106 1813 -0.00625971
107 1813 -0.00530078
108 1813 -0.0225222
109 1813 -0.00693881
110 1813 -0.00487914
111 1813 -0.00537717
112 1813 -0.00561218
113 1813 -0.00115283
115 1813 -0.00899029
116 1813 -0.00412761
117 1813 -0.00229327
120 1813 -0.00353541
121 1813 -0.00645833
122 1813 -0.00431274
123 1813 -0.0106625
124 1813 -0.00184494
125 1813 -0.00344891
126 1813 -0.00134306
127 1813 -0.00503119
128 1813 -0.00333421
129 1813 -0.00812951
130 1813 -0.0105005
131 1813 -0.00788052
132 1813 -0.00649571
133 1813 -0.000501701
134 1813 -0.00550678
135 1813 -0.00547492
136 1813 -0.000814035
137 1813 -0.000531457
138 1813 -9.61991e-05
139 1813 -3.36479e-05
140 1813 -0.00111516
141 1813 -0.00156594
142 1813 -0.000634097
143 1813 -0.00229327
146 1813 -0.00645833
147 1813 -0.00353541
148 1813 -0.00431274
149 1813 -0.0106625
150 1813 -0.00184494
151 1813 -0.00344891
152 1813 -0.00134306
153 1813 -0.00503119
154 1813 -0.00333421
155 1813 -0.00812951
156 1813 -0.0105005
157 1813 -0.00788052
158 1813 -0.00649571
159 1813 -0.000501701
160 1813 -0.00550678
161 1813 -0.00547492
162 1813 -0.000814035
163 1813 -0.000531457
164 1813 -9.61991e-05
165 1813 -3.36479e-05
166 1813 -0.00148067
167 1813 -0.00138695
168 1813 -0.000634097
174 1813 -0.00310676
175 1813 -0.00739212
176 1813 -0.00134306
177 1813 -0.00229327
180 1813 -0.00353541
181 1813 -0.00645833
182 1813 -0.00431274
183 1813 -0.0106625
184 1813 -0.00184494
185 1813 -0.00344891
186 1813 -0.0096763
187 1813 -0.00779547
188 1813 -0.0072129
189 1813 -0.00649571
190 1813 -0.00547558
191 1813 -0.000690201
192 1813 -0.00547492
193 1813 -6.07974e-05
194 1813 -0.000506903
195 1813 -0.000846294
196 1813 -3.36479e-05
197 1813 -0.00148067
198 1813 -0.00138695
199 1813 -0.000634097
200 1813 -0.00310676
201 1813 -0.00134306
202 1813 -0.00229327
205 1813 -0.00645833
206 1813 -0.00353541
207 1813 -0.00431274
208 1813 -0.0106625
209 1813 -0.00184494
210 1813 -0.00344891
211 1813 -0.0096763
212 1813 -0.00779547
213 1813 -0.00551081
214 1813 -0.00726357
215 1813 -0.000501701
216 1813 -0.00550416
217 1813 -0.00546051
218 1813 -6.07448e-05
219 1813 -0.000506899
220 1813 -0.000845722
221 1813 -3.36463e-05
222 1813 -0.00111516
223 1813 -0.00156594
224 1813 -0.00063402
226 1813 -0.000605124
227 1813 -0.00180101
229 1813 -0.00920291
230 1813 -0.00101764
231 1813 -0.00960312
232 1813 -0.0168232
233 1813 -0.00192035
234 1813 -0.00466556
235 1813 -0.00220126
237 1813 -0.000605124
238 1813 -0.00180101
240 1813 -0.00577465
241 1813 -1.56192e-11
242 1813 -0.00229327
245 1813 -0.00353541
246 1813 -0.00645833
247 1813 -0.00431274
248 1813 -0.0106625
249 1813 -0.00184494
250 1813 -0.00344891
251 1813 -0.00134306
252 1813 -0.00503119
253 1813 -0.00333421
254 1813 -0.00812951
255 1813 -0.0105005
256 1813 -0.00788052
257 1813 -0.00649571
258 1813 -0.000501701
259 1813 -0.00550678
260 1813 -0.00547492
261 1813 -6.07974e-05
262 1813 -0.000506903
263 1813 -0.000846294
264 1813 -3.36479e-05
265 1813 -0.00148067
266 1813 -0.00138695
267 1813 -0.000634097
273 1813 -0.00229327
276 1813 -0.00353541
277 1813 -0.00645833
278 1813 -0.00431274
279 1813 -0.0106625
280 1813 -0.00184494
281 1813 -0.00344891
282 1813 -0.00134306
283 1813 -0.00503119
284 1813 -0.00333421
285 1813 -0.00812951
286 1813 -0.0105005
287 1813 -0.00788052
288 1813 -0.00649571
289 1813 -0.000501701
290 1813 -0.00550678
291 1813 -0.00547492
292 1813 -0.000814035
293 1813 -0.000531457
294 1813 -9.61991e-05
295 1813 -3.36479e-05
296 1813 -0.00111516
297 1813 -0.00156594
298 1813 -0.000634097
299 1813 -0.00229327
302 1813 -0.00353541
303 1813 -0.00645833
304 1813 -0.00431274
305 1813 -0.0106625
306 1813 -0.00184494
307 1813 -0.00344891
308 1813 -0.00134306
309 1813 -0.00503119
310 1813 -0.00333421
311 1813 -0.00812951
312 1813 -0.0105005
313 1813 -0.00788052
314 1813 -0.00649571
315 1813 -0.000501701
316 1813 -0.00550678
317 1813 -0.00547492
318 1813 -6.07974e-05
319 1813 -0.000506903
320 1813 -0.000846294
321 1813 -3.36479e-05
322 1813 -0.00148067
323 1813 -0.00138695
324 1813 -0.000634097
326 1813 -0.00180101
327 1813 -0.000605124
329 1813 -0.00920291
330 1813 -0.00101764
331 1813 -0.00134306
332 1813 -0.00503119
333 1813 -0.00333421
334 1813 -0.00229327
337 1813 -0.00353541
338 1813 -0.00645833
339 1813 -0.00431274
340 1813 -0.0106625
341 1813 -0.00184494
342 1813 -0.00344891
343 1813 -0.0103831
344 1813 -0.00786994
345 1813 -0.00637493
346 1813 -0.00547295
347 1813 -0.00069011
348 1813 -0.00546051
349 1813 -6.07448e-05
350 1813 -0.000506899
351 1813 -0.000845722
352 1813 -3.36463e-05
353 1813 -0.00111516
354 1813 -0.00156594
355 1813 -0.00063402
356 1813 -0.00960311
357 1813 -0.0168232
358 1813 -0.00192035
360 1813 -0.000605124
361 1813 -0.00180101
363 1813 -0.00180101
364 1813 -0.000605124
365 1813 -0.00219186
367 1813 -0.00577372
369 1813 -0.000476653
370 1813 -0.00637843
372 1813 -0.0126231
373 1813 -0.0069388
374 1813 -0.00255475
375 1813 -0.00587596
376 1813 -0.0329127
377 1813 -0.00693881
378 1813 -0.00731905
382 1813 -0.00156881
383 1813 -0.00162537
384 1813 -0.0016958
385 1813 -0.00665058
386 1813 -0.00220126
388 1813 -0.00625971
390 1813 -0.00156881
391 1813 -0.00356927
392 1813 -0.0033567
393 1813 -0.00545913
394 1813 -0.0126231
395 1813 -0.0329537
396 1813 -0.00693881
397 1813 -0.00591638
398 1813 -0.00658715
399 1813 -0.00475095
400 1813 -0.0043481
401 1813 -0.00593714
406 1813 -0.00693881
408 1813 -0.00625971
410 1813 -0.00156881
411 1813 -0.00356927
412 1813 -0.0033567
413 1813 -0.0126231
415 1813 -0.00156881
416 1813 -0.00162537
417 1813 -0.0016958
418 1813 -0.00665058
419 1813 -0.00617519
420 1813 -0.00584696
421 1813 -0.0329109
422 1813 -0.00537271
423 1813 -0.00499119
430 1813 -0.00156881
431 1813 -0.00162537
432 1813 -0.00220126
434 1813 -0.00156881
435 1813 -0.00356927
436 1813 -0.0050733
438 1813 -0.0126231
439 1813 -0.00625971
440 1813 -0.00490002
442 1813 -0.00625971
443 1813 -0.00530077
444 1813 -0.0329198
445 1813 -0.00693881
446 1813 -0.00487992
447 1813 -0.0052257
448 1813 -0.0054715
449 1813 -0.00505746
450 1813 -0.011334
451 1813 -0.0122784
452 1813 -0.0183768
453 1813 -0.00598066
454 1813 -0.0169588
455 1813 -0.0137642
456 1813 -0.008254
457 1813 -0.00215034
458 1813 -0.00135657
459 1813 -0.0020107
460 1813 -0.000668614
462 1813 -0.00899029
463 1813 -0.00413224
464 1813 -0.00243936
465 1813 -0.0024356
466 1813 -0.00111516
467 1813 -0.000449453
468 1813 -0.000606066
470 1813 -0.00180101
471 1813 -0.00372987
472 1813 -0.00899029
473 1813 -0.00484017
474 1813 -0.00135657
475 1813 -0.000622361
476 1813 -0.0107183
477 1813 -0.00976701
478 1813 -0.00976227
479 1813 -0.00309522
480 1813 -0.0140286
481 1813 -0.00636981
482 1813 -0.0144879
485 1813 -0.00353541
486 1813 -0.00645833
487 1813 -0.00431274
488 1813 -0.00134306
489 1813 -0.0097206
490 1813 -0.00647285
491 1813 -0.00711651
492 1813 -0.00217591
493 1813 -0.00486753
494 1813 -0.000501701
495 1813 -0.0053565
496 1813 -0.00526247
497 1813 -0.000791227
498 1813 -0.000530623
499 1813 -9.50588e-05
500 1813 -0.00355703
501 1813 -3.35931e-05
502 1813 -0.00111516
503 1813 -0.00156593
504 1813 -0.000631227
505 1813 -0.00229327
507 1813 -0.00695945
508 1813 -0.0048898
509 1813 -0.00069128
513 1813 -0.000605124
514 1813 -9.0446e-05
515 1813 -0.00163462
516 1813 -0.00303316
517 1813 -0.0136351
518 1813 -0.029566
520 1813 -0.00180101
521 1813 -0.000605124
522 1813 -0.0126231
523 1813 -0.0301455
524 1813 -0.00489555
525 1813 -0.00203763
526 1813 -0.00363056
527 1813 -0.00586178
528 1813 -0.00312708
530 1813 -0.00180101
531 1813 -0.000605124
533 1813 -0.00587965
534 1813 -0.00219186
535 1813 -0.00156881
536 1813 -0.00162528
537 1813 -0.0126231
538 1813 -0.0301455
539 1813 -0.00489555
540 1813 -0.00492623
541 1813 -0.00476656
543 1813 -0.00156881
544 1813 -0.00356882
545 1813 -0.00509974
546 1813 -0.00630664
549 1813 -0.00508326
550 1813 -0.00474081
551 1813 -0.00594224
552 1813 -0.0126231
553 1813 -0.0301455
554 1813 -0.00489555
555 1813 -0.00492623
556 1813 -0.00219186
557 1813 -0.00156881
558 1813 -0.00162528
560 1813 -0.00156881
561 1813 -0.00356882
562 1813 -0.00571353
563 1813 -0.00501998
564 1813 -0.00536424
569 1813 -0.00605323
570 1813 -0.00570839
573 1813 -0.00180101
574 1813 -0.000605124
575 1813 -0.0126231
576 1813 -0.0301455
577 1813 -0.00492623
578 1813 -0.00489555
579 1813 -0.00219186
580 1813 -0.00156881
581 1813 -0.00162528
583 1813 -0.00156881
584 1813 -0.00356882
585 1813 -0.00571353
586 1813 -0.00501998
587 1813 -0.00536424
588 1813 -0.0058764
591 1813 -0.00353541
592 1813 -0.00645833
593 1813 -0.00431274
594 1813 -0.00134306
595 1813 -0.0097206
596 1813 -0.00647285
597 1813 -0.00464997
598 1813 -0.00195295
599 1813 -0.007284
600 1813 -0.00853228
601 1813 -0.000501701
602 1813 -0.00497345
603 1813 -0.00599699
604 1813 -0.000806821
605 1813 -0.000531193
606 1813 -9.58191e-05
607 1813 -0.00356831
608 1813 -3.36328e-05
609 1813 -0.00148066
610 1813 -0.00138695
611 1813 -0.000633316
614 1813 -0.00353541
615 1813 -0.00645833
616 1813 -0.00431274
617 1813 -0.00134306
618 1813 -0.0097206
619 1813 -0.00647285
620 1813 -0.00711651
621 1813 -0.00217591
622 1813 -0.0078357
623 1813 -0.00589074
624 1813 -0.000501701
625 1813 -0.00545912
626 1813 -0.00540047
627 1813 -0.000806821
628 1813 -0.000531193
629 1813 -9.58191e-05
630 1813 -0.00356831
631 1813 -3.36328e-05
632 1813 -0.00111516
633 1813 -0.00156594
634 1813 -0.000633316
643 1813 -0.00645833
644 1813 -0.00353541
645 1813 -0.00431274
646 1813 -0.00134306
647 1813 -0.0097206
648 1813 -0.00647285
649 1813 -0.00464997
650 1813 -0.00195295
651 1813 -0.00787026
652 1813 -0.00778305
653 1813 -0.000501701
654 1813 -0.00497345
655 1813 -0.00599699
656 1813 -0.000806821
657 1813 -0.000531193
658 1813 -9.58191e-05
659 1813 -0.00356831
660 1813 -3.36328e-05
661 1813 -0.00111516
662 1813 -0.00156594
663 1813 -0.000633316
665 1813 -0.000605124
666 1813 -0.00180101
675 1813 -0.0107097
676 1813 -0.00752612
677 1813 -0.00740999
678 1813 -0.00610012
679 1813 -0.00723326
680 1813 -0.00570416
681 1813 -0.00765976
682 1813 -0.0121993
683 1813 -0.0121599
684 1813 -0.00205081
685 1813 -0.0141427
686 1813 -0.0175538
688 1813 -0.000605126
689 1813 -0.00135002
691 1813 -0.00425438
692 1813 -0.000143521
695 1813 -0.00353541
696 1813 -0.00645833
697 1813 -0.00432683
698 1813 -0.00134306
699 1813 -0.00888542
700 1813 -0.00641595
701 1813 -0.00624506
702 1813 -0.00215137
703 1813 -0.00777595
704 1813 -0.0057888
705 1813 -0.000501701
706 1813 -0.00537781
707 1813 -0.00501607
708 1813 -0.000793789
709 1813 -0.000530718
710 1813 -9.48392e-05
711 1813 -0.00319526
712 1813 -3.35978e-05
713 1813 -0.00111257
714 1813 -0.00132871
715 1813 -0.000565079
716 1813 -0.0111351
718 1813 -0.00899427
719 1813 -0.00413129
722 1813 -0.00353541
723 1813 -0.00645833
724 1813 -0.00431274
725 1813 -0.00134306
726 1813 -0.0097206
727 1813 -0.00647285
728 1813 -0.00720318
729 1813 -0.00184494
730 1813 -0.00763986
731 1813 -0.00589074
732 1813 -0.000501701
733 1813 -0.00545912
734 1813 -0.00540047
735 1813 -0.000806821
736 1813 -0.000531193
737 1813 -9.58191e-05
738 1813 -0.00356831
739 1813 -3.36328e-05
740 1813 -0.00111516
741 1813 -0.00156594
742 1813 -0.000633316
745 1813 -0.00353541
746 1813 -0.00645833
747 1813 -0.00431274
748 1813 -0.00134306
749 1813 -0.0097206
750 1813 -0.00647285
751 1813 -0.00720318
752 1813 -0.00184494
753 1813 -0.00763986
754 1813 -0.00589074
755 1813 -0.00542791
756 1813 -0.000688562
757 1813 -0.00540047
758 1813 -0.000806821
759 1813 -0.000531193
760 1813 -9.58191e-05
761 1813 -0.00356831
762 1813 -3.36328e-05
763 1813 -0.00148066
764 1813 -0.00138695
765 1813 -0.000633316
767 1813 -0.000605124
768 1813 -0.00180101
773 1813 -0.00628256
774 1813 -0.0114505
780 1813 -0.00645833
781 1813 -0.00353541
782 1813 -0.00431274
783 1813 -0.00134306
784 1813 -0.0097206
785 1813 -0.00649189
786 1813 -0.00465222
787 1813 -0.001953
788 1813 -0.00728423
789 1813 -0.00853268
790 1813 -0.000501701
791 1813 -0.00497371
792 1813 -0.00599707
793 1813 -0.000806831
794 1813 -0.000531194
795 1813 -9.58201e-05
796 1813 -0.00356832
797 1813 -0.000143783
798 1813 -0.00149077
799 1813 -0.00144667
800 1813 -0.00015513
803 1813 -0.00645833
804 1813 -0.00353541
805 1813 -0.00431274
806 1813 -0.00134306
807 1813 -0.0097206
808 1813 -0.00647285
809 1813 -0.00464997
810 1813 -0.00195295
811 1813 -0.007284
812 1813 -0.00853228
813 1813 -0.00494224
814 1813 -0.000738367
815 1813 -0.00599699
816 1813 -6.04532e-05
817 1813 -0.000506874
818 1813 -0.000839077
819 1813 -0.00356831
820 1813 -3.36328e-05
821 1813 -0.00111516
822 1813 -0.00156594
823 1813 -0.000633316
825 1813 -0.00180101
826 1813 -0.000605124
828 1813 -0.00180101
829 1813 -0.000605124
830 1813 -0.00219186
832 1813 -0.00156881
833 1813 -0.00356882
834 1813 -0.00156881
835 1813 -0.00162528
836 1813 -0.0137281
837 1813 -0.0323742
838 1813 -0.00529275
839 1813 -0.00492623
840 1813 -0.00477392
841 1813 -0.00503528
842 1813 -0.00632627
847 1813 -0.00608343
848 1813 -0.00571244
850 1813 -0.000605124
851 1813 -0.00134999
853 1813 -0.00147809
855 1813 -6.38188e-05
856 1813 -0.00115283
857 1813 -0.0137281
858 1813 -0.0323742
859 1813 -0.00529275
860 1813 -0.00203763
861 1813 -0.00365821
862 1813 -0.00590225
863 1813 -0.00313577
866 1813 -0.0137281
867 1813 -0.0323742
868 1813 -0.00529275
869 1813 -0.00492623
870 1813 -0.00219186
871 1813 -0.00156881
872 1813 -0.00162528
874 1813 -0.00156881
875 1813 -0.00356882
876 1813 -0.00571371
877 1813 -0.00502312
878 1813 -0.00529391
879 1813 -0.00511346
880 1813 -0.00474499
881 1813 -0.0058562
882 1813 -0.00610714
883 1813 -0.00219186
884 1813 -0.00156881
885 1813 -0.00162528
886 1813 -0.0137281
887 1813 -0.0323742
888 1813 -0.00529275
889 1813 -0.00492623
890 1813 -0.00477392
892 1813 -0.00156881
893 1813 -0.00356882
894 1813 -0.00503528
895 1813 -0.00632627
902 1813 -0.00608343
903 1813 -0.00570608
904 1813 -0.0060948
905 1813 -0.0126473
906 1813 -0.0156957
907 1813 -0.0111261
908 1813 -0.0111734
909 1813 -0.00900562
910 1813 -0.00733597
911 1813 -0.0112731
912 1813 -0.00897616
913 1813 -0.00390227
915 1813 -0.00899029
916 1813 -0.00412715
917 1813 -0.000593502
918 1813 -0.00140492
919 1813 -0.000731705
920 1813 -0.00633126
921 1813 -0.00163228
922 1813 -0.00135657
923 1813 -0.000622361
925 1813 -0.00899029
926 1813 -0.00412715
929 1813 -0.00353541
930 1813 -0.00645833
931 1813 -0.00431274
932 1813 -0.00134306
933 1813 -0.0097206
934 1813 -0.00647285
935 1813 -0.00464997
936 1813 -0.00195295
937 1813 -0.007284
938 1813 -0.00853228
939 1813 -0.00494224
940 1813 -0.000738367
941 1813 -0.00599699
942 1813 -6.04532e-05
943 1813 -0.000506874
944 1813 -0.000839077
945 1813 -0.00356831
946 1813 -3.36328e-05
947 1813 -0.00148066
948 1813 -0.00138695
949 1813 -0.000633316
953 1813 -0.000605124
954 1813 -0.00180101
957 1813 -0.00353541
958 1813 -0.00645833
959 1813 -0.00431274
960 1813 -0.00134306
961 1813 -0.0097206
962 1813 -0.00647285
963 1813 -0.00720318
964 1813 -0.00184494
965 1813 -0.00563677
966 1813 -0.00778305
967 1813 -0.000501701
968 1813 -0.00497345
969 1813 -0.00599699
970 1813 -0.000806821
971 1813 -0.000531193
972 1813 -9.58191e-05
973 1813 -0.00356831
974 1813 -3.36328e-05
975 1813 -0.00148066
976 1813 -0.00138695
977 1813 -0.000633316
978 1813 -0.0107097
979 1813 -0.00750601
987 1813 -0.00353541
988 1813 -0.00645833
989 1813 -0.00431274
990 1813 -0.00134306
991 1813 -0.0097206
992 1813 -0.00647285
993 1813 -0.00711651
994 1813 -0.00217591
995 1813 -0.0078357
996 1813 -0.00589074
997 1813 -0.000501701
998 1813 -0.00545912
999 1813 -0.00540047
1000 1813 -0.000806821
1001 1813 -0.000531193
1002 1813 -9.58191e-05
1003 1813 -0.00356831
1004 1813 -3.36328e-05
1005 1813 -0.00148066
1006 1813 -0.00138695
1007 1813 -0.000633316
1010 1813 -0.00353541
1011 1813 -0.00645833
1012 1813 -0.00431274
1013 1813 -0.00134306
1014 1813 -0.0097206
1015 1813 -0.00647285
1016 1813 -0.00720318
1017 1813 -0.00184494
1018 1813 -0.00763986
1019 1813 -0.00589074
1020 1813 -0.000501701
1021 1813 -0.00545912
1022 1813 -0.00540047
1023 1813 -0.000806821
1024 1813 -0.000531193
1025 1813 -9.58191e-05
1026 1813 -0.00356831
1027 1813 -0.000143781
1028 1813 -0.00149077
1029 1813 -0.00144667
1030 1813 -0.00015513
1032 1813 -0.00180101
1033 1813 -0.000605124
1035 1813 -0.00180101
1036 1813 -0.000605124
1037 1813 -0.0137281
1038 1813 -0.0323742
1039 1813 -0.00492623
1040 1813 -0.00489442
1041 1813 -0.00219186
1042 1813 -0.00156881
1043 1813 -0.00162528
1045 1813 -0.00156881
1046 1813 -0.00356882
1047 1813 -0.00571353
1048 1813 -0.00501971
1049 1813 -0.00536423
1054 1813 -0.00605322
1055 1813 -0.00570839
1057 1813 -0.00147809
1059 1813 -6.38188e-05
1060 1813 -0.00115283
1062 1813 -0.000605124
1063 1813 -0.00180101
1064 1813 -0.0137281
1065 1813 -0.0323742
1066 1813 -0.00489442
1067 1813 -0.00203763
1068 1813 -0.0036303
1069 1813 -0.00588292
1070 1813 -0.00313229
1071 1813 -0.00219186
1073 1813 -0.00156881
1074 1813 -0.00356882
1075 1813 -0.00156881
1076 1813 -0.00162528
1077 1813 -0.0137281
1078 1813 -0.0323742
1079 1813 -0.00492623
1080 1813 -0.00489442
1081 1813 -0.0047663
1082 1813 -0.00509974
1083 1813 -0.00630662
1086 1813 -0.00508326
1087 1813 -0.00474081
1088 1813 -0.00588022
1089 1813 -0.00610429
1090 1813 -0.00219186
1092 1813 -0.00156881
1093 1813 -0.00356882
1094 1813 -0.00156881
1095 1813 -0.00162528
1096 1813 -0.0137281
1097 1813 -0.0323742
1098 1813 -0.00492623
1099 1813 -0.00489442
1100 1813 -0.0047663
1101 1813 -0.00509974
1102 1813 -0.00630662
1109 1813 -0.00605322
1110 1813 -0.005702
1111 1813 -0.00609444
1112 1813 -0.0111847
1113 1813 -0.0118958
1114 1813 -0.011208
1115 1813 -0.00910781
1116 1813 -0.00760695
1117 1813 -0.00732511
1118 1813 -0.0121294
1119 1813 -0.00375704
1120 1813 -0.0055107
1121 1813 -0.0110579
1122 1813 -0.019162
1123 1813 -0.00579521
1124 1813 -0.013098
1125 1813 -0.0105325
1126 1813 -0.0103841
1127 1813 -0.00229362
1128 1813 -0.00955556
1131 1813 -0.00353541
1132 1813 -0.00645833
1133 1813 -0.00434297
1134 1813 -0.0129915
1135 1813 -0.00247526
1136 1813 -0.00511163
1137 1813 -0.00134224
1138 1813 -0.00935421
1139 1813 -0.00812919
1140 1813 -0.00615985
1141 1813 -0.00310887
1142 1813 -0.00749769
1143 1813 -0.00965572
1144 1813 -0.00147553
1145 1813 -0.0058491
1146 1813 -0.00542152
1147 1813 -0.00118714
1148 1813 -0.00054644
1149 1813 -0.000355028
1150 1813 -0.00020158
1151 1813 -0.00114303
1152 1813 -0.000551615
1153 1813 -6.83525e-05
1154 1813 -0.000501701
1155 1813 -3.27798e-05
1156 1813 -0.000502874
1157 1813 -6.42771e-05
1158 1813 -3.32928e-05
1159 1813 -0.00111255
1160 1813 -0.0013287
1161 1813 -0.000464667
1162 1813 -0.00307016
1163 1813 -0.00272726
1164 1813 -0.00134306
1165 1813 -0.00540182
1167 1813 -0.00353541
1168 1813 -0.00338772
1171 1813 -0.00400292
1172 1813 -0.00353541
1173 1813 -0.00540644
1175 1813 -0.00400292
1176 1813 -0.00406078
1177 1813 -0.0104013
1178 1813 -0.00642446
1179 1813 -0.0049001
1180 1813 -0.00531257
1181 1813 -0.00490754
1182 1813 -0.00247835
1183 1813 -0.00540938
1184 1813 -0.00623446
1185 1813 -0.00302775
1186 1813 -0.0036106
1187 1813 -0.00827537
1188 1813 -0.00650435
1189 1813 -0.001117
1190 1813 -0.000536722
1191 1813 -3.514e-05
1192 1813 -0.00050425
1193 1813 -0.000227132
1194 1813 -3.1296e-05
1195 1813 -0.00111615
1196 1813 -0.000268696
1197 1813 -0.00468602
1198 1813 -0.00607794
1200 1813 -0.00492877
1202 1813 -0.00916189
1203 1813 -0.00622935
1204 1813 -0.0101815
1205 1813 -0.00748211
1207 1813 -0.00110985
1208 1813 -0.000108753
1209 1813 -0.000510211
1210 1813 -0.00341347
1211 1813 -0.000247956
1212 1813 -0.00358566
1213 1813 -0.00632387
1214 1813 -0.00340441
1215 1813 -0.00259704
1216 1813 -0.00510067
1217 1813 -0.0082091
1218 1813 -0.00689743
1219 1813 -0.000501718
1220 1813 -0.00483123
1221 1813 -0.00585234
1222 1813 -0.00103797
1223 1813 -0.000188277
1225 1813 -0.000738515
1227 1813 -1.37379e-08
1228 1813 4.01501e-28
1230 1813 -0.000606055
1231 1813 -0.00130606
1233 1813 -0.0137281
1234 1813 -0.033728
1235 1813 -0.00637281
1236 1813 -0.00529095
1237 1813 -0.0015688
1238 1813 -0.0047734
1239 1813 -0.0024029
1240 1813 -0.0015688
1241 1813 -0.00460584
1242 1813 -0.00430483
1243 1813 -0.00516131
1244 1813 -0.00304629
1245 1813 -0.000232449
1247 1813 -0.00065745
1248 1813 -1.89886e-23
1249 1813 -0.00631514
1250 1813 -0.00573711
1252 1813 -0.00163119
1253 1813 -0.000808734
1254 1813 -0.00135528
1255 1813 -0.000622391
1256 1813 -0.0322992
1257 1813 -0.044368
1258 1813 -0.00529041
1259 1813 -0.00443332
1260 1813 -0.0039002
1261 1813 -0.00558959
1262 1813 -0.00305439
1263 1813 -0.00119699
1264 1813 -0.00190556
1265 1813 -0.00230862
1266 1813 -0.00720179
1267 1813 -0.000378293
1268 1813 -0.00148036
1270 1813 -6.01087e-05
1271 1813 -0.00230987
1273 1813 -0.0323004
1274 1813 -0.0443687
1275 1813 -0.00259472
1276 1813 -0.00473589
1277 1813 -0.00359119
1278 1813 -0.0056693
1279 1813 -0.00489608
1280 1813 -0.00109881
1281 1813 -0.00376731
1282 1813 -0.00582178
1283 1813 -0.00556425
1284 1813 -0.00543181
1285 1813 -0.00487565
1286 1813 -0.000442281
1287 1813 -0.000232449
1288 1813 -0.00113166
1289 1813 -0.00808025
1290 1813 -0.00401109
1294 1813 -0.0137281
1295 1813 -0.033728
1296 1813 -0.00637281
1297 1813 -0.00460356
1298 1813 -0.00156881
1299 1813 -0.00467828
1300 1813 -0.00239025
1301 1813 -0.00156881
1302 1813 -0.00460586
1303 1813 -0.00430423
1304 1813 -0.00579689
1305 1813 -0.00310819
1306 1813 -0.000232449
1308 1813 -0.000872078
1309 1813 -0.00577592
1310 1813 -0.0058024
1311 1813 -2.91502e-23
1312 1813 -0.00618216
1313 1813 -0.012854
1314 1813 -0.00738062
1315 1813 -0.0102374
1316 1813 -0.00837084
1317 1813 -0.00810997
1318 1813 -0.00155009
1319 1813 -0.00554031
1320 1813 -0.00689823
1321 1813 -0.00913122
1322 1813 -0.0097579
1323 1813 -0.0101722
1324 1813 -0.0121738
1325 1813 -0.000538687
1326 1813 -0.0184856
1327 1813 -0.00944901
1328 1813 -0.016005
1329 1813 -0.0192509
1330 1813 -0.0136808
1331 1813 -0.008765
1333 1813 -0.00180126
1334 1813 -0.000605123
1337 1813 -0.00115278
1338 1813 -0.00220125
1340 1813 -0.00156881
1341 1813 -0.00162528
1342 1813 -0.0016853
1343 1813 -0.00664774
1345 1813 -0.00625971
1347 1813 -0.00156881
1348 1813 -0.00356928
1349 1813 -0.00334464
1350 1813 -0.00546162
1351 1813 -0.00765514
1352 1813 -0.022556
1353 1813 -0.00693881
1354 1813 -0.00591215
1355 1813 -0.00656752
1356 1813 -0.00606325
1357 1813 -0.0050317
1358 1813 -0.00693881
1360 1813 -0.00625971
1361 1813 -0.00156881
1362 1813 -0.00137385
1363 1813 -0.00225689
1364 1813 -0.00190054
1365 1813 -0.0031717
1366 1813 -0.00765514
1368 1813 -0.00122532
1369 1813 -0.00156881
1370 1813 -0.00174291
1371 1813 -0.00177049
1372 1813 -0.00667004
1373 1813 -0.0062015
1374 1813 -0.0058011
1375 1813 -0.0225131
1376 1813 -0.00135657
1377 1813 -0.000622361
1379 1813 -0.00899029
1380 1813 -0.0041327
1381 1813 -0.00135656
1382 1813 -0.000622361
1384 1813 -0.00899063
1385 1813 -0.00413258
1386 1813 -0.00623156
1387 1813 -0.00644236
1388 1813 -0.0014781
1390 1813 -5.99189e-05
1392 1813 -0.000605122
1393 1813 -0.00180102
1394 1813 -0.00220126
1396 1813 -0.00576707
1397 1813 -0.00107957
1398 1813 -0.00822661
1400 1813 -0.000605124
1401 1813 -0.00180101
1402 1813 -0.00219186
1404 1813 -0.000476646
1405 1813 -0.00637843
1407 1813 -0.00765514
1408 1813 -0.0069388
1409 1813 -0.00255475
1410 1813 -0.00587596
1411 1813 -0.022515
1412 1813 -0.00723841
1413 1813 -0.00693881
1415 1813 -0.000605124
1416 1813 -0.00180101
1417 1813 -0.00220126
1419 1813 -0.00577465
1422 1813 -0.00150401
1425 1813 -0.00693881
1427 1813 -0.00625971
1429 1813 -0.00156881
1430 1813 -0.00356927
1431 1813 -0.0033567
1432 1813 -0.00765514
1434 1813 -0.00156881
1435 1813 -0.00162537
1436 1813 -0.00169579
1437 1813 -0.00665058
1438 1813 -0.00617519
1439 1813 -0.00584696
1440 1813 -0.0225133
1441 1813 -0.0041528
1442 1813 -0.00478525
1444 1813 -0.00765514
1445 1813 -0.00625971
1446 1813 -0.00490002
1448 1813 -0.00625971
1449 1813 -0.00530078
1450 1813 -0.0225222
1451 1813 -0.00693881
1452 1813 -0.00220126
1453 1813 -0.00156881
1454 1813 -0.00162537
1456 1813 -0.00156881
1457 1813 -0.00356927
1458 1813 -0.0050733
1463 1813 -0.00522519
1464 1813 -0.00487491
1465 1813 -0.00500999
1466 1813 -0.00543283
1467 1813 -0.00220126
1468 1813 -0.00156881
1469 1813 -0.00162537
1471 1813 -0.00156881
1472 1813 -0.00356927
1473 1813 -0.0050733
1475 1813 -0.00765514
1476 1813 -0.00625971
1477 1813 -0.00490002
1479 1813 -0.00625971
1480 1813 -0.00530078
1481 1813 -0.0225222
1482 1813 -0.00693881
1483 1813 -0.00487572
1484 1813 -0.00522569
1492 1813 -0.000605124
1493 1813 -0.00180101
1494 1813 -0.00229327
1497 1813 -0.00353541
1498 1813 -0.00645833
1499 1813 -0.00431274
1500 1813 -0.0106625
1501 1813 -0.00184494
1502 1813 -0.00344891
1503 1813 -0.00134306
1504 1813 -0.00503119
1505 1813 -0.00333421
1506 1813 -0.00812951
1507 1813 -0.0105005
1508 1813 -0.00623829
1509 1813 -0.00803672
1510 1813 -0.000501701
1511 1813 -0.00504423
1512 1813 -0.00605226
1513 1813 -6.07974e-05
1514 1813 -0.000506903
1515 1813 -0.000846294
1516 1813 -3.36479e-05
1517 1813 -0.00148067
1518 1813 -0.00138695
1519 1813 -0.000634097
1520 1813 -0.00229327
1523 1813 -0.00353541
1524 1813 -0.00645833
1525 1813 -0.00431274
1526 1813 -0.0106625
1527 1813 -0.00184494
1528 1813 -0.00344891
1529 1813 -0.00134306
1530 1813 -0.00503119
1531 1813 -0.00333421
1532 1813 -0.00812951
1533 1813 -0.0105005
1534 1813 -0.00623829
1535 1813 -0.00803672
1536 1813 -0.000501701
1537 1813 -0.00504423
1538 1813 -0.00605226
1539 1813 -0.000814035
1540 1813 -0.000531457
1541 1813 -9.61991e-05
1542 1813 -3.36479e-05
1543 1813 -0.00148067
1544 1813 -0.00138695
1545 1813 -0.000634097
1551 1813 -0.00229327
1554 1813 -0.00353541
1555 1813 -0.00645833
1556 1813 -0.00431274
1557 1813 -0.0106625
1558 1813 -0.00184494
1559 1813 -0.00344891
1560 1813 -0.00134306
1561 1813 -0.00503119
1562 1813 -0.00333421
1563 1813 -0.00812951
1564 1813 -0.0105005
1565 1813 -0.00788052
1566 1813 -0.00649571
1567 1813 -0.000501701
1568 1813 -0.00550678
1569 1813 -0.00547492
1570 1813 -0.000814035
1571 1813 -0.000531457
1572 1813 -9.61991e-05
1573 1813 -3.36479e-05
1574 1813 -0.00111516
1575 1813 -0.00156594
1576 1813 -0.000634097
1578 1813 -0.00134999
1579 1813 -0.000605124
1581 1813 -0.00814466
1582 1813 -0.000926406
1583 1813 -0.00310676
1584 1813 -0.00134306
1585 1813 -0.0022936
1588 1813 -0.00353541
1589 1813 -0.00645833
1590 1813 -0.00431277
1591 1813 -0.0106637
1592 1813 -0.00184494
1593 1813 -0.00308082
1594 1813 -0.00967597
1595 1813 -0.00695372
1596 1813 -0.00641823
1597 1813 -0.00653542
1598 1813 -0.000501701
1599 1813 -0.00543045
1600 1813 -0.00508655
1601 1813 -0.000801505
1602 1813 -0.000531
1603 1813 -9.52147e-05
1604 1813 -3.36141e-05
1605 1813 -0.00111516
1606 1813 -0.00119785
1607 1813 -0.000565932
1608 1813 -0.00928092
1609 1813 -0.0166528
1610 1813 -0.00184247
1611 1813 -0.0112337
1612 1813 -0.0169496
1613 1813 -0.00556616
1614 1813 -0.00505946
1615 1813 -0.00599058
1616 1813 -0.00597067
1617 1813 -0.0080822
1618 1813 -0.0121545
1619 1813 -0.0118452
1620 1813 -0.0185932
1621 1813 -0.00834764
1622 1813 -0.00683449
1623 1813 -0.00765259
1624 1813 -0.00578858
1625 1813 -0.00605593
1627 1813 -0.00765514
1628 1813 -0.00625974
1629 1813 -0.00490014
1631 1813 -0.00625974
1632 1813 -0.00530082
1633 1813 -0.022808
1634 1813 -0.00326456
1639 1813 -0.00156888
1640 1813 -0.00162538
1641 1813 -0.00212258
1643 1813 -0.00156888
1644 1813 -0.00356937
1645 1813 -0.00511655
1646 1813 -0.00474654
1647 1813 -0.00534289
1648 1813 -0.00115274
1649 1813 -0.00501062
1650 1813 -0.00553693
1651 1813 -0.0035911
1652 1813 -0.00203672
1653 1813 -0.00223876
1655 1813 -0.0035911
1656 1813 -0.0039807
1657 1813 -0.00518926
1659 1813 -0.0232074
1660 1813 -0.00565894
1661 1813 -0.00226571
1663 1813 -0.00565894
1664 1813 -0.00226572
1665 1813 -0.00326456
1666 1813 -0.0258584
1667 1813 -0.00634183
1668 1813 -0.00663043
1669 1813 -0.00499253
1670 1813 -0.00310676
1671 1813 -0.00739566
1672 1813 -0.00134306
1673 1813 -0.00229462
1676 1813 -0.00353541
1677 1813 -0.00645833
1678 1813 -0.00431286
1679 1813 -0.0106623
1680 1813 -0.00184494
1681 1813 -0.00308082
1682 1813 -0.00967497
1683 1813 -0.00695367
1684 1813 -0.00549425
1685 1813 -0.00811848
1686 1813 -0.000501701
1687 1813 -0.00543484
1688 1813 -0.00512525
1689 1813 -0.000802786
1690 1813 -0.000531047
1691 1813 -9.53694e-05
1692 1813 -3.36179e-05
1693 1813 -0.00111258
1694 1813 -0.00132871
1695 1813 -0.000566104
1696 1813 -0.00310676
1697 1813 -0.00740176
1698 1813 -0.00134306
1699 1813 -0.00231613
1702 1813 -0.00645833
1703 1813 -0.00353541
1704 1813 -0.00431491
1705 1813 -0.010627
1706 1813 -0.00184494
1707 1813 -0.00308083
1708 1813 -0.00968249
1709 1813 -0.00695426
1710 1813 -0.00549584
1711 1813 -0.00812188
1712 1813 -0.000501701
1713 1813 -0.00543498
1714 1813 -0.0051257
1715 1813 -0.000802803
1716 1813 -0.000531048
1717 1813 -9.53716e-05
1718 1813 -0.000143063
1719 1813 -0.00112261
1720 1813 -0.00138023
1721 1813 -0.000131604
1729 1813 -0.00163218
1730 1813 -0.000514814
1734 1813 -0.000940354
1735 1813 -0.0061209
1736 1813 -0.00359145
1737 1813 -0.0101847
1738 1813 -0.00227308
1741 1813 -0.00645833
1742 1813 -0.00353541
1743 1813 -0.00427672
1744 1813 -0.0112721
1745 1813 -0.00455569
1746 1813 -0.00348123
1747 1813 -0.0099409
1748 1813 -0.0049376
1749 1813 -0.00799415
1750 1813 -0.00483084
1751 1813 -0.000736599
1752 1813 -0.00604304
1753 1813 -0.000804094
1754 1813 -0.000531402
1755 1813 -9.90443e-05
1756 1813 -0.000142875
1757 1813 -0.00113496
1758 1813 -0.000549077
1759 1813 -6.78705e-05
1761 1813 -0.0013366
1762 1813 -0.00135883
1767 1813 -0.0161626
1768 1813 -2.48668e-05
1769 1813 -0.00657047
1770 1813 -0.0161761
1771 1813 -0.00641505
1772 1813 -0.00115272
1773 1813 -0.00620561
1774 1813 -0.0114872
1775 1813 -0.0171694
1776 1813 -0.00532434
1777 1813 -0.0139988
1778 1813 -0.0195119
1779 1813 -0.0186899
1780 1813 -0.00602594
1781 1813 -0.00668141
1782 1813 -0.00601525
1784 1813 -0.00879198
1785 1813 -0.0116878
1787 1813 -0.0197559
1788 1813 -0.0283527
1789 1813 -0.0466105
1792 1813 -0.0115614
1793 1813 -0.00599517
1794 1813 -0.00823958
1795 1813 -0.0170929
1796 1813 -0.0126674
1797 1813 -0.00637534
1798 1813 -0.0116947
1799 1813 -0.0185024
1800 1813 -0.00601505
1801 1813 -0.0137815
1802 1813 -0.184925
1803 1813 -0.0191435
1804 1813 -0.070141
1805 1813 -0.00742979
1806 1813 -0.0293056
1807 1813 -0.0248883
1808 1813 -0.202391
1809 1813 -0.171979
1810 1813 -0.00623645
1812 1813 -0.535418
1813 1813 1
1814 1813 3.97558
1814 1814 1
