%%MatrixMarket matrix coordinate real general
5860 5860 37394
1 1 20777.4
2 2 17887.8
3 3 17887.8
4 4 10943.8
5 5 10451
6 6 10943.8
7 7 10451
8 8 10943.8
9 9 10451
10 10 1236
18 10 -4.85437e-09
11 11 1236
18 11 -4.85437e-09
12 12 1236
18 12 -4.85437e-09
13 13 1236
18 13 -4.85437e-09
14 14 1236
18 14 -4.85437e-09
15 15 1236
18 15 -4.85437e-09
16 16 1236
18 16 -4.85437e-09
17 17 1236
18 17 -4.85437e-09
10 18 -6e-06
11 18 -6e-06
12 18 -6e-06
13 18 -6e-06
14 18 -6e-06
15 18 -6e-06
16 18 -6e-06
17 18 -6e-06
18 18 4531
19 19 17887.8
20 20 17887.8
21 21 10451
22 22 10943.8
23 23 10451
24 24 10943.8
25 25 10451
26 26 10943.8
27 27 574.2
28 28 1236
36 28 -4.85437e-09
29 29 1236
36 29 -4.85437e-09
30 30 1236
36 30 -4.85437e-09
31 31 1236
36 31 -4.85437e-09
32 32 1236
36 32 -4.85437e-09
33 33 1236
36 33 -4.85437e-09
34 34 1236
36 34 -4.85437e-09
35 35 1236
36 35 -4.85437e-09
28 36 -6e-06
29 36 -6e-06
30 36 -6e-06
31 36 -6e-06
32 36 -6e-06
33 36 -6e-06
34 36 -6e-06
35 36 -6e-06
36 36 4531
37 37 212573
38 38 212573
39 39 19464.1
40 40 170
42 40 -8.82353e-08
41 41 1405.8
42 41 -1.06701e-08
40 42 -1.5e-05
41 42 -1.5e-05
42 42 170
43 43 6471
44 44 6471
45 45 1330.2
46 46 170
48 46 -2.47059e-08
47 47 407.88
48 47 -1.02971e-08
46 48 -4.2e-06
47 48 -4.2e-06
48 48 170
49 49 170
51 49 -7.05882e-08
50 50 1053
51 50 -1.1396e-08
49 51 -1.2e-05
50 51 -1.2e-05
51 51 170
52 52 1678.8
53 52 -7.14796e-09
52 53 -1.2e-05
53 53 171
54 54 1935
55 54 -6.20155e-09
54 55 -1.2e-05
55 55 171
56 56 1330.2
57 57 170
59 57 -2.47059e-08
58 58 407.88
59 58 -1.02971e-08
57 59 -4.2e-06
58 59 -4.2e-06
59 59 170
60 60 170
62 60 -7.05882e-08
61 61 1053
62 61 -1.1396e-08
60 62 -1.2e-05
61 62 -1.2e-05
62 62 170
63 63 1678.8
64 63 -7.14796e-09
63 64 -1.2e-05
64 64 171
65 65 1935
66 65 -6.20155e-09
65 66 -1.2e-05
66 66 171
67 67 1267.1
68 67 -1.42057e-08
67 68 -1.8e-05
68 68 170
69 69 1267.1
70 69 -1.65733e-08
69 70 -2.1e-05
70 70 170
71 71 1267.1
72 71 -1.42057e-08
71 72 -1.8e-05
72 72 170
73 73 1267.1
74 73 -1.65733e-08
73 74 -2.1e-05
74 74 170
75 75 6471
76 76 6471
77 77 1330.2
78 78 170
80 78 -2.47059e-08
79 79 407.88
80 79 -1.02971e-08
78 80 -4.2e-06
79 80 -4.2e-06
80 80 170
81 81 170
83 81 -7.05882e-08
82 82 1053
83 82 -1.1396e-08
81 83 -1.2e-05
82 83 -1.2e-05
83 83 170
84 84 1678.8
85 84 -7.14796e-09
84 85 -1.2e-05
85 85 171
86 86 1935
87 86 -6.20155e-09
86 87 -1.2e-05
87 87 171
88 88 1330.2
89 89 170
91 89 -2.47059e-08
90 90 407.88
91 90 -1.02971e-08
89 91 -4.2e-06
90 91 -4.2e-06
91 91 170
92 92 170
94 92 -7.05882e-08
93 93 1053
94 93 -1.1396e-08
92 94 -1.2e-05
93 94 -1.2e-05
94 94 170
95 95 1678.8
96 95 -7.14796e-09
95 96 -1.2e-05
96 96 171
97 97 1935
98 97 -6.20155e-09
97 98 -1.2e-05
98 98 171
99 99 1267.1
100 99 -1.42057e-08
99 100 -1.8e-05
100 100 170
101 101 1267.1
102 101 -1.65733e-08
101 102 -2.1e-05
102 102 170
103 103 1267.1
104 103 -1.42057e-08
103 104 -1.8e-05
104 104 170
105 105 1267.1
106 105 -1.65733e-08
105 106 -2.1e-05
106 106 170
107 107 12771
108 108 4959
109 108 -6.04961e-09
108 109 -3e-05
109 109 171
110 110 12771
111 111 4959
112 111 -6.04961e-09
111 112 -3e-05
112 112 171
113 113 2942
114 114 2696.4
115 115 2942
116 116 2696.4
117 117 1431
118 118 781.68
119 119 5917
120 119 -4.56312e-09
119 120 -2.7e-05
120 120 170
121 121 5917
122 121 -4.56312e-09
121 122 -2.7e-05
122 122 170
123 123 681.2
124 123 -1.3212e-08
123 124 -9e-06
124 124 170
125 125 8001.8
126 125 -2.24949e-09
125 126 -1.8e-05
126 126 170
127 127 2262.6
128 128 2262.6
129 129 170
131 129 -1.23529e-07
130 130 3699
131 130 -5.67721e-09
129 131 -2.1e-05
130 131 -2.1e-05
131 131 170
132 132 170
134 132 -1.23529e-07
133 133 3699
134 133 -5.67721e-09
132 134 -2.1e-05
133 134 -2.1e-05
134 134 170
135 135 170
137 135 -1.23529e-07
136 136 3699
137 136 -5.67721e-09
135 137 -2.1e-05
136 137 -2.1e-05
137 137 170
138 138 170
140 138 -1.23529e-07
139 139 3699
140 139 -5.67721e-09
138 140 -2.1e-05
139 140 -2.1e-05
140 140 170
141 141 2262.6
142 142 2262.6
143 143 170
145 143 -1.23529e-07
144 144 3699
145 144 -5.67721e-09
143 145 -2.1e-05
144 145 -2.1e-05
145 145 170
146 146 170
148 146 -1.23529e-07
147 147 3699
148 147 -5.67721e-09
146 148 -2.1e-05
147 148 -2.1e-05
148 148 170
149 149 170
151 149 -1.23529e-07
150 150 3699
151 150 -5.67721e-09
149 151 -2.1e-05
150 151 -2.1e-05
151 151 170
152 152 170
154 152 -1.23529e-07
153 153 3699
154 153 -5.67721e-09
152 154 -2.1e-05
153 154 -2.1e-05
154 154 170
155 155 2262.6
156 156 2262.6
157 157 170
159 157 -1.23529e-07
158 158 3699
159 158 -5.67721e-09
157 159 -2.1e-05
158 159 -2.1e-05
159 159 170
160 160 170
162 160 -1.23529e-07
161 161 3699
162 161 -5.67721e-09
160 162 -2.1e-05
161 162 -2.1e-05
162 162 170
163 163 170
165 163 -1.23529e-07
164 164 3699
165 164 -5.67721e-09
163 165 -2.1e-05
164 165 -2.1e-05
165 165 170
166 166 170
168 166 -1.23529e-07
167 167 3699
168 167 -5.67721e-09
166 168 -2.1e-05
167 168 -2.1e-05
168 168 170
169 169 2262.6
170 170 2262.6
171 171 170
173 171 -1.23529e-07
172 172 3699
173 172 -5.67721e-09
171 173 -2.1e-05
172 173 -2.1e-05
173 173 170
174 174 170
176 174 -1.23529e-07
175 175 3699
176 175 -5.67721e-09
174 176 -2.1e-05
175 176 -2.1e-05
176 176 170
177 177 170
179 177 -1.23529e-07
178 178 3699
179 178 -5.67721e-09
177 179 -2.1e-05
178 179 -2.1e-05
179 179 170
180 180 170
182 180 -1.23529e-07
181 181 3699
182 181 -5.67721e-09
180 182 -2.1e-05
181 182 -2.1e-05
182 182 170
183 183 2086.2
184 184 3699
185 185 1053
186 186 3699
187 187 964.8
188 188 2086.2
189 189 170
191 189 -2.29412e-07
190 190 1783.8
191 190 -2.18634e-08
189 191 -3.9e-05
190 191 -3.9e-05
191 191 170
192 192 4171.4
193 192 -7.19183e-09
192 193 -3e-05
193 193 170
194 194 170
196 194 -2.29412e-07
195 195 1783.8
196 195 -2.18634e-08
194 196 -3.9e-05
195 196 -3.9e-05
196 196 170
197 197 2086.2
198 198 1053
199 199 964.8
200 200 2086.2
201 201 170
203 201 -2.29412e-07
202 202 4707
203 202 -8.28553e-09
201 203 -3.9e-05
202 203 -3.9e-05
203 203 170
204 204 4171.4
205 204 -7.19183e-09
204 205 -3e-05
205 205 170
206 206 170
208 206 -2.29412e-07
207 207 4707
208 207 -8.28553e-09
206 208 -3.9e-05
207 208 -3.9e-05
208 208 170
209 209 989
210 210 989
211 211 989
212 212 989
213 213 170
215 213 -3.52941e-08
214 214 1295.6
215 214 -4.63106e-09
213 215 -6e-06
214 215 -6e-06
215 215 170
216 216 170
218 216 -3.52941e-08
217 217 1295.6
218 217 -4.63106e-09
216 218 -6e-06
217 218 -6e-06
218 218 170
219 219 170
221 219 -3.52941e-08
220 220 1295.6
221 220 -4.63106e-09
219 221 -6e-06
220 221 -6e-06
221 221 170
222 222 170
224 222 -3.52941e-08
223 223 1295.6
224 223 -4.63106e-09
222 224 -6e-06
223 224 -6e-06
224 224 170
225 225 322.2
226 226 322.2
227 227 322.2
228 228 322.2
229 229 170
230 229 -2.35294e-08
229 230 -4e-06
230 230 170
233 230 -2.35294e-08
231 231 623.6
233 231 -9.62155e-09
232 232 623.6
233 232 -9.62155e-09
230 233 -4e-06
231 233 -6e-06
232 233 -6e-06
233 233 170
234 234 170
235 234 -2.35294e-08
234 235 -4e-06
235 235 170
238 235 -2.35294e-08
236 236 623.6
238 236 -9.62155e-09
237 237 623.6
238 237 -9.62155e-09
235 238 -4e-06
236 238 -6e-06
237 238 -6e-06
238 238 170
239 239 170
240 239 -2.35294e-08
239 240 -4e-06
240 240 170
243 240 -2.35294e-08
241 241 623.6
243 241 -9.62155e-09
242 242 623.6
243 242 -9.62155e-09
240 243 -4e-06
241 243 -6e-06
242 243 -6e-06
243 243 170
244 244 170
245 244 -2.35294e-08
244 245 -4e-06
245 245 170
248 245 -2.35294e-08
246 246 623.6
248 246 -9.62155e-09
247 247 623.6
248 247 -9.62155e-09
245 248 -4e-06
246 248 -6e-06
247 248 -6e-06
248 248 170
249 249 170
251 249 -3.52941e-08
250 250 1295.6
251 250 -4.63106e-09
249 251 -6e-06
250 251 -6e-06
251 251 170
252 252 170
254 252 -3.52941e-08
253 253 1295.6
254 253 -4.63106e-09
252 254 -6e-06
253 254 -6e-06
254 254 170
255 255 170
257 255 -3.52941e-08
256 256 1295.6
257 256 -4.63106e-09
255 257 -6e-06
256 257 -6e-06
257 257 170
258 258 170
260 258 -3.52941e-08
259 259 1295.6
260 259 -4.63106e-09
258 260 -6e-06
259 260 -6e-06
260 260 170
261 261 322.2
262 262 322.2
263 263 322.2
264 264 322.2
265 265 1045.6
266 266 1045.6
267 267 1045.6
268 268 1045.6
269 269 33737.4
270 270 3195
271 271 42849.7
272 272 1040.4
273 273 891.72
274 274 1040.4
275 275 942.12
276 276 15680.8
277 277 50520.6
278 278 170
280 278 -5.64706e-08
279 279 1531.8
280 279 -6.65883e-09
278 280 -9.6e-06
279 280 -1.02e-05
280 280 170
281 281 170
283 281 -5.64706e-08
282 282 886.68
283 282 -1.15036e-08
281 283 -9.6e-06
282 283 -1.02e-05
283 283 170
284 284 3867
285 284 -1.03439e-08
284 285 -4e-05
285 285 171
286 286 5003.54
287 287 5001.44
288 288 1394.72
289 289 1394.72
290 290 170
291 290 -8.47059e-08
290 291 -1.44e-05
291 291 4887.44
292 292 4887.44
293 292 -2.94633e-09
292 293 -1.44e-05
293 293 170
294 294 1672.5
295 294 -1.20179e-08
294 295 -2.01e-05
295 295 171
296 296 2640.6
297 296 -7.61191e-09
296 297 -2.01e-05
297 297 171
298 298 2491.4
299 298 -8.429e-09
298 299 -2.1e-05
299 299 170
300 300 20777.4
301 301 17887.8
302 302 17887.8
303 303 10943.8
304 304 10451
305 305 10943.8
306 306 10451
307 307 10943.8
308 308 10451
309 309 1236
317 309 -4.85437e-09
310 310 1236
317 310 -4.85437e-09
311 311 1236
317 311 -4.85437e-09
312 312 1236
317 312 -4.85437e-09
313 313 1236
317 313 -4.85437e-09
314 314 1236
317 314 -4.85437e-09
315 315 1236
317 315 -4.85437e-09
316 316 1236
317 316 -4.85437e-09
309 317 -6e-06
310 317 -6e-06
311 317 -6e-06
312 317 -6e-06
313 317 -6e-06
314 317 -6e-06
315 317 -6e-06
316 317 -6e-06
317 317 4531
318 318 17887.8
319 319 17887.8
320 320 10451
321 321 10943.8
322 322 10451
323 323 10943.8
324 324 10451
325 325 10943.8
326 326 574.2
327 327 1236
335 327 -4.85437e-09
328 328 1236
335 328 -4.85437e-09
329 329 1236
335 329 -4.85437e-09
330 330 1236
335 330 -4.85437e-09
331 331 1236
335 331 -4.85437e-09
332 332 1236
335 332 -4.85437e-09
333 333 1236
335 333 -4.85437e-09
334 334 1236
335 334 -4.85437e-09
327 335 -6e-06
328 335 -6e-06
329 335 -6e-06
330 335 -6e-06
331 335 -6e-06
332 335 -6e-06
333 335 -6e-06
334 335 -6e-06
335 335 4531
336 336 212573
337 337 212573
338 338 19464.1
339 339 170
341 339 -8.82353e-08
340 340 1405.8
341 340 -1.06701e-08
339 341 -1.5e-05
340 341 -1.5e-05
341 341 170
342 342 6471
343 343 6471
344 344 1330.2
345 345 170
347 345 -2.47059e-08
346 346 407.88
347 346 -1.02971e-08
345 347 -4.2e-06
346 347 -4.2e-06
347 347 170
348 348 170
350 348 -7.05882e-08
349 349 1053
350 349 -1.1396e-08
348 350 -1.2e-05
349 350 -1.2e-05
350 350 170
351 351 1678.8
352 351 -7.14796e-09
351 352 -1.2e-05
352 352 171
353 353 1935
354 353 -6.20155e-09
353 354 -1.2e-05
354 354 171
355 355 1330.2
356 356 170
358 356 -2.47059e-08
357 357 407.88
358 357 -1.02971e-08
356 358 -4.2e-06
357 358 -4.2e-06
358 358 170
359 359 170
361 359 -7.05882e-08
360 360 1053
361 360 -1.1396e-08
359 361 -1.2e-05
360 361 -1.2e-05
361 361 170
362 362 1678.8
363 362 -7.14796e-09
362 363 -1.2e-05
363 363 171
364 364 1935
365 364 -6.20155e-09
364 365 -1.2e-05
365 365 171
366 366 1267.1
367 366 -1.42057e-08
366 367 -1.8e-05
367 367 170
368 368 1267.1
369 368 -1.65733e-08
368 369 -2.1e-05
369 369 170
370 370 1267.1
371 370 -1.42057e-08
370 371 -1.8e-05
371 371 170
372 372 1267.1
373 372 -1.65733e-08
372 373 -2.1e-05
373 373 170
374 374 6471
375 375 6471
376 376 1330.2
377 377 170
379 377 -2.47059e-08
378 378 407.88
379 378 -1.02971e-08
377 379 -4.2e-06
378 379 -4.2e-06
379 379 170
380 380 170
382 380 -7.05882e-08
381 381 1053
382 381 -1.1396e-08
380 382 -1.2e-05
381 382 -1.2e-05
382 382 170
383 383 1678.8
384 383 -7.14796e-09
383 384 -1.2e-05
384 384 171
385 385 1935
386 385 -6.20155e-09
385 386 -1.2e-05
386 386 171
387 387 1330.2
388 388 170
390 388 -2.47059e-08
389 389 407.88
390 389 -1.02971e-08
388 390 -4.2e-06
389 390 -4.2e-06
390 390 170
391 391 170
393 391 -7.05882e-08
392 392 1053
393 392 -1.1396e-08
391 393 -1.2e-05
392 393 -1.2e-05
393 393 170
394 394 1678.8
395 394 -7.14796e-09
394 395 -1.2e-05
395 395 171
396 396 1935
397 396 -6.20155e-09
396 397 -1.2e-05
397 397 171
398 398 1267.1
399 398 -1.42057e-08
398 399 -1.8e-05
399 399 170
400 400 1267.1
401 400 -1.65733e-08
400 401 -2.1e-05
401 401 170
402 402 1267.1
403 402 -1.42057e-08
402 403 -1.8e-05
403 403 170
404 404 1267.1
405 404 -1.65733e-08
404 405 -2.1e-05
405 405 170
406 406 12771
407 407 4959
408 407 -6.04961e-09
407 408 -3e-05
408 408 171
409 409 12771
410 410 4959
411 410 -6.04961e-09
410 411 -3e-05
411 411 171
412 412 2942
413 413 2696.4
414 414 2942
415 415 2696.4
416 416 1431
417 417 781.68
418 418 5917
419 418 -4.56312e-09
418 419 -2.7e-05
419 419 170
420 420 5917
421 420 -4.56312e-09
420 421 -2.7e-05
421 421 170
422 422 681.2
423 422 -1.3212e-08
422 423 -9e-06
423 423 170
424 424 8001.8
425 424 -2.24949e-09
424 425 -1.8e-05
425 425 170
426 426 2262.6
427 427 2262.6
428 428 170
430 428 -1.23529e-07
429 429 3699
430 429 -5.67721e-09
428 430 -2.1e-05
429 430 -2.1e-05
430 430 170
431 431 170
433 431 -1.23529e-07
432 432 3699
433 432 -5.67721e-09
431 433 -2.1e-05
432 433 -2.1e-05
433 433 170
434 434 170
436 434 -1.23529e-07
435 435 3699
436 435 -5.67721e-09
434 436 -2.1e-05
435 436 -2.1e-05
436 436 170
437 437 170
439 437 -1.23529e-07
438 438 3699
439 438 -5.67721e-09
437 439 -2.1e-05
438 439 -2.1e-05
439 439 170
440 440 2262.6
441 441 2262.6
442 442 170
444 442 -1.23529e-07
443 443 3699
444 443 -5.67721e-09
442 444 -2.1e-05
443 444 -2.1e-05
444 444 170
445 445 170
447 445 -1.23529e-07
446 446 3699
447 446 -5.67721e-09
445 447 -2.1e-05
446 447 -2.1e-05
447 447 170
448 448 170
450 448 -1.23529e-07
449 449 3699
450 449 -5.67721e-09
448 450 -2.1e-05
449 450 -2.1e-05
450 450 170
451 451 170
453 451 -1.23529e-07
452 452 3699
453 452 -5.67721e-09
451 453 -2.1e-05
452 453 -2.1e-05
453 453 170
454 454 2262.6
455 455 2262.6
456 456 170
458 456 -1.23529e-07
457 457 3699
458 457 -5.67721e-09
456 458 -2.1e-05
457 458 -2.1e-05
458 458 170
459 459 170
461 459 -1.23529e-07
460 460 3699
461 460 -5.67721e-09
459 461 -2.1e-05
460 461 -2.1e-05
461 461 170
462 462 170
464 462 -1.23529e-07
463 463 3699
464 463 -5.67721e-09
462 464 -2.1e-05
463 464 -2.1e-05
464 464 170
465 465 170
467 465 -1.23529e-07
466 466 3699
467 466 -5.67721e-09
465 467 -2.1e-05
466 467 -2.1e-05
467 467 170
468 468 2262.6
469 469 2262.6
470 470 170
472 470 -1.23529e-07
471 471 3699
472 471 -5.67721e-09
470 472 -2.1e-05
471 472 -2.1e-05
472 472 170
473 473 170
475 473 -1.23529e-07
474 474 3699
475 474 -5.67721e-09
473 475 -2.1e-05
474 475 -2.1e-05
475 475 170
476 476 170
478 476 -1.23529e-07
477 477 3699
478 477 -5.67721e-09
476 478 -2.1e-05
477 478 -2.1e-05
478 478 170
479 479 170
481 479 -1.23529e-07
480 480 3699
481 480 -5.67721e-09
479 481 -2.1e-05
480 481 -2.1e-05
481 481 170
482 482 2086.2
483 483 3699
484 484 1053
485 485 3699
486 486 964.8
487 487 2086.2
488 488 170
490 488 -2.29412e-07
489 489 1783.8
490 489 -2.18634e-08
488 490 -3.9e-05
489 490 -3.9e-05
490 490 170
491 491 4171.4
492 491 -7.19183e-09
491 492 -3e-05
492 492 170
493 493 170
495 493 -2.29412e-07
494 494 1783.8
495 494 -2.18634e-08
493 495 -3.9e-05
494 495 -3.9e-05
495 495 170
496 496 2086.2
497 497 1053
498 498 964.8
499 499 2086.2
500 500 170
502 500 -2.29412e-07
501 501 4707
502 501 -8.28553e-09
500 502 -3.9e-05
501 502 -3.9e-05
502 502 170
503 503 4171.4
504 503 -7.19183e-09
503 504 -3e-05
504 504 170
505 505 170
507 505 -2.29412e-07
506 506 4707
507 506 -8.28553e-09
505 507 -3.9e-05
506 507 -3.9e-05
507 507 170
508 508 989
509 509 989
510 510 989
511 511 989
512 512 170
514 512 -3.52941e-08
513 513 1295.6
514 513 -4.63106e-09
512 514 -6e-06
513 514 -6e-06
514 514 170
515 515 170
517 515 -3.52941e-08
516 516 1295.6
517 516 -4.63106e-09
515 517 -6e-06
516 517 -6e-06
517 517 170
518 518 170
520 518 -3.52941e-08
519 519 1295.6
520 519 -4.63106e-09
518 520 -6e-06
519 520 -6e-06
520 520 170
521 521 170
523 521 -3.52941e-08
522 522 1295.6
523 522 -4.63106e-09
521 523 -6e-06
522 523 -6e-06
523 523 170
524 524 322.2
525 525 322.2
526 526 322.2
527 527 322.2
528 528 170
529 528 -2.35294e-08
528 529 -4e-06
529 529 170
532 529 -2.35294e-08
530 530 623.6
532 530 -9.62155e-09
531 531 623.6
532 531 -9.62155e-09
529 532 -4e-06
530 532 -6e-06
531 532 -6e-06
532 532 170
533 533 170
534 533 -2.35294e-08
533 534 -4e-06
534 534 170
537 534 -2.35294e-08
535 535 623.6
537 535 -9.62155e-09
536 536 623.6
537 536 -9.62155e-09
534 537 -4e-06
535 537 -6e-06
536 537 -6e-06
537 537 170
538 538 170
539 538 -2.35294e-08
538 539 -4e-06
539 539 170
542 539 -2.35294e-08
540 540 623.6
542 540 -9.62155e-09
541 541 623.6
542 541 -9.62155e-09
539 542 -4e-06
540 542 -6e-06
541 542 -6e-06
542 542 170
543 543 170
544 543 -2.35294e-08
543 544 -4e-06
544 544 170
547 544 -2.35294e-08
545 545 623.6
547 545 -9.62155e-09
546 546 623.6
547 546 -9.62155e-09
544 547 -4e-06
545 547 -6e-06
546 547 -6e-06
547 547 170
548 548 170
550 548 -3.52941e-08
549 549 1295.6
550 549 -4.63106e-09
548 550 -6e-06
549 550 -6e-06
550 550 170
551 551 170
553 551 -3.52941e-08
552 552 1295.6
553 552 -4.63106e-09
551 553 -6e-06
552 553 -6e-06
553 553 170
554 554 170
556 554 -3.52941e-08
555 555 1295.6
556 555 -4.63106e-09
554 556 -6e-06
555 556 -6e-06
556 556 170
557 557 170
559 557 -3.52941e-08
558 558 1295.6
559 558 -4.63106e-09
557 559 -6e-06
558 559 -6e-06
559 559 170
560 560 322.2
561 561 322.2
562 562 322.2
563 563 322.2
564 564 1045.6
565 565 1045.6
566 566 1045.6
567 567 1045.6
568 568 33737.4
569 569 3195
570 570 42849.7
571 571 1040.4
572 572 891.72
573 573 1040.4
574 574 942.12
575 575 15680.8
576 576 50520.6
577 577 170
579 577 -5.64706e-08
578 578 1531.8
579 578 -6.65883e-09
577 579 -9.6e-06
578 579 -1.02e-05
579 579 170
580 580 170
582 580 -5.64706e-08
581 581 886.68
582 581 -1.15036e-08
580 582 -9.6e-06
581 582 -1.02e-05
582 582 170
583 583 3867
584 583 -1.03439e-08
583 584 -4e-05
584 584 171
585 585 5003.54
586 586 5001.44
587 587 1394.72
588 588 1394.72
589 589 170
590 589 -8.47059e-08
589 590 -1.44e-05
590 590 4887.44
591 591 4887.44
592 591 -2.94633e-09
591 592 -1.44e-05
592 592 170
593 593 1672.5
594 593 -1.20179e-08
593 594 -2.01e-05
594 594 171
595 595 2640.6
596 595 -7.61191e-09
595 596 -2.01e-05
596 596 171
597 597 2491.4
598 597 -8.429e-09
597 598 -2.1e-05
598 598 170
599 599 20777.4
600 600 17887.8
601 601 17887.8
602 602 10943.8
603 603 10451
604 604 10943.8
605 605 10451
606 606 10943.8
607 607 10451
608 608 1236
616 608 -4.85437e-09
609 609 1236
616 609 -4.85437e-09
610 610 1236
616 610 -4.85437e-09
611 611 1236
616 611 -4.85437e-09
612 612 1236
616 612 -4.85437e-09
613 613 1236
616 613 -4.85437e-09
614 614 1236
616 614 -4.85437e-09
615 615 1236
616 615 -4.85437e-09
608 616 -6e-06
609 616 -6e-06
610 616 -6e-06
611 616 -6e-06
612 616 -6e-06
613 616 -6e-06
614 616 -6e-06
615 616 -6e-06
616 616 4531
617 617 17887.8
618 618 17887.8
619 619 10451
620 620 10943.8
621 621 10451
622 622 10943.8
623 623 10451
624 624 10943.8
625 625 574.2
626 626 1236
634 626 -4.85437e-09
627 627 1236
634 627 -4.85437e-09
628 628 1236
634 628 -4.85437e-09
629 629 1236
634 629 -4.85437e-09
630 630 1236
634 630 -4.85437e-09
631 631 1236
634 631 -4.85437e-09
632 632 1236
634 632 -4.85437e-09
633 633 1236
634 633 -4.85437e-09
626 634 -6e-06
627 634 -6e-06
628 634 -6e-06
629 634 -6e-06
630 634 -6e-06
631 634 -6e-06
632 634 -6e-06
633 634 -6e-06
634 634 4531
635 635 212573
636 636 212573
637 637 19464.1
638 638 170
640 638 -8.82353e-08
639 639 1405.8
640 639 -1.06701e-08
638 640 -1.5e-05
639 640 -1.5e-05
640 640 170
641 641 6471
642 642 6471
643 643 1330.2
644 644 170
646 644 -2.47059e-08
645 645 407.88
646 645 -1.02971e-08
644 646 -4.2e-06
645 646 -4.2e-06
646 646 170
647 647 170
649 647 -7.05882e-08
648 648 1053
649 648 -1.1396e-08
647 649 -1.2e-05
648 649 -1.2e-05
649 649 170
650 650 1678.8
651 650 -7.14796e-09
650 651 -1.2e-05
651 651 171
652 652 1935
653 652 -6.20155e-09
652 653 -1.2e-05
653 653 171
654 654 1330.2
655 655 170
657 655 -2.47059e-08
656 656 407.88
657 656 -1.02971e-08
655 657 -4.2e-06
656 657 -4.2e-06
657 657 170
658 658 170
660 658 -7.05882e-08
659 659 1053
660 659 -1.1396e-08
658 660 -1.2e-05
659 660 -1.2e-05
660 660 170
661 661 1678.8
662 661 -7.14796e-09
661 662 -1.2e-05
662 662 171
663 663 1935
664 663 -6.20155e-09
663 664 -1.2e-05
664 664 171
665 665 1267.1
666 665 -1.42057e-08
665 666 -1.8e-05
666 666 170
667 667 1267.1
668 667 -1.65733e-08
667 668 -2.1e-05
668 668 170
669 669 1267.1
670 669 -1.42057e-08
669 670 -1.8e-05
670 670 170
671 671 1267.1
672 671 -1.65733e-08
671 672 -2.1e-05
672 672 170
673 673 6471
674 674 6471
675 675 1330.2
676 676 170
678 676 -2.47059e-08
677 677 407.88
678 677 -1.02971e-08
676 678 -4.2e-06
677 678 -4.2e-06
678 678 170
679 679 170
681 679 -7.05882e-08
680 680 1053
681 680 -1.1396e-08
679 681 -1.2e-05
680 681 -1.2e-05
681 681 170
682 682 1678.8
683 682 -7.14796e-09
682 683 -1.2e-05
683 683 171
684 684 1935
685 684 -6.20155e-09
684 685 -1.2e-05
685 685 171
686 686 1330.2
687 687 170
689 687 -2.47059e-08
688 688 407.88
689 688 -1.02971e-08
687 689 -4.2e-06
688 689 -4.2e-06
689 689 170
690 690 170
692 690 -7.05882e-08
691 691 1053
692 691 -1.1396e-08
690 692 -1.2e-05
691 692 -1.2e-05
692 692 170
693 693 1678.8
694 693 -7.14796e-09
693 694 -1.2e-05
694 694 171
695 695 1935
696 695 -6.20155e-09
695 696 -1.2e-05
696 696 171
697 697 1267.1
698 697 -1.42057e-08
697 698 -1.8e-05
698 698 170
699 699 1267.1
700 699 -1.65733e-08
699 700 -2.1e-05
700 700 170
701 701 1267.1
702 701 -1.42057e-08
701 702 -1.8e-05
702 702 170
703 703 1267.1
704 703 -1.65733e-08
703 704 -2.1e-05
704 704 170
705 705 12771
706 706 4959
707 706 -6.04961e-09
706 707 -3e-05
707 707 171
708 708 12771
709 709 4959
710 709 -6.04961e-09
709 710 -3e-05
710 710 171
711 711 2942
712 712 2696.4
713 713 2942
714 714 2696.4
715 715 1431
716 716 781.68
717 717 5917
718 717 -4.56312e-09
717 718 -2.7e-05
718 718 170
719 719 5917
720 719 -4.56312e-09
719 720 -2.7e-05
720 720 170
721 721 681.2
722 721 -1.3212e-08
721 722 -9e-06
722 722 170
723 723 8001.8
724 723 -2.24949e-09
723 724 -1.8e-05
724 724 170
725 725 2262.6
726 726 2262.6
727 727 170
729 727 -1.23529e-07
728 728 3699
729 728 -5.67721e-09
727 729 -2.1e-05
728 729 -2.1e-05
729 729 170
730 730 170
732 730 -1.23529e-07
731 731 3699
732 731 -5.67721e-09
730 732 -2.1e-05
731 732 -2.1e-05
732 732 170
733 733 170
735 733 -1.23529e-07
734 734 3699
735 734 -5.67721e-09
733 735 -2.1e-05
734 735 -2.1e-05
735 735 170
736 736 170
738 736 -1.23529e-07
737 737 3699
738 737 -5.67721e-09
736 738 -2.1e-05
737 738 -2.1e-05
738 738 170
739 739 2262.6
740 740 2262.6
741 741 170
743 741 -1.23529e-07
742 742 3699
743 742 -5.67721e-09
741 743 -2.1e-05
742 743 -2.1e-05
743 743 170
744 744 170
746 744 -1.23529e-07
745 745 3699
746 745 -5.67721e-09
744 746 -2.1e-05
745 746 -2.1e-05
746 746 170
747 747 170
749 747 -1.23529e-07
748 748 3699
749 748 -5.67721e-09
747 749 -2.1e-05
748 749 -2.1e-05
749 749 170
750 750 170
752 750 -1.23529e-07
751 751 3699
752 751 -5.67721e-09
750 752 -2.1e-05
751 752 -2.1e-05
752 752 170
753 753 2262.6
754 754 2262.6
755 755 170
757 755 -1.23529e-07
756 756 3699
757 756 -5.67721e-09
755 757 -2.1e-05
756 757 -2.1e-05
757 757 170
758 758 170
760 758 -1.23529e-07
759 759 3699
760 759 -5.67721e-09
758 760 -2.1e-05
759 760 -2.1e-05
760 760 170
761 761 170
763 761 -1.23529e-07
762 762 3699
763 762 -5.67721e-09
761 763 -2.1e-05
762 763 -2.1e-05
763 763 170
764 764 170
766 764 -1.23529e-07
765 765 3699
766 765 -5.67721e-09
764 766 -2.1e-05
765 766 -2.1e-05
766 766 170
767 767 2262.6
768 768 2262.6
769 769 170
771 769 -1.23529e-07
770 770 3699
771 770 -5.67721e-09
769 771 -2.1e-05
770 771 -2.1e-05
771 771 170
772 772 170
774 772 -1.23529e-07
773 773 3699
774 773 -5.67721e-09
772 774 -2.1e-05
773 774 -2.1e-05
774 774 170
775 775 170
777 775 -1.23529e-07
776 776 3699
777 776 -5.67721e-09
775 777 -2.1e-05
776 777 -2.1e-05
777 777 170
778 778 170
780 778 -1.23529e-07
779 779 3699
780 779 -5.67721e-09
778 780 -2.1e-05
779 780 -2.1e-05
780 780 170
781 781 2086.2
782 782 3699
783 783 1053
784 784 3699
785 785 964.8
786 786 2086.2
787 787 170
789 787 -2.29412e-07
788 788 1783.8
789 788 -2.18634e-08
787 789 -3.9e-05
788 789 -3.9e-05
789 789 170
790 790 4171.4
791 790 -7.19183e-09
790 791 -3e-05
791 791 170
792 792 170
794 792 -2.29412e-07
793 793 1783.8
794 793 -2.18634e-08
792 794 -3.9e-05
793 794 -3.9e-05
794 794 170
795 795 2086.2
796 796 1053
797 797 964.8
798 798 2086.2
799 799 170
801 799 -2.29412e-07
800 800 4707
801 800 -8.28553e-09
799 801 -3.9e-05
800 801 -3.9e-05
801 801 170
802 802 4171.4
803 802 -7.19183e-09
802 803 -3e-05
803 803 170
804 804 170
806 804 -2.29412e-07
805 805 4707
806 805 -8.28553e-09
804 806 -3.9e-05
805 806 -3.9e-05
806 806 170
807 807 989
808 808 989
809 809 989
810 810 989
811 811 170
813 811 -3.52941e-08
812 812 1295.6
813 812 -4.63106e-09
811 813 -6e-06
812 813 -6e-06
813 813 170
814 814 170
816 814 -3.52941e-08
815 815 1295.6
816 815 -4.63106e-09
814 816 -6e-06
815 816 -6e-06
816 816 170
817 817 170
819 817 -3.52941e-08
818 818 1295.6
819 818 -4.63106e-09
817 819 -6e-06
818 819 -6e-06
819 819 170
820 820 170
822 820 -3.52941e-08
821 821 1295.6
822 821 -4.63106e-09
820 822 -6e-06
821 822 -6e-06
822 822 170
823 823 322.2
824 824 322.2
825 825 322.2
826 826 322.2
827 827 170
828 827 -2.35294e-08
827 828 -4e-06
828 828 170
831 828 -2.35294e-08
829 829 623.6
831 829 -9.62155e-09
830 830 623.6
831 830 -9.62155e-09
828 831 -4e-06
829 831 -6e-06
830 831 -6e-06
831 831 170
832 832 170
833 832 -2.35294e-08
832 833 -4e-06
833 833 170
836 833 -2.35294e-08
834 834 623.6
836 834 -9.62155e-09
835 835 623.6
836 835 -9.62155e-09
833 836 -4e-06
834 836 -6e-06
835 836 -6e-06
836 836 170
837 837 170
838 837 -2.35294e-08
837 838 -4e-06
838 838 170
841 838 -2.35294e-08
839 839 623.6
841 839 -9.62155e-09
840 840 623.6
841 840 -9.62155e-09
838 841 -4e-06
839 841 -6e-06
840 841 -6e-06
841 841 170
842 842 170
843 842 -2.35294e-08
842 843 -4e-06
843 843 170
846 843 -2.35294e-08
844 844 623.6
846 844 -9.62155e-09
845 845 623.6
846 845 -9.62155e-09
843 846 -4e-06
844 846 -6e-06
845 846 -6e-06
846 846 170
847 847 170
849 847 -3.52941e-08
848 848 1295.6
849 848 -4.63106e-09
847 849 -6e-06
848 849 -6e-06
849 849 170
850 850 170
852 850 -3.52941e-08
851 851 1295.6
852 851 -4.63106e-09
850 852 -6e-06
851 852 -6e-06
852 852 170
853 853 170
855 853 -3.52941e-08
854 854 1295.6
855 854 -4.63106e-09
853 855 -6e-06
854 855 -6e-06
855 855 170
856 856 170
858 856 -3.52941e-08
857 857 1295.6
858 857 -4.63106e-09
856 858 -6e-06
857 858 -6e-06
858 858 170
859 859 322.2
860 860 322.2
861 861 322.2
862 862 322.2
863 863 1045.6
864 864 1045.6
865 865 1045.6
866 866 1045.6
867 867 33737.4
868 868 3195
869 869 42849.7
870 870 1040.4
871 871 891.72
872 872 1040.4
873 873 942.12
874 874 15680.8
875 875 50520.6
876 876 170
878 876 -5.64706e-08
877 877 1531.8
878 877 -6.65883e-09
876 878 -9.6e-06
877 878 -1.02e-05
878 878 170
879 879 170
881 879 -5.64706e-08
880 880 886.68
881 880 -1.15036e-08
879 881 -9.6e-06
880 881 -1.02e-05
881 881 170
882 882 3867
883 882 -1.03439e-08
882 883 -4e-05
883 883 171
884 884 5003.54
885 885 5001.44
886 886 1394.72
887 887 1394.72
888 888 170
889 888 -8.47059e-08
888 889 -1.44e-05
889 889 4887.44
890 890 4887.44
891 890 -2.94633e-09
890 891 -1.44e-05
891 891 170
892 892 1672.5
893 892 -1.20179e-08
892 893 -2.01e-05
893 893 171
894 894 2640.6
895 894 -7.61191e-09
894 895 -2.01e-05
895 895 171
896 896 2491.4
897 896 -8.429e-09
896 897 -2.1e-05
897 897 170
898 898 20777.4
899 899 17887.8
900 900 17887.8
901 901 10943.8
902 902 10451
903 903 10943.8
904 904 10451
905 905 10943.8
906 906 10451
907 907 1236
915 907 -4.85437e-09
908 908 1236
915 908 -4.85437e-09
909 909 1236
915 909 -4.85437e-09
910 910 1236
915 910 -4.85437e-09
911 911 1236
915 911 -4.85437e-09
912 912 1236
915 912 -4.85437e-09
913 913 1236
915 913 -4.85437e-09
914 914 1236
915 914 -4.85437e-09
907 915 -6e-06
908 915 -6e-06
909 915 -6e-06
910 915 -6e-06
911 915 -6e-06
912 915 -6e-06
913 915 -6e-06
914 915 -6e-06
915 915 4531
916 916 17887.8
917 917 17887.8
918 918 10451
919 919 10943.8
920 920 10451
921 921 10943.8
922 922 10451
923 923 10943.8
924 924 574.2
925 925 1236
933 925 -4.85437e-09
926 926 1236
933 926 -4.85437e-09
927 927 1236
933 927 -4.85437e-09
928 928 1236
933 928 -4.85437e-09
929 929 1236
933 929 -4.85437e-09
930 930 1236
933 930 -4.85437e-09
931 931 1236
933 931 -4.85437e-09
932 932 1236
933 932 -4.85437e-09
925 933 -6e-06
926 933 -6e-06
927 933 -6e-06
928 933 -6e-06
929 933 -6e-06
930 933 -6e-06
931 933 -6e-06
932 933 -6e-06
933 933 4531
934 934 212573
935 935 212573
936 936 19464.1
937 937 170
939 937 -8.82353e-08
938 938 1405.8
939 938 -1.06701e-08
937 939 -1.5e-05
938 939 -1.5e-05
939 939 170
940 940 6471
941 941 6471
942 942 1330.2
943 943 170
945 943 -2.47059e-08
944 944 407.88
945 944 -1.02971e-08
943 945 -4.2e-06
944 945 -4.2e-06
945 945 170
946 946 170
948 946 -7.05882e-08
947 947 1053
948 947 -1.1396e-08
946 948 -1.2e-05
947 948 -1.2e-05
948 948 170
949 949 1678.8
950 949 -7.14796e-09
949 950 -1.2e-05
950 950 171
951 951 1935
952 951 -6.20155e-09
951 952 -1.2e-05
952 952 171
953 953 1330.2
954 954 170
956 954 -2.47059e-08
955 955 407.88
956 955 -1.02971e-08
954 956 -4.2e-06
955 956 -4.2e-06
956 956 170
957 957 170
959 957 -7.05882e-08
958 958 1053
959 958 -1.1396e-08
957 959 -1.2e-05
958 959 -1.2e-05
959 959 170
960 960 1678.8
961 960 -7.14796e-09
960 961 -1.2e-05
961 961 171
962 962 1935
963 962 -6.20155e-09
962 963 -1.2e-05
963 963 171
964 964 1267.1
965 964 -1.42057e-08
964 965 -1.8e-05
965 965 170
966 966 1267.1
967 966 -1.65733e-08
966 967 -2.1e-05
967 967 170
968 968 1267.1
969 968 -1.42057e-08
968 969 -1.8e-05
969 969 170
970 970 1267.1
971 970 -1.65733e-08
970 971 -2.1e-05
971 971 170
972 972 6471
973 973 6471
974 974 1330.2
975 975 170
977 975 -2.47059e-08
976 976 407.88
977 976 -1.02971e-08
975 977 -4.2e-06
976 977 -4.2e-06
977 977 170
978 978 170
980 978 -7.05882e-08
979 979 1053
980 979 -1.1396e-08
978 980 -1.2e-05
979 980 -1.2e-05
980 980 170
981 981 1678.8
982 981 -7.14796e-09
981 982 -1.2e-05
982 982 171
983 983 1935
984 983 -6.20155e-09
983 984 -1.2e-05
984 984 171
985 985 1330.2
986 986 170
988 986 -2.47059e-08
987 987 407.88
988 987 -1.02971e-08
986 988 -4.2e-06
987 988 -4.2e-06
988 988 170
989 989 170
991 989 -7.05882e-08
990 990 1053
991 990 -1.1396e-08
989 991 -1.2e-05
990 991 -1.2e-05
991 991 170
992 992 1678.8
993 992 -7.14796e-09
992 993 -1.2e-05
993 993 171
994 994 1935
995 994 -6.20155e-09
994 995 -1.2e-05
995 995 171
996 996 1267.1
997 996 -1.42057e-08
996 997 -1.8e-05
997 997 170
998 998 1267.1
999 998 -1.65733e-08
998 999 -2.1e-05
999 999 170
1000 1000 1267.1
1001 1000 -1.42057e-08
1000 1001 -1.8e-05
1001 1001 170
1002 1002 1267.1
1003 1002 -1.65733e-08
1002 1003 -2.1e-05
1003 1003 170
1004 1004 12771
1005 1005 4959
1006 1005 -6.04961e-09
1005 1006 -3e-05
1006 1006 171
1007 1007 12771
1008 1008 4959
1009 1008 -6.04961e-09
1008 1009 -3e-05
1009 1009 171
1010 1010 2942
1011 1011 2696.4
1012 1012 2942
1013 1013 2696.4
1014 1014 1431
1015 1015 781.68
1016 1016 5917
1017 1016 -4.56312e-09
1016 1017 -2.7e-05
1017 1017 170
1018 1018 5917
1019 1018 -4.56312e-09
1018 1019 -2.7e-05
1019 1019 170
1020 1020 681.2
1021 1020 -1.3212e-08
1020 1021 -9e-06
1021 1021 170
1022 1022 8001.8
1023 1022 -2.24949e-09
1022 1023 -1.8e-05
1023 1023 170
1024 1024 2262.6
1025 1025 2262.6
1026 1026 170
1028 1026 -1.23529e-07
1027 1027 3699
1028 1027 -5.67721e-09
1026 1028 -2.1e-05
1027 1028 -2.1e-05
1028 1028 170
1029 1029 170
1031 1029 -1.23529e-07
1030 1030 3699
1031 1030 -5.67721e-09
1029 1031 -2.1e-05
1030 1031 -2.1e-05
1031 1031 170
1032 1032 170
1034 1032 -1.23529e-07
1033 1033 3699
1034 1033 -5.67721e-09
1032 1034 -2.1e-05
1033 1034 -2.1e-05
1034 1034 170
1035 1035 170
1037 1035 -1.23529e-07
1036 1036 3699
1037 1036 -5.67721e-09
1035 1037 -2.1e-05
1036 1037 -2.1e-05
1037 1037 170
1038 1038 2262.6
1039 1039 2262.6
1040 1040 170
1042 1040 -1.23529e-07
1041 1041 3699
1042 1041 -5.67721e-09
1040 1042 -2.1e-05
1041 1042 -2.1e-05
1042 1042 170
1043 1043 170
1045 1043 -1.23529e-07
1044 1044 3699
1045 1044 -5.67721e-09
1043 1045 -2.1e-05
1044 1045 -2.1e-05
1045 1045 170
1046 1046 170
1048 1046 -1.23529e-07
1047 1047 3699
1048 1047 -5.67721e-09
1046 1048 -2.1e-05
1047 1048 -2.1e-05
1048 1048 170
1049 1049 170
1051 1049 -1.23529e-07
1050 1050 3699
1051 1050 -5.67721e-09
1049 1051 -2.1e-05
1050 1051 -2.1e-05
1051 1051 170
1052 1052 2262.6
1053 1053 2262.6
1054 1054 170
1056 1054 -1.23529e-07
1055 1055 3699
1056 1055 -5.67721e-09
1054 1056 -2.1e-05
1055 1056 -2.1e-05
1056 1056 170
1057 1057 170
1059 1057 -1.23529e-07
1058 1058 3699
1059 1058 -5.67721e-09
1057 1059 -2.1e-05
1058 1059 -2.1e-05
1059 1059 170
1060 1060 170
1062 1060 -1.23529e-07
1061 1061 3699
1062 1061 -5.67721e-09
1060 1062 -2.1e-05
1061 1062 -2.1e-05
1062 1062 170
1063 1063 170
1065 1063 -1.23529e-07
1064 1064 3699
1065 1064 -5.67721e-09
1063 1065 -2.1e-05
1064 1065 -2.1e-05
1065 1065 170
1066 1066 2262.6
1067 1067 2262.6
1068 1068 170
1070 1068 -1.23529e-07
1069 1069 3699
1070 1069 -5.67721e-09
1068 1070 -2.1e-05
1069 1070 -2.1e-05
1070 1070 170
1071 1071 170
1073 1071 -1.23529e-07
1072 1072 3699
1073 1072 -5.67721e-09
1071 1073 -2.1e-05
1072 1073 -2.1e-05
1073 1073 170
1074 1074 170
1076 1074 -1.23529e-07
1075 1075 3699
1076 1075 -5.67721e-09
1074 1076 -2.1e-05
1075 1076 -2.1e-05
1076 1076 170
1077 1077 170
1079 1077 -1.23529e-07
1078 1078 3699
1079 1078 -5.67721e-09
1077 1079 -2.1e-05
1078 1079 -2.1e-05
1079 1079 170
1080 1080 2086.2
1081 1081 3699
1082 1082 1053
1083 1083 3699
1084 1084 964.8
1085 1085 2086.2
1086 1086 170
1088 1086 -2.29412e-07
1087 1087 1783.8
1088 1087 -2.18634e-08
1086 1088 -3.9e-05
1087 1088 -3.9e-05
1088 1088 170
1089 1089 4171.4
1090 1089 -7.19183e-09
1089 1090 -3e-05
1090 1090 170
1091 1091 170
1093 1091 -2.29412e-07
1092 1092 1783.8
1093 1092 -2.18634e-08
1091 1093 -3.9e-05
1092 1093 -3.9e-05
1093 1093 170
1094 1094 2086.2
1095 1095 1053
1096 1096 964.8
1097 1097 2086.2
1098 1098 170
1100 1098 -2.29412e-07
1099 1099 4707
1100 1099 -8.28553e-09
1098 1100 -3.9e-05
1099 1100 -3.9e-05
1100 1100 170
1101 1101 4171.4
1102 1101 -7.19183e-09
1101 1102 -3e-05
1102 1102 170
1103 1103 170
1105 1103 -2.29412e-07
1104 1104 4707
1105 1104 -8.28553e-09
1103 1105 -3.9e-05
1104 1105 -3.9e-05
1105 1105 170
1106 1106 989
1107 1107 989
1108 1108 989
1109 1109 989
1110 1110 170
1112 1110 -3.52941e-08
1111 1111 1295.6
1112 1111 -4.63106e-09
1110 1112 -6e-06
1111 1112 -6e-06
1112 1112 170
1113 1113 170
1115 1113 -3.52941e-08
1114 1114 1295.6
1115 1114 -4.63106e-09
1113 1115 -6e-06
1114 1115 -6e-06
1115 1115 170
1116 1116 170
1118 1116 -3.52941e-08
1117 1117 1295.6
1118 1117 -4.63106e-09
1116 1118 -6e-06
1117 1118 -6e-06
1118 1118 170
1119 1119 170
1121 1119 -3.52941e-08
1120 1120 1295.6
1121 1120 -4.63106e-09
1119 1121 -6e-06
1120 1121 -6e-06
1121 1121 170
1122 1122 322.2
1123 1123 322.2
1124 1124 322.2
1125 1125 322.2
1126 1126 170
1127 1126 -2.35294e-08
1126 1127 -4e-06
1127 1127 170
1130 1127 -2.35294e-08
1128 1128 623.6
1130 1128 -9.62155e-09
1129 1129 623.6
1130 1129 -9.62155e-09
1127 1130 -4e-06
1128 1130 -6e-06
1129 1130 -6e-06
1130 1130 170
1131 1131 170
1132 1131 -2.35294e-08
1131 1132 -4e-06
1132 1132 170
1135 1132 -2.35294e-08
1133 1133 623.6
1135 1133 -9.62155e-09
1134 1134 623.6
1135 1134 -9.62155e-09
1132 1135 -4e-06
1133 1135 -6e-06
1134 1135 -6e-06
1135 1135 170
1136 1136 170
1137 1136 -2.35294e-08
1136 1137 -4e-06
1137 1137 170
1140 1137 -2.35294e-08
1138 1138 623.6
1140 1138 -9.62155e-09
1139 1139 623.6
1140 1139 -9.62155e-09
1137 1140 -4e-06
1138 1140 -6e-06
1139 1140 -6e-06
1140 1140 170
1141 1141 170
1142 1141 -2.35294e-08
1141 1142 -4e-06
1142 1142 170
1145 1142 -2.35294e-08
1143 1143 623.6
1145 1143 -9.62155e-09
1144 1144 623.6
1145 1144 -9.62155e-09
1142 1145 -4e-06
1143 1145 -6e-06
1144 1145 -6e-06
1145 1145 170
1146 1146 170
1148 1146 -3.52941e-08
1147 1147 1295.6
1148 1147 -4.63106e-09
1146 1148 -6e-06
1147 1148 -6e-06
1148 1148 170
1149 1149 170
1151 1149 -3.52941e-08
1150 1150 1295.6
1151 1150 -4.63106e-09
1149 1151 -6e-06
1150 1151 -6e-06
1151 1151 170
1152 1152 170
1154 1152 -3.52941e-08
1153 1153 1295.6
1154 1153 -4.63106e-09
1152 1154 -6e-06
1153 1154 -6e-06
1154 1154 170
1155 1155 170
1157 1155 -3.52941e-08
1156 1156 1295.6
1157 1156 -4.63106e-09
1155 1157 -6e-06
1156 1157 -6e-06
1157 1157 170
1158 1158 322.2
1159 1159 322.2
1160 1160 322.2
1161 1161 322.2
1162 1162 1045.6
1163 1163 1045.6
1164 1164 1045.6
1165 1165 1045.6
1166 1166 33737.4
1167 1167 3195
1168 1168 42849.7
1169 1169 1040.4
1170 1170 891.72
1171 1171 1040.4
1172 1172 942.12
1173 1173 15680.8
1174 1174 50520.6
1175 1175 170
1177 1175 -5.64706e-08
1176 1176 1531.8
1177 1176 -6.65883e-09
1175 1177 -9.6e-06
1176 1177 -1.02e-05
1177 1177 170
1178 1178 170
1180 1178 -5.64706e-08
1179 1179 886.68
1180 1179 -1.15036e-08
1178 1180 -9.6e-06
1179 1180 -1.02e-05
1180 1180 170
1181 1181 3867
1182 1181 -1.03439e-08
1181 1182 -4e-05
1182 1182 171
1183 1183 5003.54
1184 1184 5001.44
1185 1185 1394.72
1186 1186 1394.72
1187 1187 170
1188 1187 -8.47059e-08
1187 1188 -1.44e-05
1188 1188 4887.44
1189 1189 4887.44
1190 1189 -2.94633e-09
1189 1190 -1.44e-05
1190 1190 170
1191 1191 1672.5
1192 1191 -1.20179e-08
1191 1192 -2.01e-05
1192 1192 171
1193 1193 2640.6
1194 1193 -7.61191e-09
1193 1194 -2.01e-05
1194 1194 171
1195 1195 2491.4
1196 1195 -8.429e-09
1195 1196 -2.1e-05
1196 1196 170
1197 1197 20777.4
1198 1198 17887.8
1199 1199 17887.8
1200 1200 10943.8
1201 1201 10451
1202 1202 10943.8
1203 1203 10451
1204 1204 10943.8
1205 1205 10451
1206 1206 1236
1214 1206 -4.85437e-09
1207 1207 1236
1214 1207 -4.85437e-09
1208 1208 1236
1214 1208 -4.85437e-09
1209 1209 1236
1214 1209 -4.85437e-09
1210 1210 1236
1214 1210 -4.85437e-09
1211 1211 1236
1214 1211 -4.85437e-09
1212 1212 1236
1214 1212 -4.85437e-09
1213 1213 1236
1214 1213 -4.85437e-09
1206 1214 -6e-06
1207 1214 -6e-06
1208 1214 -6e-06
1209 1214 -6e-06
1210 1214 -6e-06
1211 1214 -6e-06
1212 1214 -6e-06
1213 1214 -6e-06
1214 1214 4531
1215 1215 17887.8
1216 1216 17887.8
1217 1217 10451
1218 1218 10943.8
1219 1219 10451
1220 1220 10943.8
1221 1221 10451
1222 1222 10943.8
1223 1223 574.2
1224 1224 1236
1232 1224 -4.85437e-09
1225 1225 1236
1232 1225 -4.85437e-09
1226 1226 1236
1232 1226 -4.85437e-09
1227 1227 1236
1232 1227 -4.85437e-09
1228 1228 1236
1232 1228 -4.85437e-09
1229 1229 1236
1232 1229 -4.85437e-09
1230 1230 1236
1232 1230 -4.85437e-09
1231 1231 1236
1232 1231 -4.85437e-09
1224 1232 -6e-06
1225 1232 -6e-06
1226 1232 -6e-06
1227 1232 -6e-06
1228 1232 -6e-06
1229 1232 -6e-06
1230 1232 -6e-06
1231 1232 -6e-06
1232 1232 4531
1233 1233 212573
1234 1234 212573
1235 1235 19464.1
1236 1236 170
1238 1236 -8.82353e-08
1237 1237 1405.8
1238 1237 -1.06701e-08
1236 1238 -1.5e-05
1237 1238 -1.5e-05
1238 1238 170
1239 1239 6471
1240 1240 6471
1241 1241 1330.2
1242 1242 170
1244 1242 -2.47059e-08
1243 1243 407.88
1244 1243 -1.02971e-08
1242 1244 -4.2e-06
1243 1244 -4.2e-06
1244 1244 170
1245 1245 170
1247 1245 -7.05882e-08
1246 1246 1053
1247 1246 -1.1396e-08
1245 1247 -1.2e-05
1246 1247 -1.2e-05
1247 1247 170
1248 1248 1678.8
1249 1248 -7.14796e-09
1248 1249 -1.2e-05
1249 1249 171
1250 1250 1935
1251 1250 -6.20155e-09
1250 1251 -1.2e-05
1251 1251 171
1252 1252 1330.2
1253 1253 170
1255 1253 -2.47059e-08
1254 1254 407.88
1255 1254 -1.02971e-08
1253 1255 -4.2e-06
1254 1255 -4.2e-06
1255 1255 170
1256 1256 170
1258 1256 -7.05882e-08
1257 1257 1053
1258 1257 -1.1396e-08
1256 1258 -1.2e-05
1257 1258 -1.2e-05
1258 1258 170
1259 1259 1678.8
1260 1259 -7.14796e-09
1259 1260 -1.2e-05
1260 1260 171
1261 1261 1935
1262 1261 -6.20155e-09
1261 1262 -1.2e-05
1262 1262 171
1263 1263 1267.1
1264 1263 -1.42057e-08
1263 1264 -1.8e-05
1264 1264 170
1265 1265 1267.1
1266 1265 -1.65733e-08
1265 1266 -2.1e-05
1266 1266 170
1267 1267 1267.1
1268 1267 -1.42057e-08
1267 1268 -1.8e-05
1268 1268 170
1269 1269 1267.1
1270 1269 -1.65733e-08
1269 1270 -2.1e-05
1270 1270 170
1271 1271 6471
1272 1272 6471
1273 1273 1330.2
1274 1274 170
1276 1274 -2.47059e-08
1275 1275 407.88
1276 1275 -1.02971e-08
1274 1276 -4.2e-06
1275 1276 -4.2e-06
1276 1276 170
1277 1277 170
1279 1277 -7.05882e-08
1278 1278 1053
1279 1278 -1.1396e-08
1277 1279 -1.2e-05
1278 1279 -1.2e-05
1279 1279 170
1280 1280 1678.8
1281 1280 -7.14796e-09
1280 1281 -1.2e-05
1281 1281 171
1282 1282 1935
1283 1282 -6.20155e-09
1282 1283 -1.2e-05
1283 1283 171
1284 1284 1330.2
1285 1285 170
1287 1285 -2.47059e-08
1286 1286 407.88
1287 1286 -1.02971e-08
1285 1287 -4.2e-06
1286 1287 -4.2e-06
1287 1287 170
1288 1288 170
1290 1288 -7.05882e-08
1289 1289 1053
1290 1289 -1.1396e-08
1288 1290 -1.2e-05
1289 1290 -1.2e-05
1290 1290 170
1291 1291 1678.8
1292 1291 -7.14796e-09
1291 1292 -1.2e-05
1292 1292 171
1293 1293 1935
1294 1293 -6.20155e-09
1293 1294 -1.2e-05
1294 1294 171
1295 1295 1267.1
1296 1295 -1.42057e-08
1295 1296 -1.8e-05
1296 1296 170
1297 1297 1267.1
1298 1297 -1.65733e-08
1297 1298 -2.1e-05
1298 1298 170
1299 1299 1267.1
1300 1299 -1.42057e-08
1299 1300 -1.8e-05
1300 1300 170
1301 1301 1267.1
1302 1301 -1.65733e-08
1301 1302 -2.1e-05
1302 1302 170
1303 1303 12771
1304 1304 4959
1305 1304 -6.04961e-09
1304 1305 -3e-05
1305 1305 171
1306 1306 12771
1307 1307 4959
1308 1307 -6.04961e-09
1307 1308 -3e-05
1308 1308 171
1309 1309 2942
1310 1310 2696.4
1311 1311 2942
1312 1312 2696.4
1313 1313 1431
1314 1314 781.68
1315 1315 5917
1316 1315 -4.56312e-09
1315 1316 -2.7e-05
1316 1316 170
1317 1317 5917
1318 1317 -4.56312e-09
1317 1318 -2.7e-05
1318 1318 170
1319 1319 681.2
1320 1319 -1.3212e-08
1319 1320 -9e-06
1320 1320 170
1321 1321 8001.8
1322 1321 -2.24949e-09
1321 1322 -1.8e-05
1322 1322 170
1323 1323 2262.6
1324 1324 2262.6
1325 1325 170
1327 1325 -1.23529e-07
1326 1326 3699
1327 1326 -5.67721e-09
1325 1327 -2.1e-05
1326 1327 -2.1e-05
1327 1327 170
1328 1328 170
1330 1328 -1.23529e-07
1329 1329 3699
1330 1329 -5.67721e-09
1328 1330 -2.1e-05
1329 1330 -2.1e-05
1330 1330 170
1331 1331 170
1333 1331 -1.23529e-07
1332 1332 3699
1333 1332 -5.67721e-09
1331 1333 -2.1e-05
1332 1333 -2.1e-05
1333 1333 170
1334 1334 170
1336 1334 -1.23529e-07
1335 1335 3699
1336 1335 -5.67721e-09
1334 1336 -2.1e-05
1335 1336 -2.1e-05
1336 1336 170
1337 1337 2262.6
1338 1338 2262.6
1339 1339 170
1341 1339 -1.23529e-07
1340 1340 3699
1341 1340 -5.67721e-09
1339 1341 -2.1e-05
1340 1341 -2.1e-05
1341 1341 170
1342 1342 170
1344 1342 -1.23529e-07
1343 1343 3699
1344 1343 -5.67721e-09
1342 1344 -2.1e-05
1343 1344 -2.1e-05
1344 1344 170
1345 1345 170
1347 1345 -1.23529e-07
1346 1346 3699
1347 1346 -5.67721e-09
1345 1347 -2.1e-05
1346 1347 -2.1e-05
1347 1347 170
1348 1348 170
1350 1348 -1.23529e-07
1349 1349 3699
1350 1349 -5.67721e-09
1348 1350 -2.1e-05
1349 1350 -2.1e-05
1350 1350 170
1351 1351 2262.6
1352 1352 2262.6
1353 1353 170
1355 1353 -1.23529e-07
1354 1354 3699
1355 1354 -5.67721e-09
1353 1355 -2.1e-05
1354 1355 -2.1e-05
1355 1355 170
1356 1356 170
1358 1356 -1.23529e-07
1357 1357 3699
1358 1357 -5.67721e-09
1356 1358 -2.1e-05
1357 1358 -2.1e-05
1358 1358 170
1359 1359 170
1361 1359 -1.23529e-07
1360 1360 3699
1361 1360 -5.67721e-09
1359 1361 -2.1e-05
1360 1361 -2.1e-05
1361 1361 170
1362 1362 170
1364 1362 -1.23529e-07
1363 1363 3699
1364 1363 -5.67721e-09
1362 1364 -2.1e-05
1363 1364 -2.1e-05
1364 1364 170
1365 1365 2262.6
1366 1366 2262.6
1367 1367 170
1369 1367 -1.23529e-07
1368 1368 3699
1369 1368 -5.67721e-09
1367 1369 -2.1e-05
1368 1369 -2.1e-05
1369 1369 170
1370 1370 170
1372 1370 -1.23529e-07
1371 1371 3699
1372 1371 -5.67721e-09
1370 1372 -2.1e-05
1371 1372 -2.1e-05
1372 1372 170
1373 1373 170
1375 1373 -1.23529e-07
1374 1374 3699
1375 1374 -5.67721e-09
1373 1375 -2.1e-05
1374 1375 -2.1e-05
1375 1375 170
1376 1376 170
1378 1376 -1.23529e-07
1377 1377 3699
1378 1377 -5.67721e-09
1376 1378 -2.1e-05
1377 1378 -2.1e-05
1378 1378 170
1379 1379 2086.2
1380 1380 3699
1381 1381 1053
1382 1382 3699
1383 1383 964.8
1384 1384 2086.2
1385 1385 170
1387 1385 -2.29412e-07
1386 1386 1783.8
1387 1386 -2.18634e-08
1385 1387 -3.9e-05
1386 1387 -3.9e-05
1387 1387 170
1388 1388 4171.4
1389 1388 -7.19183e-09
1388 1389 -3e-05
1389 1389 170
1390 1390 170
1392 1390 -2.29412e-07
1391 1391 1783.8
1392 1391 -2.18634e-08
1390 1392 -3.9e-05
1391 1392 -3.9e-05
1392 1392 170
1393 1393 2086.2
1394 1394 1053
1395 1395 964.8
1396 1396 2086.2
1397 1397 170
1399 1397 -2.29412e-07
1398 1398 4707
1399 1398 -8.28553e-09
1397 1399 -3.9e-05
1398 1399 -3.9e-05
1399 1399 170
1400 1400 4171.4
1401 1400 -7.19183e-09
1400 1401 -3e-05
1401 1401 170
1402 1402 170
1404 1402 -2.29412e-07
1403 1403 4707
1404 1403 -8.28553e-09
1402 1404 -3.9e-05
1403 1404 -3.9e-05
1404 1404 170
1405 1405 989
1406 1406 989
1407 1407 989
1408 1408 989
1409 1409 170
1411 1409 -3.52941e-08
1410 1410 1295.6
1411 1410 -4.63106e-09
1409 1411 -6e-06
1410 1411 -6e-06
1411 1411 170
1412 1412 170
1414 1412 -3.52941e-08
1413 1413 1295.6
1414 1413 -4.63106e-09
1412 1414 -6e-06
1413 1414 -6e-06
1414 1414 170
1415 1415 170
1417 1415 -3.52941e-08
1416 1416 1295.6
1417 1416 -4.63106e-09
1415 1417 -6e-06
1416 1417 -6e-06
1417 1417 170
1418 1418 170
1420 1418 -3.52941e-08
1419 1419 1295.6
1420 1419 -4.63106e-09
1418 1420 -6e-06
1419 1420 -6e-06
1420 1420 170
1421 1421 322.2
1422 1422 322.2
1423 1423 322.2
1424 1424 322.2
1425 1425 170
1426 1425 -2.35294e-08
1425 1426 -4e-06
1426 1426 170
1429 1426 -2.35294e-08
1427 1427 623.6
1429 1427 -9.62155e-09
1428 1428 623.6
1429 1428 -9.62155e-09
1426 1429 -4e-06
1427 1429 -6e-06
1428 1429 -6e-06
1429 1429 170
1430 1430 170
1431 1430 -2.35294e-08
1430 1431 -4e-06
1431 1431 170
1434 1431 -2.35294e-08
1432 1432 623.6
1434 1432 -9.62155e-09
1433 1433 623.6
1434 1433 -9.62155e-09
1431 1434 -4e-06
1432 1434 -6e-06
1433 1434 -6e-06
1434 1434 170
1435 1435 170
1436 1435 -2.35294e-08
1435 1436 -4e-06
1436 1436 170
1439 1436 -2.35294e-08
1437 1437 623.6
1439 1437 -9.62155e-09
1438 1438 623.6
1439 1438 -9.62155e-09
1436 1439 -4e-06
1437 1439 -6e-06
1438 1439 -6e-06
1439 1439 170
1440 1440 170
1441 1440 -2.35294e-08
1440 1441 -4e-06
1441 1441 170
1444 1441 -2.35294e-08
1442 1442 623.6
1444 1442 -9.62155e-09
1443 1443 623.6
1444 1443 -9.62155e-09
1441 1444 -4e-06
1442 1444 -6e-06
1443 1444 -6e-06
1444 1444 170
1445 1445 170
1447 1445 -3.52941e-08
1446 1446 1295.6
1447 1446 -4.63106e-09
1445 1447 -6e-06
1446 1447 -6e-06
1447 1447 170
1448 1448 170
1450 1448 -3.52941e-08
1449 1449 1295.6
1450 1449 -4.63106e-09
1448 1450 -6e-06
1449 1450 -6e-06
1450 1450 170
1451 1451 170
1453 1451 -3.52941e-08
1452 1452 1295.6
1453 1452 -4.63106e-09
1451 1453 -6e-06
1452 1453 -6e-06
1453 1453 170
1454 1454 170
1456 1454 -3.52941e-08
1455 1455 1295.6
1456 1455 -4.63106e-09
1454 1456 -6e-06
1455 1456 -6e-06
1456 1456 170
1457 1457 322.2
1458 1458 322.2
1459 1459 322.2
1460 1460 322.2
1461 1461 1045.6
1462 1462 1045.6
1463 1463 1045.6
1464 1464 1045.6
1465 1465 33737.4
1466 1466 3195
1467 1467 42849.7
1468 1468 1040.4
1469 1469 891.72
1470 1470 1040.4
1471 1471 942.12
1472 1472 15680.8
1473 1473 50520.6
1474 1474 170
1476 1474 -5.64706e-08
1475 1475 1531.8
1476 1475 -6.65883e-09
1474 1476 -9.6e-06
1475 1476 -1.02e-05
1476 1476 170
1477 1477 170
1479 1477 -5.64706e-08
1478 1478 886.68
1479 1478 -1.15036e-08
1477 1479 -9.6e-06
1478 1479 -1.02e-05
1479 1479 170
1480 1480 3867
1481 1480 -1.03439e-08
1480 1481 -4e-05
1481 1481 171
1482 1482 5003.54
1483 1483 5001.44
1484 1484 1394.72
1485 1485 1394.72
1486 1486 170
1487 1486 -8.47059e-08
1486 1487 -1.44e-05
1487 1487 4887.44
1488 1488 4887.44
1489 1488 -2.94633e-09
1488 1489 -1.44e-05
1489 1489 170
1490 1490 1672.5
1491 1490 -1.20179e-08
1490 1491 -2.01e-05
1491 1491 171
1492 1492 2640.6
1493 1492 -7.61191e-09
1492 1493 -2.01e-05
1493 1493 171
1494 1494 2491.4
1495 1494 -8.429e-09
1494 1495 -2.1e-05
1495 1495 170
1496 1496 20777.4
1497 1497 17887.8
1498 1498 17887.8
1499 1499 10943.8
1500 1500 10451
1501 1501 10943.8
1502 1502 10451
1503 1503 10943.8
1504 1504 10451
1505 1505 1236
1513 1505 -4.85437e-09
1506 1506 1236
1513 1506 -4.85437e-09
1507 1507 1236
1513 1507 -4.85437e-09
1508 1508 1236
1513 1508 -4.85437e-09
1509 1509 1236
1513 1509 -4.85437e-09
1510 1510 1236
1513 1510 -4.85437e-09
1511 1511 1236
1513 1511 -4.85437e-09
1512 1512 1236
1513 1512 -4.85437e-09
1505 1513 -6e-06
1506 1513 -6e-06
1507 1513 -6e-06
1508 1513 -6e-06
1509 1513 -6e-06
1510 1513 -6e-06
1511 1513 -6e-06
1512 1513 -6e-06
1513 1513 4531
1514 1514 17887.8
1515 1515 17887.8
1516 1516 10451
1517 1517 10943.8
1518 1518 10451
1519 1519 10943.8
1520 1520 10451
1521 1521 10943.8
1522 1522 574.2
1523 1523 1236
1531 1523 -4.85437e-09
1524 1524 1236
1531 1524 -4.85437e-09
1525 1525 1236
1531 1525 -4.85437e-09
1526 1526 1236
1531 1526 -4.85437e-09
1527 1527 1236
1531 1527 -4.85437e-09
1528 1528 1236
1531 1528 -4.85437e-09
1529 1529 1236
1531 1529 -4.85437e-09
1530 1530 1236
1531 1530 -4.85437e-09
1523 1531 -6e-06
1524 1531 -6e-06
1525 1531 -6e-06
1526 1531 -6e-06
1527 1531 -6e-06
1528 1531 -6e-06
1529 1531 -6e-06
1530 1531 -6e-06
1531 1531 4531
1532 1532 212573
1533 1533 212573
1534 1534 19464.1
1535 1535 170
1537 1535 -8.82353e-08
1536 1536 1405.8
1537 1536 -1.06701e-08
1535 1537 -1.5e-05
1536 1537 -1.5e-05
1537 1537 170
1538 1538 6471
1539 1539 6471
1540 1540 1330.2
1541 1541 170
1543 1541 -2.47059e-08
1542 1542 407.88
1543 1542 -1.02971e-08
1541 1543 -4.2e-06
1542 1543 -4.2e-06
1543 1543 170
1544 1544 170
1546 1544 -7.05882e-08
1545 1545 1053
1546 1545 -1.1396e-08
1544 1546 -1.2e-05
1545 1546 -1.2e-05
1546 1546 170
1547 1547 1678.8
1548 1547 -7.14796e-09
1547 1548 -1.2e-05
1548 1548 171
1549 1549 1935
1550 1549 -6.20155e-09
1549 1550 -1.2e-05
1550 1550 171
1551 1551 1330.2
1552 1552 170
1554 1552 -2.47059e-08
1553 1553 407.88
1554 1553 -1.02971e-08
1552 1554 -4.2e-06
1553 1554 -4.2e-06
1554 1554 170
1555 1555 170
1557 1555 -7.05882e-08
1556 1556 1053
1557 1556 -1.1396e-08
1555 1557 -1.2e-05
1556 1557 -1.2e-05
1557 1557 170
1558 1558 1678.8
1559 1558 -7.14796e-09
1558 1559 -1.2e-05
1559 1559 171
1560 1560 1935
1561 1560 -6.20155e-09
1560 1561 -1.2e-05
1561 1561 171
1562 1562 1267.1
1563 1562 -1.42057e-08
1562 1563 -1.8e-05
1563 1563 170
1564 1564 1267.1
1565 1564 -1.65733e-08
1564 1565 -2.1e-05
1565 1565 170
1566 1566 1267.1
1567 1566 -1.42057e-08
1566 1567 -1.8e-05
1567 1567 170
1568 1568 1267.1
1569 1568 -1.65733e-08
1568 1569 -2.1e-05
1569 1569 170
1570 1570 6471
1571 1571 6471
1572 1572 1330.2
1573 1573 170
1575 1573 -2.47059e-08
1574 1574 407.88
1575 1574 -1.02971e-08
1573 1575 -4.2e-06
1574 1575 -4.2e-06
1575 1575 170
1576 1576 170
1578 1576 -7.05882e-08
1577 1577 1053
1578 1577 -1.1396e-08
1576 1578 -1.2e-05
1577 1578 -1.2e-05
1578 1578 170
1579 1579 1678.8
1580 1579 -7.14796e-09
1579 1580 -1.2e-05
1580 1580 171
1581 1581 1935
1582 1581 -6.20155e-09
1581 1582 -1.2e-05
1582 1582 171
1583 1583 1330.2
1584 1584 170
1586 1584 -2.47059e-08
1585 1585 407.88
1586 1585 -1.02971e-08
1584 1586 -4.2e-06
1585 1586 -4.2e-06
1586 1586 170
1587 1587 170
1589 1587 -7.05882e-08
1588 1588 1053
1589 1588 -1.1396e-08
1587 1589 -1.2e-05
1588 1589 -1.2e-05
1589 1589 170
1590 1590 1678.8
1591 1590 -7.14796e-09
1590 1591 -1.2e-05
1591 1591 171
1592 1592 1935
1593 1592 -6.20155e-09
1592 1593 -1.2e-05
1593 1593 171
1594 1594 1267.1
1595 1594 -1.42057e-08
1594 1595 -1.8e-05
1595 1595 170
1596 1596 1267.1
1597 1596 -1.65733e-08
1596 1597 -2.1e-05
1597 1597 170
1598 1598 1267.1
1599 1598 -1.42057e-08
1598 1599 -1.8e-05
1599 1599 170
1600 1600 1267.1
1601 1600 -1.65733e-08
1600 1601 -2.1e-05
1601 1601 170
1602 1602 12771
1603 1603 4959
1604 1603 -6.04961e-09
1603 1604 -3e-05
1604 1604 171
1605 1605 12771
1606 1606 4959
1607 1606 -6.04961e-09
1606 1607 -3e-05
1607 1607 171
1608 1608 2942
1609 1609 2696.4
1610 1610 2942
1611 1611 2696.4
1612 1612 1431
1613 1613 781.68
1614 1614 5917
1615 1614 -4.56312e-09
1614 1615 -2.7e-05
1615 1615 170
1616 1616 5917
1617 1616 -4.56312e-09
1616 1617 -2.7e-05
1617 1617 170
1618 1618 681.2
1619 1618 -1.3212e-08
1618 1619 -9e-06
1619 1619 170
1620 1620 8001.8
1621 1620 -2.24949e-09
1620 1621 -1.8e-05
1621 1621 170
1622 1622 2262.6
1623 1623 2262.6
1624 1624 170
1626 1624 -1.23529e-07
1625 1625 3699
1626 1625 -5.67721e-09
1624 1626 -2.1e-05
1625 1626 -2.1e-05
1626 1626 170
1627 1627 170
1629 1627 -1.23529e-07
1628 1628 3699
1629 1628 -5.67721e-09
1627 1629 -2.1e-05
1628 1629 -2.1e-05
1629 1629 170
1630 1630 170
1632 1630 -1.23529e-07
1631 1631 3699
1632 1631 -5.67721e-09
1630 1632 -2.1e-05
1631 1632 -2.1e-05
1632 1632 170
1633 1633 170
1635 1633 -1.23529e-07
1634 1634 3699
1635 1634 -5.67721e-09
1633 1635 -2.1e-05
1634 1635 -2.1e-05
1635 1635 170
1636 1636 2262.6
1637 1637 2262.6
1638 1638 170
1640 1638 -1.23529e-07
1639 1639 3699
1640 1639 -5.67721e-09
1638 1640 -2.1e-05
1639 1640 -2.1e-05
1640 1640 170
1641 1641 170
1643 1641 -1.23529e-07
1642 1642 3699
1643 1642 -5.67721e-09
1641 1643 -2.1e-05
1642 1643 -2.1e-05
1643 1643 170
1644 1644 170
1646 1644 -1.23529e-07
1645 1645 3699
1646 1645 -5.67721e-09
1644 1646 -2.1e-05
1645 1646 -2.1e-05
1646 1646 170
1647 1647 170
1649 1647 -1.23529e-07
1648 1648 3699
1649 1648 -5.67721e-09
1647 1649 -2.1e-05
1648 1649 -2.1e-05
1649 1649 170
1650 1650 2262.6
1651 1651 2262.6
1652 1652 170
1654 1652 -1.23529e-07
1653 1653 3699
1654 1653 -5.67721e-09
1652 1654 -2.1e-05
1653 1654 -2.1e-05
1654 1654 170
1655 1655 170
1657 1655 -1.23529e-07
1656 1656 3699
1657 1656 -5.67721e-09
1655 1657 -2.1e-05
1656 1657 -2.1e-05
1657 1657 170
1658 1658 170
1660 1658 -1.23529e-07
1659 1659 3699
1660 1659 -5.67721e-09
1658 1660 -2.1e-05
1659 1660 -2.1e-05
1660 1660 170
1661 1661 170
1663 1661 -1.23529e-07
1662 1662 3699
1663 1662 -5.67721e-09
1661 1663 -2.1e-05
1662 1663 -2.1e-05
1663 1663 170
1664 1664 2262.6
1665 1665 2262.6
1666 1666 170
1668 1666 -1.23529e-07
1667 1667 3699
1668 1667 -5.67721e-09
1666 1668 -2.1e-05
1667 1668 -2.1e-05
1668 1668 170
1669 1669 170
1671 1669 -1.23529e-07
1670 1670 3699
1671 1670 -5.67721e-09
1669 1671 -2.1e-05
1670 1671 -2.1e-05
1671 1671 170
1672 1672 170
1674 1672 -1.23529e-07
1673 1673 3699
1674 1673 -5.67721e-09
1672 1674 -2.1e-05
1673 1674 -2.1e-05
1674 1674 170
1675 1675 170
1677 1675 -1.23529e-07
1676 1676 3699
1677 1676 -5.67721e-09
1675 1677 -2.1e-05
1676 1677 -2.1e-05
1677 1677 170
1678 1678 2086.2
1679 1679 3699
1680 1680 1053
1681 1681 3699
1682 1682 964.8
1683 1683 2086.2
1684 1684 170
1686 1684 -2.29412e-07
1685 1685 1783.8
1686 1685 -2.18634e-08
1684 1686 -3.9e-05
1685 1686 -3.9e-05
1686 1686 170
1687 1687 4171.4
1688 1687 -7.19183e-09
1687 1688 -3e-05
1688 1688 170
1689 1689 170
1691 1689 -2.29412e-07
1690 1690 1783.8
1691 1690 -2.18634e-08
1689 1691 -3.9e-05
1690 1691 -3.9e-05
1691 1691 170
1692 1692 2086.2
1693 1693 1053
1694 1694 964.8
1695 1695 2086.2
1696 1696 170
1698 1696 -2.29412e-07
1697 1697 4707
1698 1697 -8.28553e-09
1696 1698 -3.9e-05
1697 1698 -3.9e-05
1698 1698 170
1699 1699 4171.4
1700 1699 -7.19183e-09
1699 1700 -3e-05
1700 1700 170
1701 1701 170
1703 1701 -2.29412e-07
1702 1702 4707
1703 1702 -8.28553e-09
1701 1703 -3.9e-05
1702 1703 -3.9e-05
1703 1703 170
1704 1704 989
1705 1705 989
1706 1706 989
1707 1707 989
1708 1708 170
1710 1708 -3.52941e-08
1709 1709 1295.6
1710 1709 -4.63106e-09
1708 1710 -6e-06
1709 1710 -6e-06
1710 1710 170
1711 1711 170
1713 1711 -3.52941e-08
1712 1712 1295.6
1713 1712 -4.63106e-09
1711 1713 -6e-06
1712 1713 -6e-06
1713 1713 170
1714 1714 170
1716 1714 -3.52941e-08
1715 1715 1295.6
1716 1715 -4.63106e-09
1714 1716 -6e-06
1715 1716 -6e-06
1716 1716 170
1717 1717 170
1719 1717 -3.52941e-08
1718 1718 1295.6
1719 1718 -4.63106e-09
1717 1719 -6e-06
1718 1719 -6e-06
1719 1719 170
1720 1720 322.2
1721 1721 322.2
1722 1722 322.2
1723 1723 322.2
1724 1724 170
1725 1724 -2.35294e-08
1724 1725 -4e-06
1725 1725 170
1728 1725 -2.35294e-08
1726 1726 623.6
1728 1726 -9.62155e-09
1727 1727 623.6
1728 1727 -9.62155e-09
1725 1728 -4e-06
1726 1728 -6e-06
1727 1728 -6e-06
1728 1728 170
1729 1729 170
1730 1729 -2.35294e-08
1729 1730 -4e-06
1730 1730 170
1733 1730 -2.35294e-08
1731 1731 623.6
1733 1731 -9.62155e-09
1732 1732 623.6
1733 1732 -9.62155e-09
1730 1733 -4e-06
1731 1733 -6e-06
1732 1733 -6e-06
1733 1733 170
1734 1734 170
1735 1734 -2.35294e-08
1734 1735 -4e-06
1735 1735 170
1738 1735 -2.35294e-08
1736 1736 623.6
1738 1736 -9.62155e-09
1737 1737 623.6
1738 1737 -9.62155e-09
1735 1738 -4e-06
1736 1738 -6e-06
1737 1738 -6e-06
1738 1738 170
1739 1739 170
1740 1739 -2.35294e-08
1739 1740 -4e-06
1740 1740 170
1743 1740 -2.35294e-08
1741 1741 623.6
1743 1741 -9.62155e-09
1742 1742 623.6
1743 1742 -9.62155e-09
1740 1743 -4e-06
1741 1743 -6e-06
1742 1743 -6e-06
1743 1743 170
1744 1744 170
1746 1744 -3.52941e-08
1745 1745 1295.6
1746 1745 -4.63106e-09
1744 1746 -6e-06
1745 1746 -6e-06
1746 1746 170
1747 1747 170
1749 1747 -3.52941e-08
1748 1748 1295.6
1749 1748 -4.63106e-09
1747 1749 -6e-06
1748 1749 -6e-06
1749 1749 170
1750 1750 170
1752 1750 -3.52941e-08
1751 1751 1295.6
1752 1751 -4.63106e-09
1750 1752 -6e-06
1751 1752 -6e-06
1752 1752 170
1753 1753 170
1755 1753 -3.52941e-08
1754 1754 1295.6
1755 1754 -4.63106e-09
1753 1755 -6e-06
1754 1755 -6e-06
1755 1755 170
1756 1756 322.2
1757 1757 322.2
1758 1758 322.2
1759 1759 322.2
1760 1760 1045.6
1761 1761 1045.6
1762 1762 1045.6
1763 1763 1045.6
1764 1764 33737.4
1765 1765 3195
1766 1766 42849.7
1767 1767 1040.4
1768 1768 891.72
1769 1769 1040.4
1770 1770 942.12
1771 1771 15680.8
1772 1772 50520.6
1773 1773 170
1775 1773 -5.64706e-08
1774 1774 1531.8
1775 1774 -6.65883e-09
1773 1775 -9.6e-06
1774 1775 -1.02e-05
1775 1775 170
1776 1776 170
1778 1776 -5.64706e-08
1777 1777 886.68
1778 1777 -1.15036e-08
1776 1778 -9.6e-06
1777 1778 -1.02e-05
1778 1778 170
1779 1779 3867
1780 1779 -1.03439e-08
1779 1780 -4e-05
1780 1780 171
1781 1781 5003.54
1782 1782 5001.44
1783 1783 1394.72
1784 1784 1394.72
1785 1785 170
1786 1785 -8.47059e-08
1785 1786 -1.44e-05
1786 1786 4887.44
1787 1787 4887.44
1788 1787 -2.94633e-09
1787 1788 -1.44e-05
1788 1788 170
1789 1789 1672.5
1790 1789 -1.20179e-08
1789 1790 -2.01e-05
1790 1790 171
1791 1791 2640.6
1792 1791 -7.61191e-09
1791 1792 -2.01e-05
1792 1792 171
1793 1793 2491.4
1794 1793 -8.429e-09
1793 1794 -2.1e-05
1794 1794 170
1795 1795 20777.4
1796 1796 17887.8
1797 1797 17887.8
1798 1798 10943.8
1799 1799 10451
1800 1800 10943.8
1801 1801 10451
1802 1802 10943.8
1803 1803 10451
1804 1804 1236
1812 1804 -4.85437e-09
1805 1805 1236
1812 1805 -4.85437e-09
1806 1806 1236
1812 1806 -4.85437e-09
1807 1807 1236
1812 1807 -4.85437e-09
1808 1808 1236
1812 1808 -4.85437e-09
1809 1809 1236
1812 1809 -4.85437e-09
1810 1810 1236
1812 1810 -4.85437e-09
1811 1811 1236
1812 1811 -4.85437e-09
1804 1812 -6e-06
1805 1812 -6e-06
1806 1812 -6e-06
1807 1812 -6e-06
1808 1812 -6e-06
1809 1812 -6e-06
1810 1812 -6e-06
1811 1812 -6e-06
1812 1812 4531
1813 1813 17887.8
1814 1814 17887.8
1815 1815 10451
1816 1816 10943.8
1817 1817 10451
1818 1818 10943.8
1819 1819 10451
1820 1820 10943.8
1821 1821 574.2
1822 1822 1236
1830 1822 -4.85437e-09
1823 1823 1236
1830 1823 -4.85437e-09
1824 1824 1236
1830 1824 -4.85437e-09
1825 1825 1236
1830 1825 -4.85437e-09
1826 1826 1236
1830 1826 -4.85437e-09
1827 1827 1236
1830 1827 -4.85437e-09
1828 1828 1236
1830 1828 -4.85437e-09
1829 1829 1236
1830 1829 -4.85437e-09
1822 1830 -6e-06
1823 1830 -6e-06
1824 1830 -6e-06
1825 1830 -6e-06
1826 1830 -6e-06
1827 1830 -6e-06
1828 1830 -6e-06
1829 1830 -6e-06
1830 1830 4531
1831 1831 212573
1832 1832 212573
1833 1833 19464.1
1834 1834 170
1836 1834 -8.82353e-08
1835 1835 1405.8
1836 1835 -1.06701e-08
1834 1836 -1.5e-05
1835 1836 -1.5e-05
1836 1836 170
1837 1837 6471
1838 1838 6471
1839 1839 1330.2
1840 1840 170
1842 1840 -2.47059e-08
1841 1841 407.88
1842 1841 -1.02971e-08
1840 1842 -4.2e-06
1841 1842 -4.2e-06
1842 1842 170
1843 1843 170
1845 1843 -7.05882e-08
1844 1844 1053
1845 1844 -1.1396e-08
1843 1845 -1.2e-05
1844 1845 -1.2e-05
1845 1845 170
1846 1846 1678.8
1847 1846 -7.14796e-09
1846 1847 -1.2e-05
1847 1847 171
1848 1848 1935
1849 1848 -6.20155e-09
1848 1849 -1.2e-05
1849 1849 171
1850 1850 1330.2
1851 1851 170
1853 1851 -2.47059e-08
1852 1852 407.88
1853 1852 -1.02971e-08
1851 1853 -4.2e-06
1852 1853 -4.2e-06
1853 1853 170
1854 1854 170
1856 1854 -7.05882e-08
1855 1855 1053
1856 1855 -1.1396e-08
1854 1856 -1.2e-05
1855 1856 -1.2e-05
1856 1856 170
1857 1857 1678.8
1858 1857 -7.14796e-09
1857 1858 -1.2e-05
1858 1858 171
1859 1859 1935
1860 1859 -6.20155e-09
1859 1860 -1.2e-05
1860 1860 171
1861 1861 1267.1
1862 1861 -1.42057e-08
1861 1862 -1.8e-05
1862 1862 170
1863 1863 1267.1
1864 1863 -1.65733e-08
1863 1864 -2.1e-05
1864 1864 170
1865 1865 1267.1
1866 1865 -1.42057e-08
1865 1866 -1.8e-05
1866 1866 170
1867 1867 1267.1
1868 1867 -1.65733e-08
1867 1868 -2.1e-05
1868 1868 170
1869 1869 6471
1870 1870 6471
1871 1871 1330.2
1872 1872 170
1874 1872 -2.47059e-08
1873 1873 407.88
1874 1873 -1.02971e-08
1872 1874 -4.2e-06
1873 1874 -4.2e-06
1874 1874 170
1875 1875 170
1877 1875 -7.05882e-08
1876 1876 1053
1877 1876 -1.1396e-08
1875 1877 -1.2e-05
1876 1877 -1.2e-05
1877 1877 170
1878 1878 1678.8
1879 1878 -7.14796e-09
1878 1879 -1.2e-05
1879 1879 171
1880 1880 1935
1881 1880 -6.20155e-09
1880 1881 -1.2e-05
1881 1881 171
1882 1882 1330.2
1883 1883 170
1885 1883 -2.47059e-08
1884 1884 407.88
1885 1884 -1.02971e-08
1883 1885 -4.2e-06
1884 1885 -4.2e-06
1885 1885 170
1886 1886 170
1888 1886 -7.05882e-08
1887 1887 1053
1888 1887 -1.1396e-08
1886 1888 -1.2e-05
1887 1888 -1.2e-05
1888 1888 170
1889 1889 1678.8
1890 1889 -7.14796e-09
1889 1890 -1.2e-05
1890 1890 171
1891 1891 1935
1892 1891 -6.20155e-09
1891 1892 -1.2e-05
1892 1892 171
1893 1893 1267.1
1894 1893 -1.42057e-08
1893 1894 -1.8e-05
1894 1894 170
1895 1895 1267.1
1896 1895 -1.65733e-08
1895 1896 -2.1e-05
1896 1896 170
1897 1897 1267.1
1898 1897 -1.42057e-08
1897 1898 -1.8e-05
1898 1898 170
1899 1899 1267.1
1900 1899 -1.65733e-08
1899 1900 -2.1e-05
1900 1900 170
1901 1901 12771
1902 1902 4959
1903 1902 -6.04961e-09
1902 1903 -3e-05
1903 1903 171
1904 1904 12771
1905 1905 4959
1906 1905 -6.04961e-09
1905 1906 -3e-05
1906 1906 171
1907 1907 2942
1908 1908 2696.4
1909 1909 2942
1910 1910 2696.4
1911 1911 1431
1912 1912 781.68
1913 1913 5917
1914 1913 -4.56312e-09
1913 1914 -2.7e-05
1914 1914 170
1915 1915 5917
1916 1915 -4.56312e-09
1915 1916 -2.7e-05
1916 1916 170
1917 1917 681.2
1918 1917 -1.3212e-08
1917 1918 -9e-06
1918 1918 170
1919 1919 8001.8
1920 1919 -2.24949e-09
1919 1920 -1.8e-05
1920 1920 170
1921 1921 2262.6
1922 1922 2262.6
1923 1923 170
1925 1923 -1.23529e-07
1924 1924 3699
1925 1924 -5.67721e-09
1923 1925 -2.1e-05
1924 1925 -2.1e-05
1925 1925 170
1926 1926 170
1928 1926 -1.23529e-07
1927 1927 3699
1928 1927 -5.67721e-09
1926 1928 -2.1e-05
1927 1928 -2.1e-05
1928 1928 170
1929 1929 170
1931 1929 -1.23529e-07
1930 1930 3699
1931 1930 -5.67721e-09
1929 1931 -2.1e-05
1930 1931 -2.1e-05
1931 1931 170
1932 1932 170
1934 1932 -1.23529e-07
1933 1933 3699
1934 1933 -5.67721e-09
1932 1934 -2.1e-05
1933 1934 -2.1e-05
1934 1934 170
1935 1935 2262.6
1936 1936 2262.6
1937 1937 170
1939 1937 -1.23529e-07
1938 1938 3699
1939 1938 -5.67721e-09
1937 1939 -2.1e-05
1938 1939 -2.1e-05
1939 1939 170
1940 1940 170
1942 1940 -1.23529e-07
1941 1941 3699
1942 1941 -5.67721e-09
1940 1942 -2.1e-05
1941 1942 -2.1e-05
1942 1942 170
1943 1943 170
1945 1943 -1.23529e-07
1944 1944 3699
1945 1944 -5.67721e-09
1943 1945 -2.1e-05
1944 1945 -2.1e-05
1945 1945 170
1946 1946 170
1948 1946 -1.23529e-07
1947 1947 3699
1948 1947 -5.67721e-09
1946 1948 -2.1e-05
1947 1948 -2.1e-05
1948 1948 170
1949 1949 2262.6
1950 1950 2262.6
1951 1951 170
1953 1951 -1.23529e-07
1952 1952 3699
1953 1952 -5.67721e-09
1951 1953 -2.1e-05
1952 1953 -2.1e-05
1953 1953 170
1954 1954 170
1956 1954 -1.23529e-07
1955 1955 3699
1956 1955 -5.67721e-09
1954 1956 -2.1e-05
1955 1956 -2.1e-05
1956 1956 170
1957 1957 170
1959 1957 -1.23529e-07
1958 1958 3699
1959 1958 -5.67721e-09
1957 1959 -2.1e-05
1958 1959 -2.1e-05
1959 1959 170
1960 1960 170
1962 1960 -1.23529e-07
1961 1961 3699
1962 1961 -5.67721e-09
1960 1962 -2.1e-05
1961 1962 -2.1e-05
1962 1962 170
1963 1963 2262.6
1964 1964 2262.6
1965 1965 170
1967 1965 -1.23529e-07
1966 1966 3699
1967 1966 -5.67721e-09
1965 1967 -2.1e-05
1966 1967 -2.1e-05
1967 1967 170
1968 1968 170
1970 1968 -1.23529e-07
1969 1969 3699
1970 1969 -5.67721e-09
1968 1970 -2.1e-05
1969 1970 -2.1e-05
1970 1970 170
1971 1971 170
1973 1971 -1.23529e-07
1972 1972 3699
1973 1972 -5.67721e-09
1971 1973 -2.1e-05
1972 1973 -2.1e-05
1973 1973 170
1974 1974 170
1976 1974 -1.23529e-07
1975 1975 3699
1976 1975 -5.67721e-09
1974 1976 -2.1e-05
1975 1976 -2.1e-05
1976 1976 170
1977 1977 2086.2
1978 1978 3699
1979 1979 1053
1980 1980 3699
1981 1981 964.8
1982 1982 2086.2
1983 1983 170
1985 1983 -2.29412e-07
1984 1984 1783.8
1985 1984 -2.18634e-08
1983 1985 -3.9e-05
1984 1985 -3.9e-05
1985 1985 170
1986 1986 4171.4
1987 1986 -7.19183e-09
1986 1987 -3e-05
1987 1987 170
1988 1988 170
1990 1988 -2.29412e-07
1989 1989 1783.8
1990 1989 -2.18634e-08
1988 1990 -3.9e-05
1989 1990 -3.9e-05
1990 1990 170
1991 1991 2086.2
1992 1992 1053
1993 1993 964.8
1994 1994 2086.2
1995 1995 170
1997 1995 -2.29412e-07
1996 1996 4707
1997 1996 -8.28553e-09
1995 1997 -3.9e-05
1996 1997 -3.9e-05
1997 1997 170
1998 1998 4171.4
1999 1998 -7.19183e-09
1998 1999 -3e-05
1999 1999 170
2000 2000 170
2002 2000 -2.29412e-07
2001 2001 4707
2002 2001 -8.28553e-09
2000 2002 -3.9e-05
2001 2002 -3.9e-05
2002 2002 170
2003 2003 989
2004 2004 989
2005 2005 989
2006 2006 989
2007 2007 170
2009 2007 -3.52941e-08
2008 2008 1295.6
2009 2008 -4.63106e-09
2007 2009 -6e-06
2008 2009 -6e-06
2009 2009 170
2010 2010 170
2012 2010 -3.52941e-08
2011 2011 1295.6
2012 2011 -4.63106e-09
2010 2012 -6e-06
2011 2012 -6e-06
2012 2012 170
2013 2013 170
2015 2013 -3.52941e-08
2014 2014 1295.6
2015 2014 -4.63106e-09
2013 2015 -6e-06
2014 2015 -6e-06
2015 2015 170
2016 2016 170
2018 2016 -3.52941e-08
2017 2017 1295.6
2018 2017 -4.63106e-09
2016 2018 -6e-06
2017 2018 -6e-06
2018 2018 170
2019 2019 322.2
2020 2020 322.2
2021 2021 322.2
2022 2022 322.2
2023 2023 170
2024 2023 -2.35294e-08
2023 2024 -4e-06
2024 2024 170
2027 2024 -2.35294e-08
2025 2025 623.6
2027 2025 -9.62155e-09
2026 2026 623.6
2027 2026 -9.62155e-09
2024 2027 -4e-06
2025 2027 -6e-06
2026 2027 -6e-06
2027 2027 170
2028 2028 170
2029 2028 -2.35294e-08
2028 2029 -4e-06
2029 2029 170
2032 2029 -2.35294e-08
2030 2030 623.6
2032 2030 -9.62155e-09
2031 2031 623.6
2032 2031 -9.62155e-09
2029 2032 -4e-06
2030 2032 -6e-06
2031 2032 -6e-06
2032 2032 170
2033 2033 170
2034 2033 -2.35294e-08
2033 2034 -4e-06
2034 2034 170
2037 2034 -2.35294e-08
2035 2035 623.6
2037 2035 -9.62155e-09
2036 2036 623.6
2037 2036 -9.62155e-09
2034 2037 -4e-06
2035 2037 -6e-06
2036 2037 -6e-06
2037 2037 170
2038 2038 170
2039 2038 -2.35294e-08
2038 2039 -4e-06
2039 2039 170
2042 2039 -2.35294e-08
2040 2040 623.6
2042 2040 -9.62155e-09
2041 2041 623.6
2042 2041 -9.62155e-09
2039 2042 -4e-06
2040 2042 -6e-06
2041 2042 -6e-06
2042 2042 170
2043 2043 170
2045 2043 -3.52941e-08
2044 2044 1295.6
2045 2044 -4.63106e-09
2043 2045 -6e-06
2044 2045 -6e-06
2045 2045 170
2046 2046 170
2048 2046 -3.52941e-08
2047 2047 1295.6
2048 2047 -4.63106e-09
2046 2048 -6e-06
2047 2048 -6e-06
2048 2048 170
2049 2049 170
2051 2049 -3.52941e-08
2050 2050 1295.6
2051 2050 -4.63106e-09
2049 2051 -6e-06
2050 2051 -6e-06
2051 2051 170
2052 2052 170
2054 2052 -3.52941e-08
2053 2053 1295.6
2054 2053 -4.63106e-09
2052 2054 -6e-06
2053 2054 -6e-06
2054 2054 170
2055 2055 322.2
2056 2056 322.2
2057 2057 322.2
2058 2058 322.2
2059 2059 1045.6
2060 2060 1045.6
2061 2061 1045.6
2062 2062 1045.6
2063 2063 33737.4
2064 2064 3195
2065 2065 42849.7
2066 2066 1040.4
2067 2067 891.72
2068 2068 1040.4
2069 2069 942.12
2070 2070 15680.8
2071 2071 50520.6
2072 2072 170
2074 2072 -5.64706e-08
2073 2073 1531.8
2074 2073 -6.65883e-09
2072 2074 -9.6e-06
2073 2074 -1.02e-05
2074 2074 170
2075 2075 170
2077 2075 -5.64706e-08
2076 2076 886.68
2077 2076 -1.15036e-08
2075 2077 -9.6e-06
2076 2077 -1.02e-05
2077 2077 170
2078 2078 3867
2079 2078 -1.03439e-08
2078 2079 -4e-05
2079 2079 171
2080 2080 5003.54
2081 2081 5001.44
2082 2082 1394.72
2083 2083 1394.72
2084 2084 170
2085 2084 -8.47059e-08
2084 2085 -1.44e-05
2085 2085 4887.44
2086 2086 4887.44
2087 2086 -2.94633e-09
2086 2087 -1.44e-05
2087 2087 170
2088 2088 1672.5
2089 2088 -1.20179e-08
2088 2089 -2.01e-05
2089 2089 171
2090 2090 2640.6
2091 2090 -7.61191e-09
2090 2091 -2.01e-05
2091 2091 171
2092 2092 2491.4
2093 2092 -8.429e-09
2092 2093 -2.1e-05
2093 2093 170
2094 2094 20777.4
2095 2095 17887.8
2096 2096 17887.8
2097 2097 10943.8
2098 2098 10451
2099 2099 10943.8
2100 2100 10451
2101 2101 10943.8
2102 2102 10451
2103 2103 1236
2111 2103 -4.85437e-09
2104 2104 1236
2111 2104 -4.85437e-09
2105 2105 1236
2111 2105 -4.85437e-09
2106 2106 1236
2111 2106 -4.85437e-09
2107 2107 1236
2111 2107 -4.85437e-09
2108 2108 1236
2111 2108 -4.85437e-09
2109 2109 1236
2111 2109 -4.85437e-09
2110 2110 1236
2111 2110 -4.85437e-09
2103 2111 -6e-06
2104 2111 -6e-06
2105 2111 -6e-06
2106 2111 -6e-06
2107 2111 -6e-06
2108 2111 -6e-06
2109 2111 -6e-06
2110 2111 -6e-06
2111 2111 4531
2112 2112 17887.8
2113 2113 17887.8
2114 2114 10451
2115 2115 10943.8
2116 2116 10451
2117 2117 10943.8
2118 2118 10451
2119 2119 10943.8
2120 2120 574.2
2121 2121 1236
2129 2121 -4.85437e-09
2122 2122 1236
2129 2122 -4.85437e-09
2123 2123 1236
2129 2123 -4.85437e-09
2124 2124 1236
2129 2124 -4.85437e-09
2125 2125 1236
2129 2125 -4.85437e-09
2126 2126 1236
2129 2126 -4.85437e-09
2127 2127 1236
2129 2127 -4.85437e-09
2128 2128 1236
2129 2128 -4.85437e-09
2121 2129 -6e-06
2122 2129 -6e-06
2123 2129 -6e-06
2124 2129 -6e-06
2125 2129 -6e-06
2126 2129 -6e-06
2127 2129 -6e-06
2128 2129 -6e-06
2129 2129 4531
2130 2130 212573
2131 2131 212573
2132 2132 1645.8
2133 2132 -1.45826e-08
2132 2133 -2.4e-05
2133 2133 14706
2947 2133 -0.679995
2134 2134 6178
2135 2134 -0.809323
2948 2134 -9.71188e-10
2134 2135 -5000
2135 2135 1123.38
2947 2135 -3.56067e-08
2948 2135 -4.32261e-09
2136 2136 1645.8
2137 2136 -1.45826e-08
2136 2137 -2.4e-05
2137 2137 14706
2949 2137 -0.679995
2138 2138 6178
2139 2138 -0.809323
2948 2138 -9.71188e-10
2138 2139 -5000
2139 2139 1123.38
2948 2139 -4.32261e-09
2949 2139 -3.56067e-08
2140 2140 1645.8
2141 2140 -1.45826e-08
2140 2141 -2.4e-05
2141 2141 14706
2945 2141 -0.679995
2142 2142 6178
2143 2142 -0.809323
2948 2142 -9.71188e-10
2142 2143 -5000
2143 2143 1123.38
2945 2143 -3.56067e-08
2948 2143 -4.32261e-09
2144 2144 1645.8
2145 2144 -1.45826e-08
2144 2145 -2.4e-05
2145 2145 14706
2946 2145 -0.679995
2146 2146 6178
2147 2146 -0.809323
2948 2146 -9.71188e-10
2146 2147 -5000
2147 2147 1123.38
2946 2147 -3.56067e-08
2948 2147 -4.32261e-09
2148 2148 6178
2149 2148 -0.809323
2944 2148 -9.71188e-10
2148 2149 -5000
2149 2149 1123.38
2944 2149 -4.32261e-09
2946 2149 -3.56067e-08
2150 2150 6178
2151 2150 -0.809323
2944 2150 -9.71188e-10
2150 2151 -5000
2151 2151 1123.38
2944 2151 -4.32261e-09
2945 2151 -3.56067e-08
2152 2152 6178
2153 2152 -0.809323
2944 2152 -9.71188e-10
2152 2153 -5000
2153 2153 1123.38
2944 2153 -4.32261e-09
2949 2153 -3.56067e-08
2154 2154 6178
2155 2154 -0.809323
2944 2154 -9.71188e-10
2154 2155 -5000
2155 2155 1123.38
2944 2155 -4.32261e-09
2947 2155 -3.56067e-08
2156 2156 6178
2157 2156 -0.809323
2943 2156 -9.71188e-10
2156 2157 -5000
2157 2157 1123.38
2943 2157 -4.32261e-09
2947 2157 -3.56067e-08
2158 2158 6178
2159 2158 -0.809323
2943 2158 -9.71188e-10
2158 2159 -5000
2159 2159 1123.38
2943 2159 -4.32261e-09
2949 2159 -3.56067e-08
2160 2160 6178
2161 2160 -0.809323
2943 2160 -9.71188e-10
2160 2161 -5000
2161 2161 1123.38
2943 2161 -4.32261e-09
2945 2161 -3.56067e-08
2162 2162 6178
2163 2162 -0.809323
2943 2162 -9.71188e-10
2162 2163 -5000
2163 2163 1123.38
2943 2163 -4.32261e-09
2946 2163 -3.56067e-08
2164 2164 6178
2165 2164 -0.809323
2942 2164 -9.71188e-10
2164 2165 -5000
2165 2165 1123.38
2942 2165 -4.32261e-09
2946 2165 -3.56067e-08
2166 2166 6178
2167 2166 -0.809323
2942 2166 -9.71188e-10
2166 2167 -5000
2167 2167 1123.38
2942 2167 -4.32261e-09
2945 2167 -3.56067e-08
2168 2168 6178
2169 2168 -0.809323
2942 2168 -9.71188e-10
2168 2169 -5000
2169 2169 1123.38
2942 2169 -4.32261e-09
2949 2169 -3.56067e-08
2170 2170 6178
2171 2170 -0.809323
2942 2170 -9.71188e-10
2170 2171 -5000
2171 2171 1123.38
2942 2171 -4.32261e-09
2947 2171 -3.56067e-08
2172 2172 6178
2173 2172 -0.809323
2941 2172 -9.71188e-10
2172 2173 -5000
2173 2173 1123.38
2941 2173 -4.32261e-09
2947 2173 -3.56067e-08
2174 2174 6178
2175 2174 -0.809323
2941 2174 -9.71188e-10
2174 2175 -5000
2175 2175 1123.38
2941 2175 -4.32261e-09
2949 2175 -3.56067e-08
2176 2176 6178
2177 2176 -0.809323
2941 2176 -9.71188e-10
2176 2177 -5000
2177 2177 1123.38
2941 2177 -4.32261e-09
2945 2177 -3.56067e-08
2178 2178 6178
2179 2178 -0.809323
2941 2178 -9.71188e-10
2178 2179 -5000
2179 2179 1123.38
2941 2179 -4.32261e-09
2946 2179 -3.56067e-08
2180 2180 6178
2181 2180 -0.809323
2940 2180 -9.71188e-10
2180 2181 -5000
2181 2181 1123.38
2940 2181 -4.32261e-09
2946 2181 -3.56067e-08
2182 2182 6178
2183 2182 -0.809323
2940 2182 -9.71188e-10
2182 2183 -5000
2183 2183 1123.38
2940 2183 -4.32261e-09
2945 2183 -3.56067e-08
2184 2184 6178
2185 2184 -0.809323
2940 2184 -9.71188e-10
2184 2185 -5000
2185 2185 1123.38
2940 2185 -4.32261e-09
2949 2185 -3.56067e-08
2186 2186 6178
2187 2186 -0.809323
2940 2186 -9.71188e-10
2186 2187 -5000
2187 2187 1123.38
2940 2187 -4.32261e-09
2947 2187 -3.56067e-08
2188 2188 6178
2189 2188 -0.809323
2939 2188 -9.71188e-10
2188 2189 -5000
2189 2189 1123.38
2939 2189 -4.32261e-09
2947 2189 -3.56067e-08
2190 2190 6178
2191 2190 -0.809323
2939 2190 -9.71188e-10
2190 2191 -5000
2191 2191 1123.38
2939 2191 -4.32261e-09
2949 2191 -3.56067e-08
2192 2192 6178
2193 2192 -0.809323
2939 2192 -9.71188e-10
2192 2193 -5000
2193 2193 1123.38
2939 2193 -4.32261e-09
2945 2193 -3.56067e-08
2194 2194 6178
2195 2194 -0.809323
2939 2194 -9.71188e-10
2194 2195 -5000
2195 2195 1123.38
2939 2195 -4.32261e-09
2946 2195 -3.56067e-08
2196 2196 6178
2197 2196 -0.809323
2938 2196 -9.71188e-10
2196 2197 -5000
2197 2197 1123.38
2938 2197 -4.32261e-09
2946 2197 -3.56067e-08
2198 2198 6178
2199 2198 -0.809323
2938 2198 -9.71188e-10
2198 2199 -5000
2199 2199 1123.38
2938 2199 -4.32261e-09
2945 2199 -3.56067e-08
2200 2200 6178
2201 2200 -0.809323
2938 2200 -9.71188e-10
2200 2201 -5000
2201 2201 1123.38
2938 2201 -4.32261e-09
2949 2201 -3.56067e-08
2202 2202 6178
2203 2202 -0.809323
2938 2202 -9.71188e-10
2202 2203 -5000
2203 2203 1123.38
2938 2203 -4.32261e-09
2947 2203 -3.56067e-08
2204 2204 1645.8
2205 2204 -1.45826e-08
2204 2205 -2.4e-05
2205 2205 14706
2934 2205 -0.679995
2206 2206 6178
2207 2206 -0.809323
2283 2206 -9.71188e-10
2206 2207 -5000
2207 2207 1123.38
2283 2207 -4.32261e-09
2934 2207 -3.56067e-08
2208 2208 1645.8
2209 2208 -1.45826e-08
2208 2209 -2.4e-05
2209 2209 14706
2932 2209 -0.679995
2210 2210 6178
2211 2210 -0.809323
2283 2210 -9.71188e-10
2210 2211 -5000
2211 2211 1123.38
2283 2211 -4.32261e-09
2932 2211 -3.56067e-08
2212 2212 1645.8
2213 2212 -1.45826e-08
2212 2213 -2.4e-05
2213 2213 14706
2935 2213 -0.679995
2214 2214 6178
2215 2214 -0.809323
2283 2214 -9.71188e-10
2214 2215 -5000
2215 2215 1123.38
2283 2215 -4.32261e-09
2935 2215 -3.56067e-08
2216 2216 1645.8
2217 2216 -1.45826e-08
2216 2217 -2.4e-05
2217 2217 14706
2933 2217 -0.679995
2218 2218 6178
2219 2218 -0.809323
2283 2218 -9.71188e-10
2218 2219 -5000
2219 2219 1123.38
2283 2219 -4.32261e-09
2933 2219 -3.56067e-08
2220 2220 6178
2221 2220 -0.809323
2282 2220 -9.71188e-10
2220 2221 -5000
2221 2221 1123.38
2282 2221 -4.32261e-09
2933 2221 -3.56067e-08
2222 2222 6178
2223 2222 -0.809323
2282 2222 -9.71188e-10
2222 2223 -5000
2223 2223 1123.38
2282 2223 -4.32261e-09
2935 2223 -3.56067e-08
2224 2224 6178
2225 2224 -0.809323
2282 2224 -9.71188e-10
2224 2225 -5000
2225 2225 1123.38
2282 2225 -4.32261e-09
2932 2225 -3.56067e-08
2226 2226 6178
2227 2226 -0.809323
2282 2226 -9.71188e-10
2226 2227 -5000
2227 2227 1123.38
2282 2227 -4.32261e-09
2934 2227 -3.56067e-08
2228 2228 6178
2229 2228 -0.809323
2281 2228 -9.71188e-10
2228 2229 -5000
2229 2229 1123.38
2281 2229 -4.32261e-09
2934 2229 -3.56067e-08
2230 2230 6178
2231 2230 -0.809323
2281 2230 -9.71188e-10
2230 2231 -5000
2231 2231 1123.38
2281 2231 -4.32261e-09
2932 2231 -3.56067e-08
2232 2232 6178
2233 2232 -0.809323
2281 2232 -9.71188e-10
2232 2233 -5000
2233 2233 1123.38
2281 2233 -4.32261e-09
2935 2233 -3.56067e-08
2234 2234 6178
2235 2234 -0.809323
2281 2234 -9.71188e-10
2234 2235 -5000
2235 2235 1123.38
2281 2235 -4.32261e-09
2933 2235 -3.56067e-08
2236 2236 6178
2237 2236 -0.809323
2280 2236 -9.71188e-10
2236 2237 -5000
2237 2237 1123.38
2280 2237 -4.32261e-09
2933 2237 -3.56067e-08
2238 2238 6178
2239 2238 -0.809323
2280 2238 -9.71188e-10
2238 2239 -5000
2239 2239 1123.38
2280 2239 -4.32261e-09
2935 2239 -3.56067e-08
2240 2240 6178
2241 2240 -0.809323
2280 2240 -9.71188e-10
2240 2241 -5000
2241 2241 1123.38
2280 2241 -4.32261e-09
2932 2241 -3.56067e-08
2242 2242 6178
2243 2242 -0.809323
2280 2242 -9.71188e-10
2242 2243 -5000
2243 2243 1123.38
2280 2243 -4.32261e-09
2934 2243 -3.56067e-08
2244 2244 6178
2245 2244 -0.809323
2279 2244 -9.71188e-10
2244 2245 -5000
2245 2245 1123.38
2279 2245 -4.32261e-09
2934 2245 -3.56067e-08
2246 2246 6178
2247 2246 -0.809323
2279 2246 -9.71188e-10
2246 2247 -5000
2247 2247 1123.38
2279 2247 -4.32261e-09
2932 2247 -3.56067e-08
2248 2248 6178
2249 2248 -0.809323
2279 2248 -9.71188e-10
2248 2249 -5000
2249 2249 1123.38
2279 2249 -4.32261e-09
2935 2249 -3.56067e-08
2250 2250 6178
2251 2250 -0.809323
2279 2250 -9.71188e-10
2250 2251 -5000
2251 2251 1123.38
2279 2251 -4.32261e-09
2933 2251 -3.56067e-08
2252 2252 6178
2253 2252 -0.809323
2278 2252 -9.71188e-10
2252 2253 -5000
2253 2253 1123.38
2278 2253 -4.32261e-09
2933 2253 -3.56067e-08
2254 2254 6178
2255 2254 -0.809323
2278 2254 -9.71188e-10
2254 2255 -5000
2255 2255 1123.38
2278 2255 -4.32261e-09
2935 2255 -3.56067e-08
2256 2256 6178
2257 2256 -0.809323
2278 2256 -9.71188e-10
2256 2257 -5000
2257 2257 1123.38
2278 2257 -4.32261e-09
2932 2257 -3.56067e-08
2258 2258 6178
2259 2258 -0.809323
2278 2258 -9.71188e-10
2258 2259 -5000
2259 2259 1123.38
2278 2259 -4.32261e-09
2934 2259 -3.56067e-08
2260 2260 6178
2261 2260 -0.809323
2277 2260 -9.71188e-10
2260 2261 -5000
2261 2261 1123.38
2277 2261 -4.32261e-09
2934 2261 -3.56067e-08
2262 2262 6178
2263 2262 -0.809323
2277 2262 -9.71188e-10
2262 2263 -5000
2263 2263 1123.38
2277 2263 -4.32261e-09
2932 2263 -3.56067e-08
2264 2264 6178
2265 2264 -0.809323
2277 2264 -9.71188e-10
2264 2265 -5000
2265 2265 1123.38
2277 2265 -4.32261e-09
2935 2265 -3.56067e-08
2266 2266 6178
2267 2266 -0.809323
2277 2266 -9.71188e-10
2266 2267 -5000
2267 2267 1123.38
2277 2267 -4.32261e-09
2933 2267 -3.56067e-08
2268 2268 6178
2269 2268 -0.809323
2276 2268 -9.71188e-10
2268 2269 -5000
2269 2269 1123.38
2276 2269 -4.32261e-09
2933 2269 -3.56067e-08
2270 2270 6178
2271 2270 -0.809323
2276 2270 -9.71188e-10
2270 2271 -5000
2271 2271 1123.38
2276 2271 -4.32261e-09
2935 2271 -3.56067e-08
2272 2272 6178
2273 2272 -0.809323
2276 2272 -9.71188e-10
2272 2273 -5000
2273 2273 1123.38
2276 2273 -4.32261e-09
2932 2273 -3.56067e-08
2274 2274 6178
2275 2274 -0.809323
2276 2274 -9.71188e-10
2274 2275 -5000
2275 2275 1123.38
2276 2275 -4.32261e-09
2934 2275 -3.56067e-08
2268 2276 -6e-06
2269 2276 -4.85594e-06
2270 2276 -6e-06
2271 2276 -4.85594e-06
2272 2276 -6e-06
2273 2276 -4.85594e-06
2274 2276 -6e-06
2275 2276 -4.85594e-06
2276 2276 282
2932 2276 -6.13135e-16
2933 2276 -6.13135e-16
2934 2276 -6.13135e-16
2935 2276 -6.13135e-16
2260 2277 -6e-06
2261 2277 -4.85594e-06
2262 2277 -6e-06
2263 2277 -4.85594e-06
2264 2277 -6e-06
2265 2277 -4.85594e-06
2266 2277 -6e-06
2267 2277 -4.85594e-06
2277 2277 282
2932 2277 -6.13135e-16
2933 2277 -6.13135e-16
2934 2277 -6.13135e-16
2935 2277 -6.13135e-16
2252 2278 -6e-06
2253 2278 -4.85594e-06
2254 2278 -6e-06
2255 2278 -4.85594e-06
2256 2278 -6e-06
2257 2278 -4.85594e-06
2258 2278 -6e-06
2259 2278 -4.85594e-06
2278 2278 282
2932 2278 -6.13135e-16
2933 2278 -6.13135e-16
2934 2278 -6.13135e-16
2935 2278 -6.13135e-16
2244 2279 -6e-06
2245 2279 -4.85594e-06
2246 2279 -6e-06
2247 2279 -4.85594e-06
2248 2279 -6e-06
2249 2279 -4.85594e-06
2250 2279 -6e-06
2251 2279 -4.85594e-06
2279 2279 282
2932 2279 -6.13135e-16
2933 2279 -6.13135e-16
2934 2279 -6.13135e-16
2935 2279 -6.13135e-16
2236 2280 -6e-06
2237 2280 -4.85594e-06
2238 2280 -6e-06
2239 2280 -4.85594e-06
2240 2280 -6e-06
2241 2280 -4.85594e-06
2242 2280 -6e-06
2243 2280 -4.85594e-06
2280 2280 282
2932 2280 -6.13135e-16
2933 2280 -6.13135e-16
2934 2280 -6.13135e-16
2935 2280 -6.13135e-16
2228 2281 -6e-06
2229 2281 -4.85594e-06
2230 2281 -6e-06
2231 2281 -4.85594e-06
2232 2281 -6e-06
2233 2281 -4.85594e-06
2234 2281 -6e-06
2235 2281 -4.85594e-06
2281 2281 282
2932 2281 -6.13135e-16
2933 2281 -6.13135e-16
2934 2281 -6.13135e-16
2935 2281 -6.13135e-16
2220 2282 -6e-06
2221 2282 -4.85594e-06
2222 2282 -6e-06
2223 2282 -4.85594e-06
2224 2282 -6e-06
2225 2282 -4.85594e-06
2226 2282 -6e-06
2227 2282 -4.85594e-06
2282 2282 282
2932 2282 -6.13135e-16
2933 2282 -6.13135e-16
2934 2282 -6.13135e-16
2935 2282 -6.13135e-16
2206 2283 -6e-06
2207 2283 -4.85594e-06
2210 2283 -6e-06
2211 2283 -4.85594e-06
2214 2283 -6e-06
2215 2283 -4.85594e-06
2218 2283 -6e-06
2219 2283 -4.85594e-06
2283 2283 282
2932 2283 -6.13135e-16
2933 2283 -6.13135e-16
2934 2283 -6.13135e-16
2935 2283 -6.13135e-16
2284 2284 1645.8
2285 2284 -1.45826e-08
2284 2285 -2.4e-05
2285 2285 14706
2930 2285 -0.679995
2286 2286 6178
2287 2286 -0.809323
2363 2286 -9.71188e-10
2286 2287 -5000
2287 2287 1123.38
2363 2287 -4.32261e-09
2930 2287 -3.56067e-08
2288 2288 1645.8
2289 2288 -1.45826e-08
2288 2289 -2.4e-05
2289 2289 14706
2928 2289 -0.679995
2290 2290 6178
2291 2290 -0.809323
2363 2290 -9.71188e-10
2290 2291 -5000
2291 2291 1123.38
2363 2291 -4.32261e-09
2928 2291 -3.56067e-08
2292 2292 1645.8
2293 2292 -1.45826e-08
2292 2293 -2.4e-05
2293 2293 14706
2931 2293 -0.679995
2294 2294 6178
2295 2294 -0.809323
2363 2294 -9.71188e-10
2294 2295 -5000
2295 2295 1123.38
2363 2295 -4.32261e-09
2931 2295 -3.56067e-08
2296 2296 1645.8
2297 2296 -1.45826e-08
2296 2297 -2.4e-05
2297 2297 14706
2929 2297 -0.679995
2298 2298 6178
2299 2298 -0.809323
2363 2298 -9.71188e-10
2298 2299 -5000
2299 2299 1123.38
2363 2299 -4.32261e-09
2929 2299 -3.56067e-08
2300 2300 6178
2301 2300 -0.809323
2362 2300 -9.71188e-10
2300 2301 -5000
2301 2301 1123.38
2362 2301 -4.32261e-09
2929 2301 -3.56067e-08
2302 2302 6178
2303 2302 -0.809323
2362 2302 -9.71188e-10
2302 2303 -5000
2303 2303 1123.38
2362 2303 -4.32261e-09
2931 2303 -3.56067e-08
2304 2304 6178
2305 2304 -0.809323
2362 2304 -9.71188e-10
2304 2305 -5000
2305 2305 1123.38
2362 2305 -4.32261e-09
2928 2305 -3.56067e-08
2306 2306 6178
2307 2306 -0.809323
2362 2306 -9.71188e-10
2306 2307 -5000
2307 2307 1123.38
2362 2307 -4.32261e-09
2930 2307 -3.56067e-08
2308 2308 6178
2309 2308 -0.809323
2361 2308 -9.71188e-10
2308 2309 -5000
2309 2309 1123.38
2361 2309 -4.32261e-09
2930 2309 -3.56067e-08
2310 2310 6178
2311 2310 -0.809323
2361 2310 -9.71188e-10
2310 2311 -5000
2311 2311 1123.38
2361 2311 -4.32261e-09
2928 2311 -3.56067e-08
2312 2312 6178
2313 2312 -0.809323
2361 2312 -9.71188e-10
2312 2313 -5000
2313 2313 1123.38
2361 2313 -4.32261e-09
2931 2313 -3.56067e-08
2314 2314 6178
2315 2314 -0.809323
2361 2314 -9.71188e-10
2314 2315 -5000
2315 2315 1123.38
2361 2315 -4.32261e-09
2929 2315 -3.56067e-08
2316 2316 6178
2317 2316 -0.809323
2360 2316 -9.71188e-10
2316 2317 -5000
2317 2317 1123.38
2360 2317 -4.32261e-09
2929 2317 -3.56067e-08
2318 2318 6178
2319 2318 -0.809323
2360 2318 -9.71188e-10
2318 2319 -5000
2319 2319 1123.38
2360 2319 -4.32261e-09
2931 2319 -3.56067e-08
2320 2320 6178
2321 2320 -0.809323
2360 2320 -9.71188e-10
2320 2321 -5000
2321 2321 1123.38
2360 2321 -4.32261e-09
2928 2321 -3.56067e-08
2322 2322 6178
2323 2322 -0.809323
2360 2322 -9.71188e-10
2322 2323 -5000
2323 2323 1123.38
2360 2323 -4.32261e-09
2930 2323 -3.56067e-08
2324 2324 6178
2325 2324 -0.809323
2359 2324 -9.71188e-10
2324 2325 -5000
2325 2325 1123.38
2359 2325 -4.32261e-09
2930 2325 -3.56067e-08
2326 2326 6178
2327 2326 -0.809323
2359 2326 -9.71188e-10
2326 2327 -5000
2327 2327 1123.38
2359 2327 -4.32261e-09
2928 2327 -3.56067e-08
2328 2328 6178
2329 2328 -0.809323
2359 2328 -9.71188e-10
2328 2329 -5000
2329 2329 1123.38
2359 2329 -4.32261e-09
2931 2329 -3.56067e-08
2330 2330 6178
2331 2330 -0.809323
2359 2330 -9.71188e-10
2330 2331 -5000
2331 2331 1123.38
2359 2331 -4.32261e-09
2929 2331 -3.56067e-08
2332 2332 6178
2333 2332 -0.809323
2358 2332 -9.71188e-10
2332 2333 -5000
2333 2333 1123.38
2358 2333 -4.32261e-09
2929 2333 -3.56067e-08
2334 2334 6178
2335 2334 -0.809323
2358 2334 -9.71188e-10
2334 2335 -5000
2335 2335 1123.38
2358 2335 -4.32261e-09
2931 2335 -3.56067e-08
2336 2336 6178
2337 2336 -0.809323
2358 2336 -9.71188e-10
2336 2337 -5000
2337 2337 1123.38
2358 2337 -4.32261e-09
2928 2337 -3.56067e-08
2338 2338 6178
2339 2338 -0.809323
2358 2338 -9.71188e-10
2338 2339 -5000
2339 2339 1123.38
2358 2339 -4.32261e-09
2930 2339 -3.56067e-08
2340 2340 6178
2341 2340 -0.809323
2357 2340 -9.71188e-10
2340 2341 -5000
2341 2341 1123.38
2357 2341 -4.32261e-09
2930 2341 -3.56067e-08
2342 2342 6178
2343 2342 -0.809323
2357 2342 -9.71188e-10
2342 2343 -5000
2343 2343 1123.38
2357 2343 -4.32261e-09
2928 2343 -3.56067e-08
2344 2344 6178
2345 2344 -0.809323
2357 2344 -9.71188e-10
2344 2345 -5000
2345 2345 1123.38
2357 2345 -4.32261e-09
2931 2345 -3.56067e-08
2346 2346 6178
2347 2346 -0.809323
2357 2346 -9.71188e-10
2346 2347 -5000
2347 2347 1123.38
2357 2347 -4.32261e-09
2929 2347 -3.56067e-08
2348 2348 6178
2349 2348 -0.809323
2356 2348 -9.71188e-10
2348 2349 -5000
2349 2349 1123.38
2356 2349 -4.32261e-09
2929 2349 -3.56067e-08
2350 2350 6178
2351 2350 -0.809323
2356 2350 -9.71188e-10
2350 2351 -5000
2351 2351 1123.38
2356 2351 -4.32261e-09
2931 2351 -3.56067e-08
2352 2352 6178
2353 2352 -0.809323
2356 2352 -9.71188e-10
2352 2353 -5000
2353 2353 1123.38
2356 2353 -4.32261e-09
2928 2353 -3.56067e-08
2354 2354 6178
2355 2354 -0.809323
2356 2354 -9.71188e-10
2354 2355 -5000
2355 2355 1123.38
2356 2355 -4.32261e-09
2930 2355 -3.56067e-08
2348 2356 -6e-06
2349 2356 -4.85594e-06
2350 2356 -6e-06
2351 2356 -4.85594e-06
2352 2356 -6e-06
2353 2356 -4.85594e-06
2354 2356 -6e-06
2355 2356 -4.85594e-06
2356 2356 282
2928 2356 -6.13135e-16
2929 2356 -6.13135e-16
2930 2356 -6.13135e-16
2931 2356 -6.13135e-16
2340 2357 -6e-06
2341 2357 -4.85594e-06
2342 2357 -6e-06
2343 2357 -4.85594e-06
2344 2357 -6e-06
2345 2357 -4.85594e-06
2346 2357 -6e-06
2347 2357 -4.85594e-06
2357 2357 282
2928 2357 -6.13135e-16
2929 2357 -6.13135e-16
2930 2357 -6.13135e-16
2931 2357 -6.13135e-16
2332 2358 -6e-06
2333 2358 -4.85594e-06
2334 2358 -6e-06
2335 2358 -4.85594e-06
2336 2358 -6e-06
2337 2358 -4.85594e-06
2338 2358 -6e-06
2339 2358 -4.85594e-06
2358 2358 282
2928 2358 -6.13135e-16
2929 2358 -6.13135e-16
2930 2358 -6.13135e-16
2931 2358 -6.13135e-16
2324 2359 -6e-06
2325 2359 -4.85594e-06
2326 2359 -6e-06
2327 2359 -4.85594e-06
2328 2359 -6e-06
2329 2359 -4.85594e-06
2330 2359 -6e-06
2331 2359 -4.85594e-06
2359 2359 282
2928 2359 -6.13135e-16
2929 2359 -6.13135e-16
2930 2359 -6.13135e-16
2931 2359 -6.13135e-16
2316 2360 -6e-06
2317 2360 -4.85594e-06
2318 2360 -6e-06
2319 2360 -4.85594e-06
2320 2360 -6e-06
2321 2360 -4.85594e-06
2322 2360 -6e-06
2323 2360 -4.85594e-06
2360 2360 282
2928 2360 -6.13135e-16
2929 2360 -6.13135e-16
2930 2360 -6.13135e-16
2931 2360 -6.13135e-16
2308 2361 -6e-06
2309 2361 -4.85594e-06
2310 2361 -6e-06
2311 2361 -4.85594e-06
2312 2361 -6e-06
2313 2361 -4.85594e-06
2314 2361 -6e-06
2315 2361 -4.85594e-06
2361 2361 282
2928 2361 -6.13135e-16
2929 2361 -6.13135e-16
2930 2361 -6.13135e-16
2931 2361 -6.13135e-16
2300 2362 -6e-06
2301 2362 -4.85594e-06
2302 2362 -6e-06
2303 2362 -4.85594e-06
2304 2362 -6e-06
2305 2362 -4.85594e-06
2306 2362 -6e-06
2307 2362 -4.85594e-06
2362 2362 282
2928 2362 -6.13135e-16
2929 2362 -6.13135e-16
2930 2362 -6.13135e-16
2931 2362 -6.13135e-16
2286 2363 -6e-06
2287 2363 -4.85594e-06
2290 2363 -6e-06
2291 2363 -4.85594e-06
2294 2363 -6e-06
2295 2363 -4.85594e-06
2298 2363 -6e-06
2299 2363 -4.85594e-06
2363 2363 282
2928 2363 -6.13135e-16
2929 2363 -6.13135e-16
2930 2363 -6.13135e-16
2931 2363 -6.13135e-16
2364 2364 1645.8
2365 2364 -1.45826e-08
2364 2365 -2.4e-05
2365 2365 14706
2926 2365 -0.679995
2366 2366 6178
2367 2366 -0.809323
2443 2366 -9.71188e-10
2366 2367 -5000
2367 2367 1123.38
2443 2367 -4.32261e-09
2926 2367 -3.56067e-08
2368 2368 1645.8
2369 2368 -1.45826e-08
2368 2369 -2.4e-05
2369 2369 14706
2924 2369 -0.679995
2370 2370 6178
2371 2370 -0.809323
2443 2370 -9.71188e-10
2370 2371 -5000
2371 2371 1123.38
2443 2371 -4.32261e-09
2924 2371 -3.56067e-08
2372 2372 1645.8
2373 2372 -1.45826e-08
2372 2373 -2.4e-05
2373 2373 14706
2927 2373 -0.679995
2374 2374 6178
2375 2374 -0.809323
2443 2374 -9.71188e-10
2374 2375 -5000
2375 2375 1123.38
2443 2375 -4.32261e-09
2927 2375 -3.56067e-08
2376 2376 1645.8
2377 2376 -1.45826e-08
2376 2377 -2.4e-05
2377 2377 14706
2925 2377 -0.679995
2378 2378 6178
2379 2378 -0.809323
2443 2378 -9.71188e-10
2378 2379 -5000
2379 2379 1123.38
2443 2379 -4.32261e-09
2925 2379 -3.56067e-08
2380 2380 6178
2381 2380 -0.809323
2442 2380 -9.71188e-10
2380 2381 -5000
2381 2381 1123.38
2442 2381 -4.32261e-09
2925 2381 -3.56067e-08
2382 2382 6178
2383 2382 -0.809323
2442 2382 -9.71188e-10
2382 2383 -5000
2383 2383 1123.38
2442 2383 -4.32261e-09
2927 2383 -3.56067e-08
2384 2384 6178
2385 2384 -0.809323
2442 2384 -9.71188e-10
2384 2385 -5000
2385 2385 1123.38
2442 2385 -4.32261e-09
2924 2385 -3.56067e-08
2386 2386 6178
2387 2386 -0.809323
2442 2386 -9.71188e-10
2386 2387 -5000
2387 2387 1123.38
2442 2387 -4.32261e-09
2926 2387 -3.56067e-08
2388 2388 6178
2389 2388 -0.809323
2441 2388 -9.71188e-10
2388 2389 -5000
2389 2389 1123.38
2441 2389 -4.32261e-09
2926 2389 -3.56067e-08
2390 2390 6178
2391 2390 -0.809323
2441 2390 -9.71188e-10
2390 2391 -5000
2391 2391 1123.38
2441 2391 -4.32261e-09
2924 2391 -3.56067e-08
2392 2392 6178
2393 2392 -0.809323
2441 2392 -9.71188e-10
2392 2393 -5000
2393 2393 1123.38
2441 2393 -4.32261e-09
2927 2393 -3.56067e-08
2394 2394 6178
2395 2394 -0.809323
2441 2394 -9.71188e-10
2394 2395 -5000
2395 2395 1123.38
2441 2395 -4.32261e-09
2925 2395 -3.56067e-08
2396 2396 6178
2397 2396 -0.809323
2440 2396 -9.71188e-10
2396 2397 -5000
2397 2397 1123.38
2440 2397 -4.32261e-09
2925 2397 -3.56067e-08
2398 2398 6178
2399 2398 -0.809323
2440 2398 -9.71188e-10
2398 2399 -5000
2399 2399 1123.38
2440 2399 -4.32261e-09
2927 2399 -3.56067e-08
2400 2400 6178
2401 2400 -0.809323
2440 2400 -9.71188e-10
2400 2401 -5000
2401 2401 1123.38
2440 2401 -4.32261e-09
2924 2401 -3.56067e-08
2402 2402 6178
2403 2402 -0.809323
2440 2402 -9.71188e-10
2402 2403 -5000
2403 2403 1123.38
2440 2403 -4.32261e-09
2926 2403 -3.56067e-08
2404 2404 6178
2405 2404 -0.809323
2439 2404 -9.71188e-10
2404 2405 -5000
2405 2405 1123.38
2439 2405 -4.32261e-09
2926 2405 -3.56067e-08
2406 2406 6178
2407 2406 -0.809323
2439 2406 -9.71188e-10
2406 2407 -5000
2407 2407 1123.38
2439 2407 -4.32261e-09
2924 2407 -3.56067e-08
2408 2408 6178
2409 2408 -0.809323
2439 2408 -9.71188e-10
2408 2409 -5000
2409 2409 1123.38
2439 2409 -4.32261e-09
2927 2409 -3.56067e-08
2410 2410 6178
2411 2410 -0.809323
2439 2410 -9.71188e-10
2410 2411 -5000
2411 2411 1123.38
2439 2411 -4.32261e-09
2925 2411 -3.56067e-08
2412 2412 6178
2413 2412 -0.809323
2438 2412 -9.71188e-10
2412 2413 -5000
2413 2413 1123.38
2438 2413 -4.32261e-09
2925 2413 -3.56067e-08
2414 2414 6178
2415 2414 -0.809323
2438 2414 -9.71188e-10
2414 2415 -5000
2415 2415 1123.38
2438 2415 -4.32261e-09
2927 2415 -3.56067e-08
2416 2416 6178
2417 2416 -0.809323
2438 2416 -9.71188e-10
2416 2417 -5000
2417 2417 1123.38
2438 2417 -4.32261e-09
2924 2417 -3.56067e-08
2418 2418 6178
2419 2418 -0.809323
2438 2418 -9.71188e-10
2418 2419 -5000
2419 2419 1123.38
2438 2419 -4.32261e-09
2926 2419 -3.56067e-08
2420 2420 6178
2421 2420 -0.809323
2437 2420 -9.71188e-10
2420 2421 -5000
2421 2421 1123.38
2437 2421 -4.32261e-09
2926 2421 -3.56067e-08
2422 2422 6178
2423 2422 -0.809323
2437 2422 -9.71188e-10
2422 2423 -5000
2423 2423 1123.38
2437 2423 -4.32261e-09
2924 2423 -3.56067e-08
2424 2424 6178
2425 2424 -0.809323
2437 2424 -9.71188e-10
2424 2425 -5000
2425 2425 1123.38
2437 2425 -4.32261e-09
2927 2425 -3.56067e-08
2426 2426 6178
2427 2426 -0.809323
2437 2426 -9.71188e-10
2426 2427 -5000
2427 2427 1123.38
2437 2427 -4.32261e-09
2925 2427 -3.56067e-08
2428 2428 6178
2429 2428 -0.809323
2436 2428 -9.71188e-10
2428 2429 -5000
2429 2429 1123.38
2436 2429 -4.32261e-09
2925 2429 -3.56067e-08
2430 2430 6178
2431 2430 -0.809323
2436 2430 -9.71188e-10
2430 2431 -5000
2431 2431 1123.38
2436 2431 -4.32261e-09
2927 2431 -3.56067e-08
2432 2432 6178
2433 2432 -0.809323
2436 2432 -9.71188e-10
2432 2433 -5000
2433 2433 1123.38
2436 2433 -4.32261e-09
2924 2433 -3.56067e-08
2434 2434 6178
2435 2434 -0.809323
2436 2434 -9.71188e-10
2434 2435 -5000
2435 2435 1123.38
2436 2435 -4.32261e-09
2926 2435 -3.56067e-08
2428 2436 -6e-06
2429 2436 -4.85594e-06
2430 2436 -6e-06
2431 2436 -4.85594e-06
2432 2436 -6e-06
2433 2436 -4.85594e-06
2434 2436 -6e-06
2435 2436 -4.85594e-06
2436 2436 282
2924 2436 -6.13135e-16
2925 2436 -6.13135e-16
2926 2436 -6.13135e-16
2927 2436 -6.13135e-16
2420 2437 -6e-06
2421 2437 -4.85594e-06
2422 2437 -6e-06
2423 2437 -4.85594e-06
2424 2437 -6e-06
2425 2437 -4.85594e-06
2426 2437 -6e-06
2427 2437 -4.85594e-06
2437 2437 282
2924 2437 -6.13135e-16
2925 2437 -6.13135e-16
2926 2437 -6.13135e-16
2927 2437 -6.13135e-16
2412 2438 -6e-06
2413 2438 -4.85594e-06
2414 2438 -6e-06
2415 2438 -4.85594e-06
2416 2438 -6e-06
2417 2438 -4.85594e-06
2418 2438 -6e-06
2419 2438 -4.85594e-06
2438 2438 282
2924 2438 -6.13135e-16
2925 2438 -6.13135e-16
2926 2438 -6.13135e-16
2927 2438 -6.13135e-16
2404 2439 -6e-06
2405 2439 -4.85594e-06
2406 2439 -6e-06
2407 2439 -4.85594e-06
2408 2439 -6e-06
2409 2439 -4.85594e-06
2410 2439 -6e-06
2411 2439 -4.85594e-06
2439 2439 282
2924 2439 -6.13135e-16
2925 2439 -6.13135e-16
2926 2439 -6.13135e-16
2927 2439 -6.13135e-16
2396 2440 -6e-06
2397 2440 -4.85594e-06
2398 2440 -6e-06
2399 2440 -4.85594e-06
2400 2440 -6e-06
2401 2440 -4.85594e-06
2402 2440 -6e-06
2403 2440 -4.85594e-06
2440 2440 282
2924 2440 -6.13135e-16
2925 2440 -6.13135e-16
2926 2440 -6.13135e-16
2927 2440 -6.13135e-16
2388 2441 -6e-06
2389 2441 -4.85594e-06
2390 2441 -6e-06
2391 2441 -4.85594e-06
2392 2441 -6e-06
2393 2441 -4.85594e-06
2394 2441 -6e-06
2395 2441 -4.85594e-06
2441 2441 282
2924 2441 -6.13135e-16
2925 2441 -6.13135e-16
2926 2441 -6.13135e-16
2927 2441 -6.13135e-16
2380 2442 -6e-06
2381 2442 -4.85594e-06
2382 2442 -6e-06
2383 2442 -4.85594e-06
2384 2442 -6e-06
2385 2442 -4.85594e-06
2386 2442 -6e-06
2387 2442 -4.85594e-06
2442 2442 282
2924 2442 -6.13135e-16
2925 2442 -6.13135e-16
2926 2442 -6.13135e-16
2927 2442 -6.13135e-16
2366 2443 -6e-06
2367 2443 -4.85594e-06
2370 2443 -6e-06
2371 2443 -4.85594e-06
2374 2443 -6e-06
2375 2443 -4.85594e-06
2378 2443 -6e-06
2379 2443 -4.85594e-06
2443 2443 282
2924 2443 -6.13135e-16
2925 2443 -6.13135e-16
2926 2443 -6.13135e-16
2927 2443 -6.13135e-16
2444 2444 1645.8
2445 2444 -1.45826e-08
2444 2445 -2.4e-05
2445 2445 14706
2922 2445 -0.679995
2446 2446 6178
2447 2446 -0.809323
2523 2446 -9.71188e-10
2446 2447 -5000
2447 2447 1123.38
2523 2447 -4.32261e-09
2922 2447 -3.56067e-08
2448 2448 1645.8
2449 2448 -1.45826e-08
2448 2449 -2.4e-05
2449 2449 14706
2920 2449 -0.679995
2450 2450 6178
2451 2450 -0.809323
2523 2450 -9.71188e-10
2450 2451 -5000
2451 2451 1123.38
2523 2451 -4.32261e-09
2920 2451 -3.56067e-08
2452 2452 1645.8
2453 2452 -1.45826e-08
2452 2453 -2.4e-05
2453 2453 14706
2923 2453 -0.679995
2454 2454 6178
2455 2454 -0.809323
2523 2454 -9.71188e-10
2454 2455 -5000
2455 2455 1123.38
2523 2455 -4.32261e-09
2923 2455 -3.56067e-08
2456 2456 1645.8
2457 2456 -1.45826e-08
2456 2457 -2.4e-05
2457 2457 14706
2921 2457 -0.679995
2458 2458 6178
2459 2458 -0.809323
2523 2458 -9.71188e-10
2458 2459 -5000
2459 2459 1123.38
2523 2459 -4.32261e-09
2921 2459 -3.56067e-08
2460 2460 6178
2461 2460 -0.809323
2522 2460 -9.71188e-10
2460 2461 -5000
2461 2461 1123.38
2522 2461 -4.32261e-09
2921 2461 -3.56067e-08
2462 2462 6178
2463 2462 -0.809323
2522 2462 -9.71188e-10
2462 2463 -5000
2463 2463 1123.38
2522 2463 -4.32261e-09
2923 2463 -3.56067e-08
2464 2464 6178
2465 2464 -0.809323
2522 2464 -9.71188e-10
2464 2465 -5000
2465 2465 1123.38
2522 2465 -4.32261e-09
2920 2465 -3.56067e-08
2466 2466 6178
2467 2466 -0.809323
2522 2466 -9.71188e-10
2466 2467 -5000
2467 2467 1123.38
2522 2467 -4.32261e-09
2922 2467 -3.56067e-08
2468 2468 6178
2469 2468 -0.809323
2521 2468 -9.71188e-10
2468 2469 -5000
2469 2469 1123.38
2521 2469 -4.32261e-09
2922 2469 -3.56067e-08
2470 2470 6178
2471 2470 -0.809323
2521 2470 -9.71188e-10
2470 2471 -5000
2471 2471 1123.38
2521 2471 -4.32261e-09
2920 2471 -3.56067e-08
2472 2472 6178
2473 2472 -0.809323
2521 2472 -9.71188e-10
2472 2473 -5000
2473 2473 1123.38
2521 2473 -4.32261e-09
2923 2473 -3.56067e-08
2474 2474 6178
2475 2474 -0.809323
2521 2474 -9.71188e-10
2474 2475 -5000
2475 2475 1123.38
2521 2475 -4.32261e-09
2921 2475 -3.56067e-08
2476 2476 6178
2477 2476 -0.809323
2520 2476 -9.71188e-10
2476 2477 -5000
2477 2477 1123.38
2520 2477 -4.32261e-09
2921 2477 -3.56067e-08
2478 2478 6178
2479 2478 -0.809323
2520 2478 -9.71188e-10
2478 2479 -5000
2479 2479 1123.38
2520 2479 -4.32261e-09
2923 2479 -3.56067e-08
2480 2480 6178
2481 2480 -0.809323
2520 2480 -9.71188e-10
2480 2481 -5000
2481 2481 1123.38
2520 2481 -4.32261e-09
2920 2481 -3.56067e-08
2482 2482 6178
2483 2482 -0.809323
2520 2482 -9.71188e-10
2482 2483 -5000
2483 2483 1123.38
2520 2483 -4.32261e-09
2922 2483 -3.56067e-08
2484 2484 6178
2485 2484 -0.809323
2519 2484 -9.71188e-10
2484 2485 -5000
2485 2485 1123.38
2519 2485 -4.32261e-09
2922 2485 -3.56067e-08
2486 2486 6178
2487 2486 -0.809323
2519 2486 -9.71188e-10
2486 2487 -5000
2487 2487 1123.38
2519 2487 -4.32261e-09
2920 2487 -3.56067e-08
2488 2488 6178
2489 2488 -0.809323
2519 2488 -9.71188e-10
2488 2489 -5000
2489 2489 1123.38
2519 2489 -4.32261e-09
2923 2489 -3.56067e-08
2490 2490 6178
2491 2490 -0.809323
2519 2490 -9.71188e-10
2490 2491 -5000
2491 2491 1123.38
2519 2491 -4.32261e-09
2921 2491 -3.56067e-08
2492 2492 6178
2493 2492 -0.809323
2518 2492 -9.71188e-10
2492 2493 -5000
2493 2493 1123.38
2518 2493 -4.32261e-09
2921 2493 -3.56067e-08
2494 2494 6178
2495 2494 -0.809323
2518 2494 -9.71188e-10
2494 2495 -5000
2495 2495 1123.38
2518 2495 -4.32261e-09
2923 2495 -3.56067e-08
2496 2496 6178
2497 2496 -0.809323
2518 2496 -9.71188e-10
2496 2497 -5000
2497 2497 1123.38
2518 2497 -4.32261e-09
2920 2497 -3.56067e-08
2498 2498 6178
2499 2498 -0.809323
2518 2498 -9.71188e-10
2498 2499 -5000
2499 2499 1123.38
2518 2499 -4.32261e-09
2922 2499 -3.56067e-08
2500 2500 6178
2501 2500 -0.809323
2517 2500 -9.71188e-10
2500 2501 -5000
2501 2501 1123.38
2517 2501 -4.32261e-09
2922 2501 -3.56067e-08
2502 2502 6178
2503 2502 -0.809323
2517 2502 -9.71188e-10
2502 2503 -5000
2503 2503 1123.38
2517 2503 -4.32261e-09
2920 2503 -3.56067e-08
2504 2504 6178
2505 2504 -0.809323
2517 2504 -9.71188e-10
2504 2505 -5000
2505 2505 1123.38
2517 2505 -4.32261e-09
2923 2505 -3.56067e-08
2506 2506 6178
2507 2506 -0.809323
2517 2506 -9.71188e-10
2506 2507 -5000
2507 2507 1123.38
2517 2507 -4.32261e-09
2921 2507 -3.56067e-08
2508 2508 6178
2509 2508 -0.809323
2516 2508 -9.71188e-10
2508 2509 -5000
2509 2509 1123.38
2516 2509 -4.32261e-09
2921 2509 -3.56067e-08
2510 2510 6178
2511 2510 -0.809323
2516 2510 -9.71188e-10
2510 2511 -5000
2511 2511 1123.38
2516 2511 -4.32261e-09
2923 2511 -3.56067e-08
2512 2512 6178
2513 2512 -0.809323
2516 2512 -9.71188e-10
2512 2513 -5000
2513 2513 1123.38
2516 2513 -4.32261e-09
2920 2513 -3.56067e-08
2514 2514 6178
2515 2514 -0.809323
2516 2514 -9.71188e-10
2514 2515 -5000
2515 2515 1123.38
2516 2515 -4.32261e-09
2922 2515 -3.56067e-08
2508 2516 -6e-06
2509 2516 -4.85594e-06
2510 2516 -6e-06
2511 2516 -4.85594e-06
2512 2516 -6e-06
2513 2516 -4.85594e-06
2514 2516 -6e-06
2515 2516 -4.85594e-06
2516 2516 282
2920 2516 -6.13135e-16
2921 2516 -6.13135e-16
2922 2516 -6.13135e-16
2923 2516 -6.13135e-16
2500 2517 -6e-06
2501 2517 -4.85594e-06
2502 2517 -6e-06
2503 2517 -4.85594e-06
2504 2517 -6e-06
2505 2517 -4.85594e-06
2506 2517 -6e-06
2507 2517 -4.85594e-06
2517 2517 282
2920 2517 -6.13135e-16
2921 2517 -6.13135e-16
2922 2517 -6.13135e-16
2923 2517 -6.13135e-16
2492 2518 -6e-06
2493 2518 -4.85594e-06
2494 2518 -6e-06
2495 2518 -4.85594e-06
2496 2518 -6e-06
2497 2518 -4.85594e-06
2498 2518 -6e-06
2499 2518 -4.85594e-06
2518 2518 282
2920 2518 -6.13135e-16
2921 2518 -6.13135e-16
2922 2518 -6.13135e-16
2923 2518 -6.13135e-16
2484 2519 -6e-06
2485 2519 -4.85594e-06
2486 2519 -6e-06
2487 2519 -4.85594e-06
2488 2519 -6e-06
2489 2519 -4.85594e-06
2490 2519 -6e-06
2491 2519 -4.85594e-06
2519 2519 282
2920 2519 -6.13135e-16
2921 2519 -6.13135e-16
2922 2519 -6.13135e-16
2923 2519 -6.13135e-16
2476 2520 -6e-06
2477 2520 -4.85594e-06
2478 2520 -6e-06
2479 2520 -4.85594e-06
2480 2520 -6e-06
2481 2520 -4.85594e-06
2482 2520 -6e-06
2483 2520 -4.85594e-06
2520 2520 282
2920 2520 -6.13135e-16
2921 2520 -6.13135e-16
2922 2520 -6.13135e-16
2923 2520 -6.13135e-16
2468 2521 -6e-06
2469 2521 -4.85594e-06
2470 2521 -6e-06
2471 2521 -4.85594e-06
2472 2521 -6e-06
2473 2521 -4.85594e-06
2474 2521 -6e-06
2475 2521 -4.85594e-06
2521 2521 282
2920 2521 -6.13135e-16
2921 2521 -6.13135e-16
2922 2521 -6.13135e-16
2923 2521 -6.13135e-16
2460 2522 -6e-06
2461 2522 -4.85594e-06
2462 2522 -6e-06
2463 2522 -4.85594e-06
2464 2522 -6e-06
2465 2522 -4.85594e-06
2466 2522 -6e-06
2467 2522 -4.85594e-06
2522 2522 282
2920 2522 -6.13135e-16
2921 2522 -6.13135e-16
2922 2522 -6.13135e-16
2923 2522 -6.13135e-16
2446 2523 -6e-06
2447 2523 -4.85594e-06
2450 2523 -6e-06
2451 2523 -4.85594e-06
2454 2523 -6e-06
2455 2523 -4.85594e-06
2458 2523 -6e-06
2459 2523 -4.85594e-06
2523 2523 282
2920 2523 -6.13135e-16
2921 2523 -6.13135e-16
2922 2523 -6.13135e-16
2923 2523 -6.13135e-16
2524 2524 1645.8
2525 2524 -1.45826e-08
2524 2525 -2.4e-05
2525 2525 14706
2918 2525 -0.679995
2526 2526 6178
2527 2526 -0.809323
2603 2526 -9.71188e-10
2526 2527 -5000
2527 2527 1123.38
2603 2527 -4.32261e-09
2918 2527 -3.56067e-08
2528 2528 1645.8
2529 2528 -1.45826e-08
2528 2529 -2.4e-05
2529 2529 14706
2916 2529 -0.679995
2530 2530 6178
2531 2530 -0.809323
2603 2530 -9.71188e-10
2530 2531 -5000
2531 2531 1123.38
2603 2531 -4.32261e-09
2916 2531 -3.56067e-08
2532 2532 1645.8
2533 2532 -1.45826e-08
2532 2533 -2.4e-05
2533 2533 14706
2919 2533 -0.679995
2534 2534 6178
2535 2534 -0.809323
2603 2534 -9.71188e-10
2534 2535 -5000
2535 2535 1123.38
2603 2535 -4.32261e-09
2919 2535 -3.56067e-08
2536 2536 1645.8
2537 2536 -1.45826e-08
2536 2537 -2.4e-05
2537 2537 14706
2917 2537 -0.679995
2538 2538 6178
2539 2538 -0.809323
2603 2538 -9.71188e-10
2538 2539 -5000
2539 2539 1123.38
2603 2539 -4.32261e-09
2917 2539 -3.56067e-08
2540 2540 6178
2541 2540 -0.809323
2602 2540 -9.71188e-10
2540 2541 -5000
2541 2541 1123.38
2602 2541 -4.32261e-09
2917 2541 -3.56067e-08
2542 2542 6178
2543 2542 -0.809323
2602 2542 -9.71188e-10
2542 2543 -5000
2543 2543 1123.38
2602 2543 -4.32261e-09
2919 2543 -3.56067e-08
2544 2544 6178
2545 2544 -0.809323
2602 2544 -9.71188e-10
2544 2545 -5000
2545 2545 1123.38
2602 2545 -4.32261e-09
2916 2545 -3.56067e-08
2546 2546 6178
2547 2546 -0.809323
2602 2546 -9.71188e-10
2546 2547 -5000
2547 2547 1123.38
2602 2547 -4.32261e-09
2918 2547 -3.56067e-08
2548 2548 6178
2549 2548 -0.809323
2601 2548 -9.71188e-10
2548 2549 -5000
2549 2549 1123.38
2601 2549 -4.32261e-09
2918 2549 -3.56067e-08
2550 2550 6178
2551 2550 -0.809323
2601 2550 -9.71188e-10
2550 2551 -5000
2551 2551 1123.38
2601 2551 -4.32261e-09
2916 2551 -3.56067e-08
2552 2552 6178
2553 2552 -0.809323
2601 2552 -9.71188e-10
2552 2553 -5000
2553 2553 1123.38
2601 2553 -4.32261e-09
2919 2553 -3.56067e-08
2554 2554 6178
2555 2554 -0.809323
2601 2554 -9.71188e-10
2554 2555 -5000
2555 2555 1123.38
2601 2555 -4.32261e-09
2917 2555 -3.56067e-08
2556 2556 6178
2557 2556 -0.809323
2600 2556 -9.71188e-10
2556 2557 -5000
2557 2557 1123.38
2600 2557 -4.32261e-09
2917 2557 -3.56067e-08
2558 2558 6178
2559 2558 -0.809323
2600 2558 -9.71188e-10
2558 2559 -5000
2559 2559 1123.38
2600 2559 -4.32261e-09
2919 2559 -3.56067e-08
2560 2560 6178
2561 2560 -0.809323
2600 2560 -9.71188e-10
2560 2561 -5000
2561 2561 1123.38
2600 2561 -4.32261e-09
2916 2561 -3.56067e-08
2562 2562 6178
2563 2562 -0.809323
2600 2562 -9.71188e-10
2562 2563 -5000
2563 2563 1123.38
2600 2563 -4.32261e-09
2918 2563 -3.56067e-08
2564 2564 6178
2565 2564 -0.809323
2599 2564 -9.71188e-10
2564 2565 -5000
2565 2565 1123.38
2599 2565 -4.32261e-09
2918 2565 -3.56067e-08
2566 2566 6178
2567 2566 -0.809323
2599 2566 -9.71188e-10
2566 2567 -5000
2567 2567 1123.38
2599 2567 -4.32261e-09
2916 2567 -3.56067e-08
2568 2568 6178
2569 2568 -0.809323
2599 2568 -9.71188e-10
2568 2569 -5000
2569 2569 1123.38
2599 2569 -4.32261e-09
2919 2569 -3.56067e-08
2570 2570 6178
2571 2570 -0.809323
2599 2570 -9.71188e-10
2570 2571 -5000
2571 2571 1123.38
2599 2571 -4.32261e-09
2917 2571 -3.56067e-08
2572 2572 6178
2573 2572 -0.809323
2598 2572 -9.71188e-10
2572 2573 -5000
2573 2573 1123.38
2598 2573 -4.32261e-09
2917 2573 -3.56067e-08
2574 2574 6178
2575 2574 -0.809323
2598 2574 -9.71188e-10
2574 2575 -5000
2575 2575 1123.38
2598 2575 -4.32261e-09
2919 2575 -3.56067e-08
2576 2576 6178
2577 2576 -0.809323
2598 2576 -9.71188e-10
2576 2577 -5000
2577 2577 1123.38
2598 2577 -4.32261e-09
2916 2577 -3.56067e-08
2578 2578 6178
2579 2578 -0.809323
2598 2578 -9.71188e-10
2578 2579 -5000
2579 2579 1123.38
2598 2579 -4.32261e-09
2918 2579 -3.56067e-08
2580 2580 6178
2581 2580 -0.809323
2597 2580 -9.71188e-10
2580 2581 -5000
2581 2581 1123.38
2597 2581 -4.32261e-09
2918 2581 -3.56067e-08
2582 2582 6178
2583 2582 -0.809323
2597 2582 -9.71188e-10
2582 2583 -5000
2583 2583 1123.38
2597 2583 -4.32261e-09
2916 2583 -3.56067e-08
2584 2584 6178
2585 2584 -0.809323
2597 2584 -9.71188e-10
2584 2585 -5000
2585 2585 1123.38
2597 2585 -4.32261e-09
2919 2585 -3.56067e-08
2586 2586 6178
2587 2586 -0.809323
2597 2586 -9.71188e-10
2586 2587 -5000
2587 2587 1123.38
2597 2587 -4.32261e-09
2917 2587 -3.56067e-08
2588 2588 6178
2589 2588 -0.809323
2596 2588 -9.71188e-10
2588 2589 -5000
2589 2589 1123.38
2596 2589 -4.32261e-09
2917 2589 -3.56067e-08
2590 2590 6178
2591 2590 -0.809323
2596 2590 -9.71188e-10
2590 2591 -5000
2591 2591 1123.38
2596 2591 -4.32261e-09
2919 2591 -3.56067e-08
2592 2592 6178
2593 2592 -0.809323
2596 2592 -9.71188e-10
2592 2593 -5000
2593 2593 1123.38
2596 2593 -4.32261e-09
2916 2593 -3.56067e-08
2594 2594 6178
2595 2594 -0.809323
2596 2594 -9.71188e-10
2594 2595 -5000
2595 2595 1123.38
2596 2595 -4.32261e-09
2918 2595 -3.56067e-08
2588 2596 -6e-06
2589 2596 -4.85594e-06
2590 2596 -6e-06
2591 2596 -4.85594e-06
2592 2596 -6e-06
2593 2596 -4.85594e-06
2594 2596 -6e-06
2595 2596 -4.85594e-06
2596 2596 282
2916 2596 -6.13135e-16
2917 2596 -6.13135e-16
2918 2596 -6.13135e-16
2919 2596 -6.13135e-16
2580 2597 -6e-06
2581 2597 -4.85594e-06
2582 2597 -6e-06
2583 2597 -4.85594e-06
2584 2597 -6e-06
2585 2597 -4.85594e-06
2586 2597 -6e-06
2587 2597 -4.85594e-06
2597 2597 282
2916 2597 -6.13135e-16
2917 2597 -6.13135e-16
2918 2597 -6.13135e-16
2919 2597 -6.13135e-16
2572 2598 -6e-06
2573 2598 -4.85594e-06
2574 2598 -6e-06
2575 2598 -4.85594e-06
2576 2598 -6e-06
2577 2598 -4.85594e-06
2578 2598 -6e-06
2579 2598 -4.85594e-06
2598 2598 282
2916 2598 -6.13135e-16
2917 2598 -6.13135e-16
2918 2598 -6.13135e-16
2919 2598 -6.13135e-16
2564 2599 -6e-06
2565 2599 -4.85594e-06
2566 2599 -6e-06
2567 2599 -4.85594e-06
2568 2599 -6e-06
2569 2599 -4.85594e-06
2570 2599 -6e-06
2571 2599 -4.85594e-06
2599 2599 282
2916 2599 -6.13135e-16
2917 2599 -6.13135e-16
2918 2599 -6.13135e-16
2919 2599 -6.13135e-16
2556 2600 -6e-06
2557 2600 -4.85594e-06
2558 2600 -6e-06
2559 2600 -4.85594e-06
2560 2600 -6e-06
2561 2600 -4.85594e-06
2562 2600 -6e-06
2563 2600 -4.85594e-06
2600 2600 282
2916 2600 -6.13135e-16
2917 2600 -6.13135e-16
2918 2600 -6.13135e-16
2919 2600 -6.13135e-16
2548 2601 -6e-06
2549 2601 -4.85594e-06
2550 2601 -6e-06
2551 2601 -4.85594e-06
2552 2601 -6e-06
2553 2601 -4.85594e-06
2554 2601 -6e-06
2555 2601 -4.85594e-06
2601 2601 282
2916 2601 -6.13135e-16
2917 2601 -6.13135e-16
2918 2601 -6.13135e-16
2919 2601 -6.13135e-16
2540 2602 -6e-06
2541 2602 -4.85594e-06
2542 2602 -6e-06
2543 2602 -4.85594e-06
2544 2602 -6e-06
2545 2602 -4.85594e-06
2546 2602 -6e-06
2547 2602 -4.85594e-06
2602 2602 282
2916 2602 -6.13135e-16
2917 2602 -6.13135e-16
2918 2602 -6.13135e-16
2919 2602 -6.13135e-16
2526 2603 -6e-06
2527 2603 -4.85594e-06
2530 2603 -6e-06
2531 2603 -4.85594e-06
2534 2603 -6e-06
2535 2603 -4.85594e-06
2538 2603 -6e-06
2539 2603 -4.85594e-06
2603 2603 282
2916 2603 -6.13135e-16
2917 2603 -6.13135e-16
2918 2603 -6.13135e-16
2919 2603 -6.13135e-16
2604 2604 1645.8
2605 2604 -1.45826e-08
2604 2605 -2.4e-05
2605 2605 14706
2914 2605 -0.679995
2606 2606 6178
2607 2606 -0.809323
2683 2606 -9.71188e-10
2606 2607 -5000
2607 2607 1123.38
2683 2607 -4.32261e-09
2914 2607 -3.56067e-08
2608 2608 1645.8
2609 2608 -1.45826e-08
2608 2609 -2.4e-05
2609 2609 14706
2912 2609 -0.679995
2610 2610 6178
2611 2610 -0.809323
2683 2610 -9.71188e-10
2610 2611 -5000
2611 2611 1123.38
2683 2611 -4.32261e-09
2912 2611 -3.56067e-08
2612 2612 1645.8
2613 2612 -1.45826e-08
2612 2613 -2.4e-05
2613 2613 14706
2915 2613 -0.679995
2614 2614 6178
2615 2614 -0.809323
2683 2614 -9.71188e-10
2614 2615 -5000
2615 2615 1123.38
2683 2615 -4.32261e-09
2915 2615 -3.56067e-08
2616 2616 1645.8
2617 2616 -1.45826e-08
2616 2617 -2.4e-05
2617 2617 14706
2913 2617 -0.679995
2618 2618 6178
2619 2618 -0.809323
2683 2618 -9.71188e-10
2618 2619 -5000
2619 2619 1123.38
2683 2619 -4.32261e-09
2913 2619 -3.56067e-08
2620 2620 6178
2621 2620 -0.809323
2682 2620 -9.71188e-10
2620 2621 -5000
2621 2621 1123.38
2682 2621 -4.32261e-09
2913 2621 -3.56067e-08
2622 2622 6178
2623 2622 -0.809323
2682 2622 -9.71188e-10
2622 2623 -5000
2623 2623 1123.38
2682 2623 -4.32261e-09
2915 2623 -3.56067e-08
2624 2624 6178
2625 2624 -0.809323
2682 2624 -9.71188e-10
2624 2625 -5000
2625 2625 1123.38
2682 2625 -4.32261e-09
2912 2625 -3.56067e-08
2626 2626 6178
2627 2626 -0.809323
2682 2626 -9.71188e-10
2626 2627 -5000
2627 2627 1123.38
2682 2627 -4.32261e-09
2914 2627 -3.56067e-08
2628 2628 6178
2629 2628 -0.809323
2681 2628 -9.71188e-10
2628 2629 -5000
2629 2629 1123.38
2681 2629 -4.32261e-09
2914 2629 -3.56067e-08
2630 2630 6178
2631 2630 -0.809323
2681 2630 -9.71188e-10
2630 2631 -5000
2631 2631 1123.38
2681 2631 -4.32261e-09
2912 2631 -3.56067e-08
2632 2632 6178
2633 2632 -0.809323
2681 2632 -9.71188e-10
2632 2633 -5000
2633 2633 1123.38
2681 2633 -4.32261e-09
2915 2633 -3.56067e-08
2634 2634 6178
2635 2634 -0.809323
2681 2634 -9.71188e-10
2634 2635 -5000
2635 2635 1123.38
2681 2635 -4.32261e-09
2913 2635 -3.56067e-08
2636 2636 6178
2637 2636 -0.809323
2680 2636 -9.71188e-10
2636 2637 -5000
2637 2637 1123.38
2680 2637 -4.32261e-09
2913 2637 -3.56067e-08
2638 2638 6178
2639 2638 -0.809323
2680 2638 -9.71188e-10
2638 2639 -5000
2639 2639 1123.38
2680 2639 -4.32261e-09
2915 2639 -3.56067e-08
2640 2640 6178
2641 2640 -0.809323
2680 2640 -9.71188e-10
2640 2641 -5000
2641 2641 1123.38
2680 2641 -4.32261e-09
2912 2641 -3.56067e-08
2642 2642 6178
2643 2642 -0.809323
2680 2642 -9.71188e-10
2642 2643 -5000
2643 2643 1123.38
2680 2643 -4.32261e-09
2914 2643 -3.56067e-08
2644 2644 6178
2645 2644 -0.809323
2679 2644 -9.71188e-10
2644 2645 -5000
2645 2645 1123.38
2679 2645 -4.32261e-09
2914 2645 -3.56067e-08
2646 2646 6178
2647 2646 -0.809323
2679 2646 -9.71188e-10
2646 2647 -5000
2647 2647 1123.38
2679 2647 -4.32261e-09
2912 2647 -3.56067e-08
2648 2648 6178
2649 2648 -0.809323
2679 2648 -9.71188e-10
2648 2649 -5000
2649 2649 1123.38
2679 2649 -4.32261e-09
2915 2649 -3.56067e-08
2650 2650 6178
2651 2650 -0.809323
2679 2650 -9.71188e-10
2650 2651 -5000
2651 2651 1123.38
2679 2651 -4.32261e-09
2913 2651 -3.56067e-08
2652 2652 6178
2653 2652 -0.809323
2678 2652 -9.71188e-10
2652 2653 -5000
2653 2653 1123.38
2678 2653 -4.32261e-09
2913 2653 -3.56067e-08
2654 2654 6178
2655 2654 -0.809323
2678 2654 -9.71188e-10
2654 2655 -5000
2655 2655 1123.38
2678 2655 -4.32261e-09
2915 2655 -3.56067e-08
2656 2656 6178
2657 2656 -0.809323
2678 2656 -9.71188e-10
2656 2657 -5000
2657 2657 1123.38
2678 2657 -4.32261e-09
2912 2657 -3.56067e-08
2658 2658 6178
2659 2658 -0.809323
2678 2658 -9.71188e-10
2658 2659 -5000
2659 2659 1123.38
2678 2659 -4.32261e-09
2914 2659 -3.56067e-08
2660 2660 6178
2661 2660 -0.809323
2677 2660 -9.71188e-10
2660 2661 -5000
2661 2661 1123.38
2677 2661 -4.32261e-09
2914 2661 -3.56067e-08
2662 2662 6178
2663 2662 -0.809323
2677 2662 -9.71188e-10
2662 2663 -5000
2663 2663 1123.38
2677 2663 -4.32261e-09
2912 2663 -3.56067e-08
2664 2664 6178
2665 2664 -0.809323
2677 2664 -9.71188e-10
2664 2665 -5000
2665 2665 1123.38
2677 2665 -4.32261e-09
2915 2665 -3.56067e-08
2666 2666 6178
2667 2666 -0.809323
2677 2666 -9.71188e-10
2666 2667 -5000
2667 2667 1123.38
2677 2667 -4.32261e-09
2913 2667 -3.56067e-08
2668 2668 6178
2669 2668 -0.809323
2676 2668 -9.71188e-10
2668 2669 -5000
2669 2669 1123.38
2676 2669 -4.32261e-09
2913 2669 -3.56067e-08
2670 2670 6178
2671 2670 -0.809323
2676 2670 -9.71188e-10
2670 2671 -5000
2671 2671 1123.38
2676 2671 -4.32261e-09
2915 2671 -3.56067e-08
2672 2672 6178
2673 2672 -0.809323
2676 2672 -9.71188e-10
2672 2673 -5000
2673 2673 1123.38
2676 2673 -4.32261e-09
2912 2673 -3.56067e-08
2674 2674 6178
2675 2674 -0.809323
2676 2674 -9.71188e-10
2674 2675 -5000
2675 2675 1123.38
2676 2675 -4.32261e-09
2914 2675 -3.56067e-08
2668 2676 -6e-06
2669 2676 -4.85594e-06
2670 2676 -6e-06
2671 2676 -4.85594e-06
2672 2676 -6e-06
2673 2676 -4.85594e-06
2674 2676 -6e-06
2675 2676 -4.85594e-06
2676 2676 282
2912 2676 -6.13135e-16
2913 2676 -6.13135e-16
2914 2676 -6.13135e-16
2915 2676 -6.13135e-16
2660 2677 -6e-06
2661 2677 -4.85594e-06
2662 2677 -6e-06
2663 2677 -4.85594e-06
2664 2677 -6e-06
2665 2677 -4.85594e-06
2666 2677 -6e-06
2667 2677 -4.85594e-06
2677 2677 282
2912 2677 -6.13135e-16
2913 2677 -6.13135e-16
2914 2677 -6.13135e-16
2915 2677 -6.13135e-16
2652 2678 -6e-06
2653 2678 -4.85594e-06
2654 2678 -6e-06
2655 2678 -4.85594e-06
2656 2678 -6e-06
2657 2678 -4.85594e-06
2658 2678 -6e-06
2659 2678 -4.85594e-06
2678 2678 282
2912 2678 -6.13135e-16
2913 2678 -6.13135e-16
2914 2678 -6.13135e-16
2915 2678 -6.13135e-16
2644 2679 -6e-06
2645 2679 -4.85594e-06
2646 2679 -6e-06
2647 2679 -4.85594e-06
2648 2679 -6e-06
2649 2679 -4.85594e-06
2650 2679 -6e-06
2651 2679 -4.85594e-06
2679 2679 282
2912 2679 -6.13135e-16
2913 2679 -6.13135e-16
2914 2679 -6.13135e-16
2915 2679 -6.13135e-16
2636 2680 -6e-06
2637 2680 -4.85594e-06
2638 2680 -6e-06
2639 2680 -4.85594e-06
2640 2680 -6e-06
2641 2680 -4.85594e-06
2642 2680 -6e-06
2643 2680 -4.85594e-06
2680 2680 282
2912 2680 -6.13135e-16
2913 2680 -6.13135e-16
2914 2680 -6.13135e-16
2915 2680 -6.13135e-16
2628 2681 -6e-06
2629 2681 -4.85594e-06
2630 2681 -6e-06
2631 2681 -4.85594e-06
2632 2681 -6e-06
2633 2681 -4.85594e-06
2634 2681 -6e-06
2635 2681 -4.85594e-06
2681 2681 282
2912 2681 -6.13135e-16
2913 2681 -6.13135e-16
2914 2681 -6.13135e-16
2915 2681 -6.13135e-16
2620 2682 -6e-06
2621 2682 -4.85594e-06
2622 2682 -6e-06
2623 2682 -4.85594e-06
2624 2682 -6e-06
2625 2682 -4.85594e-06
2626 2682 -6e-06
2627 2682 -4.85594e-06
2682 2682 282
2912 2682 -6.13135e-16
2913 2682 -6.13135e-16
2914 2682 -6.13135e-16
2915 2682 -6.13135e-16
2606 2683 -6e-06
2607 2683 -4.85594e-06
2610 2683 -6e-06
2611 2683 -4.85594e-06
2614 2683 -6e-06
2615 2683 -4.85594e-06
2618 2683 -6e-06
2619 2683 -4.85594e-06
2683 2683 282
2912 2683 -6.13135e-16
2913 2683 -6.13135e-16
2914 2683 -6.13135e-16
2915 2683 -6.13135e-16
2684 2684 1178
2685 2684 -5.09338e-09
2684 2685 -6e-06
2685 2685 746.98
2827 2685 -5.35489e-08
2686 2686 1178
2687 2686 -5.09338e-09
2686 2687 -6e-06
2687 2687 746.98
2827 2687 -5.35489e-08
2688 2688 1178
2689 2688 -5.09338e-09
2688 2689 -6e-06
2689 2689 746.98
2827 2689 -5.35489e-08
2690 2690 1178
2691 2690 -5.09338e-09
2690 2691 -6e-06
2691 2691 746.98
2827 2691 -5.35489e-08
2692 2692 1178
2693 2692 -5.09338e-09
2692 2693 -6e-06
2693 2693 396.8
2826 2693 -1.00806e-07
2694 2694 1178
2695 2694 -5.09338e-09
2694 2695 -6e-06
2695 2695 396.8
2826 2695 -1.00806e-07
2696 2696 1178
2697 2696 -5.09338e-09
2696 2697 -6e-06
2697 2697 396.8
2826 2697 -1.00806e-07
2698 2698 1178
2699 2698 -5.09338e-09
2698 2699 -6e-06
2699 2699 396.8
2826 2699 -1.00806e-07
2700 2700 1178
2701 2700 -5.09338e-09
2700 2701 -6e-06
2701 2701 746.98
2825 2701 -5.35489e-08
2702 2702 1178
2703 2702 -5.09338e-09
2702 2703 -6e-06
2703 2703 746.98
2825 2703 -5.35489e-08
2704 2704 1178
2705 2704 -5.09338e-09
2704 2705 -6e-06
2705 2705 746.98
2825 2705 -5.35489e-08
2706 2706 1178
2707 2706 -5.09338e-09
2706 2707 -6e-06
2707 2707 746.98
2825 2707 -5.35489e-08
2708 2708 1178
2709 2708 -5.09338e-09
2708 2709 -6e-06
2709 2709 396.8
2824 2709 -1.00806e-07
2710 2710 1178
2711 2710 -5.09338e-09
2710 2711 -6e-06
2711 2711 396.8
2824 2711 -1.00806e-07
2712 2712 1178
2713 2712 -5.09338e-09
2712 2713 -6e-06
2713 2713 396.8
2824 2713 -1.00806e-07
2714 2714 1178
2715 2714 -5.09338e-09
2714 2715 -6e-06
2715 2715 396.8
2824 2715 -1.00806e-07
2716 2716 1178
2717 2716 -5.09338e-09
2716 2717 -6e-06
2717 2717 746.98
2823 2717 -5.35489e-08
2718 2718 1178
2719 2718 -5.09338e-09
2718 2719 -6e-06
2719 2719 746.98
2823 2719 -5.35489e-08
2720 2720 1178
2721 2720 -5.09338e-09
2720 2721 -6e-06
2721 2721 746.98
2823 2721 -5.35489e-08
2722 2722 1178
2723 2722 -5.09338e-09
2722 2723 -6e-06
2723 2723 746.98
2823 2723 -5.35489e-08
2724 2724 1178
2725 2724 -5.09338e-09
2724 2725 -6e-06
2725 2725 396.8
2822 2725 -1.00806e-07
2726 2726 1178
2727 2726 -5.09338e-09
2726 2727 -6e-06
2727 2727 396.8
2822 2727 -1.00806e-07
2728 2728 1178
2729 2728 -5.09338e-09
2728 2729 -6e-06
2729 2729 396.8
2822 2729 -1.00806e-07
2730 2730 1178
2731 2730 -5.09338e-09
2730 2731 -6e-06
2731 2731 396.8
2822 2731 -1.00806e-07
2732 2732 1178
2733 2732 -5.09338e-09
2732 2733 -6e-06
2733 2733 746.98
2821 2733 -5.35489e-08
2734 2734 1178
2735 2734 -5.09338e-09
2734 2735 -6e-06
2735 2735 746.98
2821 2735 -5.35489e-08
2736 2736 1178
2737 2736 -5.09338e-09
2736 2737 -6e-06
2737 2737 746.98
2821 2737 -5.35489e-08
2738 2738 1178
2739 2738 -5.09338e-09
2738 2739 -6e-06
2739 2739 746.98
2821 2739 -5.35489e-08
2740 2740 1178
2741 2740 -5.09338e-09
2740 2741 -6e-06
2741 2741 396.8
2820 2741 -1.00806e-07
2742 2742 1178
2743 2742 -5.09338e-09
2742 2743 -6e-06
2743 2743 396.8
2820 2743 -1.00806e-07
2744 2744 1178
2745 2744 -5.09338e-09
2744 2745 -6e-06
2745 2745 396.8
2820 2745 -1.00806e-07
2746 2746 1178
2747 2746 -5.09338e-09
2746 2747 -6e-06
2747 2747 396.8
2820 2747 -1.00806e-07
2748 2748 1178
2749 2748 -5.09338e-09
2748 2749 -6e-06
2749 2749 746.98
2819 2749 -5.35489e-08
2750 2750 1178
2751 2750 -5.09338e-09
2750 2751 -6e-06
2751 2751 746.98
2819 2751 -5.35489e-08
2752 2752 1178
2753 2752 -5.09338e-09
2752 2753 -6e-06
2753 2753 746.98
2819 2753 -5.35489e-08
2754 2754 1178
2755 2754 -5.09338e-09
2754 2755 -6e-06
2755 2755 746.98
2819 2755 -5.35489e-08
2756 2756 1178
2757 2756 -5.09338e-09
2756 2757 -6e-06
2757 2757 396.8
2818 2757 -1.00806e-07
2758 2758 1178
2759 2758 -5.09338e-09
2758 2759 -6e-06
2759 2759 396.8
2818 2759 -1.00806e-07
2760 2760 1178
2761 2760 -5.09338e-09
2760 2761 -6e-06
2761 2761 396.8
2818 2761 -1.00806e-07
2762 2762 1178
2763 2762 -5.09338e-09
2762 2763 -6e-06
2763 2763 396.8
2818 2763 -1.00806e-07
2764 2764 1178
2765 2764 -5.09338e-09
2764 2765 -6e-06
2765 2765 746.98
2817 2765 -5.35489e-08
2766 2766 1178
2767 2766 -5.09338e-09
2766 2767 -6e-06
2767 2767 746.98
2817 2767 -5.35489e-08
2768 2768 1178
2769 2768 -5.09338e-09
2768 2769 -6e-06
2769 2769 746.98
2817 2769 -5.35489e-08
2770 2770 1178
2771 2770 -5.09338e-09
2770 2771 -6e-06
2771 2771 746.98
2817 2771 -5.35489e-08
2772 2772 1178
2773 2772 -5.09338e-09
2772 2773 -6e-06
2773 2773 396.8
2816 2773 -1.00806e-07
2774 2774 1178
2775 2774 -5.09338e-09
2774 2775 -6e-06
2775 2775 396.8
2816 2775 -1.00806e-07
2776 2776 1178
2777 2776 -5.09338e-09
2776 2777 -6e-06
2777 2777 396.8
2816 2777 -1.00806e-07
2778 2778 1178
2779 2778 -5.09338e-09
2778 2779 -6e-06
2779 2779 396.8
2816 2779 -1.00806e-07
2780 2780 1178
2781 2780 -5.09338e-09
2780 2781 -6e-06
2781 2781 746.98
2815 2781 -5.35489e-08
2782 2782 1178
2783 2782 -5.09338e-09
2782 2783 -6e-06
2783 2783 746.98
2815 2783 -5.35489e-08
2784 2784 1178
2785 2784 -5.09338e-09
2784 2785 -6e-06
2785 2785 746.98
2815 2785 -5.35489e-08
2786 2786 1178
2787 2786 -5.09338e-09
2786 2787 -6e-06
2787 2787 746.98
2815 2787 -5.35489e-08
2788 2788 1178
2789 2788 -5.09338e-09
2788 2789 -6e-06
2789 2789 396.8
2814 2789 -1.00806e-07
2790 2790 1178
2791 2790 -5.09338e-09
2790 2791 -6e-06
2791 2791 396.8
2814 2791 -1.00806e-07
2792 2792 1178
2793 2792 -5.09338e-09
2792 2793 -6e-06
2793 2793 396.8
2814 2793 -1.00806e-07
2794 2794 1178
2795 2794 -5.09338e-09
2794 2795 -6e-06
2795 2795 396.8
2814 2795 -1.00806e-07
2796 2796 1178
2797 2796 -5.09338e-09
2796 2797 -6e-06
2797 2797 746.98
2813 2797 -5.35489e-08
2798 2798 1178
2799 2798 -5.09338e-09
2798 2799 -6e-06
2799 2799 746.98
2813 2799 -5.35489e-08
2800 2800 1178
2801 2800 -5.09338e-09
2800 2801 -6e-06
2801 2801 746.98
2813 2801 -5.35489e-08
2802 2802 1178
2803 2802 -5.09338e-09
2802 2803 -6e-06
2803 2803 746.98
2813 2803 -5.35489e-08
2804 2804 1178
2805 2804 -5.09338e-09
2804 2805 -6e-06
2805 2805 396.8
2812 2805 -1.00806e-07
2806 2806 1178
2807 2806 -5.09338e-09
2806 2807 -6e-06
2807 2807 396.8
2812 2807 -1.00806e-07
2808 2808 1178
2809 2808 -5.09338e-09
2808 2809 -6e-06
2809 2809 396.8
2812 2809 -1.00806e-07
2810 2810 1178
2811 2810 -5.09338e-09
2810 2811 -6e-06
2811 2811 396.8
2812 2811 -1.00806e-07
2805 2812 -4e-05
2807 2812 -4e-05
2809 2812 -4e-05
2811 2812 -4e-05
2812 2812 850
2937 2812 -1.46823e-07
2797 2813 -4e-05
2799 2813 -4e-05
2801 2813 -4e-05
2803 2813 -4e-05
2813 2813 850
2937 2813 -1.46823e-07
2789 2814 -4e-05
2791 2814 -4e-05
2793 2814 -4e-05
2795 2814 -4e-05
2814 2814 850
2937 2814 -1.46823e-07
2781 2815 -4e-05
2783 2815 -4e-05
2785 2815 -4e-05
2787 2815 -4e-05
2815 2815 850
2937 2815 -1.46823e-07
2773 2816 -4e-05
2775 2816 -4e-05
2777 2816 -4e-05
2779 2816 -4e-05
2816 2816 850
2937 2816 -1.46823e-07
2765 2817 -4e-05
2767 2817 -4e-05
2769 2817 -4e-05
2771 2817 -4e-05
2817 2817 850
2937 2817 -1.46823e-07
2757 2818 -4e-05
2759 2818 -4e-05
2761 2818 -4e-05
2763 2818 -4e-05
2818 2818 850
2937 2818 -1.46823e-07
2749 2819 -4e-05
2751 2819 -4e-05
2753 2819 -4e-05
2755 2819 -4e-05
2819 2819 850
2937 2819 -1.46823e-07
2741 2820 -4e-05
2743 2820 -4e-05
2745 2820 -4e-05
2747 2820 -4e-05
2820 2820 850
2937 2820 -1.46823e-07
2733 2821 -4e-05
2735 2821 -4e-05
2737 2821 -4e-05
2739 2821 -4e-05
2821 2821 850
2937 2821 -1.46823e-07
2725 2822 -4e-05
2727 2822 -4e-05
2729 2822 -4e-05
2731 2822 -4e-05
2822 2822 850
2937 2822 -1.46823e-07
2717 2823 -4e-05
2719 2823 -4e-05
2721 2823 -4e-05
2723 2823 -4e-05
2823 2823 850
2937 2823 -1.46823e-07
2709 2824 -4e-05
2711 2824 -4e-05
2713 2824 -4e-05
2715 2824 -4e-05
2824 2824 850
2937 2824 -1.46823e-07
2701 2825 -4e-05
2703 2825 -4e-05
2705 2825 -4e-05
2707 2825 -4e-05
2825 2825 850
2937 2825 -1.46823e-07
2693 2826 -4e-05
2695 2826 -4e-05
2697 2826 -4e-05
2699 2826 -4e-05
2826 2826 850
2937 2826 -1.46823e-07
2685 2827 -4e-05
2687 2827 -4e-05
2689 2827 -4e-05
2691 2827 -4e-05
2827 2827 850
2937 2827 -1.46823e-07
2828 2828 1645.8
2829 2828 -1.45826e-08
2828 2829 -2.4e-05
2829 2829 14706
2910 2829 -0.679995
2830 2830 6178
2831 2830 -0.809323
2907 2830 -9.71188e-10
2830 2831 -5000
2831 2831 1123.38
2907 2831 -4.32261e-09
2910 2831 -3.56067e-08
2832 2832 1645.8
2833 2832 -1.45826e-08
2832 2833 -2.4e-05
2833 2833 14706
2908 2833 -0.679995
2834 2834 6178
2835 2834 -0.809323
2907 2834 -9.71188e-10
2834 2835 -5000
2835 2835 1123.38
2907 2835 -4.32261e-09
2908 2835 -3.56067e-08
2836 2836 1645.8
2837 2836 -1.45826e-08
2836 2837 -2.4e-05
2837 2837 14706
2911 2837 -0.679995
2838 2838 6178
2839 2838 -0.809323
2907 2838 -9.71188e-10
2838 2839 -5000
2839 2839 1123.38
2907 2839 -4.32261e-09
2911 2839 -3.56067e-08
2840 2840 1645.8
2841 2840 -1.45826e-08
2840 2841 -2.4e-05
2841 2841 14706
2909 2841 -0.679995
2842 2842 6178
2843 2842 -0.809323
2907 2842 -9.71188e-10
2842 2843 -5000
2843 2843 1123.38
2907 2843 -4.32261e-09
2909 2843 -3.56067e-08
2844 2844 6178
2845 2844 -0.809323
2906 2844 -9.71188e-10
2844 2845 -5000
2845 2845 1123.38
2906 2845 -4.32261e-09
2909 2845 -3.56067e-08
2846 2846 6178
2847 2846 -0.809323
2906 2846 -9.71188e-10
2846 2847 -5000
2847 2847 1123.38
2906 2847 -4.32261e-09
2911 2847 -3.56067e-08
2848 2848 6178
2849 2848 -0.809323
2906 2848 -9.71188e-10
2848 2849 -5000
2849 2849 1123.38
2906 2849 -4.32261e-09
2908 2849 -3.56067e-08
2850 2850 6178
2851 2850 -0.809323
2906 2850 -9.71188e-10
2850 2851 -5000
2851 2851 1123.38
2906 2851 -4.32261e-09
2910 2851 -3.56067e-08
2852 2852 6178
2853 2852 -0.809323
2905 2852 -9.71188e-10
2852 2853 -5000
2853 2853 1123.38
2905 2853 -4.32261e-09
2910 2853 -3.56067e-08
2854 2854 6178
2855 2854 -0.809323
2905 2854 -9.71188e-10
2854 2855 -5000
2855 2855 1123.38
2905 2855 -4.32261e-09
2908 2855 -3.56067e-08
2856 2856 6178
2857 2856 -0.809323
2905 2856 -9.71188e-10
2856 2857 -5000
2857 2857 1123.38
2905 2857 -4.32261e-09
2911 2857 -3.56067e-08
2858 2858 6178
2859 2858 -0.809323
2905 2858 -9.71188e-10
2858 2859 -5000
2859 2859 1123.38
2905 2859 -4.32261e-09
2909 2859 -3.56067e-08
2860 2860 6178
2861 2860 -0.809323
2904 2860 -9.71188e-10
2860 2861 -5000
2861 2861 1123.38
2904 2861 -4.32261e-09
2909 2861 -3.56067e-08
2862 2862 6178
2863 2862 -0.809323
2904 2862 -9.71188e-10
2862 2863 -5000
2863 2863 1123.38
2904 2863 -4.32261e-09
2911 2863 -3.56067e-08
2864 2864 6178
2865 2864 -0.809323
2904 2864 -9.71188e-10
2864 2865 -5000
2865 2865 1123.38
2904 2865 -4.32261e-09
2908 2865 -3.56067e-08
2866 2866 6178
2867 2866 -0.809323
2904 2866 -9.71188e-10
2866 2867 -5000
2867 2867 1123.38
2904 2867 -4.32261e-09
2910 2867 -3.56067e-08
2868 2868 6178
2869 2868 -0.809323
2903 2868 -9.71188e-10
2868 2869 -5000
2869 2869 1123.38
2903 2869 -4.32261e-09
2910 2869 -3.56067e-08
2870 2870 6178
2871 2870 -0.809323
2903 2870 -9.71188e-10
2870 2871 -5000
2871 2871 1123.38
2903 2871 -4.32261e-09
2908 2871 -3.56067e-08
2872 2872 6178
2873 2872 -0.809323
2903 2872 -9.71188e-10
2872 2873 -5000
2873 2873 1123.38
2903 2873 -4.32261e-09
2911 2873 -3.56067e-08
2874 2874 6178
2875 2874 -0.809323
2903 2874 -9.71188e-10
2874 2875 -5000
2875 2875 1123.38
2903 2875 -4.32261e-09
2909 2875 -3.56067e-08
2876 2876 6178
2877 2876 -0.809323
2902 2876 -9.71188e-10
2876 2877 -5000
2877 2877 1123.38
2902 2877 -4.32261e-09
2909 2877 -3.56067e-08
2878 2878 6178
2879 2878 -0.809323
2902 2878 -9.71188e-10
2878 2879 -5000
2879 2879 1123.38
2902 2879 -4.32261e-09
2911 2879 -3.56067e-08
2880 2880 6178
2881 2880 -0.809323
2902 2880 -9.71188e-10
2880 2881 -5000
2881 2881 1123.38
2902 2881 -4.32261e-09
2908 2881 -3.56067e-08
2882 2882 6178
2883 2882 -0.809323
2902 2882 -9.71188e-10
2882 2883 -5000
2883 2883 1123.38
2902 2883 -4.32261e-09
2910 2883 -3.56067e-08
2884 2884 6178
2885 2884 -0.809323
2901 2884 -9.71188e-10
2884 2885 -5000
2885 2885 1123.38
2901 2885 -4.32261e-09
2910 2885 -3.56067e-08
2886 2886 6178
2887 2886 -0.809323
2901 2886 -9.71188e-10
2886 2887 -5000
2887 2887 1123.38
2901 2887 -4.32261e-09
2908 2887 -3.56067e-08
2888 2888 6178
2889 2888 -0.809323
2901 2888 -9.71188e-10
2888 2889 -5000
2889 2889 1123.38
2901 2889 -4.32261e-09
2911 2889 -3.56067e-08
2890 2890 6178
2891 2890 -0.809323
2901 2890 -9.71188e-10
2890 2891 -5000
2891 2891 1123.38
2901 2891 -4.32261e-09
2909 2891 -3.56067e-08
2892 2892 6178
2893 2892 -0.809323
2900 2892 -9.71188e-10
2892 2893 -5000
2893 2893 1123.38
2900 2893 -4.32261e-09
2909 2893 -3.56067e-08
2894 2894 6178
2895 2894 -0.809323
2900 2894 -9.71188e-10
2894 2895 -5000
2895 2895 1123.38
2900 2895 -4.32261e-09
2911 2895 -3.56067e-08
2896 2896 6178
2897 2896 -0.809323
2900 2896 -9.71188e-10
2896 2897 -5000
2897 2897 1123.38
2900 2897 -4.32261e-09
2908 2897 -3.56067e-08
2898 2898 6178
2899 2898 -0.809323
2900 2898 -9.71188e-10
2898 2899 -5000
2899 2899 1123.38
2900 2899 -4.32261e-09
2910 2899 -3.56067e-08
2892 2900 -6e-06
2893 2900 -4.85594e-06
2894 2900 -6e-06
2895 2900 -4.85594e-06
2896 2900 -6e-06
2897 2900 -4.85594e-06
2898 2900 -6e-06
2899 2900 -4.85594e-06
2900 2900 282
2908 2900 -6.13135e-16
2909 2900 -6.13135e-16
2910 2900 -6.13135e-16
2911 2900 -6.13135e-16
2884 2901 -6e-06
2885 2901 -4.85594e-06
2886 2901 -6e-06
2887 2901 -4.85594e-06
2888 2901 -6e-06
2889 2901 -4.85594e-06
2890 2901 -6e-06
2891 2901 -4.85594e-06
2901 2901 282
2908 2901 -6.13135e-16
2909 2901 -6.13135e-16
2910 2901 -6.13135e-16
2911 2901 -6.13135e-16
2876 2902 -6e-06
2877 2902 -4.85594e-06
2878 2902 -6e-06
2879 2902 -4.85594e-06
2880 2902 -6e-06
2881 2902 -4.85594e-06
2882 2902 -6e-06
2883 2902 -4.85594e-06
2902 2902 282
2908 2902 -6.13135e-16
2909 2902 -6.13135e-16
2910 2902 -6.13135e-16
2911 2902 -6.13135e-16
2868 2903 -6e-06
2869 2903 -4.85594e-06
2870 2903 -6e-06
2871 2903 -4.85594e-06
2872 2903 -6e-06
2873 2903 -4.85594e-06
2874 2903 -6e-06
2875 2903 -4.85594e-06
2903 2903 282
2908 2903 -6.13135e-16
2909 2903 -6.13135e-16
2910 2903 -6.13135e-16
2911 2903 -6.13135e-16
2860 2904 -6e-06
2861 2904 -4.85594e-06
2862 2904 -6e-06
2863 2904 -4.85594e-06
2864 2904 -6e-06
2865 2904 -4.85594e-06
2866 2904 -6e-06
2867 2904 -4.85594e-06
2904 2904 282
2908 2904 -6.13135e-16
2909 2904 -6.13135e-16
2910 2904 -6.13135e-16
2911 2904 -6.13135e-16
2852 2905 -6e-06
2853 2905 -4.85594e-06
2854 2905 -6e-06
2855 2905 -4.85594e-06
2856 2905 -6e-06
2857 2905 -4.85594e-06
2858 2905 -6e-06
2859 2905 -4.85594e-06
2905 2905 282
2908 2905 -6.13135e-16
2909 2905 -6.13135e-16
2910 2905 -6.13135e-16
2911 2905 -6.13135e-16
2844 2906 -6e-06
2845 2906 -4.85594e-06
2846 2906 -6e-06
2847 2906 -4.85594e-06
2848 2906 -6e-06
2849 2906 -4.85594e-06
2850 2906 -6e-06
2851 2906 -4.85594e-06
2906 2906 282
2908 2906 -6.13135e-16
2909 2906 -6.13135e-16
2910 2906 -6.13135e-16
2911 2906 -6.13135e-16
2830 2907 -6e-06
2831 2907 -4.85594e-06
2834 2907 -6e-06
2835 2907 -4.85594e-06
2838 2907 -6e-06
2839 2907 -4.85594e-06
2842 2907 -6e-06
2843 2907 -4.85594e-06
2907 2907 282
2908 2907 -6.13135e-16
2909 2907 -6.13135e-16
2910 2907 -6.13135e-16
2911 2907 -6.13135e-16
2833 2908 -10000
2835 2908 -4e-05
2849 2908 -4e-05
2855 2908 -4e-05
2865 2908 -4e-05
2871 2908 -4e-05
2881 2908 -4e-05
2887 2908 -4e-05
2897 2908 -4e-05
2900 2908 -1.72904e-13
2901 2908 -1.72904e-13
2902 2908 -1.72904e-13
2903 2908 -1.72904e-13
2904 2908 -1.72904e-13
2905 2908 -1.72904e-13
2906 2908 -1.72904e-13
2907 2908 -1.72904e-13
2908 2908 4730.06
2909 2908 -1.79302e-31
2910 2908 -1.79302e-31
2911 2908 -1.79302e-31
2937 2908 -3.80545e-08
2841 2909 -10000
2843 2909 -4e-05
2845 2909 -4e-05
2859 2909 -4e-05
2861 2909 -4e-05
2875 2909 -4e-05
2877 2909 -4e-05
2891 2909 -4e-05
2893 2909 -4e-05
2900 2909 -1.72904e-13
2901 2909 -1.72904e-13
2902 2909 -1.72904e-13
2903 2909 -1.72904e-13
2904 2909 -1.72904e-13
2905 2909 -1.72904e-13
2906 2909 -1.72904e-13
2907 2909 -1.72904e-13
2908 2909 -8.4811e-28
2909 2909 4730.06
2910 2909 -1.79302e-31
2911 2909 -1.79302e-31
2937 2909 -3.80545e-08
2829 2910 -10000
2831 2910 -4e-05
2851 2910 -4e-05
2853 2910 -4e-05
2867 2910 -4e-05
2869 2910 -4e-05
2883 2910 -4e-05
2885 2910 -4e-05
2899 2910 -4e-05
2900 2910 -1.72904e-13
2901 2910 -1.72904e-13
2902 2910 -1.72904e-13
2903 2910 -1.72904e-13
2904 2910 -1.72904e-13
2905 2910 -1.72904e-13
2906 2910 -1.72904e-13
2907 2910 -1.72904e-13
2908 2910 -8.4811e-28
2909 2910 -8.4811e-28
2910 2910 4730.06
2911 2910 -1.79302e-31
2937 2910 -3.80545e-08
2837 2911 -10000
2839 2911 -4e-05
2847 2911 -4e-05
2857 2911 -4e-05
2863 2911 -4e-05
2873 2911 -4e-05
2879 2911 -4e-05
2889 2911 -4e-05
2895 2911 -4e-05
2900 2911 -1.72904e-13
2901 2911 -1.72904e-13
2902 2911 -1.72904e-13
2903 2911 -1.72904e-13
2904 2911 -1.72904e-13
2905 2911 -1.72904e-13
2906 2911 -1.72904e-13
2907 2911 -1.72904e-13
2908 2911 -8.4811e-28
2909 2911 -8.4811e-28
2910 2911 -8.4811e-28
2911 2911 4730.06
2937 2911 -3.80545e-08
2609 2912 -10000
2611 2912 -4e-05
2625 2912 -4e-05
2631 2912 -4e-05
2641 2912 -4e-05
2647 2912 -4e-05
2657 2912 -4e-05
2663 2912 -4e-05
2673 2912 -4e-05
2676 2912 -1.72904e-13
2677 2912 -1.72904e-13
2678 2912 -1.72904e-13
2679 2912 -1.72904e-13
2680 2912 -1.72904e-13
2681 2912 -1.72904e-13
2682 2912 -1.72904e-13
2683 2912 -1.72904e-13
2912 2912 4730.06
2913 2912 -1.79302e-31
2914 2912 -1.79302e-31
2915 2912 -1.79302e-31
2937 2912 -3.80545e-08
2617 2913 -10000
2619 2913 -4e-05
2621 2913 -4e-05
2635 2913 -4e-05
2637 2913 -4e-05
2651 2913 -4e-05
2653 2913 -4e-05
2667 2913 -4e-05
2669 2913 -4e-05
2676 2913 -1.72904e-13
2677 2913 -1.72904e-13
2678 2913 -1.72904e-13
2679 2913 -1.72904e-13
2680 2913 -1.72904e-13
2681 2913 -1.72904e-13
2682 2913 -1.72904e-13
2683 2913 -1.72904e-13
2912 2913 -8.4811e-28
2913 2913 4730.06
2914 2913 -1.79302e-31
2915 2913 -1.79302e-31
2937 2913 -3.80545e-08
2605 2914 -10000
2607 2914 -4e-05
2627 2914 -4e-05
2629 2914 -4e-05
2643 2914 -4e-05
2645 2914 -4e-05
2659 2914 -4e-05
2661 2914 -4e-05
2675 2914 -4e-05
2676 2914 -1.72904e-13
2677 2914 -1.72904e-13
2678 2914 -1.72904e-13
2679 2914 -1.72904e-13
2680 2914 -1.72904e-13
2681 2914 -1.72904e-13
2682 2914 -1.72904e-13
2683 2914 -1.72904e-13
2912 2914 -8.4811e-28
2913 2914 -8.4811e-28
2914 2914 4730.06
2915 2914 -1.79302e-31
2937 2914 -3.80545e-08
2613 2915 -10000
2615 2915 -4e-05
2623 2915 -4e-05
2633 2915 -4e-05
2639 2915 -4e-05
2649 2915 -4e-05
2655 2915 -4e-05
2665 2915 -4e-05
2671 2915 -4e-05
2676 2915 -1.72904e-13
2677 2915 -1.72904e-13
2678 2915 -1.72904e-13
2679 2915 -1.72904e-13
2680 2915 -1.72904e-13
2681 2915 -1.72904e-13
2682 2915 -1.72904e-13
2683 2915 -1.72904e-13
2912 2915 -8.4811e-28
2913 2915 -8.4811e-28
2914 2915 -8.4811e-28
2915 2915 4730.06
2937 2915 -3.80545e-08
2529 2916 -10000
2531 2916 -4e-05
2545 2916 -4e-05
2551 2916 -4e-05
2561 2916 -4e-05
2567 2916 -4e-05
2577 2916 -4e-05
2583 2916 -4e-05
2593 2916 -4e-05
2596 2916 -1.72904e-13
2597 2916 -1.72904e-13
2598 2916 -1.72904e-13
2599 2916 -1.72904e-13
2600 2916 -1.72904e-13
2601 2916 -1.72904e-13
2602 2916 -1.72904e-13
2603 2916 -1.72904e-13
2916 2916 4730.06
2917 2916 -1.79302e-31
2918 2916 -1.79302e-31
2919 2916 -1.79302e-31
2937 2916 -3.80545e-08
2537 2917 -10000
2539 2917 -4e-05
2541 2917 -4e-05
2555 2917 -4e-05
2557 2917 -4e-05
2571 2917 -4e-05
2573 2917 -4e-05
2587 2917 -4e-05
2589 2917 -4e-05
2596 2917 -1.72904e-13
2597 2917 -1.72904e-13
2598 2917 -1.72904e-13
2599 2917 -1.72904e-13
2600 2917 -1.72904e-13
2601 2917 -1.72904e-13
2602 2917 -1.72904e-13
2603 2917 -1.72904e-13
2916 2917 -8.4811e-28
2917 2917 4730.06
2918 2917 -1.79302e-31
2919 2917 -1.79302e-31
2937 2917 -3.80545e-08
2525 2918 -10000
2527 2918 -4e-05
2547 2918 -4e-05
2549 2918 -4e-05
2563 2918 -4e-05
2565 2918 -4e-05
2579 2918 -4e-05
2581 2918 -4e-05
2595 2918 -4e-05
2596 2918 -1.72904e-13
2597 2918 -1.72904e-13
2598 2918 -1.72904e-13
2599 2918 -1.72904e-13
2600 2918 -1.72904e-13
2601 2918 -1.72904e-13
2602 2918 -1.72904e-13
2603 2918 -1.72904e-13
2916 2918 -8.4811e-28
2917 2918 -8.4811e-28
2918 2918 4730.06
2919 2918 -1.79302e-31
2937 2918 -3.80545e-08
2533 2919 -10000
2535 2919 -4e-05
2543 2919 -4e-05
2553 2919 -4e-05
2559 2919 -4e-05
2569 2919 -4e-05
2575 2919 -4e-05
2585 2919 -4e-05
2591 2919 -4e-05
2596 2919 -1.72904e-13
2597 2919 -1.72904e-13
2598 2919 -1.72904e-13
2599 2919 -1.72904e-13
2600 2919 -1.72904e-13
2601 2919 -1.72904e-13
2602 2919 -1.72904e-13
2603 2919 -1.72904e-13
2916 2919 -8.4811e-28
2917 2919 -8.4811e-28
2918 2919 -8.4811e-28
2919 2919 4730.06
2937 2919 -3.80545e-08
2449 2920 -10000
2451 2920 -4e-05
2465 2920 -4e-05
2471 2920 -4e-05
2481 2920 -4e-05
2487 2920 -4e-05
2497 2920 -4e-05
2503 2920 -4e-05
2513 2920 -4e-05
2516 2920 -1.72904e-13
2517 2920 -1.72904e-13
2518 2920 -1.72904e-13
2519 2920 -1.72904e-13
2520 2920 -1.72904e-13
2521 2920 -1.72904e-13
2522 2920 -1.72904e-13
2523 2920 -1.72904e-13
2920 2920 4730.06
2921 2920 -1.79302e-31
2922 2920 -1.79302e-31
2923 2920 -1.79302e-31
2937 2920 -3.80545e-08
2457 2921 -10000
2459 2921 -4e-05
2461 2921 -4e-05
2475 2921 -4e-05
2477 2921 -4e-05
2491 2921 -4e-05
2493 2921 -4e-05
2507 2921 -4e-05
2509 2921 -4e-05
2516 2921 -1.72904e-13
2517 2921 -1.72904e-13
2518 2921 -1.72904e-13
2519 2921 -1.72904e-13
2520 2921 -1.72904e-13
2521 2921 -1.72904e-13
2522 2921 -1.72904e-13
2523 2921 -1.72904e-13
2920 2921 -8.4811e-28
2921 2921 4730.06
2922 2921 -1.79302e-31
2923 2921 -1.79302e-31
2937 2921 -3.80545e-08
2445 2922 -10000
2447 2922 -4e-05
2467 2922 -4e-05
2469 2922 -4e-05
2483 2922 -4e-05
2485 2922 -4e-05
2499 2922 -4e-05
2501 2922 -4e-05
2515 2922 -4e-05
2516 2922 -1.72904e-13
2517 2922 -1.72904e-13
2518 2922 -1.72904e-13
2519 2922 -1.72904e-13
2520 2922 -1.72904e-13
2521 2922 -1.72904e-13
2522 2922 -1.72904e-13
2523 2922 -1.72904e-13
2920 2922 -8.4811e-28
2921 2922 -8.4811e-28
2922 2922 4730.06
2923 2922 -1.79302e-31
2937 2922 -3.80545e-08
2453 2923 -10000
2455 2923 -4e-05
2463 2923 -4e-05
2473 2923 -4e-05
2479 2923 -4e-05
2489 2923 -4e-05
2495 2923 -4e-05
2505 2923 -4e-05
2511 2923 -4e-05
2516 2923 -1.72904e-13
2517 2923 -1.72904e-13
2518 2923 -1.72904e-13
2519 2923 -1.72904e-13
2520 2923 -1.72904e-13
2521 2923 -1.72904e-13
2522 2923 -1.72904e-13
2523 2923 -1.72904e-13
2920 2923 -8.4811e-28
2921 2923 -8.4811e-28
2922 2923 -8.4811e-28
2923 2923 4730.06
2937 2923 -3.80545e-08
2369 2924 -10000
2371 2924 -4e-05
2385 2924 -4e-05
2391 2924 -4e-05
2401 2924 -4e-05
2407 2924 -4e-05
2417 2924 -4e-05
2423 2924 -4e-05
2433 2924 -4e-05
2436 2924 -1.72904e-13
2437 2924 -1.72904e-13
2438 2924 -1.72904e-13
2439 2924 -1.72904e-13
2440 2924 -1.72904e-13
2441 2924 -1.72904e-13
2442 2924 -1.72904e-13
2443 2924 -1.72904e-13
2924 2924 4730.06
2925 2924 -1.79302e-31
2926 2924 -1.79302e-31
2927 2924 -1.79302e-31
2937 2924 -3.80545e-08
2377 2925 -10000
2379 2925 -4e-05
2381 2925 -4e-05
2395 2925 -4e-05
2397 2925 -4e-05
2411 2925 -4e-05
2413 2925 -4e-05
2427 2925 -4e-05
2429 2925 -4e-05
2436 2925 -1.72904e-13
2437 2925 -1.72904e-13
2438 2925 -1.72904e-13
2439 2925 -1.72904e-13
2440 2925 -1.72904e-13
2441 2925 -1.72904e-13
2442 2925 -1.72904e-13
2443 2925 -1.72904e-13
2924 2925 -8.4811e-28
2925 2925 4730.06
2926 2925 -1.79302e-31
2927 2925 -1.79302e-31
2937 2925 -3.80545e-08
2365 2926 -10000
2367 2926 -4e-05
2387 2926 -4e-05
2389 2926 -4e-05
2403 2926 -4e-05
2405 2926 -4e-05
2419 2926 -4e-05
2421 2926 -4e-05
2435 2926 -4e-05
2436 2926 -1.72904e-13
2437 2926 -1.72904e-13
2438 2926 -1.72904e-13
2439 2926 -1.72904e-13
2440 2926 -1.72904e-13
2441 2926 -1.72904e-13
2442 2926 -1.72904e-13
2443 2926 -1.72904e-13
2924 2926 -8.4811e-28
2925 2926 -8.4811e-28
2926 2926 4730.06
2927 2926 -1.79302e-31
2937 2926 -3.80545e-08
2373 2927 -10000
2375 2927 -4e-05
2383 2927 -4e-05
2393 2927 -4e-05
2399 2927 -4e-05
2409 2927 -4e-05
2415 2927 -4e-05
2425 2927 -4e-05
2431 2927 -4e-05
2436 2927 -1.72904e-13
2437 2927 -1.72904e-13
2438 2927 -1.72904e-13
2439 2927 -1.72904e-13
2440 2927 -1.72904e-13
2441 2927 -1.72904e-13
2442 2927 -1.72904e-13
2443 2927 -1.72904e-13
2924 2927 -8.4811e-28
2925 2927 -8.4811e-28
2926 2927 -8.4811e-28
2927 2927 4730.06
2937 2927 -3.80545e-08
2289 2928 -10000
2291 2928 -4e-05
2305 2928 -4e-05
2311 2928 -4e-05
2321 2928 -4e-05
2327 2928 -4e-05
2337 2928 -4e-05
2343 2928 -4e-05
2353 2928 -4e-05
2356 2928 -1.72904e-13
2357 2928 -1.72904e-13
2358 2928 -1.72904e-13
2359 2928 -1.72904e-13
2360 2928 -1.72904e-13
2361 2928 -1.72904e-13
2362 2928 -1.72904e-13
2363 2928 -1.72904e-13
2928 2928 4730.06
2929 2928 -1.79302e-31
2930 2928 -1.79302e-31
2931 2928 -1.79302e-31
2937 2928 -3.80545e-08
2297 2929 -10000
2299 2929 -4e-05
2301 2929 -4e-05
2315 2929 -4e-05
2317 2929 -4e-05
2331 2929 -4e-05
2333 2929 -4e-05
2347 2929 -4e-05
2349 2929 -4e-05
2356 2929 -1.72904e-13
2357 2929 -1.72904e-13
2358 2929 -1.72904e-13
2359 2929 -1.72904e-13
2360 2929 -1.72904e-13
2361 2929 -1.72904e-13
2362 2929 -1.72904e-13
2363 2929 -1.72904e-13
2928 2929 -8.4811e-28
2929 2929 4730.06
2930 2929 -1.79302e-31
2931 2929 -1.79302e-31
2937 2929 -3.80545e-08
2285 2930 -10000
2287 2930 -4e-05
2307 2930 -4e-05
2309 2930 -4e-05
2323 2930 -4e-05
2325 2930 -4e-05
2339 2930 -4e-05
2341 2930 -4e-05
2355 2930 -4e-05
2356 2930 -1.72904e-13
2357 2930 -1.72904e-13
2358 2930 -1.72904e-13
2359 2930 -1.72904e-13
2360 2930 -1.72904e-13
2361 2930 -1.72904e-13
2362 2930 -1.72904e-13
2363 2930 -1.72904e-13
2928 2930 -8.4811e-28
2929 2930 -8.4811e-28
2930 2930 4730.06
2931 2930 -1.79302e-31
2937 2930 -3.80545e-08
2293 2931 -10000
2295 2931 -4e-05
2303 2931 -4e-05
2313 2931 -4e-05
2319 2931 -4e-05
2329 2931 -4e-05
2335 2931 -4e-05
2345 2931 -4e-05
2351 2931 -4e-05
2356 2931 -1.72904e-13
2357 2931 -1.72904e-13
2358 2931 -1.72904e-13
2359 2931 -1.72904e-13
2360 2931 -1.72904e-13
2361 2931 -1.72904e-13
2362 2931 -1.72904e-13
2363 2931 -1.72904e-13
2928 2931 -8.4811e-28
2929 2931 -8.4811e-28
2930 2931 -8.4811e-28
2931 2931 4730.06
2937 2931 -3.80545e-08
2209 2932 -10000
2211 2932 -4e-05
2225 2932 -4e-05
2231 2932 -4e-05
2241 2932 -4e-05
2247 2932 -4e-05
2257 2932 -4e-05
2263 2932 -4e-05
2273 2932 -4e-05
2276 2932 -1.72904e-13
2277 2932 -1.72904e-13
2278 2932 -1.72904e-13
2279 2932 -1.72904e-13
2280 2932 -1.72904e-13
2281 2932 -1.72904e-13
2282 2932 -1.72904e-13
2283 2932 -1.72904e-13
2932 2932 4730.06
2933 2932 -1.79302e-31
2934 2932 -1.79302e-31
2935 2932 -1.79302e-31
2937 2932 -3.80545e-08
2217 2933 -10000
2219 2933 -4e-05
2221 2933 -4e-05
2235 2933 -4e-05
2237 2933 -4e-05
2251 2933 -4e-05
2253 2933 -4e-05
2267 2933 -4e-05
2269 2933 -4e-05
2276 2933 -1.72904e-13
2277 2933 -1.72904e-13
2278 2933 -1.72904e-13
2279 2933 -1.72904e-13
2280 2933 -1.72904e-13
2281 2933 -1.72904e-13
2282 2933 -1.72904e-13
2283 2933 -1.72904e-13
2932 2933 -8.4811e-28
2933 2933 4730.06
2934 2933 -1.79302e-31
2935 2933 -1.79302e-31
2937 2933 -3.80545e-08
2205 2934 -10000
2207 2934 -4e-05
2227 2934 -4e-05
2229 2934 -4e-05
2243 2934 -4e-05
2245 2934 -4e-05
2259 2934 -4e-05
2261 2934 -4e-05
2275 2934 -4e-05
2276 2934 -1.72904e-13
2277 2934 -1.72904e-13
2278 2934 -1.72904e-13
2279 2934 -1.72904e-13
2280 2934 -1.72904e-13
2281 2934 -1.72904e-13
2282 2934 -1.72904e-13
2283 2934 -1.72904e-13
2932 2934 -8.4811e-28
2933 2934 -8.4811e-28
2934 2934 4730.06
2935 2934 -1.79302e-31
2937 2934 -3.80545e-08
2213 2935 -10000
2215 2935 -4e-05
2223 2935 -4e-05
2233 2935 -4e-05
2239 2935 -4e-05
2249 2935 -4e-05
2255 2935 -4e-05
2265 2935 -4e-05
2271 2935 -4e-05
2276 2935 -1.72904e-13
2277 2935 -1.72904e-13
2278 2935 -1.72904e-13
2279 2935 -1.72904e-13
2280 2935 -1.72904e-13
2281 2935 -1.72904e-13
2282 2935 -1.72904e-13
2283 2935 -1.72904e-13
2932 2935 -8.4811e-28
2933 2935 -8.4811e-28
2934 2935 -8.4811e-28
2935 2935 4730.06
2937 2935 -3.80545e-08
2812 2936 -0.0001248
2813 2936 -0.0001248
2814 2936 -0.0001248
2815 2936 -0.0001248
2816 2936 -0.0001248
2817 2936 -0.0001248
2818 2936 -0.0001248
2819 2936 -0.0001248
2820 2936 -0.0001248
2821 2936 -0.0001248
2822 2936 -0.0001248
2823 2936 -0.0001248
2824 2936 -0.0001248
2825 2936 -0.0001248
2826 2936 -0.0001248
2827 2936 -0.0001248
2908 2936 -0.00018
2909 2936 -0.00018
2910 2936 -0.00018
2911 2936 -0.00018
2912 2936 -0.00018
2913 2936 -0.00018
2914 2936 -0.00018
2915 2936 -0.00018
2916 2936 -0.00018
2917 2936 -0.00018
2918 2936 -0.00018
2919 2936 -0.00018
2920 2936 -0.00018
2921 2936 -0.00018
2922 2936 -0.00018
2923 2936 -0.00018
2924 2936 -0.00018
2925 2936 -0.00018
2926 2936 -0.00018
2927 2936 -0.00018
2928 2936 -0.00018
2929 2936 -0.00018
2930 2936 -0.00018
2931 2936 -0.00018
2932 2936 -0.00018
2933 2936 -0.00018
2934 2936 -0.00018
2935 2936 -0.00018
2936 2936 1
2937 2936 8160.01
2945 2936 -0.00018
2946 2936 -0.00018
2947 2936 -0.00018
2949 2936 -0.00018
2937 2937 1
2196 2938 -6e-06
2197 2938 -4.85594e-06
2198 2938 -6e-06
2199 2938 -4.85594e-06
2200 2938 -6e-06
2201 2938 -4.85594e-06
2202 2938 -6e-06
2203 2938 -4.85594e-06
2938 2938 282
2945 2938 -6.13135e-16
2946 2938 -6.13135e-16
2947 2938 -6.13135e-16
2949 2938 -6.13135e-16
2188 2939 -6e-06
2189 2939 -4.85594e-06
2190 2939 -6e-06
2191 2939 -4.85594e-06
2192 2939 -6e-06
2193 2939 -4.85594e-06
2194 2939 -6e-06
2195 2939 -4.85594e-06
2939 2939 282
2945 2939 -6.13135e-16
2946 2939 -6.13135e-16
2947 2939 -6.13135e-16
2949 2939 -6.13135e-16
2180 2940 -6e-06
2181 2940 -4.85594e-06
2182 2940 -6e-06
2183 2940 -4.85594e-06
2184 2940 -6e-06
2185 2940 -4.85594e-06
2186 2940 -6e-06
2187 2940 -4.85594e-06
2940 2940 282
2945 2940 -6.13135e-16
2946 2940 -6.13135e-16
2947 2940 -6.13135e-16
2949 2940 -6.13135e-16
2172 2941 -6e-06
2173 2941 -4.85594e-06
2174 2941 -6e-06
2175 2941 -4.85594e-06
2176 2941 -6e-06
2177 2941 -4.85594e-06
2178 2941 -6e-06
2179 2941 -4.85594e-06
2941 2941 282
2945 2941 -6.13135e-16
2946 2941 -6.13135e-16
2947 2941 -6.13135e-16
2949 2941 -6.13135e-16
2164 2942 -6e-06
2165 2942 -4.85594e-06
2166 2942 -6e-06
2167 2942 -4.85594e-06
2168 2942 -6e-06
2169 2942 -4.85594e-06
2170 2942 -6e-06
2171 2942 -4.85594e-06
2942 2942 282
2945 2942 -6.13135e-16
2946 2942 -6.13135e-16
2947 2942 -6.13135e-16
2949 2942 -6.13135e-16
2156 2943 -6e-06
2157 2943 -4.85594e-06
2158 2943 -6e-06
2159 2943 -4.85594e-06
2160 2943 -6e-06
2161 2943 -4.85594e-06
2162 2943 -6e-06
2163 2943 -4.85594e-06
2943 2943 282
2945 2943 -6.13135e-16
2946 2943 -6.13135e-16
2947 2943 -6.13135e-16
2949 2943 -6.13135e-16
2148 2944 -6e-06
2149 2944 -4.85594e-06
2150 2944 -6e-06
2151 2944 -4.85594e-06
2152 2944 -6e-06
2153 2944 -4.85594e-06
2154 2944 -6e-06
2155 2944 -4.85594e-06
2944 2944 282
2945 2944 -6.13135e-16
2946 2944 -6.13135e-16
2947 2944 -6.13135e-16
2949 2944 -6.13135e-16
2141 2945 -10000
2143 2945 -4e-05
2151 2945 -4e-05
2161 2945 -4e-05
2167 2945 -4e-05
2177 2945 -4e-05
2183 2945 -4e-05
2193 2945 -4e-05
2199 2945 -4e-05
2937 2945 -0.00018
2938 2945 -1.72904e-13
2939 2945 -1.72904e-13
2940 2945 -1.72904e-13
2941 2945 -1.72904e-13
2942 2945 -1.72904e-13
2943 2945 -1.72904e-13
2944 2945 -1.72904e-13
2945 2945 4730.06
2946 2945 -1.56889e-31
2947 2945 -1.56889e-31
2948 2945 -3.65544e-17
2949 2945 -1.56889e-31
2145 2946 -10000
2147 2946 -4e-05
2149 2946 -4e-05
2163 2946 -4e-05
2165 2946 -4e-05
2179 2946 -4e-05
2181 2946 -4e-05
2195 2946 -4e-05
2197 2946 -4e-05
2937 2946 -0.00018
2938 2946 -1.72904e-13
2939 2946 -1.72904e-13
2940 2946 -1.72904e-13
2941 2946 -1.72904e-13
2942 2946 -1.72904e-13
2943 2946 -1.72904e-13
2944 2946 -1.72904e-13
2945 2946 -7.42096e-28
2946 2946 4730.06
2947 2946 -1.56889e-31
2948 2946 -3.65544e-17
2949 2946 -1.56889e-31
2133 2947 -10000
2135 2947 -4e-05
2155 2947 -4e-05
2157 2947 -4e-05
2171 2947 -4e-05
2173 2947 -4e-05
2187 2947 -4e-05
2189 2947 -4e-05
2203 2947 -4e-05
2937 2947 -0.00018
2938 2947 -1.72904e-13
2939 2947 -1.72904e-13
2940 2947 -1.72904e-13
2941 2947 -1.72904e-13
2942 2947 -1.72904e-13
2943 2947 -1.72904e-13
2944 2947 -1.72904e-13
2945 2947 -7.42096e-28
2946 2947 -7.42096e-28
2947 2947 4730.06
2948 2947 -3.65544e-17
2949 2947 -1.56889e-31
2134 2948 -6e-06
2135 2948 -4.85594e-06
2138 2948 -6e-06
2139 2948 -4.85594e-06
2142 2948 -6e-06
2143 2948 -4.85594e-06
2146 2948 -6e-06
2147 2948 -4.85594e-06
2945 2948 -1.72904e-13
2946 2948 -1.72904e-13
2947 2948 -1.72904e-13
2948 2948 282
2949 2948 -6.13135e-16
2137 2949 -10000
2139 2949 -4e-05
2153 2949 -4e-05
2159 2949 -4e-05
2169 2949 -4e-05
2175 2949 -4e-05
2185 2949 -4e-05
2191 2949 -4e-05
2201 2949 -4e-05
2937 2949 -0.00018
2938 2949 -1.72904e-13
2939 2949 -1.72904e-13
2940 2949 -1.72904e-13
2941 2949 -1.72904e-13
2942 2949 -1.72904e-13
2943 2949 -1.72904e-13
2944 2949 -1.72904e-13
2945 2949 -7.42096e-28
2946 2949 -7.42096e-28
2947 2949 -7.42096e-28
2948 2949 -1.72904e-13
2949 2949 4730.06
2950 2950 19464.1
2951 2951 170
2953 2951 -8.82353e-08
2952 2952 1405.8
2953 2952 -1.06701e-08
2951 2953 -1.5e-05
2952 2953 -1.5e-05
2953 2953 170
2954 2954 6471
2955 2955 6471
2956 2956 1330.2
2957 2957 170
2959 2957 -2.47059e-08
2958 2958 407.88
2959 2958 -1.02971e-08
2957 2959 -4.2e-06
2958 2959 -4.2e-06
2959 2959 170
2960 2960 170
2962 2960 -7.05882e-08
2961 2961 1053
2962 2961 -1.1396e-08
2960 2962 -1.2e-05
2961 2962 -1.2e-05
2962 2962 170
2963 2963 1678.8
2964 2963 -7.14796e-09
2963 2964 -1.2e-05
2964 2964 171
2965 2965 1935
2966 2965 -6.20155e-09
2965 2966 -1.2e-05
2966 2966 171
2967 2967 1330.2
2968 2968 170
2970 2968 -2.47059e-08
2969 2969 407.88
2970 2969 -1.02971e-08
2968 2970 -4.2e-06
2969 2970 -4.2e-06
2970 2970 170
2971 2971 170
2973 2971 -7.05882e-08
2972 2972 1053
2973 2972 -1.1396e-08
2971 2973 -1.2e-05
2972 2973 -1.2e-05
2973 2973 170
2974 2974 1678.8
2975 2974 -7.14796e-09
2974 2975 -1.2e-05
2975 2975 171
2976 2976 1935
2977 2976 -6.20155e-09
2976 2977 -1.2e-05
2977 2977 171
2978 2978 1267.1
2979 2978 -1.42057e-08
2978 2979 -1.8e-05
2979 2979 170
2980 2980 1267.1
2981 2980 -1.65733e-08
2980 2981 -2.1e-05
2981 2981 170
2982 2982 1267.1
2983 2982 -1.42057e-08
2982 2983 -1.8e-05
2983 2983 170
2984 2984 1267.1
2985 2984 -1.65733e-08
2984 2985 -2.1e-05
2985 2985 170
2986 2986 6471
2987 2987 6471
2988 2988 1330.2
2989 2989 170
2991 2989 -2.47059e-08
2990 2990 407.88
2991 2990 -1.02971e-08
2989 2991 -4.2e-06
2990 2991 -4.2e-06
2991 2991 170
2992 2992 170
2994 2992 -7.05882e-08
2993 2993 1053
2994 2993 -1.1396e-08
2992 2994 -1.2e-05
2993 2994 -1.2e-05
2994 2994 170
2995 2995 1678.8
2996 2995 -7.14796e-09
2995 2996 -1.2e-05
2996 2996 171
2997 2997 1935
2998 2997 -6.20155e-09
2997 2998 -1.2e-05
2998 2998 171
2999 2999 1330.2
3000 3000 170
3002 3000 -2.47059e-08
3001 3001 407.88
3002 3001 -1.02971e-08
3000 3002 -4.2e-06
3001 3002 -4.2e-06
3002 3002 170
3003 3003 170
3005 3003 -7.05882e-08
3004 3004 1053
3005 3004 -1.1396e-08
3003 3005 -1.2e-05
3004 3005 -1.2e-05
3005 3005 170
3006 3006 1678.8
3007 3006 -7.14796e-09
3006 3007 -1.2e-05
3007 3007 171
3008 3008 1935
3009 3008 -6.20155e-09
3008 3009 -1.2e-05
3009 3009 171
3010 3010 1267.1
3011 3010 -1.42057e-08
3010 3011 -1.8e-05
3011 3011 170
3012 3012 1267.1
3013 3012 -1.65733e-08
3012 3013 -2.1e-05
3013 3013 170
3014 3014 1267.1
3015 3014 -1.42057e-08
3014 3015 -1.8e-05
3015 3015 170
3016 3016 1267.1
3017 3016 -1.65733e-08
3016 3017 -2.1e-05
3017 3017 170
3018 3018 12771
3019 3019 4959
3020 3019 -6.04961e-09
3019 3020 -3e-05
3020 3020 171
3021 3021 12771
3022 3022 4959
3023 3022 -6.04961e-09
3022 3023 -3e-05
3023 3023 171
3024 3024 2942
3025 3025 2696.4
3026 3026 2942
3027 3027 2696.4
3028 3028 1431
3029 3029 781.68
3030 3030 5917
3031 3030 -4.56312e-09
3030 3031 -2.7e-05
3031 3031 170
3032 3032 5917
3033 3032 -4.56312e-09
3032 3033 -2.7e-05
3033 3033 170
3034 3034 681.2
3035 3034 -1.3212e-08
3034 3035 -9e-06
3035 3035 170
3036 3036 8001.8
3037 3036 -2.24949e-09
3036 3037 -1.8e-05
3037 3037 170
3038 3038 2262.6
3039 3039 2262.6
3040 3040 170
3042 3040 -1.23529e-07
3041 3041 3699
3042 3041 -5.67721e-09
3040 3042 -2.1e-05
3041 3042 -2.1e-05
3042 3042 170
3043 3043 170
3045 3043 -1.23529e-07
3044 3044 3699
3045 3044 -5.67721e-09
3043 3045 -2.1e-05
3044 3045 -2.1e-05
3045 3045 170
3046 3046 170
3048 3046 -1.23529e-07
3047 3047 3699
3048 3047 -5.67721e-09
3046 3048 -2.1e-05
3047 3048 -2.1e-05
3048 3048 170
3049 3049 170
3051 3049 -1.23529e-07
3050 3050 3699
3051 3050 -5.67721e-09
3049 3051 -2.1e-05
3050 3051 -2.1e-05
3051 3051 170
3052 3052 2262.6
3053 3053 2262.6
3054 3054 170
3056 3054 -1.23529e-07
3055 3055 3699
3056 3055 -5.67721e-09
3054 3056 -2.1e-05
3055 3056 -2.1e-05
3056 3056 170
3057 3057 170
3059 3057 -1.23529e-07
3058 3058 3699
3059 3058 -5.67721e-09
3057 3059 -2.1e-05
3058 3059 -2.1e-05
3059 3059 170
3060 3060 170
3062 3060 -1.23529e-07
3061 3061 3699
3062 3061 -5.67721e-09
3060 3062 -2.1e-05
3061 3062 -2.1e-05
3062 3062 170
3063 3063 170
3065 3063 -1.23529e-07
3064 3064 3699
3065 3064 -5.67721e-09
3063 3065 -2.1e-05
3064 3065 -2.1e-05
3065 3065 170
3066 3066 2262.6
3067 3067 2262.6
3068 3068 170
3070 3068 -1.23529e-07
3069 3069 3699
3070 3069 -5.67721e-09
3068 3070 -2.1e-05
3069 3070 -2.1e-05
3070 3070 170
3071 3071 170
3073 3071 -1.23529e-07
3072 3072 3699
3073 3072 -5.67721e-09
3071 3073 -2.1e-05
3072 3073 -2.1e-05
3073 3073 170
3074 3074 170
3076 3074 -1.23529e-07
3075 3075 3699
3076 3075 -5.67721e-09
3074 3076 -2.1e-05
3075 3076 -2.1e-05
3076 3076 170
3077 3077 170
3079 3077 -1.23529e-07
3078 3078 3699
3079 3078 -5.67721e-09
3077 3079 -2.1e-05
3078 3079 -2.1e-05
3079 3079 170
3080 3080 2262.6
3081 3081 2262.6
3082 3082 170
3084 3082 -1.23529e-07
3083 3083 3699
3084 3083 -5.67721e-09
3082 3084 -2.1e-05
3083 3084 -2.1e-05
3084 3084 170
3085 3085 170
3087 3085 -1.23529e-07
3086 3086 3699
3087 3086 -5.67721e-09
3085 3087 -2.1e-05
3086 3087 -2.1e-05
3087 3087 170
3088 3088 170
3090 3088 -1.23529e-07
3089 3089 3699
3090 3089 -5.67721e-09
3088 3090 -2.1e-05
3089 3090 -2.1e-05
3090 3090 170
3091 3091 170
3093 3091 -1.23529e-07
3092 3092 3699
3093 3092 -5.67721e-09
3091 3093 -2.1e-05
3092 3093 -2.1e-05
3093 3093 170
3094 3094 2086.2
3095 3095 3699
3096 3096 1053
3097 3097 3699
3098 3098 964.8
3099 3099 2086.2
3100 3100 170
3102 3100 -2.29412e-07
3101 3101 1783.8
3102 3101 -2.18634e-08
3100 3102 -3.9e-05
3101 3102 -3.9e-05
3102 3102 170
3103 3103 4171.4
3104 3103 -7.19183e-09
3103 3104 -3e-05
3104 3104 170
3105 3105 170
3107 3105 -2.29412e-07
3106 3106 1783.8
3107 3106 -2.18634e-08
3105 3107 -3.9e-05
3106 3107 -3.9e-05
3107 3107 170
3108 3108 2086.2
3109 3109 1053
3110 3110 964.8
3111 3111 2086.2
3112 3112 170
3114 3112 -2.29412e-07
3113 3113 4707
3114 3113 -8.28553e-09
3112 3114 -3.9e-05
3113 3114 -3.9e-05
3114 3114 170
3115 3115 4171.4
3116 3115 -7.19183e-09
3115 3116 -3e-05
3116 3116 170
3117 3117 170
3119 3117 -2.29412e-07
3118 3118 4707
3119 3118 -8.28553e-09
3117 3119 -3.9e-05
3118 3119 -3.9e-05
3119 3119 170
3120 3120 989
3121 3121 989
3122 3122 989
3123 3123 989
3124 3124 170
3126 3124 -3.52941e-08
3125 3125 1295.6
3126 3125 -4.63106e-09
3124 3126 -6e-06
3125 3126 -6e-06
3126 3126 170
3127 3127 170
3129 3127 -3.52941e-08
3128 3128 1295.6
3129 3128 -4.63106e-09
3127 3129 -6e-06
3128 3129 -6e-06
3129 3129 170
3130 3130 170
3132 3130 -3.52941e-08
3131 3131 1295.6
3132 3131 -4.63106e-09
3130 3132 -6e-06
3131 3132 -6e-06
3132 3132 170
3133 3133 170
3135 3133 -3.52941e-08
3134 3134 1295.6
3135 3134 -4.63106e-09
3133 3135 -6e-06
3134 3135 -6e-06
3135 3135 170
3136 3136 322.2
3137 3137 322.2
3138 3138 322.2
3139 3139 322.2
3140 3140 170
3141 3140 -2.35294e-08
3140 3141 -4e-06
3141 3141 170
3144 3141 -2.35294e-08
3142 3142 623.6
3144 3142 -9.62155e-09
3143 3143 623.6
3144 3143 -9.62155e-09
3141 3144 -4e-06
3142 3144 -6e-06
3143 3144 -6e-06
3144 3144 170
3145 3145 170
3146 3145 -2.35294e-08
3145 3146 -4e-06
3146 3146 170
3149 3146 -2.35294e-08
3147 3147 623.6
3149 3147 -9.62155e-09
3148 3148 623.6
3149 3148 -9.62155e-09
3146 3149 -4e-06
3147 3149 -6e-06
3148 3149 -6e-06
3149 3149 170
3150 3150 170
3151 3150 -2.35294e-08
3150 3151 -4e-06
3151 3151 170
3154 3151 -2.35294e-08
3152 3152 623.6
3154 3152 -9.62155e-09
3153 3153 623.6
3154 3153 -9.62155e-09
3151 3154 -4e-06
3152 3154 -6e-06
3153 3154 -6e-06
3154 3154 170
3155 3155 170
3156 3155 -2.35294e-08
3155 3156 -4e-06
3156 3156 170
3159 3156 -2.35294e-08
3157 3157 623.6
3159 3157 -9.62155e-09
3158 3158 623.6
3159 3158 -9.62155e-09
3156 3159 -4e-06
3157 3159 -6e-06
3158 3159 -6e-06
3159 3159 170
3160 3160 170
3162 3160 -3.52941e-08
3161 3161 1295.6
3162 3161 -4.63106e-09
3160 3162 -6e-06
3161 3162 -6e-06
3162 3162 170
3163 3163 170
3165 3163 -3.52941e-08
3164 3164 1295.6
3165 3164 -4.63106e-09
3163 3165 -6e-06
3164 3165 -6e-06
3165 3165 170
3166 3166 170
3168 3166 -3.52941e-08
3167 3167 1295.6
3168 3167 -4.63106e-09
3166 3168 -6e-06
3167 3168 -6e-06
3168 3168 170
3169 3169 170
3171 3169 -3.52941e-08
3170 3170 1295.6
3171 3170 -4.63106e-09
3169 3171 -6e-06
3170 3171 -6e-06
3171 3171 170
3172 3172 322.2
3173 3173 322.2
3174 3174 322.2
3175 3175 322.2
3176 3176 1045.6
3177 3177 1045.6
3178 3178 1045.6
3179 3179 1045.6
3180 3180 33737.4
3181 3181 3195
3182 3182 42849.7
3183 3183 1040.4
3184 3184 891.72
3185 3185 1040.4
3186 3186 942.12
3187 3187 15680.8
3188 3188 50520.6
3189 3189 170
3191 3189 -5.64706e-08
3190 3190 1531.8
3191 3190 -6.65883e-09
3189 3191 -9.6e-06
3190 3191 -1.02e-05
3191 3191 170
3192 3192 170
3194 3192 -5.64706e-08
3193 3193 886.68
3194 3193 -1.15036e-08
3192 3194 -9.6e-06
3193 3194 -1.02e-05
3194 3194 170
3195 3195 3867
3196 3195 -1.03439e-08
3195 3196 -4e-05
3196 3196 171
3197 3197 5003.54
3198 3198 5001.44
3199 3199 1394.72
3200 3200 1394.72
3201 3201 170
3202 3201 -8.47059e-08
3201 3202 -1.44e-05
3202 3202 4887.44
3203 3203 4887.44
3204 3203 -2.94633e-09
3203 3204 -1.44e-05
3204 3204 170
3205 3205 1672.5
3206 3205 -1.20179e-08
3205 3206 -2.01e-05
3206 3206 171
3207 3207 2640.6
3208 3207 -7.61191e-09
3207 3208 -2.01e-05
3208 3208 171
3209 3209 2491.4
3210 3209 -8.429e-09
3209 3210 -2.1e-05
3210 3210 170
3211 3211 3643.2
3212 3211 -1.6469e-09
3215 3211 -1.15283e-08
3368 3211 -5.76416e-09
3211 3212 -6e-06
3212 3212 3643.2
3215 3212 -1.15283e-08
3367 3212 -5.76416e-09
3368 3212 -9.49302e-18
3213 3213 170
3215 3213 -7.05881e-07
5765 3213 -7.05881e-07
3214 3214 170
3215 3214 -7.05881e-07
5770 3214 -7.05881e-07
3211 3215 -4.2e-05
3212 3215 -4.2e-05
3213 3215 -0.00012
3214 3215 -0.00012
3215 3215 1135.6
3367 3215 -2.13187e-16
3368 3215 -2.13187e-16
5765 3215 -7.45912e-14
5770 3215 -7.45912e-14
3216 3216 3643.2
3217 3216 -1.6469e-09
3220 3216 -1.15283e-08
3365 3216 -5.76416e-09
3216 3217 -6e-06
3217 3217 3643.2
3220 3217 -1.15283e-08
3365 3217 -9.49302e-18
3366 3217 -5.76416e-09
3218 3218 170
3220 3218 -7.05881e-07
5764 3218 -7.05881e-07
3219 3219 170
3220 3219 -7.05881e-07
5763 3219 -7.05881e-07
3216 3220 -4.2e-05
3217 3220 -4.2e-05
3218 3220 -0.00012
3219 3220 -0.00012
3220 3220 1135.6
3365 3220 -2.13187e-16
3366 3220 -2.13187e-16
5763 3220 -7.45912e-14
5764 3220 -7.45912e-14
3221 3221 252
3222 3221 -1.8254e-08
3368 3221 -1.5873e-08
5747 3221 -3.57143e-08
3221 3222 -4.6e-06
3222 3222 422
3225 3222 -2.29858e-08
3368 3222 -1.73023e-16
5747 3222 -3.89303e-16
5748 3222 -2.36967e-08
5859 3222 -3.79147e-09
3223 3223 422
3224 3223 -2.1327e-08
3225 3223 -1.09005e-08
3367 3223 -9.47867e-09
5747 3223 -2.1327e-08
3223 3224 -9e-06
3224 3224 422
3225 3224 -2.32475e-16
3364 3224 -1.09005e-08
3365 3224 -9.47867e-09
3367 3224 -2.02152e-16
5747 3224 -2.1327e-08
3222 3225 -9.7e-06
3223 3225 -4.6e-06
3224 3225 -9.81043e-14
3225 3225 762
3364 3225 -1.31234e-08
3365 3225 -1.22034e-24
3367 3225 -5.72203e-17
3368 3225 -2.20253e-24
5747 3225 -1.28746e-16
5748 3225 -1.31234e-08
5859 3225 -2.09974e-09
3226 3226 422
3227 3226 -2.1327e-08
3229 3226 -1.09005e-08
3366 3226 -9.47867e-09
5747 3226 -2.1327e-08
3226 3227 -9e-06
3227 3227 422
3228 3227 -1.09005e-08
3229 3227 -2.32475e-16
3366 3227 -9.47867e-09
5747 3227 -2.1327e-08
3227 3228 -4.6e-06
3228 3228 762
3229 3228 -1.31234e-08
3364 3228 -1.27297e-08
3366 3228 -5.72203e-17
5747 3228 -1.28746e-16
5748 3228 -1.31234e-08
5859 3228 -2.09974e-09
3226 3229 -4.6e-06
3227 3229 -9.81043e-14
3228 3229 -1e-05
3229 3229 762
3363 3229 -1.27297e-08
3364 3229 -1.67056e-16
3366 3229 -5.72203e-17
5747 3229 -1.28746e-16
5748 3229 -1.31234e-08
5859 3229 -2.09974e-09
3230 3230 422
3231 3230 -1.09005e-08
3368 3230 -9.47867e-09
5747 3230 -2.1327e-08
3230 3231 -4.6e-06
3231 3231 592
3234 3231 -1.63851e-08
3368 3231 -7.36518e-17
5747 3231 -1.65717e-16
5748 3231 -1.68919e-08
5859 3231 -2.7027e-09
3232 3232 422
3233 3232 -2.1327e-08
3234 3232 -1.09005e-08
3367 3232 -9.47867e-09
5747 3232 -2.1327e-08
3232 3233 -9e-06
3233 3233 422
3234 3233 -2.32475e-16
3363 3233 -1.09005e-08
3365 3233 -9.47867e-09
3367 3233 -2.02152e-16
5747 3233 -2.1327e-08
3231 3234 -9.7e-06
3232 3234 -4.6e-06
3233 3234 -9.81043e-14
3234 3234 762
3363 3234 -1.31234e-08
3365 3234 -1.22034e-24
3367 3234 -5.72203e-17
3368 3234 -9.37563e-25
5747 3234 -1.28746e-16
5748 3234 -1.31234e-08
5859 3234 -2.09974e-09
3235 3235 252
3236 3235 -1.8254e-08
3368 3235 -1.5873e-08
5747 3235 -3.57143e-08
3235 3236 -4.6e-06
3236 3236 422
3239 3236 -2.29858e-08
3368 3236 -1.73023e-16
5747 3236 -3.89303e-16
5748 3236 -2.36967e-08
5859 3236 -3.79147e-09
3237 3237 422
3238 3237 -2.1327e-08
3239 3237 -1.09005e-08
3367 3237 -9.47867e-09
5747 3237 -2.1327e-08
3237 3238 -9e-06
3238 3238 422
3239 3238 -2.32475e-16
3362 3238 -1.09005e-08
3365 3238 -9.47867e-09
3367 3238 -2.02152e-16
5747 3238 -2.1327e-08
3236 3239 -9.7e-06
3237 3239 -4.6e-06
3238 3239 -9.81043e-14
3239 3239 762
3362 3239 -1.31234e-08
3365 3239 -1.22034e-24
3367 3239 -5.72203e-17
3368 3239 -2.20253e-24
5747 3239 -1.28746e-16
5748 3239 -1.31234e-08
5859 3239 -2.09974e-09
3240 3240 422
3241 3240 -2.1327e-08
3243 3240 -1.09005e-08
3366 3240 -9.47867e-09
5747 3240 -2.1327e-08
3240 3241 -9e-06
3241 3241 422
3242 3241 -1.09005e-08
3243 3241 -2.32475e-16
3366 3241 -9.47867e-09
5747 3241 -2.1327e-08
3241 3242 -4.6e-06
3242 3242 762
3243 3242 -1.31234e-08
3362 3242 -1.27297e-08
3366 3242 -5.72203e-17
5747 3242 -1.28746e-16
5748 3242 -1.31234e-08
5859 3242 -2.09974e-09
3240 3243 -4.6e-06
3241 3243 -9.81043e-14
3242 3243 -1e-05
3243 3243 762
3361 3243 -1.27297e-08
3362 3243 -1.67056e-16
3366 3243 -5.72203e-17
5747 3243 -1.28746e-16
5748 3243 -1.31234e-08
5859 3243 -2.09974e-09
3244 3244 422
3245 3244 -1.09005e-08
3368 3244 -9.47867e-09
5747 3244 -2.1327e-08
3244 3245 -4.6e-06
3245 3245 592
3248 3245 -1.63851e-08
3368 3245 -7.36518e-17
5747 3245 -1.65717e-16
5748 3245 -1.68919e-08
5859 3245 -2.7027e-09
3246 3246 422
3247 3246 -2.1327e-08
3248 3246 -1.09005e-08
3367 3246 -9.47867e-09
5747 3246 -2.1327e-08
3246 3247 -9e-06
3247 3247 422
3248 3247 -2.32475e-16
3361 3247 -1.09005e-08
3365 3247 -9.47867e-09
3367 3247 -2.02152e-16
5747 3247 -2.1327e-08
3245 3248 -9.7e-06
3246 3248 -4.6e-06
3247 3248 -9.81043e-14
3248 3248 762
3361 3248 -1.31234e-08
3365 3248 -1.22034e-24
3367 3248 -5.72203e-17
3368 3248 -9.37563e-25
5747 3248 -1.28746e-16
5748 3248 -1.31234e-08
5859 3248 -2.09974e-09
3249 3249 252
3250 3249 -1.8254e-08
3368 3249 -1.5873e-08
5747 3249 -3.57143e-08
3249 3250 -4.6e-06
3250 3250 422
3253 3250 -2.29858e-08
3368 3250 -1.73023e-16
5747 3250 -3.89303e-16
5748 3250 -2.36967e-08
5859 3250 -3.79147e-09
3251 3251 422
3252 3251 -2.1327e-08
3253 3251 -1.09005e-08
3367 3251 -9.47867e-09
5747 3251 -2.1327e-08
3251 3252 -9e-06
3252 3252 422
3253 3252 -2.32475e-16
3360 3252 -1.09005e-08
3365 3252 -9.47867e-09
3367 3252 -2.02152e-16
5747 3252 -2.1327e-08
3250 3253 -9.7e-06
3251 3253 -4.6e-06
3252 3253 -9.81043e-14
3253 3253 762
3360 3253 -1.31234e-08
3365 3253 -1.22034e-24
3367 3253 -5.72203e-17
3368 3253 -2.20253e-24
5747 3253 -1.28746e-16
5748 3253 -1.31234e-08
5859 3253 -2.09974e-09
3254 3254 422
3255 3254 -2.1327e-08
3257 3254 -1.09005e-08
3366 3254 -9.47867e-09
5747 3254 -2.1327e-08
3254 3255 -9e-06
3255 3255 422
3256 3255 -1.09005e-08
3257 3255 -2.32475e-16
3366 3255 -9.47867e-09
5747 3255 -2.1327e-08
3255 3256 -4.6e-06
3256 3256 762
3257 3256 -1.31234e-08
3360 3256 -1.27297e-08
3366 3256 -5.72203e-17
5747 3256 -1.28746e-16
5748 3256 -1.31234e-08
5859 3256 -2.09974e-09
3254 3257 -4.6e-06
3255 3257 -9.81043e-14
3256 3257 -1e-05
3257 3257 762
3359 3257 -1.27297e-08
3360 3257 -1.67056e-16
3366 3257 -5.72203e-17
5747 3257 -1.28746e-16
5748 3257 -1.31234e-08
5859 3257 -2.09974e-09
3258 3258 422
3259 3258 -1.09005e-08
3368 3258 -9.47867e-09
5747 3258 -2.1327e-08
3258 3259 -4.6e-06
3259 3259 592
3262 3259 -1.63851e-08
3368 3259 -7.36518e-17
5747 3259 -1.65717e-16
5748 3259 -1.68919e-08
5859 3259 -2.7027e-09
3260 3260 422
3261 3260 -2.1327e-08
3262 3260 -1.09005e-08
3367 3260 -9.47867e-09
5747 3260 -2.1327e-08
3260 3261 -9e-06
3261 3261 422
3262 3261 -2.32475e-16
3359 3261 -1.09005e-08
3365 3261 -9.47867e-09
3367 3261 -2.02152e-16
5747 3261 -2.1327e-08
3259 3262 -9.7e-06
3260 3262 -4.6e-06
3261 3262 -9.81043e-14
3262 3262 762
3359 3262 -1.31234e-08
3365 3262 -1.22034e-24
3367 3262 -5.72203e-17
3368 3262 -9.37563e-25
5747 3262 -1.28746e-16
5748 3262 -1.31234e-08
5859 3262 -2.09974e-09
3263 3263 252
3264 3263 -1.8254e-08
3368 3263 -1.5873e-08
5747 3263 -3.57143e-08
3263 3264 -4.6e-06
3264 3264 422
3267 3264 -2.29858e-08
3368 3264 -1.73023e-16
5747 3264 -3.89303e-16
5748 3264 -2.36967e-08
5859 3264 -3.79147e-09
3265 3265 422
3266 3265 -2.1327e-08
3267 3265 -1.09005e-08
3367 3265 -9.47867e-09
5747 3265 -2.1327e-08
3265 3266 -9e-06
3266 3266 422
3267 3266 -2.32475e-16
3358 3266 -1.09005e-08
3365 3266 -9.47867e-09
3367 3266 -2.02152e-16
5747 3266 -2.1327e-08
3264 3267 -9.7e-06
3265 3267 -4.6e-06
3266 3267 -9.81043e-14
3267 3267 762
3358 3267 -1.31234e-08
3365 3267 -1.22034e-24
3367 3267 -5.72203e-17
3368 3267 -2.20253e-24
5747 3267 -1.28746e-16
5748 3267 -1.31234e-08
5859 3267 -2.09974e-09
3268 3268 422
3269 3268 -2.1327e-08
3271 3268 -1.09005e-08
3366 3268 -9.47867e-09
5747 3268 -2.1327e-08
3268 3269 -9e-06
3269 3269 422
3270 3269 -1.09005e-08
3271 3269 -2.32475e-16
3366 3269 -9.47867e-09
5747 3269 -2.1327e-08
3269 3270 -4.6e-06
3270 3270 762
3271 3270 -1.31234e-08
3358 3270 -1.27297e-08
3366 3270 -5.72203e-17
5747 3270 -1.28746e-16
5748 3270 -1.31234e-08
5859 3270 -2.09974e-09
3268 3271 -4.6e-06
3269 3271 -9.81043e-14
3270 3271 -1e-05
3271 3271 762
3357 3271 -1.27297e-08
3358 3271 -1.67056e-16
3366 3271 -5.72203e-17
5747 3271 -1.28746e-16
5748 3271 -1.31234e-08
5859 3271 -2.09974e-09
3272 3272 422
3273 3272 -1.09005e-08
3368 3272 -9.47867e-09
5747 3272 -2.1327e-08
3272 3273 -4.6e-06
3273 3273 592
3276 3273 -1.63851e-08
3368 3273 -7.36518e-17
5747 3273 -1.65717e-16
5748 3273 -1.68919e-08
5859 3273 -2.7027e-09
3274 3274 422
3275 3274 -2.1327e-08
3276 3274 -1.09005e-08
3367 3274 -9.47867e-09
5747 3274 -2.1327e-08
3274 3275 -9e-06
3275 3275 422
3276 3275 -2.32475e-16
3357 3275 -1.09005e-08
3365 3275 -9.47867e-09
3367 3275 -2.02152e-16
5747 3275 -2.1327e-08
3273 3276 -9.7e-06
3274 3276 -4.6e-06
3275 3276 -9.81043e-14
3276 3276 762
3357 3276 -1.31234e-08
3365 3276 -1.22034e-24
3367 3276 -5.72203e-17
3368 3276 -9.37563e-25
5747 3276 -1.28746e-16
5748 3276 -1.31234e-08
5859 3276 -2.09974e-09
3277 3277 252
3278 3277 -1.8254e-08
3368 3277 -1.5873e-08
5747 3277 -3.57143e-08
3277 3278 -4.6e-06
3278 3278 422
3281 3278 -2.29858e-08
3368 3278 -1.73023e-16
5747 3278 -3.89303e-16
5748 3278 -2.36967e-08
5859 3278 -3.79147e-09
3279 3279 422
3280 3279 -2.1327e-08
3281 3279 -1.09005e-08
3367 3279 -9.47867e-09
5747 3279 -2.1327e-08
3279 3280 -9e-06
3280 3280 422
3281 3280 -2.32475e-16
3356 3280 -1.09005e-08
3365 3280 -9.47867e-09
3367 3280 -2.02152e-16
5747 3280 -2.1327e-08
3278 3281 -9.7e-06
3279 3281 -4.6e-06
3280 3281 -9.81043e-14
3281 3281 762
3356 3281 -1.31234e-08
3365 3281 -1.22034e-24
3367 3281 -5.72203e-17
3368 3281 -2.20253e-24
5747 3281 -1.28746e-16
5748 3281 -1.31234e-08
5859 3281 -2.09974e-09
3282 3282 422
3283 3282 -2.1327e-08
3285 3282 -1.09005e-08
3366 3282 -9.47867e-09
5747 3282 -2.1327e-08
3282 3283 -9e-06
3283 3283 422
3284 3283 -1.09005e-08
3285 3283 -2.32475e-16
3366 3283 -9.47867e-09
5747 3283 -2.1327e-08
3283 3284 -4.6e-06
3284 3284 762
3285 3284 -1.31234e-08
3356 3284 -1.27297e-08
3366 3284 -5.72203e-17
5747 3284 -1.28746e-16
5748 3284 -1.31234e-08
5859 3284 -2.09974e-09
3282 3285 -4.6e-06
3283 3285 -9.81043e-14
3284 3285 -1e-05
3285 3285 762
3355 3285 -1.27297e-08
3356 3285 -1.67056e-16
3366 3285 -5.72203e-17
5747 3285 -1.28746e-16
5748 3285 -1.31234e-08
5859 3285 -2.09974e-09
3286 3286 422
3287 3286 -1.09005e-08
3368 3286 -9.47867e-09
5747 3286 -2.1327e-08
3286 3287 -4.6e-06
3287 3287 592
3290 3287 -1.63851e-08
3368 3287 -7.36518e-17
5747 3287 -1.65717e-16
5748 3287 -1.68919e-08
5859 3287 -2.7027e-09
3288 3288 422
3289 3288 -2.1327e-08
3290 3288 -1.09005e-08
3367 3288 -9.47867e-09
5747 3288 -2.1327e-08
3288 3289 -9e-06
3289 3289 422
3290 3289 -2.32475e-16
3355 3289 -1.09005e-08
3365 3289 -9.47867e-09
3367 3289 -2.02152e-16
5747 3289 -2.1327e-08
3287 3290 -9.7e-06
3288 3290 -4.6e-06
3289 3290 -9.81043e-14
3290 3290 762
3355 3290 -1.31234e-08
3365 3290 -1.22034e-24
3367 3290 -5.72203e-17
3368 3290 -9.37563e-25
5747 3290 -1.28746e-16
5748 3290 -1.31234e-08
5859 3290 -2.09974e-09
3291 3291 252
3292 3291 -1.8254e-08
3368 3291 -1.5873e-08
5747 3291 -3.57143e-08
3291 3292 -4.6e-06
3292 3292 422
3295 3292 -2.29858e-08
3368 3292 -1.73023e-16
5747 3292 -3.89303e-16
5748 3292 -2.36967e-08
5859 3292 -3.79147e-09
3293 3293 422
3294 3293 -2.1327e-08
3295 3293 -1.09005e-08
3367 3293 -9.47867e-09
5747 3293 -2.1327e-08
3293 3294 -9e-06
3294 3294 422
3295 3294 -2.32475e-16
3354 3294 -1.09005e-08
3365 3294 -9.47867e-09
3367 3294 -2.02152e-16
5747 3294 -2.1327e-08
3292 3295 -9.7e-06
3293 3295 -4.6e-06
3294 3295 -9.81043e-14
3295 3295 762
3354 3295 -1.31234e-08
3365 3295 -1.22034e-24
3367 3295 -5.72203e-17
3368 3295 -2.20253e-24
5747 3295 -1.28746e-16
5748 3295 -1.31234e-08
5859 3295 -2.09974e-09
3296 3296 422
3297 3296 -2.1327e-08
3299 3296 -1.09005e-08
3366 3296 -9.47867e-09
5747 3296 -2.1327e-08
3296 3297 -9e-06
3297 3297 422
3298 3297 -1.09005e-08
3299 3297 -2.32475e-16
3366 3297 -9.47867e-09
5747 3297 -2.1327e-08
3297 3298 -4.6e-06
3298 3298 762
3299 3298 -1.31234e-08
3354 3298 -1.27297e-08
3366 3298 -5.72203e-17
5747 3298 -1.28746e-16
5748 3298 -1.31234e-08
5859 3298 -2.09974e-09
3296 3299 -4.6e-06
3297 3299 -9.81043e-14
3298 3299 -1e-05
3299 3299 762
3353 3299 -1.27297e-08
3354 3299 -1.67056e-16
3366 3299 -5.72203e-17
5747 3299 -1.28746e-16
5748 3299 -1.31234e-08
5859 3299 -2.09974e-09
3300 3300 422
3301 3300 -1.09005e-08
3368 3300 -9.47867e-09
5747 3300 -2.1327e-08
3300 3301 -4.6e-06
3301 3301 592
3304 3301 -1.63851e-08
3368 3301 -7.36518e-17
5747 3301 -1.65717e-16
5748 3301 -1.68919e-08
5859 3301 -2.7027e-09
3302 3302 422
3303 3302 -2.1327e-08
3304 3302 -1.09005e-08
3367 3302 -9.47867e-09
5747 3302 -2.1327e-08
3302 3303 -9e-06
3303 3303 422
3304 3303 -2.32475e-16
3353 3303 -1.09005e-08
3365 3303 -9.47867e-09
3367 3303 -2.02152e-16
5747 3303 -2.1327e-08
3301 3304 -9.7e-06
3302 3304 -4.6e-06
3303 3304 -9.81043e-14
3304 3304 762
3353 3304 -1.31234e-08
3365 3304 -1.22034e-24
3367 3304 -5.72203e-17
3368 3304 -9.37563e-25
5747 3304 -1.28746e-16
5748 3304 -1.31234e-08
5859 3304 -2.09974e-09
3305 3305 252
3306 3305 -1.8254e-08
3368 3305 -1.5873e-08
5747 3305 -3.57143e-08
3305 3306 -4.6e-06
3306 3306 422
3309 3306 -2.29858e-08
3368 3306 -1.73023e-16
5747 3306 -3.89303e-16
5748 3306 -2.36967e-08
5859 3306 -3.79147e-09
3307 3307 422
3308 3307 -2.1327e-08
3309 3307 -1.09005e-08
3367 3307 -9.47867e-09
5747 3307 -2.1327e-08
3307 3308 -9e-06
3308 3308 422
3309 3308 -2.32475e-16
3352 3308 -1.09005e-08
3365 3308 -9.47867e-09
3367 3308 -2.02152e-16
5747 3308 -2.1327e-08
3306 3309 -9.7e-06
3307 3309 -4.6e-06
3308 3309 -9.81043e-14
3309 3309 762
3352 3309 -1.31234e-08
3365 3309 -1.22034e-24
3367 3309 -5.72203e-17
3368 3309 -2.20253e-24
5747 3309 -1.28746e-16
5748 3309 -1.31234e-08
5859 3309 -2.09974e-09
3310 3310 422
3311 3310 -2.1327e-08
3313 3310 -1.09005e-08
3366 3310 -9.47867e-09
5747 3310 -2.1327e-08
3310 3311 -9e-06
3311 3311 422
3312 3311 -1.09005e-08
3313 3311 -2.32475e-16
3366 3311 -9.47867e-09
5747 3311 -2.1327e-08
3311 3312 -4.6e-06
3312 3312 762
3313 3312 -1.31234e-08
3352 3312 -1.27297e-08
3366 3312 -5.72203e-17
5747 3312 -1.28746e-16
5748 3312 -1.31234e-08
5859 3312 -2.09974e-09
3310 3313 -4.6e-06
3311 3313 -9.81043e-14
3312 3313 -1e-05
3313 3313 762
3351 3313 -1.27297e-08
3352 3313 -1.67056e-16
3366 3313 -5.72203e-17
5747 3313 -1.28746e-16
5748 3313 -1.31234e-08
5859 3313 -2.09974e-09
3314 3314 422
3315 3314 -1.09005e-08
3368 3314 -9.47867e-09
5747 3314 -2.1327e-08
3314 3315 -4.6e-06
3315 3315 592
3318 3315 -1.63851e-08
3368 3315 -7.36518e-17
5747 3315 -1.65717e-16
5748 3315 -1.68919e-08
5859 3315 -2.7027e-09
3316 3316 422
3317 3316 -2.1327e-08
3318 3316 -1.09005e-08
3367 3316 -9.47867e-09
5747 3316 -2.1327e-08
3316 3317 -9e-06
3317 3317 422
3318 3317 -2.32475e-16
3351 3317 -1.09005e-08
3365 3317 -9.47867e-09
3367 3317 -2.02152e-16
5747 3317 -2.1327e-08
3315 3318 -9.7e-06
3316 3318 -4.6e-06
3317 3318 -9.81043e-14
3318 3318 762
3351 3318 -1.31234e-08
3365 3318 -1.22034e-24
3367 3318 -5.72203e-17
3368 3318 -9.37563e-25
5747 3318 -1.28746e-16
5748 3318 -1.31234e-08
5859 3318 -2.09974e-09
3319 3319 252
3320 3319 -1.8254e-08
3368 3319 -1.5873e-08
5747 3319 -3.57143e-08
3319 3320 -4.6e-06
3320 3320 422
3323 3320 -2.29858e-08
3368 3320 -1.73023e-16
5747 3320 -3.89303e-16
5748 3320 -2.36967e-08
5859 3320 -3.79147e-09
3321 3321 422
3322 3321 -2.1327e-08
3323 3321 -1.09005e-08
3367 3321 -9.47867e-09
5747 3321 -2.1327e-08
3321 3322 -9e-06
3322 3322 422
3323 3322 -2.32475e-16
3350 3322 -1.09005e-08
3365 3322 -9.47867e-09
3367 3322 -2.02152e-16
5747 3322 -2.1327e-08
3320 3323 -9.7e-06
3321 3323 -4.6e-06
3322 3323 -9.81043e-14
3323 3323 762
3350 3323 -1.31234e-08
3365 3323 -1.22034e-24
3367 3323 -5.72203e-17
3368 3323 -2.20253e-24
5747 3323 -1.28746e-16
5748 3323 -1.31234e-08
5859 3323 -2.09974e-09
3324 3324 422
3325 3324 -2.1327e-08
3327 3324 -1.09005e-08
3366 3324 -9.47867e-09
5747 3324 -2.1327e-08
3324 3325 -9e-06
3325 3325 422
3326 3325 -1.09005e-08
3327 3325 -2.32475e-16
3366 3325 -9.47867e-09
5747 3325 -2.1327e-08
3325 3326 -4.6e-06
3326 3326 762
3327 3326 -1.31234e-08
3350 3326 -1.27297e-08
3366 3326 -5.72203e-17
5747 3326 -1.28746e-16
5748 3326 -1.31234e-08
5859 3326 -2.09974e-09
3324 3327 -4.6e-06
3325 3327 -9.81043e-14
3326 3327 -1e-05
3327 3327 762
3349 3327 -1.27297e-08
3350 3327 -1.67056e-16
3366 3327 -5.72203e-17
5747 3327 -1.28746e-16
5748 3327 -1.31234e-08
5859 3327 -2.09974e-09
3328 3328 422
3329 3328 -1.09005e-08
3368 3328 -9.47867e-09
5747 3328 -2.1327e-08
3328 3329 -4.6e-06
3329 3329 592
3332 3329 -1.63851e-08
3368 3329 -7.36518e-17
5747 3329 -1.65717e-16
5748 3329 -1.68919e-08
5859 3329 -2.7027e-09
3330 3330 422
3331 3330 -2.1327e-08
3332 3330 -1.09005e-08
3367 3330 -9.47867e-09
5747 3330 -2.1327e-08
3330 3331 -9e-06
3331 3331 422
3332 3331 -2.32475e-16
3349 3331 -1.09005e-08
3365 3331 -9.47867e-09
3367 3331 -2.02152e-16
5747 3331 -2.1327e-08
3329 3332 -9.7e-06
3330 3332 -4.6e-06
3331 3332 -9.81043e-14
3332 3332 762
3349 3332 -1.31234e-08
3365 3332 -1.22034e-24
3367 3332 -5.72203e-17
3368 3332 -9.37563e-25
5747 3332 -1.28746e-16
5748 3332 -1.31234e-08
5859 3332 -2.09974e-09
3333 3333 252
3334 3333 -1.8254e-08
3368 3333 -1.5873e-08
5747 3333 -3.57143e-08
3333 3334 -4.6e-06
3334 3334 422
3337 3334 -2.29858e-08
3368 3334 -1.73023e-16
5747 3334 -3.89303e-16
5748 3334 -2.36967e-08
5859 3334 -3.79147e-09
3335 3335 422
3336 3335 -2.1327e-08
3337 3335 -1.09005e-08
3367 3335 -9.47867e-09
5747 3335 -2.1327e-08
3335 3336 -9e-06
3336 3336 422
3337 3336 -2.32475e-16
3348 3336 -1.09005e-08
3365 3336 -9.47867e-09
3367 3336 -2.02152e-16
5747 3336 -2.1327e-08
3334 3337 -9.7e-06
3335 3337 -4.6e-06
3336 3337 -9.81043e-14
3337 3337 762
3348 3337 -1.31234e-08
3365 3337 -1.22034e-24
3367 3337 -5.72203e-17
3368 3337 -2.20253e-24
5747 3337 -1.28746e-16
5748 3337 -1.31234e-08
5859 3337 -2.09974e-09
3338 3338 422
3339 3338 -2.1327e-08
3341 3338 -1.09005e-08
3366 3338 -9.47867e-09
5747 3338 -2.1327e-08
3338 3339 -9e-06
3339 3339 422
3340 3339 -1.09005e-08
3341 3339 -2.32475e-16
3366 3339 -9.47867e-09
5747 3339 -2.1327e-08
3339 3340 -4.6e-06
3340 3340 762
3341 3340 -1.31234e-08
3348 3340 -1.27297e-08
3366 3340 -5.72203e-17
5747 3340 -1.28746e-16
5748 3340 -1.31234e-08
5859 3340 -2.09974e-09
3338 3341 -4.6e-06
3339 3341 -9.81043e-14
3340 3341 -1e-05
3341 3341 762
3347 3341 -1.27297e-08
3348 3341 -1.67056e-16
3366 3341 -5.72203e-17
5747 3341 -1.28746e-16
5748 3341 -1.31234e-08
5859 3341 -2.09974e-09
3342 3342 422
3343 3342 -1.09005e-08
3368 3342 -9.47867e-09
5747 3342 -2.1327e-08
3342 3343 -4.6e-06
3343 3343 592
3346 3343 -1.63851e-08
3368 3343 -7.36518e-17
5747 3343 -1.65717e-16
5748 3343 -1.68919e-08
5859 3343 -2.7027e-09
3344 3344 422
3345 3344 -2.1327e-08
3346 3344 -1.09005e-08
3367 3344 -9.47867e-09
5747 3344 -2.1327e-08
3344 3345 -9e-06
3345 3345 422
3346 3345 -2.32475e-16
3347 3345 -1.09005e-08
3365 3345 -9.47867e-09
3367 3345 -2.02152e-16
5747 3345 -2.1327e-08
3343 3346 -9.7e-06
3344 3346 -4.6e-06
3345 3346 -9.81043e-14
3346 3346 762
3347 3346 -1.31234e-08
3365 3346 -1.22034e-24
3367 3346 -5.72203e-17
3368 3346 -9.37563e-25
5747 3346 -1.28746e-16
5748 3346 -1.31234e-08
5859 3346 -2.09974e-09
3341 3347 -9.7e-06
3345 3347 -4.6e-06
3346 3347 -1e-05
3347 3347 592
3348 3347 -2.73723e-24
3365 3347 -7.36518e-17
3366 3347 -9.37563e-25
3367 3347 -2.53733e-24
3368 3347 -1.58372e-32
5747 3347 -1.65717e-16
5748 3347 -1.68919e-08
5859 3347 -2.7027e-09
3336 3348 -4.6e-06
3337 3348 -1e-05
3340 3348 -9.7e-06
3341 3348 -1.27297e-13
3347 3348 -1.62044e-21
3348 3348 592
3365 3348 -7.36518e-17
3366 3348 -9.37563e-25
3367 3348 -2.53733e-24
3368 3348 -3.72049e-32
5747 3348 -1.65717e-16
5748 3348 -1.68919e-08
5859 3348 -2.7027e-09
3327 3349 -9.7e-06
3331 3349 -4.6e-06
3332 3349 -1e-05
3349 3349 592
3350 3349 -2.73723e-24
3365 3349 -7.36518e-17
3366 3349 -9.37563e-25
3367 3349 -2.53733e-24
3368 3349 -1.58372e-32
5747 3349 -1.65717e-16
5748 3349 -1.68919e-08
5859 3349 -2.7027e-09
3322 3350 -4.6e-06
3323 3350 -1e-05
3326 3350 -9.7e-06
3327 3350 -1.27297e-13
3349 3350 -1.62044e-21
3350 3350 592
3365 3350 -7.36518e-17
3366 3350 -9.37563e-25
3367 3350 -2.53733e-24
3368 3350 -3.72049e-32
5747 3350 -1.65717e-16
5748 3350 -1.68919e-08
5859 3350 -2.7027e-09
3313 3351 -9.7e-06
3317 3351 -4.6e-06
3318 3351 -1e-05
3351 3351 592
3352 3351 -2.73723e-24
3365 3351 -7.36518e-17
3366 3351 -9.37563e-25
3367 3351 -2.53733e-24
3368 3351 -1.58372e-32
5747 3351 -1.65717e-16
5748 3351 -1.68919e-08
5859 3351 -2.7027e-09
3308 3352 -4.6e-06
3309 3352 -1e-05
3312 3352 -9.7e-06
3313 3352 -1.27297e-13
3351 3352 -1.62044e-21
3352 3352 592
3365 3352 -7.36518e-17
3366 3352 -9.37563e-25
3367 3352 -2.53733e-24
3368 3352 -3.72049e-32
5747 3352 -1.65717e-16
5748 3352 -1.68919e-08
5859 3352 -2.7027e-09
3299 3353 -9.7e-06
3303 3353 -4.6e-06
3304 3353 -1e-05
3353 3353 592
3354 3353 -2.73723e-24
3365 3353 -7.36518e-17
3366 3353 -9.37563e-25
3367 3353 -2.53733e-24
3368 3353 -1.58372e-32
5747 3353 -1.65717e-16
5748 3353 -1.68919e-08
5859 3353 -2.7027e-09
3294 3354 -4.6e-06
3295 3354 -1e-05
3298 3354 -9.7e-06
3299 3354 -1.27297e-13
3353 3354 -1.62044e-21
3354 3354 592
3365 3354 -7.36518e-17
3366 3354 -9.37563e-25
3367 3354 -2.53733e-24
3368 3354 -3.72049e-32
5747 3354 -1.65717e-16
5748 3354 -1.68919e-08
5859 3354 -2.7027e-09
3285 3355 -9.7e-06
3289 3355 -4.6e-06
3290 3355 -1e-05
3355 3355 592
3356 3355 -2.73723e-24
3365 3355 -7.36518e-17
3366 3355 -9.37563e-25
3367 3355 -2.53733e-24
3368 3355 -1.58372e-32
5747 3355 -1.65717e-16
5748 3355 -1.68919e-08
5859 3355 -2.7027e-09
3280 3356 -4.6e-06
3281 3356 -1e-05
3284 3356 -9.7e-06
3285 3356 -1.27297e-13
3355 3356 -1.62044e-21
3356 3356 592
3365 3356 -7.36518e-17
3366 3356 -9.37563e-25
3367 3356 -2.53733e-24
3368 3356 -3.72049e-32
5747 3356 -1.65717e-16
5748 3356 -1.68919e-08
5859 3356 -2.7027e-09
3271 3357 -9.7e-06
3275 3357 -4.6e-06
3276 3357 -1e-05
3357 3357 592
3358 3357 -2.73723e-24
3365 3357 -7.36518e-17
3366 3357 -9.37563e-25
3367 3357 -2.53733e-24
3368 3357 -1.58372e-32
5747 3357 -1.65717e-16
5748 3357 -1.68919e-08
5859 3357 -2.7027e-09
3266 3358 -4.6e-06
3267 3358 -1e-05
3270 3358 -9.7e-06
3271 3358 -1.27297e-13
3357 3358 -1.62044e-21
3358 3358 592
3365 3358 -7.36518e-17
3366 3358 -9.37563e-25
3367 3358 -2.53733e-24
3368 3358 -3.72049e-32
5747 3358 -1.65717e-16
5748 3358 -1.68919e-08
5859 3358 -2.7027e-09
3257 3359 -9.7e-06
3261 3359 -4.6e-06
3262 3359 -1e-05
3359 3359 592
3360 3359 -2.73723e-24
3365 3359 -7.36518e-17
3366 3359 -9.37563e-25
3367 3359 -2.53733e-24
3368 3359 -1.58372e-32
5747 3359 -1.65717e-16
5748 3359 -1.68919e-08
5859 3359 -2.7027e-09
3252 3360 -4.6e-06
3253 3360 -1e-05
3256 3360 -9.7e-06
3257 3360 -1.27297e-13
3359 3360 -1.62044e-21
3360 3360 592
3365 3360 -7.36518e-17
3366 3360 -9.37563e-25
3367 3360 -2.53733e-24
3368 3360 -3.72049e-32
5747 3360 -1.65717e-16
5748 3360 -1.68919e-08
5859 3360 -2.7027e-09
3243 3361 -9.7e-06
3247 3361 -4.6e-06
3248 3361 -1e-05
3361 3361 592
3362 3361 -2.73723e-24
3365 3361 -7.36518e-17
3366 3361 -9.37563e-25
3367 3361 -2.53733e-24
3368 3361 -1.58372e-32
5747 3361 -1.65717e-16
5748 3361 -1.68919e-08
5859 3361 -2.7027e-09
3238 3362 -4.6e-06
3239 3362 -1e-05
3242 3362 -9.7e-06
3243 3362 -1.27297e-13
3361 3362 -1.62044e-21
3362 3362 592
3365 3362 -7.36518e-17
3366 3362 -9.37563e-25
3367 3362 -2.53733e-24
3368 3362 -3.72049e-32
5747 3362 -1.65717e-16
5748 3362 -1.68919e-08
5859 3362 -2.7027e-09
3229 3363 -9.7e-06
3233 3363 -4.6e-06
3234 3363 -1e-05
3363 3363 592
3364 3363 -2.73723e-24
3365 3363 -7.36518e-17
3366 3363 -9.37563e-25
3367 3363 -2.53733e-24
3368 3363 -1.58372e-32
5747 3363 -1.65717e-16
5748 3363 -1.68919e-08
5859 3363 -2.7027e-09
3224 3364 -4.6e-06
3225 3364 -1e-05
3228 3364 -9.7e-06
3229 3364 -1.27297e-13
3363 3364 -1.62044e-21
3364 3364 592
3365 3364 -7.36518e-17
3366 3364 -9.37563e-25
3367 3364 -2.53733e-24
3368 3364 -3.72049e-32
5747 3364 -1.65717e-16
5748 3364 -1.68919e-08
5859 3364 -2.7027e-09
3216 3365 -2.1e-05
3217 3365 -3.4585e-14
3220 3365 -2.42095e-13
3224 3365 -4e-06
3225 3365 -9.29898e-22
3233 3365 -4e-06
3234 3365 -9.29898e-22
3238 3365 -4e-06
3239 3365 -9.29898e-22
3247 3365 -4e-06
3248 3365 -9.29898e-22
3252 3365 -4e-06
3253 3365 -9.29898e-22
3261 3365 -4e-06
3262 3365 -9.29898e-22
3266 3365 -4e-06
3267 3365 -9.29898e-22
3275 3365 -4e-06
3276 3365 -9.29898e-22
3280 3365 -4e-06
3281 3365 -9.29898e-22
3289 3365 -4e-06
3290 3365 -9.29898e-22
3294 3365 -4e-06
3295 3365 -9.29898e-22
3303 3365 -4e-06
3304 3365 -9.29898e-22
3308 3365 -4e-06
3309 3365 -9.29898e-22
3317 3365 -4e-06
3318 3365 -9.29898e-22
3322 3365 -4e-06
3323 3365 -9.29898e-22
3331 3365 -4e-06
3332 3365 -9.29898e-22
3336 3365 -4e-06
3337 3365 -9.29898e-22
3345 3365 -4e-06
3346 3365 -9.29898e-22
3347 3365 -4.36019e-14
3348 3365 -4.36019e-14
3349 3365 -4.36019e-14
3350 3365 -4.36019e-14
3351 3365 -4.36019e-14
3352 3365 -4.36019e-14
3353 3365 -4.36019e-14
3354 3365 -4.36019e-14
3355 3365 -4.36019e-14
3356 3365 -4.36019e-14
3357 3365 -4.36019e-14
3358 3365 -4.36019e-14
3359 3365 -4.36019e-14
3360 3365 -4.36019e-14
3361 3365 -4.36019e-14
3362 3365 -4.36019e-14
3363 3365 -4.36019e-14
3364 3365 -4.36019e-14
3365 3365 28401
3366 3365 -1.58445e-09
3367 3365 -5.12479e-25
3368 3365 -0
5747 3365 -5.40666e-17
5748 3365 -4.66791e-25
5763 3365 -6.35827e-31
5764 3365 -6.35827e-31
5859 3365 -7.46866e-26
3217 3366 -2.1e-05
3220 3366 -2.42095e-13
3226 3366 -4e-06
3227 3366 -4e-06
3228 3366 -4.36019e-14
3229 3366 -4.36019e-14
3240 3366 -4e-06
3241 3366 -4e-06
3242 3366 -4.36019e-14
3243 3366 -4.36019e-14
3254 3366 -4e-06
3255 3366 -4e-06
3256 3366 -4.36019e-14
3257 3366 -4.36019e-14
3268 3366 -4e-06
3269 3366 -4e-06
3270 3366 -4.36019e-14
3271 3366 -4.36019e-14
3282 3366 -4e-06
3283 3366 -4e-06
3284 3366 -4.36019e-14
3285 3366 -4.36019e-14
3296 3366 -4e-06
3297 3366 -4e-06
3298 3366 -4.36019e-14
3299 3366 -4.36019e-14
3310 3366 -4e-06
3311 3366 -4e-06
3312 3366 -4.36019e-14
3313 3366 -4.36019e-14
3324 3366 -4e-06
3325 3366 -4e-06
3326 3366 -4.36019e-14
3327 3366 -4.36019e-14
3338 3366 -4e-06
3339 3366 -4e-06
3340 3366 -4.36019e-14
3341 3366 -4.36019e-14
3347 3366 -5.55037e-22
3348 3366 -5.55037e-22
3349 3366 -5.55037e-22
3350 3366 -5.55037e-22
3351 3366 -5.55037e-22
3352 3366 -5.55037e-22
3353 3366 -5.55037e-22
3354 3366 -5.55037e-22
3355 3366 -5.55037e-22
3356 3366 -5.55037e-22
3357 3366 -5.55037e-22
3358 3366 -5.55037e-22
3359 3366 -5.55037e-22
3360 3366 -5.55037e-22
3361 3366 -5.55037e-22
3362 3366 -5.55037e-22
3363 3366 -5.55037e-22
3364 3366 -5.55037e-22
3365 3366 -4.5e-05
3366 3366 28571
3367 3366 -8.07167e-34
3368 3366 0
5747 3366 -5.37449e-17
5748 3366 -3.60493e-25
5763 3366 -6.32044e-31
5764 3366 -6.32044e-31
5859 3366 -5.7679e-26
3212 3367 -2.1e-05
3215 3367 -2.42095e-13
3223 3367 -4e-06
3224 3367 -8.5308e-14
3225 3367 -4.36019e-14
3232 3367 -4e-06
3233 3367 -8.5308e-14
3234 3367 -4.36019e-14
3237 3367 -4e-06
3238 3367 -8.5308e-14
3239 3367 -4.36019e-14
3246 3367 -4e-06
3247 3367 -8.5308e-14
3248 3367 -4.36019e-14
3251 3367 -4e-06
3252 3367 -8.5308e-14
3253 3367 -4.36019e-14
3260 3367 -4e-06
3261 3367 -8.5308e-14
3262 3367 -4.36019e-14
3265 3367 -4e-06
3266 3367 -8.5308e-14
3267 3367 -4.36019e-14
3274 3367 -4e-06
3275 3367 -8.5308e-14
3276 3367 -4.36019e-14
3279 3367 -4e-06
3280 3367 -8.5308e-14
3281 3367 -4.36019e-14
3288 3367 -4e-06
3289 3367 -8.5308e-14
3290 3367 -4.36019e-14
3293 3367 -4e-06
3294 3367 -8.5308e-14
3295 3367 -4.36019e-14
3302 3367 -4e-06
3303 3367 -8.5308e-14
3304 3367 -4.36019e-14
3307 3367 -4e-06
3308 3367 -8.5308e-14
3309 3367 -4.36019e-14
3316 3367 -4e-06
3317 3367 -8.5308e-14
3318 3367 -4.36019e-14
3321 3367 -4e-06
3322 3367 -8.5308e-14
3323 3367 -4.36019e-14
3330 3367 -4e-06
3331 3367 -8.5308e-14
3332 3367 -4.36019e-14
3335 3367 -4e-06
3336 3367 -8.5308e-14
3337 3367 -4.36019e-14
3344 3367 -4e-06
3345 3367 -8.5308e-14
3346 3367 -4.36019e-14
3347 3367 -1.5021e-21
3348 3367 -1.5021e-21
3349 3367 -1.5021e-21
3350 3367 -1.5021e-21
3351 3367 -1.5021e-21
3352 3367 -1.5021e-21
3353 3367 -1.5021e-21
3354 3367 -1.5021e-21
3355 3367 -1.5021e-21
3356 3367 -1.5021e-21
3357 3367 -1.5021e-21
3358 3367 -1.5021e-21
3359 3367 -1.5021e-21
3360 3367 -1.5021e-21
3361 3367 -1.5021e-21
3362 3367 -1.5021e-21
3363 3367 -1.5021e-21
3364 3367 -1.5021e-21
3365 3367 -1.45549e-20
3366 3367 -2.30616e-29
3367 3367 28571
3368 3367 -1.57502e-09
5747 3367 -5.37449e-17
5748 3367 -3.60493e-25
5763 3367 0
5764 3367 0
5765 3367 -6.32044e-31
5770 3367 -6.32044e-31
5859 3367 -5.7679e-26
3211 3368 -2.1e-05
3212 3368 -3.4585e-14
3215 3368 -2.42095e-13
3221 3368 -4e-06
3222 3368 -7.30159e-14
3225 3368 -1.67833e-21
3230 3368 -4e-06
3231 3368 -4.36019e-14
3234 3368 -7.14423e-22
3235 3368 -4e-06
3236 3368 -7.30159e-14
3239 3368 -1.67833e-21
3244 3368 -4e-06
3245 3368 -4.36019e-14
3248 3368 -7.14423e-22
3249 3368 -4e-06
3250 3368 -7.30159e-14
3253 3368 -1.67833e-21
3258 3368 -4e-06
3259 3368 -4.36019e-14
3262 3368 -7.14423e-22
3263 3368 -4e-06
3264 3368 -7.30159e-14
3267 3368 -1.67833e-21
3272 3368 -4e-06
3273 3368 -4.36019e-14
3276 3368 -7.14423e-22
3277 3368 -4e-06
3278 3368 -7.30159e-14
3281 3368 -1.67833e-21
3286 3368 -4e-06
3287 3368 -4.36019e-14
3290 3368 -7.14423e-22
3291 3368 -4e-06
3292 3368 -7.30159e-14
3295 3368 -1.67833e-21
3300 3368 -4e-06
3301 3368 -4.36019e-14
3304 3368 -7.14423e-22
3305 3368 -4e-06
3306 3368 -7.30159e-14
3309 3368 -1.67833e-21
3314 3368 -4e-06
3315 3368 -4.36019e-14
3318 3368 -7.14423e-22
3319 3368 -4e-06
3320 3368 -7.30159e-14
3323 3368 -1.67833e-21
3328 3368 -4e-06
3329 3368 -4.36019e-14
3332 3368 -7.14423e-22
3333 3368 -4e-06
3334 3368 -7.30159e-14
3337 3368 -1.67833e-21
3342 3368 -4e-06
3343 3368 -4.36019e-14
3346 3368 -7.14423e-22
3347 3368 -9.37563e-30
3348 3368 -2.20253e-29
3349 3368 -9.37563e-30
3350 3368 -2.20253e-29
3351 3368 -9.37563e-30
3352 3368 -2.20253e-29
3353 3368 -9.37563e-30
3354 3368 -2.20253e-29
3355 3368 -9.37563e-30
3356 3368 -2.20253e-29
3357 3368 -9.37563e-30
3358 3368 -2.20253e-29
3359 3368 -9.37563e-30
3360 3368 -2.20253e-29
3361 3368 -9.37563e-30
3362 3368 -2.20253e-29
3363 3368 -9.37563e-30
3364 3368 -2.20253e-29
3365 3368 -3.78351e-44
3366 3368 0
3367 3368 -4.5e-05
3368 3368 28401
5747 3368 -7.23033e-17
5748 3368 -7.8169e-25
5763 3368 0
5764 3368 0
5765 3368 -6.35827e-31
5770 3368 -6.35827e-31
5859 3368 -1.2507e-25
3369 3369 3643.2
3370 3369 -1.6469e-09
3373 3369 -1.15283e-08
3526 3369 -5.76416e-09
3369 3370 -6e-06
3370 3370 3643.2
3373 3370 -1.15283e-08
3525 3370 -5.76416e-09
3526 3370 -9.49302e-18
3371 3371 170
3373 3371 -7.05881e-07
5765 3371 -7.05881e-07
3372 3372 170
3373 3372 -7.05881e-07
5770 3372 -7.05881e-07
3369 3373 -4.2e-05
3370 3373 -4.2e-05
3371 3373 -0.00012
3372 3373 -0.00012
3373 3373 1135.6
3525 3373 -2.13187e-16
3526 3373 -2.13187e-16
5765 3373 -7.45912e-14
5770 3373 -7.45912e-14
3374 3374 3643.2
3375 3374 -1.6469e-09
3378 3374 -1.15283e-08
3523 3374 -5.76416e-09
3374 3375 -6e-06
3375 3375 3643.2
3378 3375 -1.15283e-08
3523 3375 -9.49302e-18
3524 3375 -5.76416e-09
3376 3376 170
3378 3376 -7.05881e-07
5764 3376 -7.05881e-07
3377 3377 170
3378 3377 -7.05881e-07
5763 3377 -7.05881e-07
3374 3378 -4.2e-05
3375 3378 -4.2e-05
3376 3378 -0.00012
3377 3378 -0.00012
3378 3378 1135.6
3523 3378 -2.13187e-16
3524 3378 -2.13187e-16
5763 3378 -7.45912e-14
5764 3378 -7.45912e-14
3379 3379 252
3380 3379 -1.8254e-08
3526 3379 -1.5873e-08
5749 3379 -3.57143e-08
3379 3380 -4.6e-06
3380 3380 422
3383 3380 -2.29858e-08
3526 3380 -1.73023e-16
5749 3380 -3.89303e-16
5750 3380 -2.36967e-08
5859 3380 -3.79147e-09
3381 3381 422
3382 3381 -2.1327e-08
3383 3381 -1.09005e-08
3525 3381 -9.47867e-09
5749 3381 -2.1327e-08
3381 3382 -9e-06
3382 3382 422
3383 3382 -2.32475e-16
3522 3382 -1.09005e-08
3523 3382 -9.47867e-09
3525 3382 -2.02152e-16
5749 3382 -2.1327e-08
3380 3383 -9.7e-06
3381 3383 -4.6e-06
3382 3383 -9.81043e-14
3383 3383 762
3522 3383 -1.31234e-08
3523 3383 -1.22034e-24
3525 3383 -5.72203e-17
3526 3383 -2.20253e-24
5749 3383 -1.28746e-16
5750 3383 -1.31234e-08
5859 3383 -2.09974e-09
3384 3384 422
3385 3384 -2.1327e-08
3387 3384 -1.09005e-08
3524 3384 -9.47867e-09
5749 3384 -2.1327e-08
3384 3385 -9e-06
3385 3385 422
3386 3385 -1.09005e-08
3387 3385 -2.32475e-16
3524 3385 -9.47867e-09
5749 3385 -2.1327e-08
3385 3386 -4.6e-06
3386 3386 762
3387 3386 -1.31234e-08
3522 3386 -1.27297e-08
3524 3386 -5.72203e-17
5749 3386 -1.28746e-16
5750 3386 -1.31234e-08
5859 3386 -2.09974e-09
3384 3387 -4.6e-06
3385 3387 -9.81043e-14
3386 3387 -1e-05
3387 3387 762
3521 3387 -1.27297e-08
3522 3387 -1.67056e-16
3524 3387 -5.72203e-17
5749 3387 -1.28746e-16
5750 3387 -1.31234e-08
5859 3387 -2.09974e-09
3388 3388 422
3389 3388 -1.09005e-08
3526 3388 -9.47867e-09
5749 3388 -2.1327e-08
3388 3389 -4.6e-06
3389 3389 592
3392 3389 -1.63851e-08
3526 3389 -7.36518e-17
5749 3389 -1.65717e-16
5750 3389 -1.68919e-08
5859 3389 -2.7027e-09
3390 3390 422
3391 3390 -2.1327e-08
3392 3390 -1.09005e-08
3525 3390 -9.47867e-09
5749 3390 -2.1327e-08
3390 3391 -9e-06
3391 3391 422
3392 3391 -2.32475e-16
3521 3391 -1.09005e-08
3523 3391 -9.47867e-09
3525 3391 -2.02152e-16
5749 3391 -2.1327e-08
3389 3392 -9.7e-06
3390 3392 -4.6e-06
3391 3392 -9.81043e-14
3392 3392 762
3521 3392 -1.31234e-08
3523 3392 -1.22034e-24
3525 3392 -5.72203e-17
3526 3392 -9.37563e-25
5749 3392 -1.28746e-16
5750 3392 -1.31234e-08
5859 3392 -2.09974e-09
3393 3393 252
3394 3393 -1.8254e-08
3526 3393 -1.5873e-08
5749 3393 -3.57143e-08
3393 3394 -4.6e-06
3394 3394 422
3397 3394 -2.29858e-08
3526 3394 -1.73023e-16
5749 3394 -3.89303e-16
5750 3394 -2.36967e-08
5859 3394 -3.79147e-09
3395 3395 422
3396 3395 -2.1327e-08
3397 3395 -1.09005e-08
3525 3395 -9.47867e-09
5749 3395 -2.1327e-08
3395 3396 -9e-06
3396 3396 422
3397 3396 -2.32475e-16
3520 3396 -1.09005e-08
3523 3396 -9.47867e-09
3525 3396 -2.02152e-16
5749 3396 -2.1327e-08
3394 3397 -9.7e-06
3395 3397 -4.6e-06
3396 3397 -9.81043e-14
3397 3397 762
3520 3397 -1.31234e-08
3523 3397 -1.22034e-24
3525 3397 -5.72203e-17
3526 3397 -2.20253e-24
5749 3397 -1.28746e-16
5750 3397 -1.31234e-08
5859 3397 -2.09974e-09
3398 3398 422
3399 3398 -2.1327e-08
3401 3398 -1.09005e-08
3524 3398 -9.47867e-09
5749 3398 -2.1327e-08
3398 3399 -9e-06
3399 3399 422
3400 3399 -1.09005e-08
3401 3399 -2.32475e-16
3524 3399 -9.47867e-09
5749 3399 -2.1327e-08
3399 3400 -4.6e-06
3400 3400 762
3401 3400 -1.31234e-08
3520 3400 -1.27297e-08
3524 3400 -5.72203e-17
5749 3400 -1.28746e-16
5750 3400 -1.31234e-08
5859 3400 -2.09974e-09
3398 3401 -4.6e-06
3399 3401 -9.81043e-14
3400 3401 -1e-05
3401 3401 762
3519 3401 -1.27297e-08
3520 3401 -1.67056e-16
3524 3401 -5.72203e-17
5749 3401 -1.28746e-16
5750 3401 -1.31234e-08
5859 3401 -2.09974e-09
3402 3402 422
3403 3402 -1.09005e-08
3526 3402 -9.47867e-09
5749 3402 -2.1327e-08
3402 3403 -4.6e-06
3403 3403 592
3406 3403 -1.63851e-08
3526 3403 -7.36518e-17
5749 3403 -1.65717e-16
5750 3403 -1.68919e-08
5859 3403 -2.7027e-09
3404 3404 422
3405 3404 -2.1327e-08
3406 3404 -1.09005e-08
3525 3404 -9.47867e-09
5749 3404 -2.1327e-08
3404 3405 -9e-06
3405 3405 422
3406 3405 -2.32475e-16
3519 3405 -1.09005e-08
3523 3405 -9.47867e-09
3525 3405 -2.02152e-16
5749 3405 -2.1327e-08
3403 3406 -9.7e-06
3404 3406 -4.6e-06
3405 3406 -9.81043e-14
3406 3406 762
3519 3406 -1.31234e-08
3523 3406 -1.22034e-24
3525 3406 -5.72203e-17
3526 3406 -9.37563e-25
5749 3406 -1.28746e-16
5750 3406 -1.31234e-08
5859 3406 -2.09974e-09
3407 3407 252
3408 3407 -1.8254e-08
3526 3407 -1.5873e-08
5749 3407 -3.57143e-08
3407 3408 -4.6e-06
3408 3408 422
3411 3408 -2.29858e-08
3526 3408 -1.73023e-16
5749 3408 -3.89303e-16
5750 3408 -2.36967e-08
5859 3408 -3.79147e-09
3409 3409 422
3410 3409 -2.1327e-08
3411 3409 -1.09005e-08
3525 3409 -9.47867e-09
5749 3409 -2.1327e-08
3409 3410 -9e-06
3410 3410 422
3411 3410 -2.32475e-16
3518 3410 -1.09005e-08
3523 3410 -9.47867e-09
3525 3410 -2.02152e-16
5749 3410 -2.1327e-08
3408 3411 -9.7e-06
3409 3411 -4.6e-06
3410 3411 -9.81043e-14
3411 3411 762
3518 3411 -1.31234e-08
3523 3411 -1.22034e-24
3525 3411 -5.72203e-17
3526 3411 -2.20253e-24
5749 3411 -1.28746e-16
5750 3411 -1.31234e-08
5859 3411 -2.09974e-09
3412 3412 422
3413 3412 -2.1327e-08
3415 3412 -1.09005e-08
3524 3412 -9.47867e-09
5749 3412 -2.1327e-08
3412 3413 -9e-06
3413 3413 422
3414 3413 -1.09005e-08
3415 3413 -2.32475e-16
3524 3413 -9.47867e-09
5749 3413 -2.1327e-08
3413 3414 -4.6e-06
3414 3414 762
3415 3414 -1.31234e-08
3518 3414 -1.27297e-08
3524 3414 -5.72203e-17
5749 3414 -1.28746e-16
5750 3414 -1.31234e-08
5859 3414 -2.09974e-09
3412 3415 -4.6e-06
3413 3415 -9.81043e-14
3414 3415 -1e-05
3415 3415 762
3517 3415 -1.27297e-08
3518 3415 -1.67056e-16
3524 3415 -5.72203e-17
5749 3415 -1.28746e-16
5750 3415 -1.31234e-08
5859 3415 -2.09974e-09
3416 3416 422
3417 3416 -1.09005e-08
3526 3416 -9.47867e-09
5749 3416 -2.1327e-08
3416 3417 -4.6e-06
3417 3417 592
3420 3417 -1.63851e-08
3526 3417 -7.36518e-17
5749 3417 -1.65717e-16
5750 3417 -1.68919e-08
5859 3417 -2.7027e-09
3418 3418 422
3419 3418 -2.1327e-08
3420 3418 -1.09005e-08
3525 3418 -9.47867e-09
5749 3418 -2.1327e-08
3418 3419 -9e-06
3419 3419 422
3420 3419 -2.32475e-16
3517 3419 -1.09005e-08
3523 3419 -9.47867e-09
3525 3419 -2.02152e-16
5749 3419 -2.1327e-08
3417 3420 -9.7e-06
3418 3420 -4.6e-06
3419 3420 -9.81043e-14
3420 3420 762
3517 3420 -1.31234e-08
3523 3420 -1.22034e-24
3525 3420 -5.72203e-17
3526 3420 -9.37563e-25
5749 3420 -1.28746e-16
5750 3420 -1.31234e-08
5859 3420 -2.09974e-09
3421 3421 252
3422 3421 -1.8254e-08
3526 3421 -1.5873e-08
5749 3421 -3.57143e-08
3421 3422 -4.6e-06
3422 3422 422
3425 3422 -2.29858e-08
3526 3422 -1.73023e-16
5749 3422 -3.89303e-16
5750 3422 -2.36967e-08
5859 3422 -3.79147e-09
3423 3423 422
3424 3423 -2.1327e-08
3425 3423 -1.09005e-08
3525 3423 -9.47867e-09
5749 3423 -2.1327e-08
3423 3424 -9e-06
3424 3424 422
3425 3424 -2.32475e-16
3516 3424 -1.09005e-08
3523 3424 -9.47867e-09
3525 3424 -2.02152e-16
5749 3424 -2.1327e-08
3422 3425 -9.7e-06
3423 3425 -4.6e-06
3424 3425 -9.81043e-14
3425 3425 762
3516 3425 -1.31234e-08
3523 3425 -1.22034e-24
3525 3425 -5.72203e-17
3526 3425 -2.20253e-24
5749 3425 -1.28746e-16
5750 3425 -1.31234e-08
5859 3425 -2.09974e-09
3426 3426 422
3427 3426 -2.1327e-08
3429 3426 -1.09005e-08
3524 3426 -9.47867e-09
5749 3426 -2.1327e-08
3426 3427 -9e-06
3427 3427 422
3428 3427 -1.09005e-08
3429 3427 -2.32475e-16
3524 3427 -9.47867e-09
5749 3427 -2.1327e-08
3427 3428 -4.6e-06
3428 3428 762
3429 3428 -1.31234e-08
3516 3428 -1.27297e-08
3524 3428 -5.72203e-17
5749 3428 -1.28746e-16
5750 3428 -1.31234e-08
5859 3428 -2.09974e-09
3426 3429 -4.6e-06
3427 3429 -9.81043e-14
3428 3429 -1e-05
3429 3429 762
3515 3429 -1.27297e-08
3516 3429 -1.67056e-16
3524 3429 -5.72203e-17
5749 3429 -1.28746e-16
5750 3429 -1.31234e-08
5859 3429 -2.09974e-09
3430 3430 422
3431 3430 -1.09005e-08
3526 3430 -9.47867e-09
5749 3430 -2.1327e-08
3430 3431 -4.6e-06
3431 3431 592
3434 3431 -1.63851e-08
3526 3431 -7.36518e-17
5749 3431 -1.65717e-16
5750 3431 -1.68919e-08
5859 3431 -2.7027e-09
3432 3432 422
3433 3432 -2.1327e-08
3434 3432 -1.09005e-08
3525 3432 -9.47867e-09
5749 3432 -2.1327e-08
3432 3433 -9e-06
3433 3433 422
3434 3433 -2.32475e-16
3515 3433 -1.09005e-08
3523 3433 -9.47867e-09
3525 3433 -2.02152e-16
5749 3433 -2.1327e-08
3431 3434 -9.7e-06
3432 3434 -4.6e-06
3433 3434 -9.81043e-14
3434 3434 762
3515 3434 -1.31234e-08
3523 3434 -1.22034e-24
3525 3434 -5.72203e-17
3526 3434 -9.37563e-25
5749 3434 -1.28746e-16
5750 3434 -1.31234e-08
5859 3434 -2.09974e-09
3435 3435 252
3436 3435 -1.8254e-08
3526 3435 -1.5873e-08
5749 3435 -3.57143e-08
3435 3436 -4.6e-06
3436 3436 422
3439 3436 -2.29858e-08
3526 3436 -1.73023e-16
5749 3436 -3.89303e-16
5750 3436 -2.36967e-08
5859 3436 -3.79147e-09
3437 3437 422
3438 3437 -2.1327e-08
3439 3437 -1.09005e-08
3525 3437 -9.47867e-09
5749 3437 -2.1327e-08
3437 3438 -9e-06
3438 3438 422
3439 3438 -2.32475e-16
3514 3438 -1.09005e-08
3523 3438 -9.47867e-09
3525 3438 -2.02152e-16
5749 3438 -2.1327e-08
3436 3439 -9.7e-06
3437 3439 -4.6e-06
3438 3439 -9.81043e-14
3439 3439 762
3514 3439 -1.31234e-08
3523 3439 -1.22034e-24
3525 3439 -5.72203e-17
3526 3439 -2.20253e-24
5749 3439 -1.28746e-16
5750 3439 -1.31234e-08
5859 3439 -2.09974e-09
3440 3440 422
3441 3440 -2.1327e-08
3443 3440 -1.09005e-08
3524 3440 -9.47867e-09
5749 3440 -2.1327e-08
3440 3441 -9e-06
3441 3441 422
3442 3441 -1.09005e-08
3443 3441 -2.32475e-16
3524 3441 -9.47867e-09
5749 3441 -2.1327e-08
3441 3442 -4.6e-06
3442 3442 762
3443 3442 -1.31234e-08
3514 3442 -1.27297e-08
3524 3442 -5.72203e-17
5749 3442 -1.28746e-16
5750 3442 -1.31234e-08
5859 3442 -2.09974e-09
3440 3443 -4.6e-06
3441 3443 -9.81043e-14
3442 3443 -1e-05
3443 3443 762
3513 3443 -1.27297e-08
3514 3443 -1.67056e-16
3524 3443 -5.72203e-17
5749 3443 -1.28746e-16
5750 3443 -1.31234e-08
5859 3443 -2.09974e-09
3444 3444 422
3445 3444 -1.09005e-08
3526 3444 -9.47867e-09
5749 3444 -2.1327e-08
3444 3445 -4.6e-06
3445 3445 592
3448 3445 -1.63851e-08
3526 3445 -7.36518e-17
5749 3445 -1.65717e-16
5750 3445 -1.68919e-08
5859 3445 -2.7027e-09
3446 3446 422
3447 3446 -2.1327e-08
3448 3446 -1.09005e-08
3525 3446 -9.47867e-09
5749 3446 -2.1327e-08
3446 3447 -9e-06
3447 3447 422
3448 3447 -2.32475e-16
3513 3447 -1.09005e-08
3523 3447 -9.47867e-09
3525 3447 -2.02152e-16
5749 3447 -2.1327e-08
3445 3448 -9.7e-06
3446 3448 -4.6e-06
3447 3448 -9.81043e-14
3448 3448 762
3513 3448 -1.31234e-08
3523 3448 -1.22034e-24
3525 3448 -5.72203e-17
3526 3448 -9.37563e-25
5749 3448 -1.28746e-16
5750 3448 -1.31234e-08
5859 3448 -2.09974e-09
3449 3449 252
3450 3449 -1.8254e-08
3526 3449 -1.5873e-08
5749 3449 -3.57143e-08
3449 3450 -4.6e-06
3450 3450 422
3453 3450 -2.29858e-08
3526 3450 -1.73023e-16
5749 3450 -3.89303e-16
5750 3450 -2.36967e-08
5859 3450 -3.79147e-09
3451 3451 422
3452 3451 -2.1327e-08
3453 3451 -1.09005e-08
3525 3451 -9.47867e-09
5749 3451 -2.1327e-08
3451 3452 -9e-06
3452 3452 422
3453 3452 -2.32475e-16
3512 3452 -1.09005e-08
3523 3452 -9.47867e-09
3525 3452 -2.02152e-16
5749 3452 -2.1327e-08
3450 3453 -9.7e-06
3451 3453 -4.6e-06
3452 3453 -9.81043e-14
3453 3453 762
3512 3453 -1.31234e-08
3523 3453 -1.22034e-24
3525 3453 -5.72203e-17
3526 3453 -2.20253e-24
5749 3453 -1.28746e-16
5750 3453 -1.31234e-08
5859 3453 -2.09974e-09
3454 3454 422
3455 3454 -2.1327e-08
3457 3454 -1.09005e-08
3524 3454 -9.47867e-09
5749 3454 -2.1327e-08
3454 3455 -9e-06
3455 3455 422
3456 3455 -1.09005e-08
3457 3455 -2.32475e-16
3524 3455 -9.47867e-09
5749 3455 -2.1327e-08
3455 3456 -4.6e-06
3456 3456 762
3457 3456 -1.31234e-08
3512 3456 -1.27297e-08
3524 3456 -5.72203e-17
5749 3456 -1.28746e-16
5750 3456 -1.31234e-08
5859 3456 -2.09974e-09
3454 3457 -4.6e-06
3455 3457 -9.81043e-14
3456 3457 -1e-05
3457 3457 762
3511 3457 -1.27297e-08
3512 3457 -1.67056e-16
3524 3457 -5.72203e-17
5749 3457 -1.28746e-16
5750 3457 -1.31234e-08
5859 3457 -2.09974e-09
3458 3458 422
3459 3458 -1.09005e-08
3526 3458 -9.47867e-09
5749 3458 -2.1327e-08
3458 3459 -4.6e-06
3459 3459 592
3462 3459 -1.63851e-08
3526 3459 -7.36518e-17
5749 3459 -1.65717e-16
5750 3459 -1.68919e-08
5859 3459 -2.7027e-09
3460 3460 422
3461 3460 -2.1327e-08
3462 3460 -1.09005e-08
3525 3460 -9.47867e-09
5749 3460 -2.1327e-08
3460 3461 -9e-06
3461 3461 422
3462 3461 -2.32475e-16
3511 3461 -1.09005e-08
3523 3461 -9.47867e-09
3525 3461 -2.02152e-16
5749 3461 -2.1327e-08
3459 3462 -9.7e-06
3460 3462 -4.6e-06
3461 3462 -9.81043e-14
3462 3462 762
3511 3462 -1.31234e-08
3523 3462 -1.22034e-24
3525 3462 -5.72203e-17
3526 3462 -9.37563e-25
5749 3462 -1.28746e-16
5750 3462 -1.31234e-08
5859 3462 -2.09974e-09
3463 3463 252
3464 3463 -1.8254e-08
3526 3463 -1.5873e-08
5749 3463 -3.57143e-08
3463 3464 -4.6e-06
3464 3464 422
3467 3464 -2.29858e-08
3526 3464 -1.73023e-16
5749 3464 -3.89303e-16
5750 3464 -2.36967e-08
5859 3464 -3.79147e-09
3465 3465 422
3466 3465 -2.1327e-08
3467 3465 -1.09005e-08
3525 3465 -9.47867e-09
5749 3465 -2.1327e-08
3465 3466 -9e-06
3466 3466 422
3467 3466 -2.32475e-16
3510 3466 -1.09005e-08
3523 3466 -9.47867e-09
3525 3466 -2.02152e-16
5749 3466 -2.1327e-08
3464 3467 -9.7e-06
3465 3467 -4.6e-06
3466 3467 -9.81043e-14
3467 3467 762
3510 3467 -1.31234e-08
3523 3467 -1.22034e-24
3525 3467 -5.72203e-17
3526 3467 -2.20253e-24
5749 3467 -1.28746e-16
5750 3467 -1.31234e-08
5859 3467 -2.09974e-09
3468 3468 422
3469 3468 -2.1327e-08
3471 3468 -1.09005e-08
3524 3468 -9.47867e-09
5749 3468 -2.1327e-08
3468 3469 -9e-06
3469 3469 422
3470 3469 -1.09005e-08
3471 3469 -2.32475e-16
3524 3469 -9.47867e-09
5749 3469 -2.1327e-08
3469 3470 -4.6e-06
3470 3470 762
3471 3470 -1.31234e-08
3510 3470 -1.27297e-08
3524 3470 -5.72203e-17
5749 3470 -1.28746e-16
5750 3470 -1.31234e-08
5859 3470 -2.09974e-09
3468 3471 -4.6e-06
3469 3471 -9.81043e-14
3470 3471 -1e-05
3471 3471 762
3509 3471 -1.27297e-08
3510 3471 -1.67056e-16
3524 3471 -5.72203e-17
5749 3471 -1.28746e-16
5750 3471 -1.31234e-08
5859 3471 -2.09974e-09
3472 3472 422
3473 3472 -1.09005e-08
3526 3472 -9.47867e-09
5749 3472 -2.1327e-08
3472 3473 -4.6e-06
3473 3473 592
3476 3473 -1.63851e-08
3526 3473 -7.36518e-17
5749 3473 -1.65717e-16
5750 3473 -1.68919e-08
5859 3473 -2.7027e-09
3474 3474 422
3475 3474 -2.1327e-08
3476 3474 -1.09005e-08
3525 3474 -9.47867e-09
5749 3474 -2.1327e-08
3474 3475 -9e-06
3475 3475 422
3476 3475 -2.32475e-16
3509 3475 -1.09005e-08
3523 3475 -9.47867e-09
3525 3475 -2.02152e-16
5749 3475 -2.1327e-08
3473 3476 -9.7e-06
3474 3476 -4.6e-06
3475 3476 -9.81043e-14
3476 3476 762
3509 3476 -1.31234e-08
3523 3476 -1.22034e-24
3525 3476 -5.72203e-17
3526 3476 -9.37563e-25
5749 3476 -1.28746e-16
5750 3476 -1.31234e-08
5859 3476 -2.09974e-09
3477 3477 252
3478 3477 -1.8254e-08
3526 3477 -1.5873e-08
5749 3477 -3.57143e-08
3477 3478 -4.6e-06
3478 3478 422
3481 3478 -2.29858e-08
3526 3478 -1.73023e-16
5749 3478 -3.89303e-16
5750 3478 -2.36967e-08
5859 3478 -3.79147e-09
3479 3479 422
3480 3479 -2.1327e-08
3481 3479 -1.09005e-08
3525 3479 -9.47867e-09
5749 3479 -2.1327e-08
3479 3480 -9e-06
3480 3480 422
3481 3480 -2.32475e-16
3508 3480 -1.09005e-08
3523 3480 -9.47867e-09
3525 3480 -2.02152e-16
5749 3480 -2.1327e-08
3478 3481 -9.7e-06
3479 3481 -4.6e-06
3480 3481 -9.81043e-14
3481 3481 762
3508 3481 -1.31234e-08
3523 3481 -1.22034e-24
3525 3481 -5.72203e-17
3526 3481 -2.20253e-24
5749 3481 -1.28746e-16
5750 3481 -1.31234e-08
5859 3481 -2.09974e-09
3482 3482 422
3483 3482 -2.1327e-08
3485 3482 -1.09005e-08
3524 3482 -9.47867e-09
5749 3482 -2.1327e-08
3482 3483 -9e-06
3483 3483 422
3484 3483 -1.09005e-08
3485 3483 -2.32475e-16
3524 3483 -9.47867e-09
5749 3483 -2.1327e-08
3483 3484 -4.6e-06
3484 3484 762
3485 3484 -1.31234e-08
3508 3484 -1.27297e-08
3524 3484 -5.72203e-17
5749 3484 -1.28746e-16
5750 3484 -1.31234e-08
5859 3484 -2.09974e-09
3482 3485 -4.6e-06
3483 3485 -9.81043e-14
3484 3485 -1e-05
3485 3485 762
3507 3485 -1.27297e-08
3508 3485 -1.67056e-16
3524 3485 -5.72203e-17
5749 3485 -1.28746e-16
5750 3485 -1.31234e-08
5859 3485 -2.09974e-09
3486 3486 422
3487 3486 -1.09005e-08
3526 3486 -9.47867e-09
5749 3486 -2.1327e-08
3486 3487 -4.6e-06
3487 3487 592
3490 3487 -1.63851e-08
3526 3487 -7.36518e-17
5749 3487 -1.65717e-16
5750 3487 -1.68919e-08
5859 3487 -2.7027e-09
3488 3488 422
3489 3488 -2.1327e-08
3490 3488 -1.09005e-08
3525 3488 -9.47867e-09
5749 3488 -2.1327e-08
3488 3489 -9e-06
3489 3489 422
3490 3489 -2.32475e-16
3507 3489 -1.09005e-08
3523 3489 -9.47867e-09
3525 3489 -2.02152e-16
5749 3489 -2.1327e-08
3487 3490 -9.7e-06
3488 3490 -4.6e-06
3489 3490 -9.81043e-14
3490 3490 762
3507 3490 -1.31234e-08
3523 3490 -1.22034e-24
3525 3490 -5.72203e-17
3526 3490 -9.37563e-25
5749 3490 -1.28746e-16
5750 3490 -1.31234e-08
5859 3490 -2.09974e-09
3491 3491 252
3492 3491 -1.8254e-08
3526 3491 -1.5873e-08
5749 3491 -3.57143e-08
3491 3492 -4.6e-06
3492 3492 422
3495 3492 -2.29858e-08
3526 3492 -1.73023e-16
5749 3492 -3.89303e-16
5750 3492 -2.36967e-08
5859 3492 -3.79147e-09
3493 3493 422
3494 3493 -2.1327e-08
3495 3493 -1.09005e-08
3525 3493 -9.47867e-09
5749 3493 -2.1327e-08
3493 3494 -9e-06
3494 3494 422
3495 3494 -2.32475e-16
3506 3494 -1.09005e-08
3523 3494 -9.47867e-09
3525 3494 -2.02152e-16
5749 3494 -2.1327e-08
3492 3495 -9.7e-06
3493 3495 -4.6e-06
3494 3495 -9.81043e-14
3495 3495 762
3506 3495 -1.31234e-08
3523 3495 -1.22034e-24
3525 3495 -5.72203e-17
3526 3495 -2.20253e-24
5749 3495 -1.28746e-16
5750 3495 -1.31234e-08
5859 3495 -2.09974e-09
3496 3496 422
3497 3496 -2.1327e-08
3499 3496 -1.09005e-08
3524 3496 -9.47867e-09
5749 3496 -2.1327e-08
3496 3497 -9e-06
3497 3497 422
3498 3497 -1.09005e-08
3499 3497 -2.32475e-16
3524 3497 -9.47867e-09
5749 3497 -2.1327e-08
3497 3498 -4.6e-06
3498 3498 762
3499 3498 -1.31234e-08
3506 3498 -1.27297e-08
3524 3498 -5.72203e-17
5749 3498 -1.28746e-16
5750 3498 -1.31234e-08
5859 3498 -2.09974e-09
3496 3499 -4.6e-06
3497 3499 -9.81043e-14
3498 3499 -1e-05
3499 3499 762
3505 3499 -1.27297e-08
3506 3499 -1.67056e-16
3524 3499 -5.72203e-17
5749 3499 -1.28746e-16
5750 3499 -1.31234e-08
5859 3499 -2.09974e-09
3500 3500 422
3501 3500 -1.09005e-08
3526 3500 -9.47867e-09
5749 3500 -2.1327e-08
3500 3501 -4.6e-06
3501 3501 592
3504 3501 -1.63851e-08
3526 3501 -7.36518e-17
5749 3501 -1.65717e-16
5750 3501 -1.68919e-08
5859 3501 -2.7027e-09
3502 3502 422
3503 3502 -2.1327e-08
3504 3502 -1.09005e-08
3525 3502 -9.47867e-09
5749 3502 -2.1327e-08
3502 3503 -9e-06
3503 3503 422
3504 3503 -2.32475e-16
3505 3503 -1.09005e-08
3523 3503 -9.47867e-09
3525 3503 -2.02152e-16
5749 3503 -2.1327e-08
3501 3504 -9.7e-06
3502 3504 -4.6e-06
3503 3504 -9.81043e-14
3504 3504 762
3505 3504 -1.31234e-08
3523 3504 -1.22034e-24
3525 3504 -5.72203e-17
3526 3504 -9.37563e-25
5749 3504 -1.28746e-16
5750 3504 -1.31234e-08
5859 3504 -2.09974e-09
3499 3505 -9.7e-06
3503 3505 -4.6e-06
3504 3505 -1e-05
3505 3505 592
3506 3505 -2.73723e-24
3523 3505 -7.36518e-17
3524 3505 -9.37563e-25
3525 3505 -2.53733e-24
3526 3505 -1.58372e-32
5749 3505 -1.65717e-16
5750 3505 -1.68919e-08
5859 3505 -2.7027e-09
3494 3506 -4.6e-06
3495 3506 -1e-05
3498 3506 -9.7e-06
3499 3506 -1.27297e-13
3505 3506 -1.62044e-21
3506 3506 592
3523 3506 -7.36518e-17
3524 3506 -9.37563e-25
3525 3506 -2.53733e-24
3526 3506 -3.72049e-32
5749 3506 -1.65717e-16
5750 3506 -1.68919e-08
5859 3506 -2.7027e-09
3485 3507 -9.7e-06
3489 3507 -4.6e-06
3490 3507 -1e-05
3507 3507 592
3508 3507 -2.73723e-24
3523 3507 -7.36518e-17
3524 3507 -9.37563e-25
3525 3507 -2.53733e-24
3526 3507 -1.58372e-32
5749 3507 -1.65717e-16
5750 3507 -1.68919e-08
5859 3507 -2.7027e-09
3480 3508 -4.6e-06
3481 3508 -1e-05
3484 3508 -9.7e-06
3485 3508 -1.27297e-13
3507 3508 -1.62044e-21
3508 3508 592
3523 3508 -7.36518e-17
3524 3508 -9.37563e-25
3525 3508 -2.53733e-24
3526 3508 -3.72049e-32
5749 3508 -1.65717e-16
5750 3508 -1.68919e-08
5859 3508 -2.7027e-09
3471 3509 -9.7e-06
3475 3509 -4.6e-06
3476 3509 -1e-05
3509 3509 592
3510 3509 -2.73723e-24
3523 3509 -7.36518e-17
3524 3509 -9.37563e-25
3525 3509 -2.53733e-24
3526 3509 -1.58372e-32
5749 3509 -1.65717e-16
5750 3509 -1.68919e-08
5859 3509 -2.7027e-09
3466 3510 -4.6e-06
3467 3510 -1e-05
3470 3510 -9.7e-06
3471 3510 -1.27297e-13
3509 3510 -1.62044e-21
3510 3510 592
3523 3510 -7.36518e-17
3524 3510 -9.37563e-25
3525 3510 -2.53733e-24
3526 3510 -3.72049e-32
5749 3510 -1.65717e-16
5750 3510 -1.68919e-08
5859 3510 -2.7027e-09
3457 3511 -9.7e-06
3461 3511 -4.6e-06
3462 3511 -1e-05
3511 3511 592
3512 3511 -2.73723e-24
3523 3511 -7.36518e-17
3524 3511 -9.37563e-25
3525 3511 -2.53733e-24
3526 3511 -1.58372e-32
5749 3511 -1.65717e-16
5750 3511 -1.68919e-08
5859 3511 -2.7027e-09
3452 3512 -4.6e-06
3453 3512 -1e-05
3456 3512 -9.7e-06
3457 3512 -1.27297e-13
3511 3512 -1.62044e-21
3512 3512 592
3523 3512 -7.36518e-17
3524 3512 -9.37563e-25
3525 3512 -2.53733e-24
3526 3512 -3.72049e-32
5749 3512 -1.65717e-16
5750 3512 -1.68919e-08
5859 3512 -2.7027e-09
3443 3513 -9.7e-06
3447 3513 -4.6e-06
3448 3513 -1e-05
3513 3513 592
3514 3513 -2.73723e-24
3523 3513 -7.36518e-17
3524 3513 -9.37563e-25
3525 3513 -2.53733e-24
3526 3513 -1.58372e-32
5749 3513 -1.65717e-16
5750 3513 -1.68919e-08
5859 3513 -2.7027e-09
3438 3514 -4.6e-06
3439 3514 -1e-05
3442 3514 -9.7e-06
3443 3514 -1.27297e-13
3513 3514 -1.62044e-21
3514 3514 592
3523 3514 -7.36518e-17
3524 3514 -9.37563e-25
3525 3514 -2.53733e-24
3526 3514 -3.72049e-32
5749 3514 -1.65717e-16
5750 3514 -1.68919e-08
5859 3514 -2.7027e-09
3429 3515 -9.7e-06
3433 3515 -4.6e-06
3434 3515 -1e-05
3515 3515 592
3516 3515 -2.73723e-24
3523 3515 -7.36518e-17
3524 3515 -9.37563e-25
3525 3515 -2.53733e-24
3526 3515 -1.58372e-32
5749 3515 -1.65717e-16
5750 3515 -1.68919e-08
5859 3515 -2.7027e-09
3424 3516 -4.6e-06
3425 3516 -1e-05
3428 3516 -9.7e-06
3429 3516 -1.27297e-13
3515 3516 -1.62044e-21
3516 3516 592
3523 3516 -7.36518e-17
3524 3516 -9.37563e-25
3525 3516 -2.53733e-24
3526 3516 -3.72049e-32
5749 3516 -1.65717e-16
5750 3516 -1.68919e-08
5859 3516 -2.7027e-09
3415 3517 -9.7e-06
3419 3517 -4.6e-06
3420 3517 -1e-05
3517 3517 592
3518 3517 -2.73723e-24
3523 3517 -7.36518e-17
3524 3517 -9.37563e-25
3525 3517 -2.53733e-24
3526 3517 -1.58372e-32
5749 3517 -1.65717e-16
5750 3517 -1.68919e-08
5859 3517 -2.7027e-09
3410 3518 -4.6e-06
3411 3518 -1e-05
3414 3518 -9.7e-06
3415 3518 -1.27297e-13
3517 3518 -1.62044e-21
3518 3518 592
3523 3518 -7.36518e-17
3524 3518 -9.37563e-25
3525 3518 -2.53733e-24
3526 3518 -3.72049e-32
5749 3518 -1.65717e-16
5750 3518 -1.68919e-08
5859 3518 -2.7027e-09
3401 3519 -9.7e-06
3405 3519 -4.6e-06
3406 3519 -1e-05
3519 3519 592
3520 3519 -2.73723e-24
3523 3519 -7.36518e-17
3524 3519 -9.37563e-25
3525 3519 -2.53733e-24
3526 3519 -1.58372e-32
5749 3519 -1.65717e-16
5750 3519 -1.68919e-08
5859 3519 -2.7027e-09
3396 3520 -4.6e-06
3397 3520 -1e-05
3400 3520 -9.7e-06
3401 3520 -1.27297e-13
3519 3520 -1.62044e-21
3520 3520 592
3523 3520 -7.36518e-17
3524 3520 -9.37563e-25
3525 3520 -2.53733e-24
3526 3520 -3.72049e-32
5749 3520 -1.65717e-16
5750 3520 -1.68919e-08
5859 3520 -2.7027e-09
3387 3521 -9.7e-06
3391 3521 -4.6e-06
3392 3521 -1e-05
3521 3521 592
3522 3521 -2.73723e-24
3523 3521 -7.36518e-17
3524 3521 -9.37563e-25
3525 3521 -2.53733e-24
3526 3521 -1.58372e-32
5749 3521 -1.65717e-16
5750 3521 -1.68919e-08
5859 3521 -2.7027e-09
3382 3522 -4.6e-06
3383 3522 -1e-05
3386 3522 -9.7e-06
3387 3522 -1.27297e-13
3521 3522 -1.62044e-21
3522 3522 592
3523 3522 -7.36518e-17
3524 3522 -9.37563e-25
3525 3522 -2.53733e-24
3526 3522 -3.72049e-32
5749 3522 -1.65717e-16
5750 3522 -1.68919e-08
5859 3522 -2.7027e-09
3374 3523 -2.1e-05
3375 3523 -3.4585e-14
3378 3523 -2.42095e-13
3382 3523 -4e-06
3383 3523 -9.29898e-22
3391 3523 -4e-06
3392 3523 -9.29898e-22
3396 3523 -4e-06
3397 3523 -9.29898e-22
3405 3523 -4e-06
3406 3523 -9.29898e-22
3410 3523 -4e-06
3411 3523 -9.29898e-22
3419 3523 -4e-06
3420 3523 -9.29898e-22
3424 3523 -4e-06
3425 3523 -9.29898e-22
3433 3523 -4e-06
3434 3523 -9.29898e-22
3438 3523 -4e-06
3439 3523 -9.29898e-22
3447 3523 -4e-06
3448 3523 -9.29898e-22
3452 3523 -4e-06
3453 3523 -9.29898e-22
3461 3523 -4e-06
3462 3523 -9.29898e-22
3466 3523 -4e-06
3467 3523 -9.29898e-22
3475 3523 -4e-06
3476 3523 -9.29898e-22
3480 3523 -4e-06
3481 3523 -9.29898e-22
3489 3523 -4e-06
3490 3523 -9.29898e-22
3494 3523 -4e-06
3495 3523 -9.29898e-22
3503 3523 -4e-06
3504 3523 -9.29898e-22
3505 3523 -4.36019e-14
3506 3523 -4.36019e-14
3507 3523 -4.36019e-14
3508 3523 -4.36019e-14
3509 3523 -4.36019e-14
3510 3523 -4.36019e-14
3511 3523 -4.36019e-14
3512 3523 -4.36019e-14
3513 3523 -4.36019e-14
3514 3523 -4.36019e-14
3515 3523 -4.36019e-14
3516 3523 -4.36019e-14
3517 3523 -4.36019e-14
3518 3523 -4.36019e-14
3519 3523 -4.36019e-14
3520 3523 -4.36019e-14
3521 3523 -4.36019e-14
3522 3523 -4.36019e-14
3523 3523 28401
3524 3523 -1.58445e-09
3525 3523 -5.12479e-25
3526 3523 -0
5749 3523 -5.40666e-17
5750 3523 -4.66791e-25
5763 3523 -6.35827e-31
5764 3523 -6.35827e-31
5859 3523 -7.46866e-26
3375 3524 -2.1e-05
3378 3524 -2.42095e-13
3384 3524 -4e-06
3385 3524 -4e-06
3386 3524 -4.36019e-14
3387 3524 -4.36019e-14
3398 3524 -4e-06
3399 3524 -4e-06
3400 3524 -4.36019e-14
3401 3524 -4.36019e-14
3412 3524 -4e-06
3413 3524 -4e-06
3414 3524 -4.36019e-14
3415 3524 -4.36019e-14
3426 3524 -4e-06
3427 3524 -4e-06
3428 3524 -4.36019e-14
3429 3524 -4.36019e-14
3440 3524 -4e-06
3441 3524 -4e-06
3442 3524 -4.36019e-14
3443 3524 -4.36019e-14
3454 3524 -4e-06
3455 3524 -4e-06
3456 3524 -4.36019e-14
3457 3524 -4.36019e-14
3468 3524 -4e-06
3469 3524 -4e-06
3470 3524 -4.36019e-14
3471 3524 -4.36019e-14
3482 3524 -4e-06
3483 3524 -4e-06
3484 3524 -4.36019e-14
3485 3524 -4.36019e-14
3496 3524 -4e-06
3497 3524 -4e-06
3498 3524 -4.36019e-14
3499 3524 -4.36019e-14
3505 3524 -5.55037e-22
3506 3524 -5.55037e-22
3507 3524 -5.55037e-22
3508 3524 -5.55037e-22
3509 3524 -5.55037e-22
3510 3524 -5.55037e-22
3511 3524 -5.55037e-22
3512 3524 -5.55037e-22
3513 3524 -5.55037e-22
3514 3524 -5.55037e-22
3515 3524 -5.55037e-22
3516 3524 -5.55037e-22
3517 3524 -5.55037e-22
3518 3524 -5.55037e-22
3519 3524 -5.55037e-22
3520 3524 -5.55037e-22
3521 3524 -5.55037e-22
3522 3524 -5.55037e-22
3523 3524 -4.5e-05
3524 3524 28571
3525 3524 -8.07167e-34
3526 3524 0
5749 3524 -5.37449e-17
5750 3524 -3.60493e-25
5763 3524 -6.32044e-31
5764 3524 -6.32044e-31
5859 3524 -5.7679e-26
3370 3525 -2.1e-05
3373 3525 -2.42095e-13
3381 3525 -4e-06
3382 3525 -8.5308e-14
3383 3525 -4.36019e-14
3390 3525 -4e-06
3391 3525 -8.5308e-14
3392 3525 -4.36019e-14
3395 3525 -4e-06
3396 3525 -8.5308e-14
3397 3525 -4.36019e-14
3404 3525 -4e-06
3405 3525 -8.5308e-14
3406 3525 -4.36019e-14
3409 3525 -4e-06
3410 3525 -8.5308e-14
3411 3525 -4.36019e-14
3418 3525 -4e-06
3419 3525 -8.5308e-14
3420 3525 -4.36019e-14
3423 3525 -4e-06
3424 3525 -8.5308e-14
3425 3525 -4.36019e-14
3432 3525 -4e-06
3433 3525 -8.5308e-14
3434 3525 -4.36019e-14
3437 3525 -4e-06
3438 3525 -8.5308e-14
3439 3525 -4.36019e-14
3446 3525 -4e-06
3447 3525 -8.5308e-14
3448 3525 -4.36019e-14
3451 3525 -4e-06
3452 3525 -8.5308e-14
3453 3525 -4.36019e-14
3460 3525 -4e-06
3461 3525 -8.5308e-14
3462 3525 -4.36019e-14
3465 3525 -4e-06
3466 3525 -8.5308e-14
3467 3525 -4.36019e-14
3474 3525 -4e-06
3475 3525 -8.5308e-14
3476 3525 -4.36019e-14
3479 3525 -4e-06
3480 3525 -8.5308e-14
3481 3525 -4.36019e-14
3488 3525 -4e-06
3489 3525 -8.5308e-14
3490 3525 -4.36019e-14
3493 3525 -4e-06
3494 3525 -8.5308e-14
3495 3525 -4.36019e-14
3502 3525 -4e-06
3503 3525 -8.5308e-14
3504 3525 -4.36019e-14
3505 3525 -1.5021e-21
3506 3525 -1.5021e-21
3507 3525 -1.5021e-21
3508 3525 -1.5021e-21
3509 3525 -1.5021e-21
3510 3525 -1.5021e-21
3511 3525 -1.5021e-21
3512 3525 -1.5021e-21
3513 3525 -1.5021e-21
3514 3525 -1.5021e-21
3515 3525 -1.5021e-21
3516 3525 -1.5021e-21
3517 3525 -1.5021e-21
3518 3525 -1.5021e-21
3519 3525 -1.5021e-21
3520 3525 -1.5021e-21
3521 3525 -1.5021e-21
3522 3525 -1.5021e-21
3523 3525 -1.45549e-20
3524 3525 -2.30616e-29
3525 3525 28571
3526 3525 -1.57502e-09
5749 3525 -5.37449e-17
5750 3525 -3.60493e-25
5763 3525 0
5764 3525 0
5765 3525 -6.32044e-31
5770 3525 -6.32044e-31
5859 3525 -5.7679e-26
3369 3526 -2.1e-05
3370 3526 -3.4585e-14
3373 3526 -2.42095e-13
3379 3526 -4e-06
3380 3526 -7.30159e-14
3383 3526 -1.67833e-21
3388 3526 -4e-06
3389 3526 -4.36019e-14
3392 3526 -7.14423e-22
3393 3526 -4e-06
3394 3526 -7.30159e-14
3397 3526 -1.67833e-21
3402 3526 -4e-06
3403 3526 -4.36019e-14
3406 3526 -7.14423e-22
3407 3526 -4e-06
3408 3526 -7.30159e-14
3411 3526 -1.67833e-21
3416 3526 -4e-06
3417 3526 -4.36019e-14
3420 3526 -7.14423e-22
3421 3526 -4e-06
3422 3526 -7.30159e-14
3425 3526 -1.67833e-21
3430 3526 -4e-06
3431 3526 -4.36019e-14
3434 3526 -7.14423e-22
3435 3526 -4e-06
3436 3526 -7.30159e-14
3439 3526 -1.67833e-21
3444 3526 -4e-06
3445 3526 -4.36019e-14
3448 3526 -7.14423e-22
3449 3526 -4e-06
3450 3526 -7.30159e-14
3453 3526 -1.67833e-21
3458 3526 -4e-06
3459 3526 -4.36019e-14
3462 3526 -7.14423e-22
3463 3526 -4e-06
3464 3526 -7.30159e-14
3467 3526 -1.67833e-21
3472 3526 -4e-06
3473 3526 -4.36019e-14
3476 3526 -7.14423e-22
3477 3526 -4e-06
3478 3526 -7.30159e-14
3481 3526 -1.67833e-21
3486 3526 -4e-06
3487 3526 -4.36019e-14
3490 3526 -7.14423e-22
3491 3526 -4e-06
3492 3526 -7.30159e-14
3495 3526 -1.67833e-21
3500 3526 -4e-06
3501 3526 -4.36019e-14
3504 3526 -7.14423e-22
3505 3526 -9.37563e-30
3506 3526 -2.20253e-29
3507 3526 -9.37563e-30
3508 3526 -2.20253e-29
3509 3526 -9.37563e-30
3510 3526 -2.20253e-29
3511 3526 -9.37563e-30
3512 3526 -2.20253e-29
3513 3526 -9.37563e-30
3514 3526 -2.20253e-29
3515 3526 -9.37563e-30
3516 3526 -2.20253e-29
3517 3526 -9.37563e-30
3518 3526 -2.20253e-29
3519 3526 -9.37563e-30
3520 3526 -2.20253e-29
3521 3526 -9.37563e-30
3522 3526 -2.20253e-29
3523 3526 -3.78351e-44
3524 3526 0
3525 3526 -4.5e-05
3526 3526 28401
5749 3526 -7.23033e-17
5750 3526 -7.8169e-25
5763 3526 0
5764 3526 0
5765 3526 -6.35827e-31
5770 3526 -6.35827e-31
5859 3526 -1.2507e-25
3527 3527 3643.2
3528 3527 -1.6469e-09
3531 3527 -1.15283e-08
3684 3527 -5.76416e-09
3527 3528 -6e-06
3528 3528 3643.2
3531 3528 -1.15283e-08
3683 3528 -5.76416e-09
3684 3528 -9.49302e-18
3529 3529 170
3531 3529 -7.05881e-07
5765 3529 -7.05881e-07
3530 3530 170
3531 3530 -7.05881e-07
5770 3530 -7.05881e-07
3527 3531 -4.2e-05
3528 3531 -4.2e-05
3529 3531 -0.00012
3530 3531 -0.00012
3531 3531 1135.6
3683 3531 -2.13187e-16
3684 3531 -2.13187e-16
5765 3531 -7.45912e-14
5770 3531 -7.45912e-14
3532 3532 3643.2
3533 3532 -1.6469e-09
3536 3532 -1.15283e-08
3681 3532 -5.76416e-09
3532 3533 -6e-06
3533 3533 3643.2
3536 3533 -1.15283e-08
3681 3533 -9.49302e-18
3682 3533 -5.76416e-09
3534 3534 170
3536 3534 -7.05881e-07
5764 3534 -7.05881e-07
3535 3535 170
3536 3535 -7.05881e-07
5763 3535 -7.05881e-07
3532 3536 -4.2e-05
3533 3536 -4.2e-05
3534 3536 -0.00012
3535 3536 -0.00012
3536 3536 1135.6
3681 3536 -2.13187e-16
3682 3536 -2.13187e-16
5763 3536 -7.45912e-14
5764 3536 -7.45912e-14
3537 3537 252
3538 3537 -1.8254e-08
3684 3537 -1.5873e-08
5751 3537 -3.57143e-08
3537 3538 -4.6e-06
3538 3538 422
3541 3538 -2.29858e-08
3684 3538 -1.73023e-16
5751 3538 -3.89303e-16
5752 3538 -2.36967e-08
5859 3538 -3.79147e-09
3539 3539 422
3540 3539 -2.1327e-08
3541 3539 -1.09005e-08
3683 3539 -9.47867e-09
5751 3539 -2.1327e-08
3539 3540 -9e-06
3540 3540 422
3541 3540 -2.32475e-16
3680 3540 -1.09005e-08
3681 3540 -9.47867e-09
3683 3540 -2.02152e-16
5751 3540 -2.1327e-08
3538 3541 -9.7e-06
3539 3541 -4.6e-06
3540 3541 -9.81043e-14
3541 3541 762
3680 3541 -1.31234e-08
3681 3541 -1.22034e-24
3683 3541 -5.72203e-17
3684 3541 -2.20253e-24
5751 3541 -1.28746e-16
5752 3541 -1.31234e-08
5859 3541 -2.09974e-09
3542 3542 422
3543 3542 -2.1327e-08
3545 3542 -1.09005e-08
3682 3542 -9.47867e-09
5751 3542 -2.1327e-08
3542 3543 -9e-06
3543 3543 422
3544 3543 -1.09005e-08
3545 3543 -2.32475e-16
3682 3543 -9.47867e-09
5751 3543 -2.1327e-08
3543 3544 -4.6e-06
3544 3544 762
3545 3544 -1.31234e-08
3680 3544 -1.27297e-08
3682 3544 -5.72203e-17
5751 3544 -1.28746e-16
5752 3544 -1.31234e-08
5859 3544 -2.09974e-09
3542 3545 -4.6e-06
3543 3545 -9.81043e-14
3544 3545 -1e-05
3545 3545 762
3679 3545 -1.27297e-08
3680 3545 -1.67056e-16
3682 3545 -5.72203e-17
5751 3545 -1.28746e-16
5752 3545 -1.31234e-08
5859 3545 -2.09974e-09
3546 3546 422
3547 3546 -1.09005e-08
3684 3546 -9.47867e-09
5751 3546 -2.1327e-08
3546 3547 -4.6e-06
3547 3547 592
3550 3547 -1.63851e-08
3684 3547 -7.36518e-17
5751 3547 -1.65717e-16
5752 3547 -1.68919e-08
5859 3547 -2.7027e-09
3548 3548 422
3549 3548 -2.1327e-08
3550 3548 -1.09005e-08
3683 3548 -9.47867e-09
5751 3548 -2.1327e-08
3548 3549 -9e-06
3549 3549 422
3550 3549 -2.32475e-16
3679 3549 -1.09005e-08
3681 3549 -9.47867e-09
3683 3549 -2.02152e-16
5751 3549 -2.1327e-08
3547 3550 -9.7e-06
3548 3550 -4.6e-06
3549 3550 -9.81043e-14
3550 3550 762
3679 3550 -1.31234e-08
3681 3550 -1.22034e-24
3683 3550 -5.72203e-17
3684 3550 -9.37563e-25
5751 3550 -1.28746e-16
5752 3550 -1.31234e-08
5859 3550 -2.09974e-09
3551 3551 252
3552 3551 -1.8254e-08
3684 3551 -1.5873e-08
5751 3551 -3.57143e-08
3551 3552 -4.6e-06
3552 3552 422
3555 3552 -2.29858e-08
3684 3552 -1.73023e-16
5751 3552 -3.89303e-16
5752 3552 -2.36967e-08
5859 3552 -3.79147e-09
3553 3553 422
3554 3553 -2.1327e-08
3555 3553 -1.09005e-08
3683 3553 -9.47867e-09
5751 3553 -2.1327e-08
3553 3554 -9e-06
3554 3554 422
3555 3554 -2.32475e-16
3678 3554 -1.09005e-08
3681 3554 -9.47867e-09
3683 3554 -2.02152e-16
5751 3554 -2.1327e-08
3552 3555 -9.7e-06
3553 3555 -4.6e-06
3554 3555 -9.81043e-14
3555 3555 762
3678 3555 -1.31234e-08
3681 3555 -1.22034e-24
3683 3555 -5.72203e-17
3684 3555 -2.20253e-24
5751 3555 -1.28746e-16
5752 3555 -1.31234e-08
5859 3555 -2.09974e-09
3556 3556 422
3557 3556 -2.1327e-08
3559 3556 -1.09005e-08
3682 3556 -9.47867e-09
5751 3556 -2.1327e-08
3556 3557 -9e-06
3557 3557 422
3558 3557 -1.09005e-08
3559 3557 -2.32475e-16
3682 3557 -9.47867e-09
5751 3557 -2.1327e-08
3557 3558 -4.6e-06
3558 3558 762
3559 3558 -1.31234e-08
3678 3558 -1.27297e-08
3682 3558 -5.72203e-17
5751 3558 -1.28746e-16
5752 3558 -1.31234e-08
5859 3558 -2.09974e-09
3556 3559 -4.6e-06
3557 3559 -9.81043e-14
3558 3559 -1e-05
3559 3559 762
3677 3559 -1.27297e-08
3678 3559 -1.67056e-16
3682 3559 -5.72203e-17
5751 3559 -1.28746e-16
5752 3559 -1.31234e-08
5859 3559 -2.09974e-09
3560 3560 422
3561 3560 -1.09005e-08
3684 3560 -9.47867e-09
5751 3560 -2.1327e-08
3560 3561 -4.6e-06
3561 3561 592
3564 3561 -1.63851e-08
3684 3561 -7.36518e-17
5751 3561 -1.65717e-16
5752 3561 -1.68919e-08
5859 3561 -2.7027e-09
3562 3562 422
3563 3562 -2.1327e-08
3564 3562 -1.09005e-08
3683 3562 -9.47867e-09
5751 3562 -2.1327e-08
3562 3563 -9e-06
3563 3563 422
3564 3563 -2.32475e-16
3677 3563 -1.09005e-08
3681 3563 -9.47867e-09
3683 3563 -2.02152e-16
5751 3563 -2.1327e-08
3561 3564 -9.7e-06
3562 3564 -4.6e-06
3563 3564 -9.81043e-14
3564 3564 762
3677 3564 -1.31234e-08
3681 3564 -1.22034e-24
3683 3564 -5.72203e-17
3684 3564 -9.37563e-25
5751 3564 -1.28746e-16
5752 3564 -1.31234e-08
5859 3564 -2.09974e-09
3565 3565 252
3566 3565 -1.8254e-08
3684 3565 -1.5873e-08
5751 3565 -3.57143e-08
3565 3566 -4.6e-06
3566 3566 422
3569 3566 -2.29858e-08
3684 3566 -1.73023e-16
5751 3566 -3.89303e-16
5752 3566 -2.36967e-08
5859 3566 -3.79147e-09
3567 3567 422
3568 3567 -2.1327e-08
3569 3567 -1.09005e-08
3683 3567 -9.47867e-09
5751 3567 -2.1327e-08
3567 3568 -9e-06
3568 3568 422
3569 3568 -2.32475e-16
3676 3568 -1.09005e-08
3681 3568 -9.47867e-09
3683 3568 -2.02152e-16
5751 3568 -2.1327e-08
3566 3569 -9.7e-06
3567 3569 -4.6e-06
3568 3569 -9.81043e-14
3569 3569 762
3676 3569 -1.31234e-08
3681 3569 -1.22034e-24
3683 3569 -5.72203e-17
3684 3569 -2.20253e-24
5751 3569 -1.28746e-16
5752 3569 -1.31234e-08
5859 3569 -2.09974e-09
3570 3570 422
3571 3570 -2.1327e-08
3573 3570 -1.09005e-08
3682 3570 -9.47867e-09
5751 3570 -2.1327e-08
3570 3571 -9e-06
3571 3571 422
3572 3571 -1.09005e-08
3573 3571 -2.32475e-16
3682 3571 -9.47867e-09
5751 3571 -2.1327e-08
3571 3572 -4.6e-06
3572 3572 762
3573 3572 -1.31234e-08
3676 3572 -1.27297e-08
3682 3572 -5.72203e-17
5751 3572 -1.28746e-16
5752 3572 -1.31234e-08
5859 3572 -2.09974e-09
3570 3573 -4.6e-06
3571 3573 -9.81043e-14
3572 3573 -1e-05
3573 3573 762
3675 3573 -1.27297e-08
3676 3573 -1.67056e-16
3682 3573 -5.72203e-17
5751 3573 -1.28746e-16
5752 3573 -1.31234e-08
5859 3573 -2.09974e-09
3574 3574 422
3575 3574 -1.09005e-08
3684 3574 -9.47867e-09
5751 3574 -2.1327e-08
3574 3575 -4.6e-06
3575 3575 592
3578 3575 -1.63851e-08
3684 3575 -7.36518e-17
5751 3575 -1.65717e-16
5752 3575 -1.68919e-08
5859 3575 -2.7027e-09
3576 3576 422
3577 3576 -2.1327e-08
3578 3576 -1.09005e-08
3683 3576 -9.47867e-09
5751 3576 -2.1327e-08
3576 3577 -9e-06
3577 3577 422
3578 3577 -2.32475e-16
3675 3577 -1.09005e-08
3681 3577 -9.47867e-09
3683 3577 -2.02152e-16
5751 3577 -2.1327e-08
3575 3578 -9.7e-06
3576 3578 -4.6e-06
3577 3578 -9.81043e-14
3578 3578 762
3675 3578 -1.31234e-08
3681 3578 -1.22034e-24
3683 3578 -5.72203e-17
3684 3578 -9.37563e-25
5751 3578 -1.28746e-16
5752 3578 -1.31234e-08
5859 3578 -2.09974e-09
3579 3579 252
3580 3579 -1.8254e-08
3684 3579 -1.5873e-08
5751 3579 -3.57143e-08
3579 3580 -4.6e-06
3580 3580 422
3583 3580 -2.29858e-08
3684 3580 -1.73023e-16
5751 3580 -3.89303e-16
5752 3580 -2.36967e-08
5859 3580 -3.79147e-09
3581 3581 422
3582 3581 -2.1327e-08
3583 3581 -1.09005e-08
3683 3581 -9.47867e-09
5751 3581 -2.1327e-08
3581 3582 -9e-06
3582 3582 422
3583 3582 -2.32475e-16
3674 3582 -1.09005e-08
3681 3582 -9.47867e-09
3683 3582 -2.02152e-16
5751 3582 -2.1327e-08
3580 3583 -9.7e-06
3581 3583 -4.6e-06
3582 3583 -9.81043e-14
3583 3583 762
3674 3583 -1.31234e-08
3681 3583 -1.22034e-24
3683 3583 -5.72203e-17
3684 3583 -2.20253e-24
5751 3583 -1.28746e-16
5752 3583 -1.31234e-08
5859 3583 -2.09974e-09
3584 3584 422
3585 3584 -2.1327e-08
3587 3584 -1.09005e-08
3682 3584 -9.47867e-09
5751 3584 -2.1327e-08
3584 3585 -9e-06
3585 3585 422
3586 3585 -1.09005e-08
3587 3585 -2.32475e-16
3682 3585 -9.47867e-09
5751 3585 -2.1327e-08
3585 3586 -4.6e-06
3586 3586 762
3587 3586 -1.31234e-08
3674 3586 -1.27297e-08
3682 3586 -5.72203e-17
5751 3586 -1.28746e-16
5752 3586 -1.31234e-08
5859 3586 -2.09974e-09
3584 3587 -4.6e-06
3585 3587 -9.81043e-14
3586 3587 -1e-05
3587 3587 762
3673 3587 -1.27297e-08
3674 3587 -1.67056e-16
3682 3587 -5.72203e-17
5751 3587 -1.28746e-16
5752 3587 -1.31234e-08
5859 3587 -2.09974e-09
3588 3588 422
3589 3588 -1.09005e-08
3684 3588 -9.47867e-09
5751 3588 -2.1327e-08
3588 3589 -4.6e-06
3589 3589 592
3592 3589 -1.63851e-08
3684 3589 -7.36518e-17
5751 3589 -1.65717e-16
5752 3589 -1.68919e-08
5859 3589 -2.7027e-09
3590 3590 422
3591 3590 -2.1327e-08
3592 3590 -1.09005e-08
3683 3590 -9.47867e-09
5751 3590 -2.1327e-08
3590 3591 -9e-06
3591 3591 422
3592 3591 -2.32475e-16
3673 3591 -1.09005e-08
3681 3591 -9.47867e-09
3683 3591 -2.02152e-16
5751 3591 -2.1327e-08
3589 3592 -9.7e-06
3590 3592 -4.6e-06
3591 3592 -9.81043e-14
3592 3592 762
3673 3592 -1.31234e-08
3681 3592 -1.22034e-24
3683 3592 -5.72203e-17
3684 3592 -9.37563e-25
5751 3592 -1.28746e-16
5752 3592 -1.31234e-08
5859 3592 -2.09974e-09
3593 3593 252
3594 3593 -1.8254e-08
3684 3593 -1.5873e-08
5751 3593 -3.57143e-08
3593 3594 -4.6e-06
3594 3594 422
3597 3594 -2.29858e-08
3684 3594 -1.73023e-16
5751 3594 -3.89303e-16
5752 3594 -2.36967e-08
5859 3594 -3.79147e-09
3595 3595 422
3596 3595 -2.1327e-08
3597 3595 -1.09005e-08
3683 3595 -9.47867e-09
5751 3595 -2.1327e-08
3595 3596 -9e-06
3596 3596 422
3597 3596 -2.32475e-16
3672 3596 -1.09005e-08
3681 3596 -9.47867e-09
3683 3596 -2.02152e-16
5751 3596 -2.1327e-08
3594 3597 -9.7e-06
3595 3597 -4.6e-06
3596 3597 -9.81043e-14
3597 3597 762
3672 3597 -1.31234e-08
3681 3597 -1.22034e-24
3683 3597 -5.72203e-17
3684 3597 -2.20253e-24
5751 3597 -1.28746e-16
5752 3597 -1.31234e-08
5859 3597 -2.09974e-09
3598 3598 422
3599 3598 -2.1327e-08
3601 3598 -1.09005e-08
3682 3598 -9.47867e-09
5751 3598 -2.1327e-08
3598 3599 -9e-06
3599 3599 422
3600 3599 -1.09005e-08
3601 3599 -2.32475e-16
3682 3599 -9.47867e-09
5751 3599 -2.1327e-08
3599 3600 -4.6e-06
3600 3600 762
3601 3600 -1.31234e-08
3672 3600 -1.27297e-08
3682 3600 -5.72203e-17
5751 3600 -1.28746e-16
5752 3600 -1.31234e-08
5859 3600 -2.09974e-09
3598 3601 -4.6e-06
3599 3601 -9.81043e-14
3600 3601 -1e-05
3601 3601 762
3671 3601 -1.27297e-08
3672 3601 -1.67056e-16
3682 3601 -5.72203e-17
5751 3601 -1.28746e-16
5752 3601 -1.31234e-08
5859 3601 -2.09974e-09
3602 3602 422
3603 3602 -1.09005e-08
3684 3602 -9.47867e-09
5751 3602 -2.1327e-08
3602 3603 -4.6e-06
3603 3603 592
3606 3603 -1.63851e-08
3684 3603 -7.36518e-17
5751 3603 -1.65717e-16
5752 3603 -1.68919e-08
5859 3603 -2.7027e-09
3604 3604 422
3605 3604 -2.1327e-08
3606 3604 -1.09005e-08
3683 3604 -9.47867e-09
5751 3604 -2.1327e-08
3604 3605 -9e-06
3605 3605 422
3606 3605 -2.32475e-16
3671 3605 -1.09005e-08
3681 3605 -9.47867e-09
3683 3605 -2.02152e-16
5751 3605 -2.1327e-08
3603 3606 -9.7e-06
3604 3606 -4.6e-06
3605 3606 -9.81043e-14
3606 3606 762
3671 3606 -1.31234e-08
3681 3606 -1.22034e-24
3683 3606 -5.72203e-17
3684 3606 -9.37563e-25
5751 3606 -1.28746e-16
5752 3606 -1.31234e-08
5859 3606 -2.09974e-09
3607 3607 252
3608 3607 -1.8254e-08
3684 3607 -1.5873e-08
5751 3607 -3.57143e-08
3607 3608 -4.6e-06
3608 3608 422
3611 3608 -2.29858e-08
3684 3608 -1.73023e-16
5751 3608 -3.89303e-16
5752 3608 -2.36967e-08
5859 3608 -3.79147e-09
3609 3609 422
3610 3609 -2.1327e-08
3611 3609 -1.09005e-08
3683 3609 -9.47867e-09
5751 3609 -2.1327e-08
3609 3610 -9e-06
3610 3610 422
3611 3610 -2.32475e-16
3670 3610 -1.09005e-08
3681 3610 -9.47867e-09
3683 3610 -2.02152e-16
5751 3610 -2.1327e-08
3608 3611 -9.7e-06
3609 3611 -4.6e-06
3610 3611 -9.81043e-14
3611 3611 762
3670 3611 -1.31234e-08
3681 3611 -1.22034e-24
3683 3611 -5.72203e-17
3684 3611 -2.20253e-24
5751 3611 -1.28746e-16
5752 3611 -1.31234e-08
5859 3611 -2.09974e-09
3612 3612 422
3613 3612 -2.1327e-08
3615 3612 -1.09005e-08
3682 3612 -9.47867e-09
5751 3612 -2.1327e-08
3612 3613 -9e-06
3613 3613 422
3614 3613 -1.09005e-08
3615 3613 -2.32475e-16
3682 3613 -9.47867e-09
5751 3613 -2.1327e-08
3613 3614 -4.6e-06
3614 3614 762
3615 3614 -1.31234e-08
3670 3614 -1.27297e-08
3682 3614 -5.72203e-17
5751 3614 -1.28746e-16
5752 3614 -1.31234e-08
5859 3614 -2.09974e-09
3612 3615 -4.6e-06
3613 3615 -9.81043e-14
3614 3615 -1e-05
3615 3615 762
3669 3615 -1.27297e-08
3670 3615 -1.67056e-16
3682 3615 -5.72203e-17
5751 3615 -1.28746e-16
5752 3615 -1.31234e-08
5859 3615 -2.09974e-09
3616 3616 422
3617 3616 -1.09005e-08
3684 3616 -9.47867e-09
5751 3616 -2.1327e-08
3616 3617 -4.6e-06
3617 3617 592
3620 3617 -1.63851e-08
3684 3617 -7.36518e-17
5751 3617 -1.65717e-16
5752 3617 -1.68919e-08
5859 3617 -2.7027e-09
3618 3618 422
3619 3618 -2.1327e-08
3620 3618 -1.09005e-08
3683 3618 -9.47867e-09
5751 3618 -2.1327e-08
3618 3619 -9e-06
3619 3619 422
3620 3619 -2.32475e-16
3669 3619 -1.09005e-08
3681 3619 -9.47867e-09
3683 3619 -2.02152e-16
5751 3619 -2.1327e-08
3617 3620 -9.7e-06
3618 3620 -4.6e-06
3619 3620 -9.81043e-14
3620 3620 762
3669 3620 -1.31234e-08
3681 3620 -1.22034e-24
3683 3620 -5.72203e-17
3684 3620 -9.37563e-25
5751 3620 -1.28746e-16
5752 3620 -1.31234e-08
5859 3620 -2.09974e-09
3621 3621 252
3622 3621 -1.8254e-08
3684 3621 -1.5873e-08
5751 3621 -3.57143e-08
3621 3622 -4.6e-06
3622 3622 422
3625 3622 -2.29858e-08
3684 3622 -1.73023e-16
5751 3622 -3.89303e-16
5752 3622 -2.36967e-08
5859 3622 -3.79147e-09
3623 3623 422
3624 3623 -2.1327e-08
3625 3623 -1.09005e-08
3683 3623 -9.47867e-09
5751 3623 -2.1327e-08
3623 3624 -9e-06
3624 3624 422
3625 3624 -2.32475e-16
3668 3624 -1.09005e-08
3681 3624 -9.47867e-09
3683 3624 -2.02152e-16
5751 3624 -2.1327e-08
3622 3625 -9.7e-06
3623 3625 -4.6e-06
3624 3625 -9.81043e-14
3625 3625 762
3668 3625 -1.31234e-08
3681 3625 -1.22034e-24
3683 3625 -5.72203e-17
3684 3625 -2.20253e-24
5751 3625 -1.28746e-16
5752 3625 -1.31234e-08
5859 3625 -2.09974e-09
3626 3626 422
3627 3626 -2.1327e-08
3629 3626 -1.09005e-08
3682 3626 -9.47867e-09
5751 3626 -2.1327e-08
3626 3627 -9e-06
3627 3627 422
3628 3627 -1.09005e-08
3629 3627 -2.32475e-16
3682 3627 -9.47867e-09
5751 3627 -2.1327e-08
3627 3628 -4.6e-06
3628 3628 762
3629 3628 -1.31234e-08
3668 3628 -1.27297e-08
3682 3628 -5.72203e-17
5751 3628 -1.28746e-16
5752 3628 -1.31234e-08
5859 3628 -2.09974e-09
3626 3629 -4.6e-06
3627 3629 -9.81043e-14
3628 3629 -1e-05
3629 3629 762
3667 3629 -1.27297e-08
3668 3629 -1.67056e-16
3682 3629 -5.72203e-17
5751 3629 -1.28746e-16
5752 3629 -1.31234e-08
5859 3629 -2.09974e-09
3630 3630 422
3631 3630 -1.09005e-08
3684 3630 -9.47867e-09
5751 3630 -2.1327e-08
3630 3631 -4.6e-06
3631 3631 592
3634 3631 -1.63851e-08
3684 3631 -7.36518e-17
5751 3631 -1.65717e-16
5752 3631 -1.68919e-08
5859 3631 -2.7027e-09
3632 3632 422
3633 3632 -2.1327e-08
3634 3632 -1.09005e-08
3683 3632 -9.47867e-09
5751 3632 -2.1327e-08
3632 3633 -9e-06
3633 3633 422
3634 3633 -2.32475e-16
3667 3633 -1.09005e-08
3681 3633 -9.47867e-09
3683 3633 -2.02152e-16
5751 3633 -2.1327e-08
3631 3634 -9.7e-06
3632 3634 -4.6e-06
3633 3634 -9.81043e-14
3634 3634 762
3667 3634 -1.31234e-08
3681 3634 -1.22034e-24
3683 3634 -5.72203e-17
3684 3634 -9.37563e-25
5751 3634 -1.28746e-16
5752 3634 -1.31234e-08
5859 3634 -2.09974e-09
3635 3635 252
3636 3635 -1.8254e-08
3684 3635 -1.5873e-08
5751 3635 -3.57143e-08
3635 3636 -4.6e-06
3636 3636 422
3639 3636 -2.29858e-08
3684 3636 -1.73023e-16
5751 3636 -3.89303e-16
5752 3636 -2.36967e-08
5859 3636 -3.79147e-09
3637 3637 422
3638 3637 -2.1327e-08
3639 3637 -1.09005e-08
3683 3637 -9.47867e-09
5751 3637 -2.1327e-08
3637 3638 -9e-06
3638 3638 422
3639 3638 -2.32475e-16
3666 3638 -1.09005e-08
3681 3638 -9.47867e-09
3683 3638 -2.02152e-16
5751 3638 -2.1327e-08
3636 3639 -9.7e-06
3637 3639 -4.6e-06
3638 3639 -9.81043e-14
3639 3639 762
3666 3639 -1.31234e-08
3681 3639 -1.22034e-24
3683 3639 -5.72203e-17
3684 3639 -2.20253e-24
5751 3639 -1.28746e-16
5752 3639 -1.31234e-08
5859 3639 -2.09974e-09
3640 3640 422
3641 3640 -2.1327e-08
3643 3640 -1.09005e-08
3682 3640 -9.47867e-09
5751 3640 -2.1327e-08
3640 3641 -9e-06
3641 3641 422
3642 3641 -1.09005e-08
3643 3641 -2.32475e-16
3682 3641 -9.47867e-09
5751 3641 -2.1327e-08
3641 3642 -4.6e-06
3642 3642 762
3643 3642 -1.31234e-08
3666 3642 -1.27297e-08
3682 3642 -5.72203e-17
5751 3642 -1.28746e-16
5752 3642 -1.31234e-08
5859 3642 -2.09974e-09
3640 3643 -4.6e-06
3641 3643 -9.81043e-14
3642 3643 -1e-05
3643 3643 762
3665 3643 -1.27297e-08
3666 3643 -1.67056e-16
3682 3643 -5.72203e-17
5751 3643 -1.28746e-16
5752 3643 -1.31234e-08
5859 3643 -2.09974e-09
3644 3644 422
3645 3644 -1.09005e-08
3684 3644 -9.47867e-09
5751 3644 -2.1327e-08
3644 3645 -4.6e-06
3645 3645 592
3648 3645 -1.63851e-08
3684 3645 -7.36518e-17
5751 3645 -1.65717e-16
5752 3645 -1.68919e-08
5859 3645 -2.7027e-09
3646 3646 422
3647 3646 -2.1327e-08
3648 3646 -1.09005e-08
3683 3646 -9.47867e-09
5751 3646 -2.1327e-08
3646 3647 -9e-06
3647 3647 422
3648 3647 -2.32475e-16
3665 3647 -1.09005e-08
3681 3647 -9.47867e-09
3683 3647 -2.02152e-16
5751 3647 -2.1327e-08
3645 3648 -9.7e-06
3646 3648 -4.6e-06
3647 3648 -9.81043e-14
3648 3648 762
3665 3648 -1.31234e-08
3681 3648 -1.22034e-24
3683 3648 -5.72203e-17
3684 3648 -9.37563e-25
5751 3648 -1.28746e-16
5752 3648 -1.31234e-08
5859 3648 -2.09974e-09
3649 3649 252
3650 3649 -1.8254e-08
3684 3649 -1.5873e-08
5751 3649 -3.57143e-08
3649 3650 -4.6e-06
3650 3650 422
3653 3650 -2.29858e-08
3684 3650 -1.73023e-16
5751 3650 -3.89303e-16
5752 3650 -2.36967e-08
5859 3650 -3.79147e-09
3651 3651 422
3652 3651 -2.1327e-08
3653 3651 -1.09005e-08
3683 3651 -9.47867e-09
5751 3651 -2.1327e-08
3651 3652 -9e-06
3652 3652 422
3653 3652 -2.32475e-16
3664 3652 -1.09005e-08
3681 3652 -9.47867e-09
3683 3652 -2.02152e-16
5751 3652 -2.1327e-08
3650 3653 -9.7e-06
3651 3653 -4.6e-06
3652 3653 -9.81043e-14
3653 3653 762
3664 3653 -1.31234e-08
3681 3653 -1.22034e-24
3683 3653 -5.72203e-17
3684 3653 -2.20253e-24
5751 3653 -1.28746e-16
5752 3653 -1.31234e-08
5859 3653 -2.09974e-09
3654 3654 422
3655 3654 -2.1327e-08
3657 3654 -1.09005e-08
3682 3654 -9.47867e-09
5751 3654 -2.1327e-08
3654 3655 -9e-06
3655 3655 422
3656 3655 -1.09005e-08
3657 3655 -2.32475e-16
3682 3655 -9.47867e-09
5751 3655 -2.1327e-08
3655 3656 -4.6e-06
3656 3656 762
3657 3656 -1.31234e-08
3664 3656 -1.27297e-08
3682 3656 -5.72203e-17
5751 3656 -1.28746e-16
5752 3656 -1.31234e-08
5859 3656 -2.09974e-09
3654 3657 -4.6e-06
3655 3657 -9.81043e-14
3656 3657 -1e-05
3657 3657 762
3663 3657 -1.27297e-08
3664 3657 -1.67056e-16
3682 3657 -5.72203e-17
5751 3657 -1.28746e-16
5752 3657 -1.31234e-08
5859 3657 -2.09974e-09
3658 3658 422
3659 3658 -1.09005e-08
3684 3658 -9.47867e-09
5751 3658 -2.1327e-08
3658 3659 -4.6e-06
3659 3659 592
3662 3659 -1.63851e-08
3684 3659 -7.36518e-17
5751 3659 -1.65717e-16
5752 3659 -1.68919e-08
5859 3659 -2.7027e-09
3660 3660 422
3661 3660 -2.1327e-08
3662 3660 -1.09005e-08
3683 3660 -9.47867e-09
5751 3660 -2.1327e-08
3660 3661 -9e-06
3661 3661 422
3662 3661 -2.32475e-16
3663 3661 -1.09005e-08
3681 3661 -9.47867e-09
3683 3661 -2.02152e-16
5751 3661 -2.1327e-08
3659 3662 -9.7e-06
3660 3662 -4.6e-06
3661 3662 -9.81043e-14
3662 3662 762
3663 3662 -1.31234e-08
3681 3662 -1.22034e-24
3683 3662 -5.72203e-17
3684 3662 -9.37563e-25
5751 3662 -1.28746e-16
5752 3662 -1.31234e-08
5859 3662 -2.09974e-09
3657 3663 -9.7e-06
3661 3663 -4.6e-06
3662 3663 -1e-05
3663 3663 592
3664 3663 -2.73723e-24
3681 3663 -7.36518e-17
3682 3663 -9.37563e-25
3683 3663 -2.53733e-24
3684 3663 -1.58372e-32
5751 3663 -1.65717e-16
5752 3663 -1.68919e-08
5859 3663 -2.7027e-09
3652 3664 -4.6e-06
3653 3664 -1e-05
3656 3664 -9.7e-06
3657 3664 -1.27297e-13
3663 3664 -1.62044e-21
3664 3664 592
3681 3664 -7.36518e-17
3682 3664 -9.37563e-25
3683 3664 -2.53733e-24
3684 3664 -3.72049e-32
5751 3664 -1.65717e-16
5752 3664 -1.68919e-08
5859 3664 -2.7027e-09
3643 3665 -9.7e-06
3647 3665 -4.6e-06
3648 3665 -1e-05
3665 3665 592
3666 3665 -2.73723e-24
3681 3665 -7.36518e-17
3682 3665 -9.37563e-25
3683 3665 -2.53733e-24
3684 3665 -1.58372e-32
5751 3665 -1.65717e-16
5752 3665 -1.68919e-08
5859 3665 -2.7027e-09
3638 3666 -4.6e-06
3639 3666 -1e-05
3642 3666 -9.7e-06
3643 3666 -1.27297e-13
3665 3666 -1.62044e-21
3666 3666 592
3681 3666 -7.36518e-17
3682 3666 -9.37563e-25
3683 3666 -2.53733e-24
3684 3666 -3.72049e-32
5751 3666 -1.65717e-16
5752 3666 -1.68919e-08
5859 3666 -2.7027e-09
3629 3667 -9.7e-06
3633 3667 -4.6e-06
3634 3667 -1e-05
3667 3667 592
3668 3667 -2.73723e-24
3681 3667 -7.36518e-17
3682 3667 -9.37563e-25
3683 3667 -2.53733e-24
3684 3667 -1.58372e-32
5751 3667 -1.65717e-16
5752 3667 -1.68919e-08
5859 3667 -2.7027e-09
3624 3668 -4.6e-06
3625 3668 -1e-05
3628 3668 -9.7e-06
3629 3668 -1.27297e-13
3667 3668 -1.62044e-21
3668 3668 592
3681 3668 -7.36518e-17
3682 3668 -9.37563e-25
3683 3668 -2.53733e-24
3684 3668 -3.72049e-32
5751 3668 -1.65717e-16
5752 3668 -1.68919e-08
5859 3668 -2.7027e-09
3615 3669 -9.7e-06
3619 3669 -4.6e-06
3620 3669 -1e-05
3669 3669 592
3670 3669 -2.73723e-24
3681 3669 -7.36518e-17
3682 3669 -9.37563e-25
3683 3669 -2.53733e-24
3684 3669 -1.58372e-32
5751 3669 -1.65717e-16
5752 3669 -1.68919e-08
5859 3669 -2.7027e-09
3610 3670 -4.6e-06
3611 3670 -1e-05
3614 3670 -9.7e-06
3615 3670 -1.27297e-13
3669 3670 -1.62044e-21
3670 3670 592
3681 3670 -7.36518e-17
3682 3670 -9.37563e-25
3683 3670 -2.53733e-24
3684 3670 -3.72049e-32
5751 3670 -1.65717e-16
5752 3670 -1.68919e-08
5859 3670 -2.7027e-09
3601 3671 -9.7e-06
3605 3671 -4.6e-06
3606 3671 -1e-05
3671 3671 592
3672 3671 -2.73723e-24
3681 3671 -7.36518e-17
3682 3671 -9.37563e-25
3683 3671 -2.53733e-24
3684 3671 -1.58372e-32
5751 3671 -1.65717e-16
5752 3671 -1.68919e-08
5859 3671 -2.7027e-09
3596 3672 -4.6e-06
3597 3672 -1e-05
3600 3672 -9.7e-06
3601 3672 -1.27297e-13
3671 3672 -1.62044e-21
3672 3672 592
3681 3672 -7.36518e-17
3682 3672 -9.37563e-25
3683 3672 -2.53733e-24
3684 3672 -3.72049e-32
5751 3672 -1.65717e-16
5752 3672 -1.68919e-08
5859 3672 -2.7027e-09
3587 3673 -9.7e-06
3591 3673 -4.6e-06
3592 3673 -1e-05
3673 3673 592
3674 3673 -2.73723e-24
3681 3673 -7.36518e-17
3682 3673 -9.37563e-25
3683 3673 -2.53733e-24
3684 3673 -1.58372e-32
5751 3673 -1.65717e-16
5752 3673 -1.68919e-08
5859 3673 -2.7027e-09
3582 3674 -4.6e-06
3583 3674 -1e-05
3586 3674 -9.7e-06
3587 3674 -1.27297e-13
3673 3674 -1.62044e-21
3674 3674 592
3681 3674 -7.36518e-17
3682 3674 -9.37563e-25
3683 3674 -2.53733e-24
3684 3674 -3.72049e-32
5751 3674 -1.65717e-16
5752 3674 -1.68919e-08
5859 3674 -2.7027e-09
3573 3675 -9.7e-06
3577 3675 -4.6e-06
3578 3675 -1e-05
3675 3675 592
3676 3675 -2.73723e-24
3681 3675 -7.36518e-17
3682 3675 -9.37563e-25
3683 3675 -2.53733e-24
3684 3675 -1.58372e-32
5751 3675 -1.65717e-16
5752 3675 -1.68919e-08
5859 3675 -2.7027e-09
3568 3676 -4.6e-06
3569 3676 -1e-05
3572 3676 -9.7e-06
3573 3676 -1.27297e-13
3675 3676 -1.62044e-21
3676 3676 592
3681 3676 -7.36518e-17
3682 3676 -9.37563e-25
3683 3676 -2.53733e-24
3684 3676 -3.72049e-32
5751 3676 -1.65717e-16
5752 3676 -1.68919e-08
5859 3676 -2.7027e-09
3559 3677 -9.7e-06
3563 3677 -4.6e-06
3564 3677 -1e-05
3677 3677 592
3678 3677 -2.73723e-24
3681 3677 -7.36518e-17
3682 3677 -9.37563e-25
3683 3677 -2.53733e-24
3684 3677 -1.58372e-32
5751 3677 -1.65717e-16
5752 3677 -1.68919e-08
5859 3677 -2.7027e-09
3554 3678 -4.6e-06
3555 3678 -1e-05
3558 3678 -9.7e-06
3559 3678 -1.27297e-13
3677 3678 -1.62044e-21
3678 3678 592
3681 3678 -7.36518e-17
3682 3678 -9.37563e-25
3683 3678 -2.53733e-24
3684 3678 -3.72049e-32
5751 3678 -1.65717e-16
5752 3678 -1.68919e-08
5859 3678 -2.7027e-09
3545 3679 -9.7e-06
3549 3679 -4.6e-06
3550 3679 -1e-05
3679 3679 592
3680 3679 -2.73723e-24
3681 3679 -7.36518e-17
3682 3679 -9.37563e-25
3683 3679 -2.53733e-24
3684 3679 -1.58372e-32
5751 3679 -1.65717e-16
5752 3679 -1.68919e-08
5859 3679 -2.7027e-09
3540 3680 -4.6e-06
3541 3680 -1e-05
3544 3680 -9.7e-06
3545 3680 -1.27297e-13
3679 3680 -1.62044e-21
3680 3680 592
3681 3680 -7.36518e-17
3682 3680 -9.37563e-25
3683 3680 -2.53733e-24
3684 3680 -3.72049e-32
5751 3680 -1.65717e-16
5752 3680 -1.68919e-08
5859 3680 -2.7027e-09
3532 3681 -2.1e-05
3533 3681 -3.4585e-14
3536 3681 -2.42095e-13
3540 3681 -4e-06
3541 3681 -9.29898e-22
3549 3681 -4e-06
3550 3681 -9.29898e-22
3554 3681 -4e-06
3555 3681 -9.29898e-22
3563 3681 -4e-06
3564 3681 -9.29898e-22
3568 3681 -4e-06
3569 3681 -9.29898e-22
3577 3681 -4e-06
3578 3681 -9.29898e-22
3582 3681 -4e-06
3583 3681 -9.29898e-22
3591 3681 -4e-06
3592 3681 -9.29898e-22
3596 3681 -4e-06
3597 3681 -9.29898e-22
3605 3681 -4e-06
3606 3681 -9.29898e-22
3610 3681 -4e-06
3611 3681 -9.29898e-22
3619 3681 -4e-06
3620 3681 -9.29898e-22
3624 3681 -4e-06
3625 3681 -9.29898e-22
3633 3681 -4e-06
3634 3681 -9.29898e-22
3638 3681 -4e-06
3639 3681 -9.29898e-22
3647 3681 -4e-06
3648 3681 -9.29898e-22
3652 3681 -4e-06
3653 3681 -9.29898e-22
3661 3681 -4e-06
3662 3681 -9.29898e-22
3663 3681 -4.36019e-14
3664 3681 -4.36019e-14
3665 3681 -4.36019e-14
3666 3681 -4.36019e-14
3667 3681 -4.36019e-14
3668 3681 -4.36019e-14
3669 3681 -4.36019e-14
3670 3681 -4.36019e-14
3671 3681 -4.36019e-14
3672 3681 -4.36019e-14
3673 3681 -4.36019e-14
3674 3681 -4.36019e-14
3675 3681 -4.36019e-14
3676 3681 -4.36019e-14
3677 3681 -4.36019e-14
3678 3681 -4.36019e-14
3679 3681 -4.36019e-14
3680 3681 -4.36019e-14
3681 3681 28401
3682 3681 -1.58445e-09
3683 3681 -5.12479e-25
3684 3681 -0
5751 3681 -5.40666e-17
5752 3681 -4.66791e-25
5763 3681 -6.35827e-31
5764 3681 -6.35827e-31
5859 3681 -7.46866e-26
3533 3682 -2.1e-05
3536 3682 -2.42095e-13
3542 3682 -4e-06
3543 3682 -4e-06
3544 3682 -4.36019e-14
3545 3682 -4.36019e-14
3556 3682 -4e-06
3557 3682 -4e-06
3558 3682 -4.36019e-14
3559 3682 -4.36019e-14
3570 3682 -4e-06
3571 3682 -4e-06
3572 3682 -4.36019e-14
3573 3682 -4.36019e-14
3584 3682 -4e-06
3585 3682 -4e-06
3586 3682 -4.36019e-14
3587 3682 -4.36019e-14
3598 3682 -4e-06
3599 3682 -4e-06
3600 3682 -4.36019e-14
3601 3682 -4.36019e-14
3612 3682 -4e-06
3613 3682 -4e-06
3614 3682 -4.36019e-14
3615 3682 -4.36019e-14
3626 3682 -4e-06
3627 3682 -4e-06
3628 3682 -4.36019e-14
3629 3682 -4.36019e-14
3640 3682 -4e-06
3641 3682 -4e-06
3642 3682 -4.36019e-14
3643 3682 -4.36019e-14
3654 3682 -4e-06
3655 3682 -4e-06
3656 3682 -4.36019e-14
3657 3682 -4.36019e-14
3663 3682 -5.55037e-22
3664 3682 -5.55037e-22
3665 3682 -5.55037e-22
3666 3682 -5.55037e-22
3667 3682 -5.55037e-22
3668 3682 -5.55037e-22
3669 3682 -5.55037e-22
3670 3682 -5.55037e-22
3671 3682 -5.55037e-22
3672 3682 -5.55037e-22
3673 3682 -5.55037e-22
3674 3682 -5.55037e-22
3675 3682 -5.55037e-22
3676 3682 -5.55037e-22
3677 3682 -5.55037e-22
3678 3682 -5.55037e-22
3679 3682 -5.55037e-22
3680 3682 -5.55037e-22
3681 3682 -4.5e-05
3682 3682 28571
3683 3682 -8.07167e-34
3684 3682 0
5751 3682 -5.37449e-17
5752 3682 -3.60493e-25
5763 3682 -6.32044e-31
5764 3682 -6.32044e-31
5859 3682 -5.7679e-26
3528 3683 -2.1e-05
3531 3683 -2.42095e-13
3539 3683 -4e-06
3540 3683 -8.5308e-14
3541 3683 -4.36019e-14
3548 3683 -4e-06
3549 3683 -8.5308e-14
3550 3683 -4.36019e-14
3553 3683 -4e-06
3554 3683 -8.5308e-14
3555 3683 -4.36019e-14
3562 3683 -4e-06
3563 3683 -8.5308e-14
3564 3683 -4.36019e-14
3567 3683 -4e-06
3568 3683 -8.5308e-14
3569 3683 -4.36019e-14
3576 3683 -4e-06
3577 3683 -8.5308e-14
3578 3683 -4.36019e-14
3581 3683 -4e-06
3582 3683 -8.5308e-14
3583 3683 -4.36019e-14
3590 3683 -4e-06
3591 3683 -8.5308e-14
3592 3683 -4.36019e-14
3595 3683 -4e-06
3596 3683 -8.5308e-14
3597 3683 -4.36019e-14
3604 3683 -4e-06
3605 3683 -8.5308e-14
3606 3683 -4.36019e-14
3609 3683 -4e-06
3610 3683 -8.5308e-14
3611 3683 -4.36019e-14
3618 3683 -4e-06
3619 3683 -8.5308e-14
3620 3683 -4.36019e-14
3623 3683 -4e-06
3624 3683 -8.5308e-14
3625 3683 -4.36019e-14
3632 3683 -4e-06
3633 3683 -8.5308e-14
3634 3683 -4.36019e-14
3637 3683 -4e-06
3638 3683 -8.5308e-14
3639 3683 -4.36019e-14
3646 3683 -4e-06
3647 3683 -8.5308e-14
3648 3683 -4.36019e-14
3651 3683 -4e-06
3652 3683 -8.5308e-14
3653 3683 -4.36019e-14
3660 3683 -4e-06
3661 3683 -8.5308e-14
3662 3683 -4.36019e-14
3663 3683 -1.5021e-21
3664 3683 -1.5021e-21
3665 3683 -1.5021e-21
3666 3683 -1.5021e-21
3667 3683 -1.5021e-21
3668 3683 -1.5021e-21
3669 3683 -1.5021e-21
3670 3683 -1.5021e-21
3671 3683 -1.5021e-21
3672 3683 -1.5021e-21
3673 3683 -1.5021e-21
3674 3683 -1.5021e-21
3675 3683 -1.5021e-21
3676 3683 -1.5021e-21
3677 3683 -1.5021e-21
3678 3683 -1.5021e-21
3679 3683 -1.5021e-21
3680 3683 -1.5021e-21
3681 3683 -1.45549e-20
3682 3683 -2.30616e-29
3683 3683 28571
3684 3683 -1.57502e-09
5751 3683 -5.37449e-17
5752 3683 -3.60493e-25
5763 3683 0
5764 3683 0
5765 3683 -6.32044e-31
5770 3683 -6.32044e-31
5859 3683 -5.7679e-26
3527 3684 -2.1e-05
3528 3684 -3.4585e-14
3531 3684 -2.42095e-13
3537 3684 -4e-06
3538 3684 -7.30159e-14
3541 3684 -1.67833e-21
3546 3684 -4e-06
3547 3684 -4.36019e-14
3550 3684 -7.14423e-22
3551 3684 -4e-06
3552 3684 -7.30159e-14
3555 3684 -1.67833e-21
3560 3684 -4e-06
3561 3684 -4.36019e-14
3564 3684 -7.14423e-22
3565 3684 -4e-06
3566 3684 -7.30159e-14
3569 3684 -1.67833e-21
3574 3684 -4e-06
3575 3684 -4.36019e-14
3578 3684 -7.14423e-22
3579 3684 -4e-06
3580 3684 -7.30159e-14
3583 3684 -1.67833e-21
3588 3684 -4e-06
3589 3684 -4.36019e-14
3592 3684 -7.14423e-22
3593 3684 -4e-06
3594 3684 -7.30159e-14
3597 3684 -1.67833e-21
3602 3684 -4e-06
3603 3684 -4.36019e-14
3606 3684 -7.14423e-22
3607 3684 -4e-06
3608 3684 -7.30159e-14
3611 3684 -1.67833e-21
3616 3684 -4e-06
3617 3684 -4.36019e-14
3620 3684 -7.14423e-22
3621 3684 -4e-06
3622 3684 -7.30159e-14
3625 3684 -1.67833e-21
3630 3684 -4e-06
3631 3684 -4.36019e-14
3634 3684 -7.14423e-22
3635 3684 -4e-06
3636 3684 -7.30159e-14
3639 3684 -1.67833e-21
3644 3684 -4e-06
3645 3684 -4.36019e-14
3648 3684 -7.14423e-22
3649 3684 -4e-06
3650 3684 -7.30159e-14
3653 3684 -1.67833e-21
3658 3684 -4e-06
3659 3684 -4.36019e-14
3662 3684 -7.14423e-22
3663 3684 -9.37563e-30
3664 3684 -2.20253e-29
3665 3684 -9.37563e-30
3666 3684 -2.20253e-29
3667 3684 -9.37563e-30
3668 3684 -2.20253e-29
3669 3684 -9.37563e-30
3670 3684 -2.20253e-29
3671 3684 -9.37563e-30
3672 3684 -2.20253e-29
3673 3684 -9.37563e-30
3674 3684 -2.20253e-29
3675 3684 -9.37563e-30
3676 3684 -2.20253e-29
3677 3684 -9.37563e-30
3678 3684 -2.20253e-29
3679 3684 -9.37563e-30
3680 3684 -2.20253e-29
3681 3684 -3.78351e-44
3682 3684 0
3683 3684 -4.5e-05
3684 3684 28401
5751 3684 -7.23033e-17
5752 3684 -7.8169e-25
5763 3684 0
5764 3684 0
5765 3684 -6.35827e-31
5770 3684 -6.35827e-31
5859 3684 -1.2507e-25
3685 3685 3643.2
3686 3685 -1.6469e-09
3689 3685 -1.15283e-08
3842 3685 -5.76416e-09
3685 3686 -6e-06
3686 3686 3643.2
3689 3686 -1.15283e-08
3841 3686 -5.76416e-09
3842 3686 -9.49302e-18
3687 3687 170
3689 3687 -7.05881e-07
5765 3687 -7.05881e-07
3688 3688 170
3689 3688 -7.05881e-07
5770 3688 -7.05881e-07
3685 3689 -4.2e-05
3686 3689 -4.2e-05
3687 3689 -0.00012
3688 3689 -0.00012
3689 3689 1135.6
3841 3689 -2.13187e-16
3842 3689 -2.13187e-16
5765 3689 -7.45912e-14
5770 3689 -7.45912e-14
3690 3690 3643.2
3691 3690 -1.6469e-09
3694 3690 -1.15283e-08
3839 3690 -5.76416e-09
3690 3691 -6e-06
3691 3691 3643.2
3694 3691 -1.15283e-08
3839 3691 -9.49302e-18
3840 3691 -5.76416e-09
3692 3692 170
3694 3692 -7.05881e-07
5764 3692 -7.05881e-07
3693 3693 170
3694 3693 -7.05881e-07
5763 3693 -7.05881e-07
3690 3694 -4.2e-05
3691 3694 -4.2e-05
3692 3694 -0.00012
3693 3694 -0.00012
3694 3694 1135.6
3839 3694 -2.13187e-16
3840 3694 -2.13187e-16
5763 3694 -7.45912e-14
5764 3694 -7.45912e-14
3695 3695 252
3696 3695 -1.8254e-08
3842 3695 -1.5873e-08
5753 3695 -3.57143e-08
3695 3696 -4.6e-06
3696 3696 422
3699 3696 -2.29858e-08
3842 3696 -1.73023e-16
5753 3696 -3.89303e-16
5754 3696 -2.36967e-08
5859 3696 -3.79147e-09
3697 3697 422
3698 3697 -2.1327e-08
3699 3697 -1.09005e-08
3841 3697 -9.47867e-09
5753 3697 -2.1327e-08
3697 3698 -9e-06
3698 3698 422
3699 3698 -2.32475e-16
3838 3698 -1.09005e-08
3839 3698 -9.47867e-09
3841 3698 -2.02152e-16
5753 3698 -2.1327e-08
3696 3699 -9.7e-06
3697 3699 -4.6e-06
3698 3699 -9.81043e-14
3699 3699 762
3838 3699 -1.31234e-08
3839 3699 -1.22034e-24
3841 3699 -5.72203e-17
3842 3699 -2.20253e-24
5753 3699 -1.28746e-16
5754 3699 -1.31234e-08
5859 3699 -2.09974e-09
3700 3700 422
3701 3700 -2.1327e-08
3703 3700 -1.09005e-08
3840 3700 -9.47867e-09
5753 3700 -2.1327e-08
3700 3701 -9e-06
3701 3701 422
3702 3701 -1.09005e-08
3703 3701 -2.32475e-16
3840 3701 -9.47867e-09
5753 3701 -2.1327e-08
3701 3702 -4.6e-06
3702 3702 762
3703 3702 -1.31234e-08
3838 3702 -1.27297e-08
3840 3702 -5.72203e-17
5753 3702 -1.28746e-16
5754 3702 -1.31234e-08
5859 3702 -2.09974e-09
3700 3703 -4.6e-06
3701 3703 -9.81043e-14
3702 3703 -1e-05
3703 3703 762
3837 3703 -1.27297e-08
3838 3703 -1.67056e-16
3840 3703 -5.72203e-17
5753 3703 -1.28746e-16
5754 3703 -1.31234e-08
5859 3703 -2.09974e-09
3704 3704 422
3705 3704 -1.09005e-08
3842 3704 -9.47867e-09
5753 3704 -2.1327e-08
3704 3705 -4.6e-06
3705 3705 592
3708 3705 -1.63851e-08
3842 3705 -7.36518e-17
5753 3705 -1.65717e-16
5754 3705 -1.68919e-08
5859 3705 -2.7027e-09
3706 3706 422
3707 3706 -2.1327e-08
3708 3706 -1.09005e-08
3841 3706 -9.47867e-09
5753 3706 -2.1327e-08
3706 3707 -9e-06
3707 3707 422
3708 3707 -2.32475e-16
3837 3707 -1.09005e-08
3839 3707 -9.47867e-09
3841 3707 -2.02152e-16
5753 3707 -2.1327e-08
3705 3708 -9.7e-06
3706 3708 -4.6e-06
3707 3708 -9.81043e-14
3708 3708 762
3837 3708 -1.31234e-08
3839 3708 -1.22034e-24
3841 3708 -5.72203e-17
3842 3708 -9.37563e-25
5753 3708 -1.28746e-16
5754 3708 -1.31234e-08
5859 3708 -2.09974e-09
3709 3709 252
3710 3709 -1.8254e-08
3842 3709 -1.5873e-08
5753 3709 -3.57143e-08
3709 3710 -4.6e-06
3710 3710 422
3713 3710 -2.29858e-08
3842 3710 -1.73023e-16
5753 3710 -3.89303e-16
5754 3710 -2.36967e-08
5859 3710 -3.79147e-09
3711 3711 422
3712 3711 -2.1327e-08
3713 3711 -1.09005e-08
3841 3711 -9.47867e-09
5753 3711 -2.1327e-08
3711 3712 -9e-06
3712 3712 422
3713 3712 -2.32475e-16
3836 3712 -1.09005e-08
3839 3712 -9.47867e-09
3841 3712 -2.02152e-16
5753 3712 -2.1327e-08
3710 3713 -9.7e-06
3711 3713 -4.6e-06
3712 3713 -9.81043e-14
3713 3713 762
3836 3713 -1.31234e-08
3839 3713 -1.22034e-24
3841 3713 -5.72203e-17
3842 3713 -2.20253e-24
5753 3713 -1.28746e-16
5754 3713 -1.31234e-08
5859 3713 -2.09974e-09
3714 3714 422
3715 3714 -2.1327e-08
3717 3714 -1.09005e-08
3840 3714 -9.47867e-09
5753 3714 -2.1327e-08
3714 3715 -9e-06
3715 3715 422
3716 3715 -1.09005e-08
3717 3715 -2.32475e-16
3840 3715 -9.47867e-09
5753 3715 -2.1327e-08
3715 3716 -4.6e-06
3716 3716 762
3717 3716 -1.31234e-08
3836 3716 -1.27297e-08
3840 3716 -5.72203e-17
5753 3716 -1.28746e-16
5754 3716 -1.31234e-08
5859 3716 -2.09974e-09
3714 3717 -4.6e-06
3715 3717 -9.81043e-14
3716 3717 -1e-05
3717 3717 762
3835 3717 -1.27297e-08
3836 3717 -1.67056e-16
3840 3717 -5.72203e-17
5753 3717 -1.28746e-16
5754 3717 -1.31234e-08
5859 3717 -2.09974e-09
3718 3718 422
3719 3718 -1.09005e-08
3842 3718 -9.47867e-09
5753 3718 -2.1327e-08
3718 3719 -4.6e-06
3719 3719 592
3722 3719 -1.63851e-08
3842 3719 -7.36518e-17
5753 3719 -1.65717e-16
5754 3719 -1.68919e-08
5859 3719 -2.7027e-09
3720 3720 422
3721 3720 -2.1327e-08
3722 3720 -1.09005e-08
3841 3720 -9.47867e-09
5753 3720 -2.1327e-08
3720 3721 -9e-06
3721 3721 422
3722 3721 -2.32475e-16
3835 3721 -1.09005e-08
3839 3721 -9.47867e-09
3841 3721 -2.02152e-16
5753 3721 -2.1327e-08
3719 3722 -9.7e-06
3720 3722 -4.6e-06
3721 3722 -9.81043e-14
3722 3722 762
3835 3722 -1.31234e-08
3839 3722 -1.22034e-24
3841 3722 -5.72203e-17
3842 3722 -9.37563e-25
5753 3722 -1.28746e-16
5754 3722 -1.31234e-08
5859 3722 -2.09974e-09
3723 3723 252
3724 3723 -1.8254e-08
3842 3723 -1.5873e-08
5753 3723 -3.57143e-08
3723 3724 -4.6e-06
3724 3724 422
3727 3724 -2.29858e-08
3842 3724 -1.73023e-16
5753 3724 -3.89303e-16
5754 3724 -2.36967e-08
5859 3724 -3.79147e-09
3725 3725 422
3726 3725 -2.1327e-08
3727 3725 -1.09005e-08
3841 3725 -9.47867e-09
5753 3725 -2.1327e-08
3725 3726 -9e-06
3726 3726 422
3727 3726 -2.32475e-16
3834 3726 -1.09005e-08
3839 3726 -9.47867e-09
3841 3726 -2.02152e-16
5753 3726 -2.1327e-08
3724 3727 -9.7e-06
3725 3727 -4.6e-06
3726 3727 -9.81043e-14
3727 3727 762
3834 3727 -1.31234e-08
3839 3727 -1.22034e-24
3841 3727 -5.72203e-17
3842 3727 -2.20253e-24
5753 3727 -1.28746e-16
5754 3727 -1.31234e-08
5859 3727 -2.09974e-09
3728 3728 422
3729 3728 -2.1327e-08
3731 3728 -1.09005e-08
3840 3728 -9.47867e-09
5753 3728 -2.1327e-08
3728 3729 -9e-06
3729 3729 422
3730 3729 -1.09005e-08
3731 3729 -2.32475e-16
3840 3729 -9.47867e-09
5753 3729 -2.1327e-08
3729 3730 -4.6e-06
3730 3730 762
3731 3730 -1.31234e-08
3834 3730 -1.27297e-08
3840 3730 -5.72203e-17
5753 3730 -1.28746e-16
5754 3730 -1.31234e-08
5859 3730 -2.09974e-09
3728 3731 -4.6e-06
3729 3731 -9.81043e-14
3730 3731 -1e-05
3731 3731 762
3833 3731 -1.27297e-08
3834 3731 -1.67056e-16
3840 3731 -5.72203e-17
5753 3731 -1.28746e-16
5754 3731 -1.31234e-08
5859 3731 -2.09974e-09
3732 3732 422
3733 3732 -1.09005e-08
3842 3732 -9.47867e-09
5753 3732 -2.1327e-08
3732 3733 -4.6e-06
3733 3733 592
3736 3733 -1.63851e-08
3842 3733 -7.36518e-17
5753 3733 -1.65717e-16
5754 3733 -1.68919e-08
5859 3733 -2.7027e-09
3734 3734 422
3735 3734 -2.1327e-08
3736 3734 -1.09005e-08
3841 3734 -9.47867e-09
5753 3734 -2.1327e-08
3734 3735 -9e-06
3735 3735 422
3736 3735 -2.32475e-16
3833 3735 -1.09005e-08
3839 3735 -9.47867e-09
3841 3735 -2.02152e-16
5753 3735 -2.1327e-08
3733 3736 -9.7e-06
3734 3736 -4.6e-06
3735 3736 -9.81043e-14
3736 3736 762
3833 3736 -1.31234e-08
3839 3736 -1.22034e-24
3841 3736 -5.72203e-17
3842 3736 -9.37563e-25
5753 3736 -1.28746e-16
5754 3736 -1.31234e-08
5859 3736 -2.09974e-09
3737 3737 252
3738 3737 -1.8254e-08
3842 3737 -1.5873e-08
5753 3737 -3.57143e-08
3737 3738 -4.6e-06
3738 3738 422
3741 3738 -2.29858e-08
3842 3738 -1.73023e-16
5753 3738 -3.89303e-16
5754 3738 -2.36967e-08
5859 3738 -3.79147e-09
3739 3739 422
3740 3739 -2.1327e-08
3741 3739 -1.09005e-08
3841 3739 -9.47867e-09
5753 3739 -2.1327e-08
3739 3740 -9e-06
3740 3740 422
3741 3740 -2.32475e-16
3832 3740 -1.09005e-08
3839 3740 -9.47867e-09
3841 3740 -2.02152e-16
5753 3740 -2.1327e-08
3738 3741 -9.7e-06
3739 3741 -4.6e-06
3740 3741 -9.81043e-14
3741 3741 762
3832 3741 -1.31234e-08
3839 3741 -1.22034e-24
3841 3741 -5.72203e-17
3842 3741 -2.20253e-24
5753 3741 -1.28746e-16
5754 3741 -1.31234e-08
5859 3741 -2.09974e-09
3742 3742 422
3743 3742 -2.1327e-08
3745 3742 -1.09005e-08
3840 3742 -9.47867e-09
5753 3742 -2.1327e-08
3742 3743 -9e-06
3743 3743 422
3744 3743 -1.09005e-08
3745 3743 -2.32475e-16
3840 3743 -9.47867e-09
5753 3743 -2.1327e-08
3743 3744 -4.6e-06
3744 3744 762
3745 3744 -1.31234e-08
3832 3744 -1.27297e-08
3840 3744 -5.72203e-17
5753 3744 -1.28746e-16
5754 3744 -1.31234e-08
5859 3744 -2.09974e-09
3742 3745 -4.6e-06
3743 3745 -9.81043e-14
3744 3745 -1e-05
3745 3745 762
3831 3745 -1.27297e-08
3832 3745 -1.67056e-16
3840 3745 -5.72203e-17
5753 3745 -1.28746e-16
5754 3745 -1.31234e-08
5859 3745 -2.09974e-09
3746 3746 422
3747 3746 -1.09005e-08
3842 3746 -9.47867e-09
5753 3746 -2.1327e-08
3746 3747 -4.6e-06
3747 3747 592
3750 3747 -1.63851e-08
3842 3747 -7.36518e-17
5753 3747 -1.65717e-16
5754 3747 -1.68919e-08
5859 3747 -2.7027e-09
3748 3748 422
3749 3748 -2.1327e-08
3750 3748 -1.09005e-08
3841 3748 -9.47867e-09
5753 3748 -2.1327e-08
3748 3749 -9e-06
3749 3749 422
3750 3749 -2.32475e-16
3831 3749 -1.09005e-08
3839 3749 -9.47867e-09
3841 3749 -2.02152e-16
5753 3749 -2.1327e-08
3747 3750 -9.7e-06
3748 3750 -4.6e-06
3749 3750 -9.81043e-14
3750 3750 762
3831 3750 -1.31234e-08
3839 3750 -1.22034e-24
3841 3750 -5.72203e-17
3842 3750 -9.37563e-25
5753 3750 -1.28746e-16
5754 3750 -1.31234e-08
5859 3750 -2.09974e-09
3751 3751 252
3752 3751 -1.8254e-08
3842 3751 -1.5873e-08
5753 3751 -3.57143e-08
3751 3752 -4.6e-06
3752 3752 422
3755 3752 -2.29858e-08
3842 3752 -1.73023e-16
5753 3752 -3.89303e-16
5754 3752 -2.36967e-08
5859 3752 -3.79147e-09
3753 3753 422
3754 3753 -2.1327e-08
3755 3753 -1.09005e-08
3841 3753 -9.47867e-09
5753 3753 -2.1327e-08
3753 3754 -9e-06
3754 3754 422
3755 3754 -2.32475e-16
3830 3754 -1.09005e-08
3839 3754 -9.47867e-09
3841 3754 -2.02152e-16
5753 3754 -2.1327e-08
3752 3755 -9.7e-06
3753 3755 -4.6e-06
3754 3755 -9.81043e-14
3755 3755 762
3830 3755 -1.31234e-08
3839 3755 -1.22034e-24
3841 3755 -5.72203e-17
3842 3755 -2.20253e-24
5753 3755 -1.28746e-16
5754 3755 -1.31234e-08
5859 3755 -2.09974e-09
3756 3756 422
3757 3756 -2.1327e-08
3759 3756 -1.09005e-08
3840 3756 -9.47867e-09
5753 3756 -2.1327e-08
3756 3757 -9e-06
3757 3757 422
3758 3757 -1.09005e-08
3759 3757 -2.32475e-16
3840 3757 -9.47867e-09
5753 3757 -2.1327e-08
3757 3758 -4.6e-06
3758 3758 762
3759 3758 -1.31234e-08
3830 3758 -1.27297e-08
3840 3758 -5.72203e-17
5753 3758 -1.28746e-16
5754 3758 -1.31234e-08
5859 3758 -2.09974e-09
3756 3759 -4.6e-06
3757 3759 -9.81043e-14
3758 3759 -1e-05
3759 3759 762
3829 3759 -1.27297e-08
3830 3759 -1.67056e-16
3840 3759 -5.72203e-17
5753 3759 -1.28746e-16
5754 3759 -1.31234e-08
5859 3759 -2.09974e-09
3760 3760 422
3761 3760 -1.09005e-08
3842 3760 -9.47867e-09
5753 3760 -2.1327e-08
3760 3761 -4.6e-06
3761 3761 592
3764 3761 -1.63851e-08
3842 3761 -7.36518e-17
5753 3761 -1.65717e-16
5754 3761 -1.68919e-08
5859 3761 -2.7027e-09
3762 3762 422
3763 3762 -2.1327e-08
3764 3762 -1.09005e-08
3841 3762 -9.47867e-09
5753 3762 -2.1327e-08
3762 3763 -9e-06
3763 3763 422
3764 3763 -2.32475e-16
3829 3763 -1.09005e-08
3839 3763 -9.47867e-09
3841 3763 -2.02152e-16
5753 3763 -2.1327e-08
3761 3764 -9.7e-06
3762 3764 -4.6e-06
3763 3764 -9.81043e-14
3764 3764 762
3829 3764 -1.31234e-08
3839 3764 -1.22034e-24
3841 3764 -5.72203e-17
3842 3764 -9.37563e-25
5753 3764 -1.28746e-16
5754 3764 -1.31234e-08
5859 3764 -2.09974e-09
3765 3765 252
3766 3765 -1.8254e-08
3842 3765 -1.5873e-08
5753 3765 -3.57143e-08
3765 3766 -4.6e-06
3766 3766 422
3769 3766 -2.29858e-08
3842 3766 -1.73023e-16
5753 3766 -3.89303e-16
5754 3766 -2.36967e-08
5859 3766 -3.79147e-09
3767 3767 422
3768 3767 -2.1327e-08
3769 3767 -1.09005e-08
3841 3767 -9.47867e-09
5753 3767 -2.1327e-08
3767 3768 -9e-06
3768 3768 422
3769 3768 -2.32475e-16
3828 3768 -1.09005e-08
3839 3768 -9.47867e-09
3841 3768 -2.02152e-16
5753 3768 -2.1327e-08
3766 3769 -9.7e-06
3767 3769 -4.6e-06
3768 3769 -9.81043e-14
3769 3769 762
3828 3769 -1.31234e-08
3839 3769 -1.22034e-24
3841 3769 -5.72203e-17
3842 3769 -2.20253e-24
5753 3769 -1.28746e-16
5754 3769 -1.31234e-08
5859 3769 -2.09974e-09
3770 3770 422
3771 3770 -2.1327e-08
3773 3770 -1.09005e-08
3840 3770 -9.47867e-09
5753 3770 -2.1327e-08
3770 3771 -9e-06
3771 3771 422
3772 3771 -1.09005e-08
3773 3771 -2.32475e-16
3840 3771 -9.47867e-09
5753 3771 -2.1327e-08
3771 3772 -4.6e-06
3772 3772 762
3773 3772 -1.31234e-08
3828 3772 -1.27297e-08
3840 3772 -5.72203e-17
5753 3772 -1.28746e-16
5754 3772 -1.31234e-08
5859 3772 -2.09974e-09
3770 3773 -4.6e-06
3771 3773 -9.81043e-14
3772 3773 -1e-05
3773 3773 762
3827 3773 -1.27297e-08
3828 3773 -1.67056e-16
3840 3773 -5.72203e-17
5753 3773 -1.28746e-16
5754 3773 -1.31234e-08
5859 3773 -2.09974e-09
3774 3774 422
3775 3774 -1.09005e-08
3842 3774 -9.47867e-09
5753 3774 -2.1327e-08
3774 3775 -4.6e-06
3775 3775 592
3778 3775 -1.63851e-08
3842 3775 -7.36518e-17
5753 3775 -1.65717e-16
5754 3775 -1.68919e-08
5859 3775 -2.7027e-09
3776 3776 422
3777 3776 -2.1327e-08
3778 3776 -1.09005e-08
3841 3776 -9.47867e-09
5753 3776 -2.1327e-08
3776 3777 -9e-06
3777 3777 422
3778 3777 -2.32475e-16
3827 3777 -1.09005e-08
3839 3777 -9.47867e-09
3841 3777 -2.02152e-16
5753 3777 -2.1327e-08
3775 3778 -9.7e-06
3776 3778 -4.6e-06
3777 3778 -9.81043e-14
3778 3778 762
3827 3778 -1.31234e-08
3839 3778 -1.22034e-24
3841 3778 -5.72203e-17
3842 3778 -9.37563e-25
5753 3778 -1.28746e-16
5754 3778 -1.31234e-08
5859 3778 -2.09974e-09
3779 3779 252
3780 3779 -1.8254e-08
3842 3779 -1.5873e-08
5753 3779 -3.57143e-08
3779 3780 -4.6e-06
3780 3780 422
3783 3780 -2.29858e-08
3842 3780 -1.73023e-16
5753 3780 -3.89303e-16
5754 3780 -2.36967e-08
5859 3780 -3.79147e-09
3781 3781 422
3782 3781 -2.1327e-08
3783 3781 -1.09005e-08
3841 3781 -9.47867e-09
5753 3781 -2.1327e-08
3781 3782 -9e-06
3782 3782 422
3783 3782 -2.32475e-16
3826 3782 -1.09005e-08
3839 3782 -9.47867e-09
3841 3782 -2.02152e-16
5753 3782 -2.1327e-08
3780 3783 -9.7e-06
3781 3783 -4.6e-06
3782 3783 -9.81043e-14
3783 3783 762
3826 3783 -1.31234e-08
3839 3783 -1.22034e-24
3841 3783 -5.72203e-17
3842 3783 -2.20253e-24
5753 3783 -1.28746e-16
5754 3783 -1.31234e-08
5859 3783 -2.09974e-09
3784 3784 422
3785 3784 -2.1327e-08
3787 3784 -1.09005e-08
3840 3784 -9.47867e-09
5753 3784 -2.1327e-08
3784 3785 -9e-06
3785 3785 422
3786 3785 -1.09005e-08
3787 3785 -2.32475e-16
3840 3785 -9.47867e-09
5753 3785 -2.1327e-08
3785 3786 -4.6e-06
3786 3786 762
3787 3786 -1.31234e-08
3826 3786 -1.27297e-08
3840 3786 -5.72203e-17
5753 3786 -1.28746e-16
5754 3786 -1.31234e-08
5859 3786 -2.09974e-09
3784 3787 -4.6e-06
3785 3787 -9.81043e-14
3786 3787 -1e-05
3787 3787 762
3825 3787 -1.27297e-08
3826 3787 -1.67056e-16
3840 3787 -5.72203e-17
5753 3787 -1.28746e-16
5754 3787 -1.31234e-08
5859 3787 -2.09974e-09
3788 3788 422
3789 3788 -1.09005e-08
3842 3788 -9.47867e-09
5753 3788 -2.1327e-08
3788 3789 -4.6e-06
3789 3789 592
3792 3789 -1.63851e-08
3842 3789 -7.36518e-17
5753 3789 -1.65717e-16
5754 3789 -1.68919e-08
5859 3789 -2.7027e-09
3790 3790 422
3791 3790 -2.1327e-08
3792 3790 -1.09005e-08
3841 3790 -9.47867e-09
5753 3790 -2.1327e-08
3790 3791 -9e-06
3791 3791 422
3792 3791 -2.32475e-16
3825 3791 -1.09005e-08
3839 3791 -9.47867e-09
3841 3791 -2.02152e-16
5753 3791 -2.1327e-08
3789 3792 -9.7e-06
3790 3792 -4.6e-06
3791 3792 -9.81043e-14
3792 3792 762
3825 3792 -1.31234e-08
3839 3792 -1.22034e-24
3841 3792 -5.72203e-17
3842 3792 -9.37563e-25
5753 3792 -1.28746e-16
5754 3792 -1.31234e-08
5859 3792 -2.09974e-09
3793 3793 252
3794 3793 -1.8254e-08
3842 3793 -1.5873e-08
5753 3793 -3.57143e-08
3793 3794 -4.6e-06
3794 3794 422
3797 3794 -2.29858e-08
3842 3794 -1.73023e-16
5753 3794 -3.89303e-16
5754 3794 -2.36967e-08
5859 3794 -3.79147e-09
3795 3795 422
3796 3795 -2.1327e-08
3797 3795 -1.09005e-08
3841 3795 -9.47867e-09
5753 3795 -2.1327e-08
3795 3796 -9e-06
3796 3796 422
3797 3796 -2.32475e-16
3824 3796 -1.09005e-08
3839 3796 -9.47867e-09
3841 3796 -2.02152e-16
5753 3796 -2.1327e-08
3794 3797 -9.7e-06
3795 3797 -4.6e-06
3796 3797 -9.81043e-14
3797 3797 762
3824 3797 -1.31234e-08
3839 3797 -1.22034e-24
3841 3797 -5.72203e-17
3842 3797 -2.20253e-24
5753 3797 -1.28746e-16
5754 3797 -1.31234e-08
5859 3797 -2.09974e-09
3798 3798 422
3799 3798 -2.1327e-08
3801 3798 -1.09005e-08
3840 3798 -9.47867e-09
5753 3798 -2.1327e-08
3798 3799 -9e-06
3799 3799 422
3800 3799 -1.09005e-08
3801 3799 -2.32475e-16
3840 3799 -9.47867e-09
5753 3799 -2.1327e-08
3799 3800 -4.6e-06
3800 3800 762
3801 3800 -1.31234e-08
3824 3800 -1.27297e-08
3840 3800 -5.72203e-17
5753 3800 -1.28746e-16
5754 3800 -1.31234e-08
5859 3800 -2.09974e-09
3798 3801 -4.6e-06
3799 3801 -9.81043e-14
3800 3801 -1e-05
3801 3801 762
3823 3801 -1.27297e-08
3824 3801 -1.67056e-16
3840 3801 -5.72203e-17
5753 3801 -1.28746e-16
5754 3801 -1.31234e-08
5859 3801 -2.09974e-09
3802 3802 422
3803 3802 -1.09005e-08
3842 3802 -9.47867e-09
5753 3802 -2.1327e-08
3802 3803 -4.6e-06
3803 3803 592
3806 3803 -1.63851e-08
3842 3803 -7.36518e-17
5753 3803 -1.65717e-16
5754 3803 -1.68919e-08
5859 3803 -2.7027e-09
3804 3804 422
3805 3804 -2.1327e-08
3806 3804 -1.09005e-08
3841 3804 -9.47867e-09
5753 3804 -2.1327e-08
3804 3805 -9e-06
3805 3805 422
3806 3805 -2.32475e-16
3823 3805 -1.09005e-08
3839 3805 -9.47867e-09
3841 3805 -2.02152e-16
5753 3805 -2.1327e-08
3803 3806 -9.7e-06
3804 3806 -4.6e-06
3805 3806 -9.81043e-14
3806 3806 762
3823 3806 -1.31234e-08
3839 3806 -1.22034e-24
3841 3806 -5.72203e-17
3842 3806 -9.37563e-25
5753 3806 -1.28746e-16
5754 3806 -1.31234e-08
5859 3806 -2.09974e-09
3807 3807 252
3808 3807 -1.8254e-08
3842 3807 -1.5873e-08
5753 3807 -3.57143e-08
3807 3808 -4.6e-06
3808 3808 422
3811 3808 -2.29858e-08
3842 3808 -1.73023e-16
5753 3808 -3.89303e-16
5754 3808 -2.36967e-08
5859 3808 -3.79147e-09
3809 3809 422
3810 3809 -2.1327e-08
3811 3809 -1.09005e-08
3841 3809 -9.47867e-09
5753 3809 -2.1327e-08
3809 3810 -9e-06
3810 3810 422
3811 3810 -2.32475e-16
3822 3810 -1.09005e-08
3839 3810 -9.47867e-09
3841 3810 -2.02152e-16
5753 3810 -2.1327e-08
3808 3811 -9.7e-06
3809 3811 -4.6e-06
3810 3811 -9.81043e-14
3811 3811 762
3822 3811 -1.31234e-08
3839 3811 -1.22034e-24
3841 3811 -5.72203e-17
3842 3811 -2.20253e-24
5753 3811 -1.28746e-16
5754 3811 -1.31234e-08
5859 3811 -2.09974e-09
3812 3812 422
3813 3812 -2.1327e-08
3815 3812 -1.09005e-08
3840 3812 -9.47867e-09
5753 3812 -2.1327e-08
3812 3813 -9e-06
3813 3813 422
3814 3813 -1.09005e-08
3815 3813 -2.32475e-16
3840 3813 -9.47867e-09
5753 3813 -2.1327e-08
3813 3814 -4.6e-06
3814 3814 762
3815 3814 -1.31234e-08
3822 3814 -1.27297e-08
3840 3814 -5.72203e-17
5753 3814 -1.28746e-16
5754 3814 -1.31234e-08
5859 3814 -2.09974e-09
3812 3815 -4.6e-06
3813 3815 -9.81043e-14
3814 3815 -1e-05
3815 3815 762
3821 3815 -1.27297e-08
3822 3815 -1.67056e-16
3840 3815 -5.72203e-17
5753 3815 -1.28746e-16
5754 3815 -1.31234e-08
5859 3815 -2.09974e-09
3816 3816 422
3817 3816 -1.09005e-08
3842 3816 -9.47867e-09
5753 3816 -2.1327e-08
3816 3817 -4.6e-06
3817 3817 592
3820 3817 -1.63851e-08
3842 3817 -7.36518e-17
5753 3817 -1.65717e-16
5754 3817 -1.68919e-08
5859 3817 -2.7027e-09
3818 3818 422
3819 3818 -2.1327e-08
3820 3818 -1.09005e-08
3841 3818 -9.47867e-09
5753 3818 -2.1327e-08
3818 3819 -9e-06
3819 3819 422
3820 3819 -2.32475e-16
3821 3819 -1.09005e-08
3839 3819 -9.47867e-09
3841 3819 -2.02152e-16
5753 3819 -2.1327e-08
3817 3820 -9.7e-06
3818 3820 -4.6e-06
3819 3820 -9.81043e-14
3820 3820 762
3821 3820 -1.31234e-08
3839 3820 -1.22034e-24
3841 3820 -5.72203e-17
3842 3820 -9.37563e-25
5753 3820 -1.28746e-16
5754 3820 -1.31234e-08
5859 3820 -2.09974e-09
3815 3821 -9.7e-06
3819 3821 -4.6e-06
3820 3821 -1e-05
3821 3821 592
3822 3821 -2.73723e-24
3839 3821 -7.36518e-17
3840 3821 -9.37563e-25
3841 3821 -2.53733e-24
3842 3821 -1.58372e-32
5753 3821 -1.65717e-16
5754 3821 -1.68919e-08
5859 3821 -2.7027e-09
3810 3822 -4.6e-06
3811 3822 -1e-05
3814 3822 -9.7e-06
3815 3822 -1.27297e-13
3821 3822 -1.62044e-21
3822 3822 592
3839 3822 -7.36518e-17
3840 3822 -9.37563e-25
3841 3822 -2.53733e-24
3842 3822 -3.72049e-32
5753 3822 -1.65717e-16
5754 3822 -1.68919e-08
5859 3822 -2.7027e-09
3801 3823 -9.7e-06
3805 3823 -4.6e-06
3806 3823 -1e-05
3823 3823 592
3824 3823 -2.73723e-24
3839 3823 -7.36518e-17
3840 3823 -9.37563e-25
3841 3823 -2.53733e-24
3842 3823 -1.58372e-32
5753 3823 -1.65717e-16
5754 3823 -1.68919e-08
5859 3823 -2.7027e-09
3796 3824 -4.6e-06
3797 3824 -1e-05
3800 3824 -9.7e-06
3801 3824 -1.27297e-13
3823 3824 -1.62044e-21
3824 3824 592
3839 3824 -7.36518e-17
3840 3824 -9.37563e-25
3841 3824 -2.53733e-24
3842 3824 -3.72049e-32
5753 3824 -1.65717e-16
5754 3824 -1.68919e-08
5859 3824 -2.7027e-09
3787 3825 -9.7e-06
3791 3825 -4.6e-06
3792 3825 -1e-05
3825 3825 592
3826 3825 -2.73723e-24
3839 3825 -7.36518e-17
3840 3825 -9.37563e-25
3841 3825 -2.53733e-24
3842 3825 -1.58372e-32
5753 3825 -1.65717e-16
5754 3825 -1.68919e-08
5859 3825 -2.7027e-09
3782 3826 -4.6e-06
3783 3826 -1e-05
3786 3826 -9.7e-06
3787 3826 -1.27297e-13
3825 3826 -1.62044e-21
3826 3826 592
3839 3826 -7.36518e-17
3840 3826 -9.37563e-25
3841 3826 -2.53733e-24
3842 3826 -3.72049e-32
5753 3826 -1.65717e-16
5754 3826 -1.68919e-08
5859 3826 -2.7027e-09
3773 3827 -9.7e-06
3777 3827 -4.6e-06
3778 3827 -1e-05
3827 3827 592
3828 3827 -2.73723e-24
3839 3827 -7.36518e-17
3840 3827 -9.37563e-25
3841 3827 -2.53733e-24
3842 3827 -1.58372e-32
5753 3827 -1.65717e-16
5754 3827 -1.68919e-08
5859 3827 -2.7027e-09
3768 3828 -4.6e-06
3769 3828 -1e-05
3772 3828 -9.7e-06
3773 3828 -1.27297e-13
3827 3828 -1.62044e-21
3828 3828 592
3839 3828 -7.36518e-17
3840 3828 -9.37563e-25
3841 3828 -2.53733e-24
3842 3828 -3.72049e-32
5753 3828 -1.65717e-16
5754 3828 -1.68919e-08
5859 3828 -2.7027e-09
3759 3829 -9.7e-06
3763 3829 -4.6e-06
3764 3829 -1e-05
3829 3829 592
3830 3829 -2.73723e-24
3839 3829 -7.36518e-17
3840 3829 -9.37563e-25
3841 3829 -2.53733e-24
3842 3829 -1.58372e-32
5753 3829 -1.65717e-16
5754 3829 -1.68919e-08
5859 3829 -2.7027e-09
3754 3830 -4.6e-06
3755 3830 -1e-05
3758 3830 -9.7e-06
3759 3830 -1.27297e-13
3829 3830 -1.62044e-21
3830 3830 592
3839 3830 -7.36518e-17
3840 3830 -9.37563e-25
3841 3830 -2.53733e-24
3842 3830 -3.72049e-32
5753 3830 -1.65717e-16
5754 3830 -1.68919e-08
5859 3830 -2.7027e-09
3745 3831 -9.7e-06
3749 3831 -4.6e-06
3750 3831 -1e-05
3831 3831 592
3832 3831 -2.73723e-24
3839 3831 -7.36518e-17
3840 3831 -9.37563e-25
3841 3831 -2.53733e-24
3842 3831 -1.58372e-32
5753 3831 -1.65717e-16
5754 3831 -1.68919e-08
5859 3831 -2.7027e-09
3740 3832 -4.6e-06
3741 3832 -1e-05
3744 3832 -9.7e-06
3745 3832 -1.27297e-13
3831 3832 -1.62044e-21
3832 3832 592
3839 3832 -7.36518e-17
3840 3832 -9.37563e-25
3841 3832 -2.53733e-24
3842 3832 -3.72049e-32
5753 3832 -1.65717e-16
5754 3832 -1.68919e-08
5859 3832 -2.7027e-09
3731 3833 -9.7e-06
3735 3833 -4.6e-06
3736 3833 -1e-05
3833 3833 592
3834 3833 -2.73723e-24
3839 3833 -7.36518e-17
3840 3833 -9.37563e-25
3841 3833 -2.53733e-24
3842 3833 -1.58372e-32
5753 3833 -1.65717e-16
5754 3833 -1.68919e-08
5859 3833 -2.7027e-09
3726 3834 -4.6e-06
3727 3834 -1e-05
3730 3834 -9.7e-06
3731 3834 -1.27297e-13
3833 3834 -1.62044e-21
3834 3834 592
3839 3834 -7.36518e-17
3840 3834 -9.37563e-25
3841 3834 -2.53733e-24
3842 3834 -3.72049e-32
5753 3834 -1.65717e-16
5754 3834 -1.68919e-08
5859 3834 -2.7027e-09
3717 3835 -9.7e-06
3721 3835 -4.6e-06
3722 3835 -1e-05
3835 3835 592
3836 3835 -2.73723e-24
3839 3835 -7.36518e-17
3840 3835 -9.37563e-25
3841 3835 -2.53733e-24
3842 3835 -1.58372e-32
5753 3835 -1.65717e-16
5754 3835 -1.68919e-08
5859 3835 -2.7027e-09
3712 3836 -4.6e-06
3713 3836 -1e-05
3716 3836 -9.7e-06
3717 3836 -1.27297e-13
3835 3836 -1.62044e-21
3836 3836 592
3839 3836 -7.36518e-17
3840 3836 -9.37563e-25
3841 3836 -2.53733e-24
3842 3836 -3.72049e-32
5753 3836 -1.65717e-16
5754 3836 -1.68919e-08
5859 3836 -2.7027e-09
3703 3837 -9.7e-06
3707 3837 -4.6e-06
3708 3837 -1e-05
3837 3837 592
3838 3837 -2.73723e-24
3839 3837 -7.36518e-17
3840 3837 -9.37563e-25
3841 3837 -2.53733e-24
3842 3837 -1.58372e-32
5753 3837 -1.65717e-16
5754 3837 -1.68919e-08
5859 3837 -2.7027e-09
3698 3838 -4.6e-06
3699 3838 -1e-05
3702 3838 -9.7e-06
3703 3838 -1.27297e-13
3837 3838 -1.62044e-21
3838 3838 592
3839 3838 -7.36518e-17
3840 3838 -9.37563e-25
3841 3838 -2.53733e-24
3842 3838 -3.72049e-32
5753 3838 -1.65717e-16
5754 3838 -1.68919e-08
5859 3838 -2.7027e-09
3690 3839 -2.1e-05
3691 3839 -3.4585e-14
3694 3839 -2.42095e-13
3698 3839 -4e-06
3699 3839 -9.29898e-22
3707 3839 -4e-06
3708 3839 -9.29898e-22
3712 3839 -4e-06
3713 3839 -9.29898e-22
3721 3839 -4e-06
3722 3839 -9.29898e-22
3726 3839 -4e-06
3727 3839 -9.29898e-22
3735 3839 -4e-06
3736 3839 -9.29898e-22
3740 3839 -4e-06
3741 3839 -9.29898e-22
3749 3839 -4e-06
3750 3839 -9.29898e-22
3754 3839 -4e-06
3755 3839 -9.29898e-22
3763 3839 -4e-06
3764 3839 -9.29898e-22
3768 3839 -4e-06
3769 3839 -9.29898e-22
3777 3839 -4e-06
3778 3839 -9.29898e-22
3782 3839 -4e-06
3783 3839 -9.29898e-22
3791 3839 -4e-06
3792 3839 -9.29898e-22
3796 3839 -4e-06
3797 3839 -9.29898e-22
3805 3839 -4e-06
3806 3839 -9.29898e-22
3810 3839 -4e-06
3811 3839 -9.29898e-22
3819 3839 -4e-06
3820 3839 -9.29898e-22
3821 3839 -4.36019e-14
3822 3839 -4.36019e-14
3823 3839 -4.36019e-14
3824 3839 -4.36019e-14
3825 3839 -4.36019e-14
3826 3839 -4.36019e-14
3827 3839 -4.36019e-14
3828 3839 -4.36019e-14
3829 3839 -4.36019e-14
3830 3839 -4.36019e-14
3831 3839 -4.36019e-14
3832 3839 -4.36019e-14
3833 3839 -4.36019e-14
3834 3839 -4.36019e-14
3835 3839 -4.36019e-14
3836 3839 -4.36019e-14
3837 3839 -4.36019e-14
3838 3839 -4.36019e-14
3839 3839 28401
3840 3839 -1.58445e-09
3841 3839 -5.12479e-25
3842 3839 -0
5753 3839 -5.40666e-17
5754 3839 -4.66791e-25
5763 3839 -6.35827e-31
5764 3839 -6.35827e-31
5859 3839 -7.46866e-26
3691 3840 -2.1e-05
3694 3840 -2.42095e-13
3700 3840 -4e-06
3701 3840 -4e-06
3702 3840 -4.36019e-14
3703 3840 -4.36019e-14
3714 3840 -4e-06
3715 3840 -4e-06
3716 3840 -4.36019e-14
3717 3840 -4.36019e-14
3728 3840 -4e-06
3729 3840 -4e-06
3730 3840 -4.36019e-14
3731 3840 -4.36019e-14
3742 3840 -4e-06
3743 3840 -4e-06
3744 3840 -4.36019e-14
3745 3840 -4.36019e-14
3756 3840 -4e-06
3757 3840 -4e-06
3758 3840 -4.36019e-14
3759 3840 -4.36019e-14
3770 3840 -4e-06
3771 3840 -4e-06
3772 3840 -4.36019e-14
3773 3840 -4.36019e-14
3784 3840 -4e-06
3785 3840 -4e-06
3786 3840 -4.36019e-14
3787 3840 -4.36019e-14
3798 3840 -4e-06
3799 3840 -4e-06
3800 3840 -4.36019e-14
3801 3840 -4.36019e-14
3812 3840 -4e-06
3813 3840 -4e-06
3814 3840 -4.36019e-14
3815 3840 -4.36019e-14
3821 3840 -5.55037e-22
3822 3840 -5.55037e-22
3823 3840 -5.55037e-22
3824 3840 -5.55037e-22
3825 3840 -5.55037e-22
3826 3840 -5.55037e-22
3827 3840 -5.55037e-22
3828 3840 -5.55037e-22
3829 3840 -5.55037e-22
3830 3840 -5.55037e-22
3831 3840 -5.55037e-22
3832 3840 -5.55037e-22
3833 3840 -5.55037e-22
3834 3840 -5.55037e-22
3835 3840 -5.55037e-22
3836 3840 -5.55037e-22
3837 3840 -5.55037e-22
3838 3840 -5.55037e-22
3839 3840 -4.5e-05
3840 3840 28571
3841 3840 -8.07167e-34
3842 3840 0
5753 3840 -5.37449e-17
5754 3840 -3.60493e-25
5763 3840 -6.32044e-31
5764 3840 -6.32044e-31
5859 3840 -5.7679e-26
3686 3841 -2.1e-05
3689 3841 -2.42095e-13
3697 3841 -4e-06
3698 3841 -8.5308e-14
3699 3841 -4.36019e-14
3706 3841 -4e-06
3707 3841 -8.5308e-14
3708 3841 -4.36019e-14
3711 3841 -4e-06
3712 3841 -8.5308e-14
3713 3841 -4.36019e-14
3720 3841 -4e-06
3721 3841 -8.5308e-14
3722 3841 -4.36019e-14
3725 3841 -4e-06
3726 3841 -8.5308e-14
3727 3841 -4.36019e-14
3734 3841 -4e-06
3735 3841 -8.5308e-14
3736 3841 -4.36019e-14
3739 3841 -4e-06
3740 3841 -8.5308e-14
3741 3841 -4.36019e-14
3748 3841 -4e-06
3749 3841 -8.5308e-14
3750 3841 -4.36019e-14
3753 3841 -4e-06
3754 3841 -8.5308e-14
3755 3841 -4.36019e-14
3762 3841 -4e-06
3763 3841 -8.5308e-14
3764 3841 -4.36019e-14
3767 3841 -4e-06
3768 3841 -8.5308e-14
3769 3841 -4.36019e-14
3776 3841 -4e-06
3777 3841 -8.5308e-14
3778 3841 -4.36019e-14
3781 3841 -4e-06
3782 3841 -8.5308e-14
3783 3841 -4.36019e-14
3790 3841 -4e-06
3791 3841 -8.5308e-14
3792 3841 -4.36019e-14
3795 3841 -4e-06
3796 3841 -8.5308e-14
3797 3841 -4.36019e-14
3804 3841 -4e-06
3805 3841 -8.5308e-14
3806 3841 -4.36019e-14
3809 3841 -4e-06
3810 3841 -8.5308e-14
3811 3841 -4.36019e-14
3818 3841 -4e-06
3819 3841 -8.5308e-14
3820 3841 -4.36019e-14
3821 3841 -1.5021e-21
3822 3841 -1.5021e-21
3823 3841 -1.5021e-21
3824 3841 -1.5021e-21
3825 3841 -1.5021e-21
3826 3841 -1.5021e-21
3827 3841 -1.5021e-21
3828 3841 -1.5021e-21
3829 3841 -1.5021e-21
3830 3841 -1.5021e-21
3831 3841 -1.5021e-21
3832 3841 -1.5021e-21
3833 3841 -1.5021e-21
3834 3841 -1.5021e-21
3835 3841 -1.5021e-21
3836 3841 -1.5021e-21
3837 3841 -1.5021e-21
3838 3841 -1.5021e-21
3839 3841 -1.45549e-20
3840 3841 -2.30616e-29
3841 3841 28571
3842 3841 -1.57502e-09
5753 3841 -5.37449e-17
5754 3841 -3.60493e-25
5763 3841 0
5764 3841 0
5765 3841 -6.32044e-31
5770 3841 -6.32044e-31
5859 3841 -5.7679e-26
3685 3842 -2.1e-05
3686 3842 -3.4585e-14
3689 3842 -2.42095e-13
3695 3842 -4e-06
3696 3842 -7.30159e-14
3699 3842 -1.67833e-21
3704 3842 -4e-06
3705 3842 -4.36019e-14
3708 3842 -7.14423e-22
3709 3842 -4e-06
3710 3842 -7.30159e-14
3713 3842 -1.67833e-21
3718 3842 -4e-06
3719 3842 -4.36019e-14
3722 3842 -7.14423e-22
3723 3842 -4e-06
3724 3842 -7.30159e-14
3727 3842 -1.67833e-21
3732 3842 -4e-06
3733 3842 -4.36019e-14
3736 3842 -7.14423e-22
3737 3842 -4e-06
3738 3842 -7.30159e-14
3741 3842 -1.67833e-21
3746 3842 -4e-06
3747 3842 -4.36019e-14
3750 3842 -7.14423e-22
3751 3842 -4e-06
3752 3842 -7.30159e-14
3755 3842 -1.67833e-21
3760 3842 -4e-06
3761 3842 -4.36019e-14
3764 3842 -7.14423e-22
3765 3842 -4e-06
3766 3842 -7.30159e-14
3769 3842 -1.67833e-21
3774 3842 -4e-06
3775 3842 -4.36019e-14
3778 3842 -7.14423e-22
3779 3842 -4e-06
3780 3842 -7.30159e-14
3783 3842 -1.67833e-21
3788 3842 -4e-06
3789 3842 -4.36019e-14
3792 3842 -7.14423e-22
3793 3842 -4e-06
3794 3842 -7.30159e-14
3797 3842 -1.67833e-21
3802 3842 -4e-06
3803 3842 -4.36019e-14
3806 3842 -7.14423e-22
3807 3842 -4e-06
3808 3842 -7.30159e-14
3811 3842 -1.67833e-21
3816 3842 -4e-06
3817 3842 -4.36019e-14
3820 3842 -7.14423e-22
3821 3842 -9.37563e-30
3822 3842 -2.20253e-29
3823 3842 -9.37563e-30
3824 3842 -2.20253e-29
3825 3842 -9.37563e-30
3826 3842 -2.20253e-29
3827 3842 -9.37563e-30
3828 3842 -2.20253e-29
3829 3842 -9.37563e-30
3830 3842 -2.20253e-29
3831 3842 -9.37563e-30
3832 3842 -2.20253e-29
3833 3842 -9.37563e-30
3834 3842 -2.20253e-29
3835 3842 -9.37563e-30
3836 3842 -2.20253e-29
3837 3842 -9.37563e-30
3838 3842 -2.20253e-29
3839 3842 -3.78351e-44
3840 3842 0
3841 3842 -4.5e-05
3842 3842 28401
5753 3842 -7.23033e-17
5754 3842 -7.8169e-25
5763 3842 0
5764 3842 0
5765 3842 -6.35827e-31
5770 3842 -6.35827e-31
5859 3842 -1.2507e-25
3843 3843 3643.2
3844 3843 -1.6469e-09
3847 3843 -1.15283e-08
4000 3843 -5.76416e-09
3843 3844 -6e-06
3844 3844 3643.2
3847 3844 -1.15283e-08
3999 3844 -5.76416e-09
4000 3844 -9.49302e-18
3845 3845 170
3847 3845 -7.05881e-07
5765 3845 -7.05881e-07
3846 3846 170
3847 3846 -7.05881e-07
5770 3846 -7.05881e-07
3843 3847 -4.2e-05
3844 3847 -4.2e-05
3845 3847 -0.00012
3846 3847 -0.00012
3847 3847 1135.6
3999 3847 -2.13187e-16
4000 3847 -2.13187e-16
5765 3847 -7.45912e-14
5770 3847 -7.45912e-14
3848 3848 3643.2
3849 3848 -1.6469e-09
3852 3848 -1.15283e-08
3997 3848 -5.76416e-09
3848 3849 -6e-06
3849 3849 3643.2
3852 3849 -1.15283e-08
3997 3849 -9.49302e-18
3998 3849 -5.76416e-09
3850 3850 170
3852 3850 -7.05881e-07
5764 3850 -7.05881e-07
3851 3851 170
3852 3851 -7.05881e-07
5763 3851 -7.05881e-07
3848 3852 -4.2e-05
3849 3852 -4.2e-05
3850 3852 -0.00012
3851 3852 -0.00012
3852 3852 1135.6
3997 3852 -2.13187e-16
3998 3852 -2.13187e-16
5763 3852 -7.45912e-14
5764 3852 -7.45912e-14
3853 3853 252
3854 3853 -1.8254e-08
4000 3853 -1.5873e-08
5755 3853 -3.57143e-08
3853 3854 -4.6e-06
3854 3854 422
3857 3854 -2.29858e-08
4000 3854 -1.73023e-16
5755 3854 -3.89303e-16
5756 3854 -2.36967e-08
5859 3854 -3.79147e-09
3855 3855 422
3856 3855 -2.1327e-08
3857 3855 -1.09005e-08
3999 3855 -9.47867e-09
5755 3855 -2.1327e-08
3855 3856 -9e-06
3856 3856 422
3857 3856 -2.32475e-16
3996 3856 -1.09005e-08
3997 3856 -9.47867e-09
3999 3856 -2.02152e-16
5755 3856 -2.1327e-08
3854 3857 -9.7e-06
3855 3857 -4.6e-06
3856 3857 -9.81043e-14
3857 3857 762
3996 3857 -1.31234e-08
3997 3857 -1.22034e-24
3999 3857 -5.72203e-17
4000 3857 -2.20253e-24
5755 3857 -1.28746e-16
5756 3857 -1.31234e-08
5859 3857 -2.09974e-09
3858 3858 422
3859 3858 -2.1327e-08
3861 3858 -1.09005e-08
3998 3858 -9.47867e-09
5755 3858 -2.1327e-08
3858 3859 -9e-06
3859 3859 422
3860 3859 -1.09005e-08
3861 3859 -2.32475e-16
3998 3859 -9.47867e-09
5755 3859 -2.1327e-08
3859 3860 -4.6e-06
3860 3860 762
3861 3860 -1.31234e-08
3996 3860 -1.27297e-08
3998 3860 -5.72203e-17
5755 3860 -1.28746e-16
5756 3860 -1.31234e-08
5859 3860 -2.09974e-09
3858 3861 -4.6e-06
3859 3861 -9.81043e-14
3860 3861 -1e-05
3861 3861 762
3995 3861 -1.27297e-08
3996 3861 -1.67056e-16
3998 3861 -5.72203e-17
5755 3861 -1.28746e-16
5756 3861 -1.31234e-08
5859 3861 -2.09974e-09
3862 3862 422
3863 3862 -1.09005e-08
4000 3862 -9.47867e-09
5755 3862 -2.1327e-08
3862 3863 -4.6e-06
3863 3863 592
3866 3863 -1.63851e-08
4000 3863 -7.36518e-17
5755 3863 -1.65717e-16
5756 3863 -1.68919e-08
5859 3863 -2.7027e-09
3864 3864 422
3865 3864 -2.1327e-08
3866 3864 -1.09005e-08
3999 3864 -9.47867e-09
5755 3864 -2.1327e-08
3864 3865 -9e-06
3865 3865 422
3866 3865 -2.32475e-16
3995 3865 -1.09005e-08
3997 3865 -9.47867e-09
3999 3865 -2.02152e-16
5755 3865 -2.1327e-08
3863 3866 -9.7e-06
3864 3866 -4.6e-06
3865 3866 -9.81043e-14
3866 3866 762
3995 3866 -1.31234e-08
3997 3866 -1.22034e-24
3999 3866 -5.72203e-17
4000 3866 -9.37563e-25
5755 3866 -1.28746e-16
5756 3866 -1.31234e-08
5859 3866 -2.09974e-09
3867 3867 252
3868 3867 -1.8254e-08
4000 3867 -1.5873e-08
5755 3867 -3.57143e-08
3867 3868 -4.6e-06
3868 3868 422
3871 3868 -2.29858e-08
4000 3868 -1.73023e-16
5755 3868 -3.89303e-16
5756 3868 -2.36967e-08
5859 3868 -3.79147e-09
3869 3869 422
3870 3869 -2.1327e-08
3871 3869 -1.09005e-08
3999 3869 -9.47867e-09
5755 3869 -2.1327e-08
3869 3870 -9e-06
3870 3870 422
3871 3870 -2.32475e-16
3994 3870 -1.09005e-08
3997 3870 -9.47867e-09
3999 3870 -2.02152e-16
5755 3870 -2.1327e-08
3868 3871 -9.7e-06
3869 3871 -4.6e-06
3870 3871 -9.81043e-14
3871 3871 762
3994 3871 -1.31234e-08
3997 3871 -1.22034e-24
3999 3871 -5.72203e-17
4000 3871 -2.20253e-24
5755 3871 -1.28746e-16
5756 3871 -1.31234e-08
5859 3871 -2.09974e-09
3872 3872 422
3873 3872 -2.1327e-08
3875 3872 -1.09005e-08
3998 3872 -9.47867e-09
5755 3872 -2.1327e-08
3872 3873 -9e-06
3873 3873 422
3874 3873 -1.09005e-08
3875 3873 -2.32475e-16
3998 3873 -9.47867e-09
5755 3873 -2.1327e-08
3873 3874 -4.6e-06
3874 3874 762
3875 3874 -1.31234e-08
3994 3874 -1.27297e-08
3998 3874 -5.72203e-17
5755 3874 -1.28746e-16
5756 3874 -1.31234e-08
5859 3874 -2.09974e-09
3872 3875 -4.6e-06
3873 3875 -9.81043e-14
3874 3875 -1e-05
3875 3875 762
3993 3875 -1.27297e-08
3994 3875 -1.67056e-16
3998 3875 -5.72203e-17
5755 3875 -1.28746e-16
5756 3875 -1.31234e-08
5859 3875 -2.09974e-09
3876 3876 422
3877 3876 -1.09005e-08
4000 3876 -9.47867e-09
5755 3876 -2.1327e-08
3876 3877 -4.6e-06
3877 3877 592
3880 3877 -1.63851e-08
4000 3877 -7.36518e-17
5755 3877 -1.65717e-16
5756 3877 -1.68919e-08
5859 3877 -2.7027e-09
3878 3878 422
3879 3878 -2.1327e-08
3880 3878 -1.09005e-08
3999 3878 -9.47867e-09
5755 3878 -2.1327e-08
3878 3879 -9e-06
3879 3879 422
3880 3879 -2.32475e-16
3993 3879 -1.09005e-08
3997 3879 -9.47867e-09
3999 3879 -2.02152e-16
5755 3879 -2.1327e-08
3877 3880 -9.7e-06
3878 3880 -4.6e-06
3879 3880 -9.81043e-14
3880 3880 762
3993 3880 -1.31234e-08
3997 3880 -1.22034e-24
3999 3880 -5.72203e-17
4000 3880 -9.37563e-25
5755 3880 -1.28746e-16
5756 3880 -1.31234e-08
5859 3880 -2.09974e-09
3881 3881 252
3882 3881 -1.8254e-08
4000 3881 -1.5873e-08
5755 3881 -3.57143e-08
3881 3882 -4.6e-06
3882 3882 422
3885 3882 -2.29858e-08
4000 3882 -1.73023e-16
5755 3882 -3.89303e-16
5756 3882 -2.36967e-08
5859 3882 -3.79147e-09
3883 3883 422
3884 3883 -2.1327e-08
3885 3883 -1.09005e-08
3999 3883 -9.47867e-09
5755 3883 -2.1327e-08
3883 3884 -9e-06
3884 3884 422
3885 3884 -2.32475e-16
3992 3884 -1.09005e-08
3997 3884 -9.47867e-09
3999 3884 -2.02152e-16
5755 3884 -2.1327e-08
3882 3885 -9.7e-06
3883 3885 -4.6e-06
3884 3885 -9.81043e-14
3885 3885 762
3992 3885 -1.31234e-08
3997 3885 -1.22034e-24
3999 3885 -5.72203e-17
4000 3885 -2.20253e-24
5755 3885 -1.28746e-16
5756 3885 -1.31234e-08
5859 3885 -2.09974e-09
3886 3886 422
3887 3886 -2.1327e-08
3889 3886 -1.09005e-08
3998 3886 -9.47867e-09
5755 3886 -2.1327e-08
3886 3887 -9e-06
3887 3887 422
3888 3887 -1.09005e-08
3889 3887 -2.32475e-16
3998 3887 -9.47867e-09
5755 3887 -2.1327e-08
3887 3888 -4.6e-06
3888 3888 762
3889 3888 -1.31234e-08
3992 3888 -1.27297e-08
3998 3888 -5.72203e-17
5755 3888 -1.28746e-16
5756 3888 -1.31234e-08
5859 3888 -2.09974e-09
3886 3889 -4.6e-06
3887 3889 -9.81043e-14
3888 3889 -1e-05
3889 3889 762
3991 3889 -1.27297e-08
3992 3889 -1.67056e-16
3998 3889 -5.72203e-17
5755 3889 -1.28746e-16
5756 3889 -1.31234e-08
5859 3889 -2.09974e-09
3890 3890 422
3891 3890 -1.09005e-08
4000 3890 -9.47867e-09
5755 3890 -2.1327e-08
3890 3891 -4.6e-06
3891 3891 592
3894 3891 -1.63851e-08
4000 3891 -7.36518e-17
5755 3891 -1.65717e-16
5756 3891 -1.68919e-08
5859 3891 -2.7027e-09
3892 3892 422
3893 3892 -2.1327e-08
3894 3892 -1.09005e-08
3999 3892 -9.47867e-09
5755 3892 -2.1327e-08
3892 3893 -9e-06
3893 3893 422
3894 3893 -2.32475e-16
3991 3893 -1.09005e-08
3997 3893 -9.47867e-09
3999 3893 -2.02152e-16
5755 3893 -2.1327e-08
3891 3894 -9.7e-06
3892 3894 -4.6e-06
3893 3894 -9.81043e-14
3894 3894 762
3991 3894 -1.31234e-08
3997 3894 -1.22034e-24
3999 3894 -5.72203e-17
4000 3894 -9.37563e-25
5755 3894 -1.28746e-16
5756 3894 -1.31234e-08
5859 3894 -2.09974e-09
3895 3895 252
3896 3895 -1.8254e-08
4000 3895 -1.5873e-08
5755 3895 -3.57143e-08
3895 3896 -4.6e-06
3896 3896 422
3899 3896 -2.29858e-08
4000 3896 -1.73023e-16
5755 3896 -3.89303e-16
5756 3896 -2.36967e-08
5859 3896 -3.79147e-09
3897 3897 422
3898 3897 -2.1327e-08
3899 3897 -1.09005e-08
3999 3897 -9.47867e-09
5755 3897 -2.1327e-08
3897 3898 -9e-06
3898 3898 422
3899 3898 -2.32475e-16
3990 3898 -1.09005e-08
3997 3898 -9.47867e-09
3999 3898 -2.02152e-16
5755 3898 -2.1327e-08
3896 3899 -9.7e-06
3897 3899 -4.6e-06
3898 3899 -9.81043e-14
3899 3899 762
3990 3899 -1.31234e-08
3997 3899 -1.22034e-24
3999 3899 -5.72203e-17
4000 3899 -2.20253e-24
5755 3899 -1.28746e-16
5756 3899 -1.31234e-08
5859 3899 -2.09974e-09
3900 3900 422
3901 3900 -2.1327e-08
3903 3900 -1.09005e-08
3998 3900 -9.47867e-09
5755 3900 -2.1327e-08
3900 3901 -9e-06
3901 3901 422
3902 3901 -1.09005e-08
3903 3901 -2.32475e-16
3998 3901 -9.47867e-09
5755 3901 -2.1327e-08
3901 3902 -4.6e-06
3902 3902 762
3903 3902 -1.31234e-08
3990 3902 -1.27297e-08
3998 3902 -5.72203e-17
5755 3902 -1.28746e-16
5756 3902 -1.31234e-08
5859 3902 -2.09974e-09
3900 3903 -4.6e-06
3901 3903 -9.81043e-14
3902 3903 -1e-05
3903 3903 762
3989 3903 -1.27297e-08
3990 3903 -1.67056e-16
3998 3903 -5.72203e-17
5755 3903 -1.28746e-16
5756 3903 -1.31234e-08
5859 3903 -2.09974e-09
3904 3904 422
3905 3904 -1.09005e-08
4000 3904 -9.47867e-09
5755 3904 -2.1327e-08
3904 3905 -4.6e-06
3905 3905 592
3908 3905 -1.63851e-08
4000 3905 -7.36518e-17
5755 3905 -1.65717e-16
5756 3905 -1.68919e-08
5859 3905 -2.7027e-09
3906 3906 422
3907 3906 -2.1327e-08
3908 3906 -1.09005e-08
3999 3906 -9.47867e-09
5755 3906 -2.1327e-08
3906 3907 -9e-06
3907 3907 422
3908 3907 -2.32475e-16
3989 3907 -1.09005e-08
3997 3907 -9.47867e-09
3999 3907 -2.02152e-16
5755 3907 -2.1327e-08
3905 3908 -9.7e-06
3906 3908 -4.6e-06
3907 3908 -9.81043e-14
3908 3908 762
3989 3908 -1.31234e-08
3997 3908 -1.22034e-24
3999 3908 -5.72203e-17
4000 3908 -9.37563e-25
5755 3908 -1.28746e-16
5756 3908 -1.31234e-08
5859 3908 -2.09974e-09
3909 3909 252
3910 3909 -1.8254e-08
4000 3909 -1.5873e-08
5755 3909 -3.57143e-08
3909 3910 -4.6e-06
3910 3910 422
3913 3910 -2.29858e-08
4000 3910 -1.73023e-16
5755 3910 -3.89303e-16
5756 3910 -2.36967e-08
5859 3910 -3.79147e-09
3911 3911 422
3912 3911 -2.1327e-08
3913 3911 -1.09005e-08
3999 3911 -9.47867e-09
5755 3911 -2.1327e-08
3911 3912 -9e-06
3912 3912 422
3913 3912 -2.32475e-16
3988 3912 -1.09005e-08
3997 3912 -9.47867e-09
3999 3912 -2.02152e-16
5755 3912 -2.1327e-08
3910 3913 -9.7e-06
3911 3913 -4.6e-06
3912 3913 -9.81043e-14
3913 3913 762
3988 3913 -1.31234e-08
3997 3913 -1.22034e-24
3999 3913 -5.72203e-17
4000 3913 -2.20253e-24
5755 3913 -1.28746e-16
5756 3913 -1.31234e-08
5859 3913 -2.09974e-09
3914 3914 422
3915 3914 -2.1327e-08
3917 3914 -1.09005e-08
3998 3914 -9.47867e-09
5755 3914 -2.1327e-08
3914 3915 -9e-06
3915 3915 422
3916 3915 -1.09005e-08
3917 3915 -2.32475e-16
3998 3915 -9.47867e-09
5755 3915 -2.1327e-08
3915 3916 -4.6e-06
3916 3916 762
3917 3916 -1.31234e-08
3988 3916 -1.27297e-08
3998 3916 -5.72203e-17
5755 3916 -1.28746e-16
5756 3916 -1.31234e-08
5859 3916 -2.09974e-09
3914 3917 -4.6e-06
3915 3917 -9.81043e-14
3916 3917 -1e-05
3917 3917 762
3987 3917 -1.27297e-08
3988 3917 -1.67056e-16
3998 3917 -5.72203e-17
5755 3917 -1.28746e-16
5756 3917 -1.31234e-08
5859 3917 -2.09974e-09
3918 3918 422
3919 3918 -1.09005e-08
4000 3918 -9.47867e-09
5755 3918 -2.1327e-08
3918 3919 -4.6e-06
3919 3919 592
3922 3919 -1.63851e-08
4000 3919 -7.36518e-17
5755 3919 -1.65717e-16
5756 3919 -1.68919e-08
5859 3919 -2.7027e-09
3920 3920 422
3921 3920 -2.1327e-08
3922 3920 -1.09005e-08
3999 3920 -9.47867e-09
5755 3920 -2.1327e-08
3920 3921 -9e-06
3921 3921 422
3922 3921 -2.32475e-16
3987 3921 -1.09005e-08
3997 3921 -9.47867e-09
3999 3921 -2.02152e-16
5755 3921 -2.1327e-08
3919 3922 -9.7e-06
3920 3922 -4.6e-06
3921 3922 -9.81043e-14
3922 3922 762
3987 3922 -1.31234e-08
3997 3922 -1.22034e-24
3999 3922 -5.72203e-17
4000 3922 -9.37563e-25
5755 3922 -1.28746e-16
5756 3922 -1.31234e-08
5859 3922 -2.09974e-09
3923 3923 252
3924 3923 -1.8254e-08
4000 3923 -1.5873e-08
5755 3923 -3.57143e-08
3923 3924 -4.6e-06
3924 3924 422
3927 3924 -2.29858e-08
4000 3924 -1.73023e-16
5755 3924 -3.89303e-16
5756 3924 -2.36967e-08
5859 3924 -3.79147e-09
3925 3925 422
3926 3925 -2.1327e-08
3927 3925 -1.09005e-08
3999 3925 -9.47867e-09
5755 3925 -2.1327e-08
3925 3926 -9e-06
3926 3926 422
3927 3926 -2.32475e-16
3986 3926 -1.09005e-08
3997 3926 -9.47867e-09
3999 3926 -2.02152e-16
5755 3926 -2.1327e-08
3924 3927 -9.7e-06
3925 3927 -4.6e-06
3926 3927 -9.81043e-14
3927 3927 762
3986 3927 -1.31234e-08
3997 3927 -1.22034e-24
3999 3927 -5.72203e-17
4000 3927 -2.20253e-24
5755 3927 -1.28746e-16
5756 3927 -1.31234e-08
5859 3927 -2.09974e-09
3928 3928 422
3929 3928 -2.1327e-08
3931 3928 -1.09005e-08
3998 3928 -9.47867e-09
5755 3928 -2.1327e-08
3928 3929 -9e-06
3929 3929 422
3930 3929 -1.09005e-08
3931 3929 -2.32475e-16
3998 3929 -9.47867e-09
5755 3929 -2.1327e-08
3929 3930 -4.6e-06
3930 3930 762
3931 3930 -1.31234e-08
3986 3930 -1.27297e-08
3998 3930 -5.72203e-17
5755 3930 -1.28746e-16
5756 3930 -1.31234e-08
5859 3930 -2.09974e-09
3928 3931 -4.6e-06
3929 3931 -9.81043e-14
3930 3931 -1e-05
3931 3931 762
3985 3931 -1.27297e-08
3986 3931 -1.67056e-16
3998 3931 -5.72203e-17
5755 3931 -1.28746e-16
5756 3931 -1.31234e-08
5859 3931 -2.09974e-09
3932 3932 422
3933 3932 -1.09005e-08
4000 3932 -9.47867e-09
5755 3932 -2.1327e-08
3932 3933 -4.6e-06
3933 3933 592
3936 3933 -1.63851e-08
4000 3933 -7.36518e-17
5755 3933 -1.65717e-16
5756 3933 -1.68919e-08
5859 3933 -2.7027e-09
3934 3934 422
3935 3934 -2.1327e-08
3936 3934 -1.09005e-08
3999 3934 -9.47867e-09
5755 3934 -2.1327e-08
3934 3935 -9e-06
3935 3935 422
3936 3935 -2.32475e-16
3985 3935 -1.09005e-08
3997 3935 -9.47867e-09
3999 3935 -2.02152e-16
5755 3935 -2.1327e-08
3933 3936 -9.7e-06
3934 3936 -4.6e-06
3935 3936 -9.81043e-14
3936 3936 762
3985 3936 -1.31234e-08
3997 3936 -1.22034e-24
3999 3936 -5.72203e-17
4000 3936 -9.37563e-25
5755 3936 -1.28746e-16
5756 3936 -1.31234e-08
5859 3936 -2.09974e-09
3937 3937 252
3938 3937 -1.8254e-08
4000 3937 -1.5873e-08
5755 3937 -3.57143e-08
3937 3938 -4.6e-06
3938 3938 422
3941 3938 -2.29858e-08
4000 3938 -1.73023e-16
5755 3938 -3.89303e-16
5756 3938 -2.36967e-08
5859 3938 -3.79147e-09
3939 3939 422
3940 3939 -2.1327e-08
3941 3939 -1.09005e-08
3999 3939 -9.47867e-09
5755 3939 -2.1327e-08
3939 3940 -9e-06
3940 3940 422
3941 3940 -2.32475e-16
3984 3940 -1.09005e-08
3997 3940 -9.47867e-09
3999 3940 -2.02152e-16
5755 3940 -2.1327e-08
3938 3941 -9.7e-06
3939 3941 -4.6e-06
3940 3941 -9.81043e-14
3941 3941 762
3984 3941 -1.31234e-08
3997 3941 -1.22034e-24
3999 3941 -5.72203e-17
4000 3941 -2.20253e-24
5755 3941 -1.28746e-16
5756 3941 -1.31234e-08
5859 3941 -2.09974e-09
3942 3942 422
3943 3942 -2.1327e-08
3945 3942 -1.09005e-08
3998 3942 -9.47867e-09
5755 3942 -2.1327e-08
3942 3943 -9e-06
3943 3943 422
3944 3943 -1.09005e-08
3945 3943 -2.32475e-16
3998 3943 -9.47867e-09
5755 3943 -2.1327e-08
3943 3944 -4.6e-06
3944 3944 762
3945 3944 -1.31234e-08
3984 3944 -1.27297e-08
3998 3944 -5.72203e-17
5755 3944 -1.28746e-16
5756 3944 -1.31234e-08
5859 3944 -2.09974e-09
3942 3945 -4.6e-06
3943 3945 -9.81043e-14
3944 3945 -1e-05
3945 3945 762
3983 3945 -1.27297e-08
3984 3945 -1.67056e-16
3998 3945 -5.72203e-17
5755 3945 -1.28746e-16
5756 3945 -1.31234e-08
5859 3945 -2.09974e-09
3946 3946 422
3947 3946 -1.09005e-08
4000 3946 -9.47867e-09
5755 3946 -2.1327e-08
3946 3947 -4.6e-06
3947 3947 592
3950 3947 -1.63851e-08
4000 3947 -7.36518e-17
5755 3947 -1.65717e-16
5756 3947 -1.68919e-08
5859 3947 -2.7027e-09
3948 3948 422
3949 3948 -2.1327e-08
3950 3948 -1.09005e-08
3999 3948 -9.47867e-09
5755 3948 -2.1327e-08
3948 3949 -9e-06
3949 3949 422
3950 3949 -2.32475e-16
3983 3949 -1.09005e-08
3997 3949 -9.47867e-09
3999 3949 -2.02152e-16
5755 3949 -2.1327e-08
3947 3950 -9.7e-06
3948 3950 -4.6e-06
3949 3950 -9.81043e-14
3950 3950 762
3983 3950 -1.31234e-08
3997 3950 -1.22034e-24
3999 3950 -5.72203e-17
4000 3950 -9.37563e-25
5755 3950 -1.28746e-16
5756 3950 -1.31234e-08
5859 3950 -2.09974e-09
3951 3951 252
3952 3951 -1.8254e-08
4000 3951 -1.5873e-08
5755 3951 -3.57143e-08
3951 3952 -4.6e-06
3952 3952 422
3955 3952 -2.29858e-08
4000 3952 -1.73023e-16
5755 3952 -3.89303e-16
5756 3952 -2.36967e-08
5859 3952 -3.79147e-09
3953 3953 422
3954 3953 -2.1327e-08
3955 3953 -1.09005e-08
3999 3953 -9.47867e-09
5755 3953 -2.1327e-08
3953 3954 -9e-06
3954 3954 422
3955 3954 -2.32475e-16
3982 3954 -1.09005e-08
3997 3954 -9.47867e-09
3999 3954 -2.02152e-16
5755 3954 -2.1327e-08
3952 3955 -9.7e-06
3953 3955 -4.6e-06
3954 3955 -9.81043e-14
3955 3955 762
3982 3955 -1.31234e-08
3997 3955 -1.22034e-24
3999 3955 -5.72203e-17
4000 3955 -2.20253e-24
5755 3955 -1.28746e-16
5756 3955 -1.31234e-08
5859 3955 -2.09974e-09
3956 3956 422
3957 3956 -2.1327e-08
3959 3956 -1.09005e-08
3998 3956 -9.47867e-09
5755 3956 -2.1327e-08
3956 3957 -9e-06
3957 3957 422
3958 3957 -1.09005e-08
3959 3957 -2.32475e-16
3998 3957 -9.47867e-09
5755 3957 -2.1327e-08
3957 3958 -4.6e-06
3958 3958 762
3959 3958 -1.31234e-08
3982 3958 -1.27297e-08
3998 3958 -5.72203e-17
5755 3958 -1.28746e-16
5756 3958 -1.31234e-08
5859 3958 -2.09974e-09
3956 3959 -4.6e-06
3957 3959 -9.81043e-14
3958 3959 -1e-05
3959 3959 762
3981 3959 -1.27297e-08
3982 3959 -1.67056e-16
3998 3959 -5.72203e-17
5755 3959 -1.28746e-16
5756 3959 -1.31234e-08
5859 3959 -2.09974e-09
3960 3960 422
3961 3960 -1.09005e-08
4000 3960 -9.47867e-09
5755 3960 -2.1327e-08
3960 3961 -4.6e-06
3961 3961 592
3964 3961 -1.63851e-08
4000 3961 -7.36518e-17
5755 3961 -1.65717e-16
5756 3961 -1.68919e-08
5859 3961 -2.7027e-09
3962 3962 422
3963 3962 -2.1327e-08
3964 3962 -1.09005e-08
3999 3962 -9.47867e-09
5755 3962 -2.1327e-08
3962 3963 -9e-06
3963 3963 422
3964 3963 -2.32475e-16
3981 3963 -1.09005e-08
3997 3963 -9.47867e-09
3999 3963 -2.02152e-16
5755 3963 -2.1327e-08
3961 3964 -9.7e-06
3962 3964 -4.6e-06
3963 3964 -9.81043e-14
3964 3964 762
3981 3964 -1.31234e-08
3997 3964 -1.22034e-24
3999 3964 -5.72203e-17
4000 3964 -9.37563e-25
5755 3964 -1.28746e-16
5756 3964 -1.31234e-08
5859 3964 -2.09974e-09
3965 3965 252
3966 3965 -1.8254e-08
4000 3965 -1.5873e-08
5755 3965 -3.57143e-08
3965 3966 -4.6e-06
3966 3966 422
3969 3966 -2.29858e-08
4000 3966 -1.73023e-16
5755 3966 -3.89303e-16
5756 3966 -2.36967e-08
5859 3966 -3.79147e-09
3967 3967 422
3968 3967 -2.1327e-08
3969 3967 -1.09005e-08
3999 3967 -9.47867e-09
5755 3967 -2.1327e-08
3967 3968 -9e-06
3968 3968 422
3969 3968 -2.32475e-16
3980 3968 -1.09005e-08
3997 3968 -9.47867e-09
3999 3968 -2.02152e-16
5755 3968 -2.1327e-08
3966 3969 -9.7e-06
3967 3969 -4.6e-06
3968 3969 -9.81043e-14
3969 3969 762
3980 3969 -1.31234e-08
3997 3969 -1.22034e-24
3999 3969 -5.72203e-17
4000 3969 -2.20253e-24
5755 3969 -1.28746e-16
5756 3969 -1.31234e-08
5859 3969 -2.09974e-09
3970 3970 422
3971 3970 -2.1327e-08
3973 3970 -1.09005e-08
3998 3970 -9.47867e-09
5755 3970 -2.1327e-08
3970 3971 -9e-06
3971 3971 422
3972 3971 -1.09005e-08
3973 3971 -2.32475e-16
3998 3971 -9.47867e-09
5755 3971 -2.1327e-08
3971 3972 -4.6e-06
3972 3972 762
3973 3972 -1.31234e-08
3980 3972 -1.27297e-08
3998 3972 -5.72203e-17
5755 3972 -1.28746e-16
5756 3972 -1.31234e-08
5859 3972 -2.09974e-09
3970 3973 -4.6e-06
3971 3973 -9.81043e-14
3972 3973 -1e-05
3973 3973 762
3979 3973 -1.27297e-08
3980 3973 -1.67056e-16
3998 3973 -5.72203e-17
5755 3973 -1.28746e-16
5756 3973 -1.31234e-08
5859 3973 -2.09974e-09
3974 3974 422
3975 3974 -1.09005e-08
4000 3974 -9.47867e-09
5755 3974 -2.1327e-08
3974 3975 -4.6e-06
3975 3975 592
3978 3975 -1.63851e-08
4000 3975 -7.36518e-17
5755 3975 -1.65717e-16
5756 3975 -1.68919e-08
5859 3975 -2.7027e-09
3976 3976 422
3977 3976 -2.1327e-08
3978 3976 -1.09005e-08
3999 3976 -9.47867e-09
5755 3976 -2.1327e-08
3976 3977 -9e-06
3977 3977 422
3978 3977 -2.32475e-16
3979 3977 -1.09005e-08
3997 3977 -9.47867e-09
3999 3977 -2.02152e-16
5755 3977 -2.1327e-08
3975 3978 -9.7e-06
3976 3978 -4.6e-06
3977 3978 -9.81043e-14
3978 3978 762
3979 3978 -1.31234e-08
3997 3978 -1.22034e-24
3999 3978 -5.72203e-17
4000 3978 -9.37563e-25
5755 3978 -1.28746e-16
5756 3978 -1.31234e-08
5859 3978 -2.09974e-09
3973 3979 -9.7e-06
3977 3979 -4.6e-06
3978 3979 -1e-05
3979 3979 592
3980 3979 -2.73723e-24
3997 3979 -7.36518e-17
3998 3979 -9.37563e-25
3999 3979 -2.53733e-24
4000 3979 -1.58372e-32
5755 3979 -1.65717e-16
5756 3979 -1.68919e-08
5859 3979 -2.7027e-09
3968 3980 -4.6e-06
3969 3980 -1e-05
3972 3980 -9.7e-06
3973 3980 -1.27297e-13
3979 3980 -1.62044e-21
3980 3980 592
3997 3980 -7.36518e-17
3998 3980 -9.37563e-25
3999 3980 -2.53733e-24
4000 3980 -3.72049e-32
5755 3980 -1.65717e-16
5756 3980 -1.68919e-08
5859 3980 -2.7027e-09
3959 3981 -9.7e-06
3963 3981 -4.6e-06
3964 3981 -1e-05
3981 3981 592
3982 3981 -2.73723e-24
3997 3981 -7.36518e-17
3998 3981 -9.37563e-25
3999 3981 -2.53733e-24
4000 3981 -1.58372e-32
5755 3981 -1.65717e-16
5756 3981 -1.68919e-08
5859 3981 -2.7027e-09
3954 3982 -4.6e-06
3955 3982 -1e-05
3958 3982 -9.7e-06
3959 3982 -1.27297e-13
3981 3982 -1.62044e-21
3982 3982 592
3997 3982 -7.36518e-17
3998 3982 -9.37563e-25
3999 3982 -2.53733e-24
4000 3982 -3.72049e-32
5755 3982 -1.65717e-16
5756 3982 -1.68919e-08
5859 3982 -2.7027e-09
3945 3983 -9.7e-06
3949 3983 -4.6e-06
3950 3983 -1e-05
3983 3983 592
3984 3983 -2.73723e-24
3997 3983 -7.36518e-17
3998 3983 -9.37563e-25
3999 3983 -2.53733e-24
4000 3983 -1.58372e-32
5755 3983 -1.65717e-16
5756 3983 -1.68919e-08
5859 3983 -2.7027e-09
3940 3984 -4.6e-06
3941 3984 -1e-05
3944 3984 -9.7e-06
3945 3984 -1.27297e-13
3983 3984 -1.62044e-21
3984 3984 592
3997 3984 -7.36518e-17
3998 3984 -9.37563e-25
3999 3984 -2.53733e-24
4000 3984 -3.72049e-32
5755 3984 -1.65717e-16
5756 3984 -1.68919e-08
5859 3984 -2.7027e-09
3931 3985 -9.7e-06
3935 3985 -4.6e-06
3936 3985 -1e-05
3985 3985 592
3986 3985 -2.73723e-24
3997 3985 -7.36518e-17
3998 3985 -9.37563e-25
3999 3985 -2.53733e-24
4000 3985 -1.58372e-32
5755 3985 -1.65717e-16
5756 3985 -1.68919e-08
5859 3985 -2.7027e-09
3926 3986 -4.6e-06
3927 3986 -1e-05
3930 3986 -9.7e-06
3931 3986 -1.27297e-13
3985 3986 -1.62044e-21
3986 3986 592
3997 3986 -7.36518e-17
3998 3986 -9.37563e-25
3999 3986 -2.53733e-24
4000 3986 -3.72049e-32
5755 3986 -1.65717e-16
5756 3986 -1.68919e-08
5859 3986 -2.7027e-09
3917 3987 -9.7e-06
3921 3987 -4.6e-06
3922 3987 -1e-05
3987 3987 592
3988 3987 -2.73723e-24
3997 3987 -7.36518e-17
3998 3987 -9.37563e-25
3999 3987 -2.53733e-24
4000 3987 -1.58372e-32
5755 3987 -1.65717e-16
5756 3987 -1.68919e-08
5859 3987 -2.7027e-09
3912 3988 -4.6e-06
3913 3988 -1e-05
3916 3988 -9.7e-06
3917 3988 -1.27297e-13
3987 3988 -1.62044e-21
3988 3988 592
3997 3988 -7.36518e-17
3998 3988 -9.37563e-25
3999 3988 -2.53733e-24
4000 3988 -3.72049e-32
5755 3988 -1.65717e-16
5756 3988 -1.68919e-08
5859 3988 -2.7027e-09
3903 3989 -9.7e-06
3907 3989 -4.6e-06
3908 3989 -1e-05
3989 3989 592
3990 3989 -2.73723e-24
3997 3989 -7.36518e-17
3998 3989 -9.37563e-25
3999 3989 -2.53733e-24
4000 3989 -1.58372e-32
5755 3989 -1.65717e-16
5756 3989 -1.68919e-08
5859 3989 -2.7027e-09
3898 3990 -4.6e-06
3899 3990 -1e-05
3902 3990 -9.7e-06
3903 3990 -1.27297e-13
3989 3990 -1.62044e-21
3990 3990 592
3997 3990 -7.36518e-17
3998 3990 -9.37563e-25
3999 3990 -2.53733e-24
4000 3990 -3.72049e-32
5755 3990 -1.65717e-16
5756 3990 -1.68919e-08
5859 3990 -2.7027e-09
3889 3991 -9.7e-06
3893 3991 -4.6e-06
3894 3991 -1e-05
3991 3991 592
3992 3991 -2.73723e-24
3997 3991 -7.36518e-17
3998 3991 -9.37563e-25
3999 3991 -2.53733e-24
4000 3991 -1.58372e-32
5755 3991 -1.65717e-16
5756 3991 -1.68919e-08
5859 3991 -2.7027e-09
3884 3992 -4.6e-06
3885 3992 -1e-05
3888 3992 -9.7e-06
3889 3992 -1.27297e-13
3991 3992 -1.62044e-21
3992 3992 592
3997 3992 -7.36518e-17
3998 3992 -9.37563e-25
3999 3992 -2.53733e-24
4000 3992 -3.72049e-32
5755 3992 -1.65717e-16
5756 3992 -1.68919e-08
5859 3992 -2.7027e-09
3875 3993 -9.7e-06
3879 3993 -4.6e-06
3880 3993 -1e-05
3993 3993 592
3994 3993 -2.73723e-24
3997 3993 -7.36518e-17
3998 3993 -9.37563e-25
3999 3993 -2.53733e-24
4000 3993 -1.58372e-32
5755 3993 -1.65717e-16
5756 3993 -1.68919e-08
5859 3993 -2.7027e-09
3870 3994 -4.6e-06
3871 3994 -1e-05
3874 3994 -9.7e-06
3875 3994 -1.27297e-13
3993 3994 -1.62044e-21
3994 3994 592
3997 3994 -7.36518e-17
3998 3994 -9.37563e-25
3999 3994 -2.53733e-24
4000 3994 -3.72049e-32
5755 3994 -1.65717e-16
5756 3994 -1.68919e-08
5859 3994 -2.7027e-09
3861 3995 -9.7e-06
3865 3995 -4.6e-06
3866 3995 -1e-05
3995 3995 592
3996 3995 -2.73723e-24
3997 3995 -7.36518e-17
3998 3995 -9.37563e-25
3999 3995 -2.53733e-24
4000 3995 -1.58372e-32
5755 3995 -1.65717e-16
5756 3995 -1.68919e-08
5859 3995 -2.7027e-09
3856 3996 -4.6e-06
3857 3996 -1e-05
3860 3996 -9.7e-06
3861 3996 -1.27297e-13
3995 3996 -1.62044e-21
3996 3996 592
3997 3996 -7.36518e-17
3998 3996 -9.37563e-25
3999 3996 -2.53733e-24
4000 3996 -3.72049e-32
5755 3996 -1.65717e-16
5756 3996 -1.68919e-08
5859 3996 -2.7027e-09
3848 3997 -2.1e-05
3849 3997 -3.4585e-14
3852 3997 -2.42095e-13
3856 3997 -4e-06
3857 3997 -9.29898e-22
3865 3997 -4e-06
3866 3997 -9.29898e-22
3870 3997 -4e-06
3871 3997 -9.29898e-22
3879 3997 -4e-06
3880 3997 -9.29898e-22
3884 3997 -4e-06
3885 3997 -9.29898e-22
3893 3997 -4e-06
3894 3997 -9.29898e-22
3898 3997 -4e-06
3899 3997 -9.29898e-22
3907 3997 -4e-06
3908 3997 -9.29898e-22
3912 3997 -4e-06
3913 3997 -9.29898e-22
3921 3997 -4e-06
3922 3997 -9.29898e-22
3926 3997 -4e-06
3927 3997 -9.29898e-22
3935 3997 -4e-06
3936 3997 -9.29898e-22
3940 3997 -4e-06
3941 3997 -9.29898e-22
3949 3997 -4e-06
3950 3997 -9.29898e-22
3954 3997 -4e-06
3955 3997 -9.29898e-22
3963 3997 -4e-06
3964 3997 -9.29898e-22
3968 3997 -4e-06
3969 3997 -9.29898e-22
3977 3997 -4e-06
3978 3997 -9.29898e-22
3979 3997 -4.36019e-14
3980 3997 -4.36019e-14
3981 3997 -4.36019e-14
3982 3997 -4.36019e-14
3983 3997 -4.36019e-14
3984 3997 -4.36019e-14
3985 3997 -4.36019e-14
3986 3997 -4.36019e-14
3987 3997 -4.36019e-14
3988 3997 -4.36019e-14
3989 3997 -4.36019e-14
3990 3997 -4.36019e-14
3991 3997 -4.36019e-14
3992 3997 -4.36019e-14
3993 3997 -4.36019e-14
3994 3997 -4.36019e-14
3995 3997 -4.36019e-14
3996 3997 -4.36019e-14
3997 3997 28401
3998 3997 -1.58445e-09
3999 3997 -5.12479e-25
4000 3997 -0
5755 3997 -5.40666e-17
5756 3997 -4.66791e-25
5763 3997 -6.35827e-31
5764 3997 -6.35827e-31
5859 3997 -7.46866e-26
3849 3998 -2.1e-05
3852 3998 -2.42095e-13
3858 3998 -4e-06
3859 3998 -4e-06
3860 3998 -4.36019e-14
3861 3998 -4.36019e-14
3872 3998 -4e-06
3873 3998 -4e-06
3874 3998 -4.36019e-14
3875 3998 -4.36019e-14
3886 3998 -4e-06
3887 3998 -4e-06
3888 3998 -4.36019e-14
3889 3998 -4.36019e-14
3900 3998 -4e-06
3901 3998 -4e-06
3902 3998 -4.36019e-14
3903 3998 -4.36019e-14
3914 3998 -4e-06
3915 3998 -4e-06
3916 3998 -4.36019e-14
3917 3998 -4.36019e-14
3928 3998 -4e-06
3929 3998 -4e-06
3930 3998 -4.36019e-14
3931 3998 -4.36019e-14
3942 3998 -4e-06
3943 3998 -4e-06
3944 3998 -4.36019e-14
3945 3998 -4.36019e-14
3956 3998 -4e-06
3957 3998 -4e-06
3958 3998 -4.36019e-14
3959 3998 -4.36019e-14
3970 3998 -4e-06
3971 3998 -4e-06
3972 3998 -4.36019e-14
3973 3998 -4.36019e-14
3979 3998 -5.55037e-22
3980 3998 -5.55037e-22
3981 3998 -5.55037e-22
3982 3998 -5.55037e-22
3983 3998 -5.55037e-22
3984 3998 -5.55037e-22
3985 3998 -5.55037e-22
3986 3998 -5.55037e-22
3987 3998 -5.55037e-22
3988 3998 -5.55037e-22
3989 3998 -5.55037e-22
3990 3998 -5.55037e-22
3991 3998 -5.55037e-22
3992 3998 -5.55037e-22
3993 3998 -5.55037e-22
3994 3998 -5.55037e-22
3995 3998 -5.55037e-22
3996 3998 -5.55037e-22
3997 3998 -4.5e-05
3998 3998 28571
3999 3998 -8.07167e-34
4000 3998 0
5755 3998 -5.37449e-17
5756 3998 -3.60493e-25
5763 3998 -6.32044e-31
5764 3998 -6.32044e-31
5859 3998 -5.7679e-26
3844 3999 -2.1e-05
3847 3999 -2.42095e-13
3855 3999 -4e-06
3856 3999 -8.5308e-14
3857 3999 -4.36019e-14
3864 3999 -4e-06
3865 3999 -8.5308e-14
3866 3999 -4.36019e-14
3869 3999 -4e-06
3870 3999 -8.5308e-14
3871 3999 -4.36019e-14
3878 3999 -4e-06
3879 3999 -8.5308e-14
3880 3999 -4.36019e-14
3883 3999 -4e-06
3884 3999 -8.5308e-14
3885 3999 -4.36019e-14
3892 3999 -4e-06
3893 3999 -8.5308e-14
3894 3999 -4.36019e-14
3897 3999 -4e-06
3898 3999 -8.5308e-14
3899 3999 -4.36019e-14
3906 3999 -4e-06
3907 3999 -8.5308e-14
3908 3999 -4.36019e-14
3911 3999 -4e-06
3912 3999 -8.5308e-14
3913 3999 -4.36019e-14
3920 3999 -4e-06
3921 3999 -8.5308e-14
3922 3999 -4.36019e-14
3925 3999 -4e-06
3926 3999 -8.5308e-14
3927 3999 -4.36019e-14
3934 3999 -4e-06
3935 3999 -8.5308e-14
3936 3999 -4.36019e-14
3939 3999 -4e-06
3940 3999 -8.5308e-14
3941 3999 -4.36019e-14
3948 3999 -4e-06
3949 3999 -8.5308e-14
3950 3999 -4.36019e-14
3953 3999 -4e-06
3954 3999 -8.5308e-14
3955 3999 -4.36019e-14
3962 3999 -4e-06
3963 3999 -8.5308e-14
3964 3999 -4.36019e-14
3967 3999 -4e-06
3968 3999 -8.5308e-14
3969 3999 -4.36019e-14
3976 3999 -4e-06
3977 3999 -8.5308e-14
3978 3999 -4.36019e-14
3979 3999 -1.5021e-21
3980 3999 -1.5021e-21
3981 3999 -1.5021e-21
3982 3999 -1.5021e-21
3983 3999 -1.5021e-21
3984 3999 -1.5021e-21
3985 3999 -1.5021e-21
3986 3999 -1.5021e-21
3987 3999 -1.5021e-21
3988 3999 -1.5021e-21
3989 3999 -1.5021e-21
3990 3999 -1.5021e-21
3991 3999 -1.5021e-21
3992 3999 -1.5021e-21
3993 3999 -1.5021e-21
3994 3999 -1.5021e-21
3995 3999 -1.5021e-21
3996 3999 -1.5021e-21
3997 3999 -1.45549e-20
3998 3999 -2.30616e-29
3999 3999 28571
4000 3999 -1.57502e-09
5755 3999 -5.37449e-17
5756 3999 -3.60493e-25
5763 3999 0
5764 3999 0
5765 3999 -6.32044e-31
5770 3999 -6.32044e-31
5859 3999 -5.7679e-26
3843 4000 -2.1e-05
3844 4000 -3.4585e-14
3847 4000 -2.42095e-13
3853 4000 -4e-06
3854 4000 -7.30159e-14
3857 4000 -1.67833e-21
3862 4000 -4e-06
3863 4000 -4.36019e-14
3866 4000 -7.14423e-22
3867 4000 -4e-06
3868 4000 -7.30159e-14
3871 4000 -1.67833e-21
3876 4000 -4e-06
3877 4000 -4.36019e-14
3880 4000 -7.14423e-22
3881 4000 -4e-06
3882 4000 -7.30159e-14
3885 4000 -1.67833e-21
3890 4000 -4e-06
3891 4000 -4.36019e-14
3894 4000 -7.14423e-22
3895 4000 -4e-06
3896 4000 -7.30159e-14
3899 4000 -1.67833e-21
3904 4000 -4e-06
3905 4000 -4.36019e-14
3908 4000 -7.14423e-22
3909 4000 -4e-06
3910 4000 -7.30159e-14
3913 4000 -1.67833e-21
3918 4000 -4e-06
3919 4000 -4.36019e-14
3922 4000 -7.14423e-22
3923 4000 -4e-06
3924 4000 -7.30159e-14
3927 4000 -1.67833e-21
3932 4000 -4e-06
3933 4000 -4.36019e-14
3936 4000 -7.14423e-22
3937 4000 -4e-06
3938 4000 -7.30159e-14
3941 4000 -1.67833e-21
3946 4000 -4e-06
3947 4000 -4.36019e-14
3950 4000 -7.14423e-22
3951 4000 -4e-06
3952 4000 -7.30159e-14
3955 4000 -1.67833e-21
3960 4000 -4e-06
3961 4000 -4.36019e-14
3964 4000 -7.14423e-22
3965 4000 -4e-06
3966 4000 -7.30159e-14
3969 4000 -1.67833e-21
3974 4000 -4e-06
3975 4000 -4.36019e-14
3978 4000 -7.14423e-22
3979 4000 -9.37563e-30
3980 4000 -2.20253e-29
3981 4000 -9.37563e-30
3982 4000 -2.20253e-29
3983 4000 -9.37563e-30
3984 4000 -2.20253e-29
3985 4000 -9.37563e-30
3986 4000 -2.20253e-29
3987 4000 -9.37563e-30
3988 4000 -2.20253e-29
3989 4000 -9.37563e-30
3990 4000 -2.20253e-29
3991 4000 -9.37563e-30
3992 4000 -2.20253e-29
3993 4000 -9.37563e-30
3994 4000 -2.20253e-29
3995 4000 -9.37563e-30
3996 4000 -2.20253e-29
3997 4000 -3.78351e-44
3998 4000 0
3999 4000 -4.5e-05
4000 4000 28401
5755 4000 -7.23033e-17
5756 4000 -7.8169e-25
5763 4000 0
5764 4000 0
5765 4000 -6.35827e-31
5770 4000 -6.35827e-31
5859 4000 -1.2507e-25
4001 4001 3643.2
4002 4001 -1.6469e-09
4005 4001 -1.15283e-08
4158 4001 -5.76416e-09
4001 4002 -6e-06
4002 4002 3643.2
4005 4002 -1.15283e-08
4157 4002 -5.76416e-09
4158 4002 -9.49302e-18
4003 4003 170
4005 4003 -7.05881e-07
5765 4003 -7.05881e-07
4004 4004 170
4005 4004 -7.05881e-07
5770 4004 -7.05881e-07
4001 4005 -4.2e-05
4002 4005 -4.2e-05
4003 4005 -0.00012
4004 4005 -0.00012
4005 4005 1135.6
4157 4005 -2.13187e-16
4158 4005 -2.13187e-16
5765 4005 -7.45912e-14
5770 4005 -7.45912e-14
4006 4006 3643.2
4007 4006 -1.6469e-09
4010 4006 -1.15283e-08
4155 4006 -5.76416e-09
4006 4007 -6e-06
4007 4007 3643.2
4010 4007 -1.15283e-08
4155 4007 -9.49302e-18
4156 4007 -5.76416e-09
4008 4008 170
4010 4008 -7.05881e-07
5764 4008 -7.05881e-07
4009 4009 170
4010 4009 -7.05881e-07
5763 4009 -7.05881e-07
4006 4010 -4.2e-05
4007 4010 -4.2e-05
4008 4010 -0.00012
4009 4010 -0.00012
4010 4010 1135.6
4155 4010 -2.13187e-16
4156 4010 -2.13187e-16
5763 4010 -7.45912e-14
5764 4010 -7.45912e-14
4011 4011 252
4012 4011 -1.8254e-08
4158 4011 -1.5873e-08
5757 4011 -3.57143e-08
4011 4012 -4.6e-06
4012 4012 422
4015 4012 -2.29858e-08
4158 4012 -1.73023e-16
5757 4012 -3.89303e-16
5758 4012 -2.36967e-08
5859 4012 -3.79147e-09
4013 4013 422
4014 4013 -2.1327e-08
4015 4013 -1.09005e-08
4157 4013 -9.47867e-09
5757 4013 -2.1327e-08
4013 4014 -9e-06
4014 4014 422
4015 4014 -2.32475e-16
4154 4014 -1.09005e-08
4155 4014 -9.47867e-09
4157 4014 -2.02152e-16
5757 4014 -2.1327e-08
4012 4015 -9.7e-06
4013 4015 -4.6e-06
4014 4015 -9.81043e-14
4015 4015 762
4154 4015 -1.31234e-08
4155 4015 -1.22034e-24
4157 4015 -5.72203e-17
4158 4015 -2.20253e-24
5757 4015 -1.28746e-16
5758 4015 -1.31234e-08
5859 4015 -2.09974e-09
4016 4016 422
4017 4016 -2.1327e-08
4019 4016 -1.09005e-08
4156 4016 -9.47867e-09
5757 4016 -2.1327e-08
4016 4017 -9e-06
4017 4017 422
4018 4017 -1.09005e-08
4019 4017 -2.32475e-16
4156 4017 -9.47867e-09
5757 4017 -2.1327e-08
4017 4018 -4.6e-06
4018 4018 762
4019 4018 -1.31234e-08
4154 4018 -1.27297e-08
4156 4018 -5.72203e-17
5757 4018 -1.28746e-16
5758 4018 -1.31234e-08
5859 4018 -2.09974e-09
4016 4019 -4.6e-06
4017 4019 -9.81043e-14
4018 4019 -1e-05
4019 4019 762
4153 4019 -1.27297e-08
4154 4019 -1.67056e-16
4156 4019 -5.72203e-17
5757 4019 -1.28746e-16
5758 4019 -1.31234e-08
5859 4019 -2.09974e-09
4020 4020 422
4021 4020 -1.09005e-08
4158 4020 -9.47867e-09
5757 4020 -2.1327e-08
4020 4021 -4.6e-06
4021 4021 592
4024 4021 -1.63851e-08
4158 4021 -7.36518e-17
5757 4021 -1.65717e-16
5758 4021 -1.68919e-08
5859 4021 -2.7027e-09
4022 4022 422
4023 4022 -2.1327e-08
4024 4022 -1.09005e-08
4157 4022 -9.47867e-09
5757 4022 -2.1327e-08
4022 4023 -9e-06
4023 4023 422
4024 4023 -2.32475e-16
4153 4023 -1.09005e-08
4155 4023 -9.47867e-09
4157 4023 -2.02152e-16
5757 4023 -2.1327e-08
4021 4024 -9.7e-06
4022 4024 -4.6e-06
4023 4024 -9.81043e-14
4024 4024 762
4153 4024 -1.31234e-08
4155 4024 -1.22034e-24
4157 4024 -5.72203e-17
4158 4024 -9.37563e-25
5757 4024 -1.28746e-16
5758 4024 -1.31234e-08
5859 4024 -2.09974e-09
4025 4025 252
4026 4025 -1.8254e-08
4158 4025 -1.5873e-08
5757 4025 -3.57143e-08
4025 4026 -4.6e-06
4026 4026 422
4029 4026 -2.29858e-08
4158 4026 -1.73023e-16
5757 4026 -3.89303e-16
5758 4026 -2.36967e-08
5859 4026 -3.79147e-09
4027 4027 422
4028 4027 -2.1327e-08
4029 4027 -1.09005e-08
4157 4027 -9.47867e-09
5757 4027 -2.1327e-08
4027 4028 -9e-06
4028 4028 422
4029 4028 -2.32475e-16
4152 4028 -1.09005e-08
4155 4028 -9.47867e-09
4157 4028 -2.02152e-16
5757 4028 -2.1327e-08
4026 4029 -9.7e-06
4027 4029 -4.6e-06
4028 4029 -9.81043e-14
4029 4029 762
4152 4029 -1.31234e-08
4155 4029 -1.22034e-24
4157 4029 -5.72203e-17
4158 4029 -2.20253e-24
5757 4029 -1.28746e-16
5758 4029 -1.31234e-08
5859 4029 -2.09974e-09
4030 4030 422
4031 4030 -2.1327e-08
4033 4030 -1.09005e-08
4156 4030 -9.47867e-09
5757 4030 -2.1327e-08
4030 4031 -9e-06
4031 4031 422
4032 4031 -1.09005e-08
4033 4031 -2.32475e-16
4156 4031 -9.47867e-09
5757 4031 -2.1327e-08
4031 4032 -4.6e-06
4032 4032 762
4033 4032 -1.31234e-08
4152 4032 -1.27297e-08
4156 4032 -5.72203e-17
5757 4032 -1.28746e-16
5758 4032 -1.31234e-08
5859 4032 -2.09974e-09
4030 4033 -4.6e-06
4031 4033 -9.81043e-14
4032 4033 -1e-05
4033 4033 762
4151 4033 -1.27297e-08
4152 4033 -1.67056e-16
4156 4033 -5.72203e-17
5757 4033 -1.28746e-16
5758 4033 -1.31234e-08
5859 4033 -2.09974e-09
4034 4034 422
4035 4034 -1.09005e-08
4158 4034 -9.47867e-09
5757 4034 -2.1327e-08
4034 4035 -4.6e-06
4035 4035 592
4038 4035 -1.63851e-08
4158 4035 -7.36518e-17
5757 4035 -1.65717e-16
5758 4035 -1.68919e-08
5859 4035 -2.7027e-09
4036 4036 422
4037 4036 -2.1327e-08
4038 4036 -1.09005e-08
4157 4036 -9.47867e-09
5757 4036 -2.1327e-08
4036 4037 -9e-06
4037 4037 422
4038 4037 -2.32475e-16
4151 4037 -1.09005e-08
4155 4037 -9.47867e-09
4157 4037 -2.02152e-16
5757 4037 -2.1327e-08
4035 4038 -9.7e-06
4036 4038 -4.6e-06
4037 4038 -9.81043e-14
4038 4038 762
4151 4038 -1.31234e-08
4155 4038 -1.22034e-24
4157 4038 -5.72203e-17
4158 4038 -9.37563e-25
5757 4038 -1.28746e-16
5758 4038 -1.31234e-08
5859 4038 -2.09974e-09
4039 4039 252
4040 4039 -1.8254e-08
4158 4039 -1.5873e-08
5757 4039 -3.57143e-08
4039 4040 -4.6e-06
4040 4040 422
4043 4040 -2.29858e-08
4158 4040 -1.73023e-16
5757 4040 -3.89303e-16
5758 4040 -2.36967e-08
5859 4040 -3.79147e-09
4041 4041 422
4042 4041 -2.1327e-08
4043 4041 -1.09005e-08
4157 4041 -9.47867e-09
5757 4041 -2.1327e-08
4041 4042 -9e-06
4042 4042 422
4043 4042 -2.32475e-16
4150 4042 -1.09005e-08
4155 4042 -9.47867e-09
4157 4042 -2.02152e-16
5757 4042 -2.1327e-08
4040 4043 -9.7e-06
4041 4043 -4.6e-06
4042 4043 -9.81043e-14
4043 4043 762
4150 4043 -1.31234e-08
4155 4043 -1.22034e-24
4157 4043 -5.72203e-17
4158 4043 -2.20253e-24
5757 4043 -1.28746e-16
5758 4043 -1.31234e-08
5859 4043 -2.09974e-09
4044 4044 422
4045 4044 -2.1327e-08
4047 4044 -1.09005e-08
4156 4044 -9.47867e-09
5757 4044 -2.1327e-08
4044 4045 -9e-06
4045 4045 422
4046 4045 -1.09005e-08
4047 4045 -2.32475e-16
4156 4045 -9.47867e-09
5757 4045 -2.1327e-08
4045 4046 -4.6e-06
4046 4046 762
4047 4046 -1.31234e-08
4150 4046 -1.27297e-08
4156 4046 -5.72203e-17
5757 4046 -1.28746e-16
5758 4046 -1.31234e-08
5859 4046 -2.09974e-09
4044 4047 -4.6e-06
4045 4047 -9.81043e-14
4046 4047 -1e-05
4047 4047 762
4149 4047 -1.27297e-08
4150 4047 -1.67056e-16
4156 4047 -5.72203e-17
5757 4047 -1.28746e-16
5758 4047 -1.31234e-08
5859 4047 -2.09974e-09
4048 4048 422
4049 4048 -1.09005e-08
4158 4048 -9.47867e-09
5757 4048 -2.1327e-08
4048 4049 -4.6e-06
4049 4049 592
4052 4049 -1.63851e-08
4158 4049 -7.36518e-17
5757 4049 -1.65717e-16
5758 4049 -1.68919e-08
5859 4049 -2.7027e-09
4050 4050 422
4051 4050 -2.1327e-08
4052 4050 -1.09005e-08
4157 4050 -9.47867e-09
5757 4050 -2.1327e-08
4050 4051 -9e-06
4051 4051 422
4052 4051 -2.32475e-16
4149 4051 -1.09005e-08
4155 4051 -9.47867e-09
4157 4051 -2.02152e-16
5757 4051 -2.1327e-08
4049 4052 -9.7e-06
4050 4052 -4.6e-06
4051 4052 -9.81043e-14
4052 4052 762
4149 4052 -1.31234e-08
4155 4052 -1.22034e-24
4157 4052 -5.72203e-17
4158 4052 -9.37563e-25
5757 4052 -1.28746e-16
5758 4052 -1.31234e-08
5859 4052 -2.09974e-09
4053 4053 252
4054 4053 -1.8254e-08
4158 4053 -1.5873e-08
5757 4053 -3.57143e-08
4053 4054 -4.6e-06
4054 4054 422
4057 4054 -2.29858e-08
4158 4054 -1.73023e-16
5757 4054 -3.89303e-16
5758 4054 -2.36967e-08
5859 4054 -3.79147e-09
4055 4055 422
4056 4055 -2.1327e-08
4057 4055 -1.09005e-08
4157 4055 -9.47867e-09
5757 4055 -2.1327e-08
4055 4056 -9e-06
4056 4056 422
4057 4056 -2.32475e-16
4148 4056 -1.09005e-08
4155 4056 -9.47867e-09
4157 4056 -2.02152e-16
5757 4056 -2.1327e-08
4054 4057 -9.7e-06
4055 4057 -4.6e-06
4056 4057 -9.81043e-14
4057 4057 762
4148 4057 -1.31234e-08
4155 4057 -1.22034e-24
4157 4057 -5.72203e-17
4158 4057 -2.20253e-24
5757 4057 -1.28746e-16
5758 4057 -1.31234e-08
5859 4057 -2.09974e-09
4058 4058 422
4059 4058 -2.1327e-08
4061 4058 -1.09005e-08
4156 4058 -9.47867e-09
5757 4058 -2.1327e-08
4058 4059 -9e-06
4059 4059 422
4060 4059 -1.09005e-08
4061 4059 -2.32475e-16
4156 4059 -9.47867e-09
5757 4059 -2.1327e-08
4059 4060 -4.6e-06
4060 4060 762
4061 4060 -1.31234e-08
4148 4060 -1.27297e-08
4156 4060 -5.72203e-17
5757 4060 -1.28746e-16
5758 4060 -1.31234e-08
5859 4060 -2.09974e-09
4058 4061 -4.6e-06
4059 4061 -9.81043e-14
4060 4061 -1e-05
4061 4061 762
4147 4061 -1.27297e-08
4148 4061 -1.67056e-16
4156 4061 -5.72203e-17
5757 4061 -1.28746e-16
5758 4061 -1.31234e-08
5859 4061 -2.09974e-09
4062 4062 422
4063 4062 -1.09005e-08
4158 4062 -9.47867e-09
5757 4062 -2.1327e-08
4062 4063 -4.6e-06
4063 4063 592
4066 4063 -1.63851e-08
4158 4063 -7.36518e-17
5757 4063 -1.65717e-16
5758 4063 -1.68919e-08
5859 4063 -2.7027e-09
4064 4064 422
4065 4064 -2.1327e-08
4066 4064 -1.09005e-08
4157 4064 -9.47867e-09
5757 4064 -2.1327e-08
4064 4065 -9e-06
4065 4065 422
4066 4065 -2.32475e-16
4147 4065 -1.09005e-08
4155 4065 -9.47867e-09
4157 4065 -2.02152e-16
5757 4065 -2.1327e-08
4063 4066 -9.7e-06
4064 4066 -4.6e-06
4065 4066 -9.81043e-14
4066 4066 762
4147 4066 -1.31234e-08
4155 4066 -1.22034e-24
4157 4066 -5.72203e-17
4158 4066 -9.37563e-25
5757 4066 -1.28746e-16
5758 4066 -1.31234e-08
5859 4066 -2.09974e-09
4067 4067 252
4068 4067 -1.8254e-08
4158 4067 -1.5873e-08
5757 4067 -3.57143e-08
4067 4068 -4.6e-06
4068 4068 422
4071 4068 -2.29858e-08
4158 4068 -1.73023e-16
5757 4068 -3.89303e-16
5758 4068 -2.36967e-08
5859 4068 -3.79147e-09
4069 4069 422
4070 4069 -2.1327e-08
4071 4069 -1.09005e-08
4157 4069 -9.47867e-09
5757 4069 -2.1327e-08
4069 4070 -9e-06
4070 4070 422
4071 4070 -2.32475e-16
4146 4070 -1.09005e-08
4155 4070 -9.47867e-09
4157 4070 -2.02152e-16
5757 4070 -2.1327e-08
4068 4071 -9.7e-06
4069 4071 -4.6e-06
4070 4071 -9.81043e-14
4071 4071 762
4146 4071 -1.31234e-08
4155 4071 -1.22034e-24
4157 4071 -5.72203e-17
4158 4071 -2.20253e-24
5757 4071 -1.28746e-16
5758 4071 -1.31234e-08
5859 4071 -2.09974e-09
4072 4072 422
4073 4072 -2.1327e-08
4075 4072 -1.09005e-08
4156 4072 -9.47867e-09
5757 4072 -2.1327e-08
4072 4073 -9e-06
4073 4073 422
4074 4073 -1.09005e-08
4075 4073 -2.32475e-16
4156 4073 -9.47867e-09
5757 4073 -2.1327e-08
4073 4074 -4.6e-06
4074 4074 762
4075 4074 -1.31234e-08
4146 4074 -1.27297e-08
4156 4074 -5.72203e-17
5757 4074 -1.28746e-16
5758 4074 -1.31234e-08
5859 4074 -2.09974e-09
4072 4075 -4.6e-06
4073 4075 -9.81043e-14
4074 4075 -1e-05
4075 4075 762
4145 4075 -1.27297e-08
4146 4075 -1.67056e-16
4156 4075 -5.72203e-17
5757 4075 -1.28746e-16
5758 4075 -1.31234e-08
5859 4075 -2.09974e-09
4076 4076 422
4077 4076 -1.09005e-08
4158 4076 -9.47867e-09
5757 4076 -2.1327e-08
4076 4077 -4.6e-06
4077 4077 592
4080 4077 -1.63851e-08
4158 4077 -7.36518e-17
5757 4077 -1.65717e-16
5758 4077 -1.68919e-08
5859 4077 -2.7027e-09
4078 4078 422
4079 4078 -2.1327e-08
4080 4078 -1.09005e-08
4157 4078 -9.47867e-09
5757 4078 -2.1327e-08
4078 4079 -9e-06
4079 4079 422
4080 4079 -2.32475e-16
4145 4079 -1.09005e-08
4155 4079 -9.47867e-09
4157 4079 -2.02152e-16
5757 4079 -2.1327e-08
4077 4080 -9.7e-06
4078 4080 -4.6e-06
4079 4080 -9.81043e-14
4080 4080 762
4145 4080 -1.31234e-08
4155 4080 -1.22034e-24
4157 4080 -5.72203e-17
4158 4080 -9.37563e-25
5757 4080 -1.28746e-16
5758 4080 -1.31234e-08
5859 4080 -2.09974e-09
4081 4081 252
4082 4081 -1.8254e-08
4158 4081 -1.5873e-08
5757 4081 -3.57143e-08
4081 4082 -4.6e-06
4082 4082 422
4085 4082 -2.29858e-08
4158 4082 -1.73023e-16
5757 4082 -3.89303e-16
5758 4082 -2.36967e-08
5859 4082 -3.79147e-09
4083 4083 422
4084 4083 -2.1327e-08
4085 4083 -1.09005e-08
4157 4083 -9.47867e-09
5757 4083 -2.1327e-08
4083 4084 -9e-06
4084 4084 422
4085 4084 -2.32475e-16
4144 4084 -1.09005e-08
4155 4084 -9.47867e-09
4157 4084 -2.02152e-16
5757 4084 -2.1327e-08
4082 4085 -9.7e-06
4083 4085 -4.6e-06
4084 4085 -9.81043e-14
4085 4085 762
4144 4085 -1.31234e-08
4155 4085 -1.22034e-24
4157 4085 -5.72203e-17
4158 4085 -2.20253e-24
5757 4085 -1.28746e-16
5758 4085 -1.31234e-08
5859 4085 -2.09974e-09
4086 4086 422
4087 4086 -2.1327e-08
4089 4086 -1.09005e-08
4156 4086 -9.47867e-09
5757 4086 -2.1327e-08
4086 4087 -9e-06
4087 4087 422
4088 4087 -1.09005e-08
4089 4087 -2.32475e-16
4156 4087 -9.47867e-09
5757 4087 -2.1327e-08
4087 4088 -4.6e-06
4088 4088 762
4089 4088 -1.31234e-08
4144 4088 -1.27297e-08
4156 4088 -5.72203e-17
5757 4088 -1.28746e-16
5758 4088 -1.31234e-08
5859 4088 -2.09974e-09
4086 4089 -4.6e-06
4087 4089 -9.81043e-14
4088 4089 -1e-05
4089 4089 762
4143 4089 -1.27297e-08
4144 4089 -1.67056e-16
4156 4089 -5.72203e-17
5757 4089 -1.28746e-16
5758 4089 -1.31234e-08
5859 4089 -2.09974e-09
4090 4090 422
4091 4090 -1.09005e-08
4158 4090 -9.47867e-09
5757 4090 -2.1327e-08
4090 4091 -4.6e-06
4091 4091 592
4094 4091 -1.63851e-08
4158 4091 -7.36518e-17
5757 4091 -1.65717e-16
5758 4091 -1.68919e-08
5859 4091 -2.7027e-09
4092 4092 422
4093 4092 -2.1327e-08
4094 4092 -1.09005e-08
4157 4092 -9.47867e-09
5757 4092 -2.1327e-08
4092 4093 -9e-06
4093 4093 422
4094 4093 -2.32475e-16
4143 4093 -1.09005e-08
4155 4093 -9.47867e-09
4157 4093 -2.02152e-16
5757 4093 -2.1327e-08
4091 4094 -9.7e-06
4092 4094 -4.6e-06
4093 4094 -9.81043e-14
4094 4094 762
4143 4094 -1.31234e-08
4155 4094 -1.22034e-24
4157 4094 -5.72203e-17
4158 4094 -9.37563e-25
5757 4094 -1.28746e-16
5758 4094 -1.31234e-08
5859 4094 -2.09974e-09
4095 4095 252
4096 4095 -1.8254e-08
4158 4095 -1.5873e-08
5757 4095 -3.57143e-08
4095 4096 -4.6e-06
4096 4096 422
4099 4096 -2.29858e-08
4158 4096 -1.73023e-16
5757 4096 -3.89303e-16
5758 4096 -2.36967e-08
5859 4096 -3.79147e-09
4097 4097 422
4098 4097 -2.1327e-08
4099 4097 -1.09005e-08
4157 4097 -9.47867e-09
5757 4097 -2.1327e-08
4097 4098 -9e-06
4098 4098 422
4099 4098 -2.32475e-16
4142 4098 -1.09005e-08
4155 4098 -9.47867e-09
4157 4098 -2.02152e-16
5757 4098 -2.1327e-08
4096 4099 -9.7e-06
4097 4099 -4.6e-06
4098 4099 -9.81043e-14
4099 4099 762
4142 4099 -1.31234e-08
4155 4099 -1.22034e-24
4157 4099 -5.72203e-17
4158 4099 -2.20253e-24
5757 4099 -1.28746e-16
5758 4099 -1.31234e-08
5859 4099 -2.09974e-09
4100 4100 422
4101 4100 -2.1327e-08
4103 4100 -1.09005e-08
4156 4100 -9.47867e-09
5757 4100 -2.1327e-08
4100 4101 -9e-06
4101 4101 422
4102 4101 -1.09005e-08
4103 4101 -2.32475e-16
4156 4101 -9.47867e-09
5757 4101 -2.1327e-08
4101 4102 -4.6e-06
4102 4102 762
4103 4102 -1.31234e-08
4142 4102 -1.27297e-08
4156 4102 -5.72203e-17
5757 4102 -1.28746e-16
5758 4102 -1.31234e-08
5859 4102 -2.09974e-09
4100 4103 -4.6e-06
4101 4103 -9.81043e-14
4102 4103 -1e-05
4103 4103 762
4141 4103 -1.27297e-08
4142 4103 -1.67056e-16
4156 4103 -5.72203e-17
5757 4103 -1.28746e-16
5758 4103 -1.31234e-08
5859 4103 -2.09974e-09
4104 4104 422
4105 4104 -1.09005e-08
4158 4104 -9.47867e-09
5757 4104 -2.1327e-08
4104 4105 -4.6e-06
4105 4105 592
4108 4105 -1.63851e-08
4158 4105 -7.36518e-17
5757 4105 -1.65717e-16
5758 4105 -1.68919e-08
5859 4105 -2.7027e-09
4106 4106 422
4107 4106 -2.1327e-08
4108 4106 -1.09005e-08
4157 4106 -9.47867e-09
5757 4106 -2.1327e-08
4106 4107 -9e-06
4107 4107 422
4108 4107 -2.32475e-16
4141 4107 -1.09005e-08
4155 4107 -9.47867e-09
4157 4107 -2.02152e-16
5757 4107 -2.1327e-08
4105 4108 -9.7e-06
4106 4108 -4.6e-06
4107 4108 -9.81043e-14
4108 4108 762
4141 4108 -1.31234e-08
4155 4108 -1.22034e-24
4157 4108 -5.72203e-17
4158 4108 -9.37563e-25
5757 4108 -1.28746e-16
5758 4108 -1.31234e-08
5859 4108 -2.09974e-09
4109 4109 252
4110 4109 -1.8254e-08
4158 4109 -1.5873e-08
5757 4109 -3.57143e-08
4109 4110 -4.6e-06
4110 4110 422
4113 4110 -2.29858e-08
4158 4110 -1.73023e-16
5757 4110 -3.89303e-16
5758 4110 -2.36967e-08
5859 4110 -3.79147e-09
4111 4111 422
4112 4111 -2.1327e-08
4113 4111 -1.09005e-08
4157 4111 -9.47867e-09
5757 4111 -2.1327e-08
4111 4112 -9e-06
4112 4112 422
4113 4112 -2.32475e-16
4140 4112 -1.09005e-08
4155 4112 -9.47867e-09
4157 4112 -2.02152e-16
5757 4112 -2.1327e-08
4110 4113 -9.7e-06
4111 4113 -4.6e-06
4112 4113 -9.81043e-14
4113 4113 762
4140 4113 -1.31234e-08
4155 4113 -1.22034e-24
4157 4113 -5.72203e-17
4158 4113 -2.20253e-24
5757 4113 -1.28746e-16
5758 4113 -1.31234e-08
5859 4113 -2.09974e-09
4114 4114 422
4115 4114 -2.1327e-08
4117 4114 -1.09005e-08
4156 4114 -9.47867e-09
5757 4114 -2.1327e-08
4114 4115 -9e-06
4115 4115 422
4116 4115 -1.09005e-08
4117 4115 -2.32475e-16
4156 4115 -9.47867e-09
5757 4115 -2.1327e-08
4115 4116 -4.6e-06
4116 4116 762
4117 4116 -1.31234e-08
4140 4116 -1.27297e-08
4156 4116 -5.72203e-17
5757 4116 -1.28746e-16
5758 4116 -1.31234e-08
5859 4116 -2.09974e-09
4114 4117 -4.6e-06
4115 4117 -9.81043e-14
4116 4117 -1e-05
4117 4117 762
4139 4117 -1.27297e-08
4140 4117 -1.67056e-16
4156 4117 -5.72203e-17
5757 4117 -1.28746e-16
5758 4117 -1.31234e-08
5859 4117 -2.09974e-09
4118 4118 422
4119 4118 -1.09005e-08
4158 4118 -9.47867e-09
5757 4118 -2.1327e-08
4118 4119 -4.6e-06
4119 4119 592
4122 4119 -1.63851e-08
4158 4119 -7.36518e-17
5757 4119 -1.65717e-16
5758 4119 -1.68919e-08
5859 4119 -2.7027e-09
4120 4120 422
4121 4120 -2.1327e-08
4122 4120 -1.09005e-08
4157 4120 -9.47867e-09
5757 4120 -2.1327e-08
4120 4121 -9e-06
4121 4121 422
4122 4121 -2.32475e-16
4139 4121 -1.09005e-08
4155 4121 -9.47867e-09
4157 4121 -2.02152e-16
5757 4121 -2.1327e-08
4119 4122 -9.7e-06
4120 4122 -4.6e-06
4121 4122 -9.81043e-14
4122 4122 762
4139 4122 -1.31234e-08
4155 4122 -1.22034e-24
4157 4122 -5.72203e-17
4158 4122 -9.37563e-25
5757 4122 -1.28746e-16
5758 4122 -1.31234e-08
5859 4122 -2.09974e-09
4123 4123 252
4124 4123 -1.8254e-08
4158 4123 -1.5873e-08
5757 4123 -3.57143e-08
4123 4124 -4.6e-06
4124 4124 422
4127 4124 -2.29858e-08
4158 4124 -1.73023e-16
5757 4124 -3.89303e-16
5758 4124 -2.36967e-08
5859 4124 -3.79147e-09
4125 4125 422
4126 4125 -2.1327e-08
4127 4125 -1.09005e-08
4157 4125 -9.47867e-09
5757 4125 -2.1327e-08
4125 4126 -9e-06
4126 4126 422
4127 4126 -2.32475e-16
4138 4126 -1.09005e-08
4155 4126 -9.47867e-09
4157 4126 -2.02152e-16
5757 4126 -2.1327e-08
4124 4127 -9.7e-06
4125 4127 -4.6e-06
4126 4127 -9.81043e-14
4127 4127 762
4138 4127 -1.31234e-08
4155 4127 -1.22034e-24
4157 4127 -5.72203e-17
4158 4127 -2.20253e-24
5757 4127 -1.28746e-16
5758 4127 -1.31234e-08
5859 4127 -2.09974e-09
4128 4128 422
4129 4128 -2.1327e-08
4131 4128 -1.09005e-08
4156 4128 -9.47867e-09
5757 4128 -2.1327e-08
4128 4129 -9e-06
4129 4129 422
4130 4129 -1.09005e-08
4131 4129 -2.32475e-16
4156 4129 -9.47867e-09
5757 4129 -2.1327e-08
4129 4130 -4.6e-06
4130 4130 762
4131 4130 -1.31234e-08
4138 4130 -1.27297e-08
4156 4130 -5.72203e-17
5757 4130 -1.28746e-16
5758 4130 -1.31234e-08
5859 4130 -2.09974e-09
4128 4131 -4.6e-06
4129 4131 -9.81043e-14
4130 4131 -1e-05
4131 4131 762
4137 4131 -1.27297e-08
4138 4131 -1.67056e-16
4156 4131 -5.72203e-17
5757 4131 -1.28746e-16
5758 4131 -1.31234e-08
5859 4131 -2.09974e-09
4132 4132 422
4133 4132 -1.09005e-08
4158 4132 -9.47867e-09
5757 4132 -2.1327e-08
4132 4133 -4.6e-06
4133 4133 592
4136 4133 -1.63851e-08
4158 4133 -7.36518e-17
5757 4133 -1.65717e-16
5758 4133 -1.68919e-08
5859 4133 -2.7027e-09
4134 4134 422
4135 4134 -2.1327e-08
4136 4134 -1.09005e-08
4157 4134 -9.47867e-09
5757 4134 -2.1327e-08
4134 4135 -9e-06
4135 4135 422
4136 4135 -2.32475e-16
4137 4135 -1.09005e-08
4155 4135 -9.47867e-09
4157 4135 -2.02152e-16
5757 4135 -2.1327e-08
4133 4136 -9.7e-06
4134 4136 -4.6e-06
4135 4136 -9.81043e-14
4136 4136 762
4137 4136 -1.31234e-08
4155 4136 -1.22034e-24
4157 4136 -5.72203e-17
4158 4136 -9.37563e-25
5757 4136 -1.28746e-16
5758 4136 -1.31234e-08
5859 4136 -2.09974e-09
4131 4137 -9.7e-06
4135 4137 -4.6e-06
4136 4137 -1e-05
4137 4137 592
4138 4137 -2.73723e-24
4155 4137 -7.36518e-17
4156 4137 -9.37563e-25
4157 4137 -2.53733e-24
4158 4137 -1.58372e-32
5757 4137 -1.65717e-16
5758 4137 -1.68919e-08
5859 4137 -2.7027e-09
4126 4138 -4.6e-06
4127 4138 -1e-05
4130 4138 -9.7e-06
4131 4138 -1.27297e-13
4137 4138 -1.62044e-21
4138 4138 592
4155 4138 -7.36518e-17
4156 4138 -9.37563e-25
4157 4138 -2.53733e-24
4158 4138 -3.72049e-32
5757 4138 -1.65717e-16
5758 4138 -1.68919e-08
5859 4138 -2.7027e-09
4117 4139 -9.7e-06
4121 4139 -4.6e-06
4122 4139 -1e-05
4139 4139 592
4140 4139 -2.73723e-24
4155 4139 -7.36518e-17
4156 4139 -9.37563e-25
4157 4139 -2.53733e-24
4158 4139 -1.58372e-32
5757 4139 -1.65717e-16
5758 4139 -1.68919e-08
5859 4139 -2.7027e-09
4112 4140 -4.6e-06
4113 4140 -1e-05
4116 4140 -9.7e-06
4117 4140 -1.27297e-13
4139 4140 -1.62044e-21
4140 4140 592
4155 4140 -7.36518e-17
4156 4140 -9.37563e-25
4157 4140 -2.53733e-24
4158 4140 -3.72049e-32
5757 4140 -1.65717e-16
5758 4140 -1.68919e-08
5859 4140 -2.7027e-09
4103 4141 -9.7e-06
4107 4141 -4.6e-06
4108 4141 -1e-05
4141 4141 592
4142 4141 -2.73723e-24
4155 4141 -7.36518e-17
4156 4141 -9.37563e-25
4157 4141 -2.53733e-24
4158 4141 -1.58372e-32
5757 4141 -1.65717e-16
5758 4141 -1.68919e-08
5859 4141 -2.7027e-09
4098 4142 -4.6e-06
4099 4142 -1e-05
4102 4142 -9.7e-06
4103 4142 -1.27297e-13
4141 4142 -1.62044e-21
4142 4142 592
4155 4142 -7.36518e-17
4156 4142 -9.37563e-25
4157 4142 -2.53733e-24
4158 4142 -3.72049e-32
5757 4142 -1.65717e-16
5758 4142 -1.68919e-08
5859 4142 -2.7027e-09
4089 4143 -9.7e-06
4093 4143 -4.6e-06
4094 4143 -1e-05
4143 4143 592
4144 4143 -2.73723e-24
4155 4143 -7.36518e-17
4156 4143 -9.37563e-25
4157 4143 -2.53733e-24
4158 4143 -1.58372e-32
5757 4143 -1.65717e-16
5758 4143 -1.68919e-08
5859 4143 -2.7027e-09
4084 4144 -4.6e-06
4085 4144 -1e-05
4088 4144 -9.7e-06
4089 4144 -1.27297e-13
4143 4144 -1.62044e-21
4144 4144 592
4155 4144 -7.36518e-17
4156 4144 -9.37563e-25
4157 4144 -2.53733e-24
4158 4144 -3.72049e-32
5757 4144 -1.65717e-16
5758 4144 -1.68919e-08
5859 4144 -2.7027e-09
4075 4145 -9.7e-06
4079 4145 -4.6e-06
4080 4145 -1e-05
4145 4145 592
4146 4145 -2.73723e-24
4155 4145 -7.36518e-17
4156 4145 -9.37563e-25
4157 4145 -2.53733e-24
4158 4145 -1.58372e-32
5757 4145 -1.65717e-16
5758 4145 -1.68919e-08
5859 4145 -2.7027e-09
4070 4146 -4.6e-06
4071 4146 -1e-05
4074 4146 -9.7e-06
4075 4146 -1.27297e-13
4145 4146 -1.62044e-21
4146 4146 592
4155 4146 -7.36518e-17
4156 4146 -9.37563e-25
4157 4146 -2.53733e-24
4158 4146 -3.72049e-32
5757 4146 -1.65717e-16
5758 4146 -1.68919e-08
5859 4146 -2.7027e-09
4061 4147 -9.7e-06
4065 4147 -4.6e-06
4066 4147 -1e-05
4147 4147 592
4148 4147 -2.73723e-24
4155 4147 -7.36518e-17
4156 4147 -9.37563e-25
4157 4147 -2.53733e-24
4158 4147 -1.58372e-32
5757 4147 -1.65717e-16
5758 4147 -1.68919e-08
5859 4147 -2.7027e-09
4056 4148 -4.6e-06
4057 4148 -1e-05
4060 4148 -9.7e-06
4061 4148 -1.27297e-13
4147 4148 -1.62044e-21
4148 4148 592
4155 4148 -7.36518e-17
4156 4148 -9.37563e-25
4157 4148 -2.53733e-24
4158 4148 -3.72049e-32
5757 4148 -1.65717e-16
5758 4148 -1.68919e-08
5859 4148 -2.7027e-09
4047 4149 -9.7e-06
4051 4149 -4.6e-06
4052 4149 -1e-05
4149 4149 592
4150 4149 -2.73723e-24
4155 4149 -7.36518e-17
4156 4149 -9.37563e-25
4157 4149 -2.53733e-24
4158 4149 -1.58372e-32
5757 4149 -1.65717e-16
5758 4149 -1.68919e-08
5859 4149 -2.7027e-09
4042 4150 -4.6e-06
4043 4150 -1e-05
4046 4150 -9.7e-06
4047 4150 -1.27297e-13
4149 4150 -1.62044e-21
4150 4150 592
4155 4150 -7.36518e-17
4156 4150 -9.37563e-25
4157 4150 -2.53733e-24
4158 4150 -3.72049e-32
5757 4150 -1.65717e-16
5758 4150 -1.68919e-08
5859 4150 -2.7027e-09
4033 4151 -9.7e-06
4037 4151 -4.6e-06
4038 4151 -1e-05
4151 4151 592
4152 4151 -2.73723e-24
4155 4151 -7.36518e-17
4156 4151 -9.37563e-25
4157 4151 -2.53733e-24
4158 4151 -1.58372e-32
5757 4151 -1.65717e-16
5758 4151 -1.68919e-08
5859 4151 -2.7027e-09
4028 4152 -4.6e-06
4029 4152 -1e-05
4032 4152 -9.7e-06
4033 4152 -1.27297e-13
4151 4152 -1.62044e-21
4152 4152 592
4155 4152 -7.36518e-17
4156 4152 -9.37563e-25
4157 4152 -2.53733e-24
4158 4152 -3.72049e-32
5757 4152 -1.65717e-16
5758 4152 -1.68919e-08
5859 4152 -2.7027e-09
4019 4153 -9.7e-06
4023 4153 -4.6e-06
4024 4153 -1e-05
4153 4153 592
4154 4153 -2.73723e-24
4155 4153 -7.36518e-17
4156 4153 -9.37563e-25
4157 4153 -2.53733e-24
4158 4153 -1.58372e-32
5757 4153 -1.65717e-16
5758 4153 -1.68919e-08
5859 4153 -2.7027e-09
4014 4154 -4.6e-06
4015 4154 -1e-05
4018 4154 -9.7e-06
4019 4154 -1.27297e-13
4153 4154 -1.62044e-21
4154 4154 592
4155 4154 -7.36518e-17
4156 4154 -9.37563e-25
4157 4154 -2.53733e-24
4158 4154 -3.72049e-32
5757 4154 -1.65717e-16
5758 4154 -1.68919e-08
5859 4154 -2.7027e-09
4006 4155 -2.1e-05
4007 4155 -3.4585e-14
4010 4155 -2.42095e-13
4014 4155 -4e-06
4015 4155 -9.29898e-22
4023 4155 -4e-06
4024 4155 -9.29898e-22
4028 4155 -4e-06
4029 4155 -9.29898e-22
4037 4155 -4e-06
4038 4155 -9.29898e-22
4042 4155 -4e-06
4043 4155 -9.29898e-22
4051 4155 -4e-06
4052 4155 -9.29898e-22
4056 4155 -4e-06
4057 4155 -9.29898e-22
4065 4155 -4e-06
4066 4155 -9.29898e-22
4070 4155 -4e-06
4071 4155 -9.29898e-22
4079 4155 -4e-06
4080 4155 -9.29898e-22
4084 4155 -4e-06
4085 4155 -9.29898e-22
4093 4155 -4e-06
4094 4155 -9.29898e-22
4098 4155 -4e-06
4099 4155 -9.29898e-22
4107 4155 -4e-06
4108 4155 -9.29898e-22
4112 4155 -4e-06
4113 4155 -9.29898e-22
4121 4155 -4e-06
4122 4155 -9.29898e-22
4126 4155 -4e-06
4127 4155 -9.29898e-22
4135 4155 -4e-06
4136 4155 -9.29898e-22
4137 4155 -4.36019e-14
4138 4155 -4.36019e-14
4139 4155 -4.36019e-14
4140 4155 -4.36019e-14
4141 4155 -4.36019e-14
4142 4155 -4.36019e-14
4143 4155 -4.36019e-14
4144 4155 -4.36019e-14
4145 4155 -4.36019e-14
4146 4155 -4.36019e-14
4147 4155 -4.36019e-14
4148 4155 -4.36019e-14
4149 4155 -4.36019e-14
4150 4155 -4.36019e-14
4151 4155 -4.36019e-14
4152 4155 -4.36019e-14
4153 4155 -4.36019e-14
4154 4155 -4.36019e-14
4155 4155 28401
4156 4155 -1.58445e-09
4157 4155 -5.12479e-25
4158 4155 -0
5757 4155 -5.40666e-17
5758 4155 -4.66791e-25
5763 4155 -6.35827e-31
5764 4155 -6.35827e-31
5859 4155 -7.46866e-26
4007 4156 -2.1e-05
4010 4156 -2.42095e-13
4016 4156 -4e-06
4017 4156 -4e-06
4018 4156 -4.36019e-14
4019 4156 -4.36019e-14
4030 4156 -4e-06
4031 4156 -4e-06
4032 4156 -4.36019e-14
4033 4156 -4.36019e-14
4044 4156 -4e-06
4045 4156 -4e-06
4046 4156 -4.36019e-14
4047 4156 -4.36019e-14
4058 4156 -4e-06
4059 4156 -4e-06
4060 4156 -4.36019e-14
4061 4156 -4.36019e-14
4072 4156 -4e-06
4073 4156 -4e-06
4074 4156 -4.36019e-14
4075 4156 -4.36019e-14
4086 4156 -4e-06
4087 4156 -4e-06
4088 4156 -4.36019e-14
4089 4156 -4.36019e-14
4100 4156 -4e-06
4101 4156 -4e-06
4102 4156 -4.36019e-14
4103 4156 -4.36019e-14
4114 4156 -4e-06
4115 4156 -4e-06
4116 4156 -4.36019e-14
4117 4156 -4.36019e-14
4128 4156 -4e-06
4129 4156 -4e-06
4130 4156 -4.36019e-14
4131 4156 -4.36019e-14
4137 4156 -5.55037e-22
4138 4156 -5.55037e-22
4139 4156 -5.55037e-22
4140 4156 -5.55037e-22
4141 4156 -5.55037e-22
4142 4156 -5.55037e-22
4143 4156 -5.55037e-22
4144 4156 -5.55037e-22
4145 4156 -5.55037e-22
4146 4156 -5.55037e-22
4147 4156 -5.55037e-22
4148 4156 -5.55037e-22
4149 4156 -5.55037e-22
4150 4156 -5.55037e-22
4151 4156 -5.55037e-22
4152 4156 -5.55037e-22
4153 4156 -5.55037e-22
4154 4156 -5.55037e-22
4155 4156 -4.5e-05
4156 4156 28571
4157 4156 -8.07167e-34
4158 4156 0
5757 4156 -5.37449e-17
5758 4156 -3.60493e-25
5763 4156 -6.32044e-31
5764 4156 -6.32044e-31
5859 4156 -5.7679e-26
4002 4157 -2.1e-05
4005 4157 -2.42095e-13
4013 4157 -4e-06
4014 4157 -8.5308e-14
4015 4157 -4.36019e-14
4022 4157 -4e-06
4023 4157 -8.5308e-14
4024 4157 -4.36019e-14
4027 4157 -4e-06
4028 4157 -8.5308e-14
4029 4157 -4.36019e-14
4036 4157 -4e-06
4037 4157 -8.5308e-14
4038 4157 -4.36019e-14
4041 4157 -4e-06
4042 4157 -8.5308e-14
4043 4157 -4.36019e-14
4050 4157 -4e-06
4051 4157 -8.5308e-14
4052 4157 -4.36019e-14
4055 4157 -4e-06
4056 4157 -8.5308e-14
4057 4157 -4.36019e-14
4064 4157 -4e-06
4065 4157 -8.5308e-14
4066 4157 -4.36019e-14
4069 4157 -4e-06
4070 4157 -8.5308e-14
4071 4157 -4.36019e-14
4078 4157 -4e-06
4079 4157 -8.5308e-14
4080 4157 -4.36019e-14
4083 4157 -4e-06
4084 4157 -8.5308e-14
4085 4157 -4.36019e-14
4092 4157 -4e-06
4093 4157 -8.5308e-14
4094 4157 -4.36019e-14
4097 4157 -4e-06
4098 4157 -8.5308e-14
4099 4157 -4.36019e-14
4106 4157 -4e-06
4107 4157 -8.5308e-14
4108 4157 -4.36019e-14
4111 4157 -4e-06
4112 4157 -8.5308e-14
4113 4157 -4.36019e-14
4120 4157 -4e-06
4121 4157 -8.5308e-14
4122 4157 -4.36019e-14
4125 4157 -4e-06
4126 4157 -8.5308e-14
4127 4157 -4.36019e-14
4134 4157 -4e-06
4135 4157 -8.5308e-14
4136 4157 -4.36019e-14
4137 4157 -1.5021e-21
4138 4157 -1.5021e-21
4139 4157 -1.5021e-21
4140 4157 -1.5021e-21
4141 4157 -1.5021e-21
4142 4157 -1.5021e-21
4143 4157 -1.5021e-21
4144 4157 -1.5021e-21
4145 4157 -1.5021e-21
4146 4157 -1.5021e-21
4147 4157 -1.5021e-21
4148 4157 -1.5021e-21
4149 4157 -1.5021e-21
4150 4157 -1.5021e-21
4151 4157 -1.5021e-21
4152 4157 -1.5021e-21
4153 4157 -1.5021e-21
4154 4157 -1.5021e-21
4155 4157 -1.45549e-20
4156 4157 -2.30616e-29
4157 4157 28571
4158 4157 -1.57502e-09
5757 4157 -5.37449e-17
5758 4157 -3.60493e-25
5763 4157 0
5764 4157 0
5765 4157 -6.32044e-31
5770 4157 -6.32044e-31
5859 4157 -5.7679e-26
4001 4158 -2.1e-05
4002 4158 -3.4585e-14
4005 4158 -2.42095e-13
4011 4158 -4e-06
4012 4158 -7.30159e-14
4015 4158 -1.67833e-21
4020 4158 -4e-06
4021 4158 -4.36019e-14
4024 4158 -7.14423e-22
4025 4158 -4e-06
4026 4158 -7.30159e-14
4029 4158 -1.67833e-21
4034 4158 -4e-06
4035 4158 -4.36019e-14
4038 4158 -7.14423e-22
4039 4158 -4e-06
4040 4158 -7.30159e-14
4043 4158 -1.67833e-21
4048 4158 -4e-06
4049 4158 -4.36019e-14
4052 4158 -7.14423e-22
4053 4158 -4e-06
4054 4158 -7.30159e-14
4057 4158 -1.67833e-21
4062 4158 -4e-06
4063 4158 -4.36019e-14
4066 4158 -7.14423e-22
4067 4158 -4e-06
4068 4158 -7.30159e-14
4071 4158 -1.67833e-21
4076 4158 -4e-06
4077 4158 -4.36019e-14
4080 4158 -7.14423e-22
4081 4158 -4e-06
4082 4158 -7.30159e-14
4085 4158 -1.67833e-21
4090 4158 -4e-06
4091 4158 -4.36019e-14
4094 4158 -7.14423e-22
4095 4158 -4e-06
4096 4158 -7.30159e-14
4099 4158 -1.67833e-21
4104 4158 -4e-06
4105 4158 -4.36019e-14
4108 4158 -7.14423e-22
4109 4158 -4e-06
4110 4158 -7.30159e-14
4113 4158 -1.67833e-21
4118 4158 -4e-06
4119 4158 -4.36019e-14
4122 4158 -7.14423e-22
4123 4158 -4e-06
4124 4158 -7.30159e-14
4127 4158 -1.67833e-21
4132 4158 -4e-06
4133 4158 -4.36019e-14
4136 4158 -7.14423e-22
4137 4158 -9.37563e-30
4138 4158 -2.20253e-29
4139 4158 -9.37563e-30
4140 4158 -2.20253e-29
4141 4158 -9.37563e-30
4142 4158 -2.20253e-29
4143 4158 -9.37563e-30
4144 4158 -2.20253e-29
4145 4158 -9.37563e-30
4146 4158 -2.20253e-29
4147 4158 -9.37563e-30
4148 4158 -2.20253e-29
4149 4158 -9.37563e-30
4150 4158 -2.20253e-29
4151 4158 -9.37563e-30
4152 4158 -2.20253e-29
4153 4158 -9.37563e-30
4154 4158 -2.20253e-29
4155 4158 -3.78351e-44
4156 4158 0
4157 4158 -4.5e-05
4158 4158 28401
5757 4158 -7.23033e-17
5758 4158 -7.8169e-25
5763 4158 0
5764 4158 0
5765 4158 -6.35827e-31
5770 4158 -6.35827e-31
5859 4158 -1.2507e-25
4159 4159 3643.2
4160 4159 -1.6469e-09
4163 4159 -1.15283e-08
4316 4159 -5.76416e-09
4159 4160 -6e-06
4160 4160 3643.2
4163 4160 -1.15283e-08
4315 4160 -5.76416e-09
4316 4160 -9.49302e-18
4161 4161 170
4163 4161 -7.05881e-07
5765 4161 -7.05881e-07
4162 4162 170
4163 4162 -7.05881e-07
5770 4162 -7.05881e-07
4159 4163 -4.2e-05
4160 4163 -4.2e-05
4161 4163 -0.00012
4162 4163 -0.00012
4163 4163 1135.6
4315 4163 -2.13187e-16
4316 4163 -2.13187e-16
5765 4163 -7.45912e-14
5770 4163 -7.45912e-14
4164 4164 3643.2
4165 4164 -1.6469e-09
4168 4164 -1.15283e-08
4313 4164 -5.76416e-09
4164 4165 -6e-06
4165 4165 3643.2
4168 4165 -1.15283e-08
4313 4165 -9.49302e-18
4314 4165 -5.76416e-09
4166 4166 170
4168 4166 -7.05881e-07
5764 4166 -7.05881e-07
4167 4167 170
4168 4167 -7.05881e-07
5763 4167 -7.05881e-07
4164 4168 -4.2e-05
4165 4168 -4.2e-05
4166 4168 -0.00012
4167 4168 -0.00012
4168 4168 1135.6
4313 4168 -2.13187e-16
4314 4168 -2.13187e-16
5763 4168 -7.45912e-14
5764 4168 -7.45912e-14
4169 4169 252
4170 4169 -1.8254e-08
4316 4169 -1.5873e-08
5759 4169 -3.57143e-08
4169 4170 -4.6e-06
4170 4170 422
4173 4170 -2.29858e-08
4316 4170 -1.73023e-16
5759 4170 -3.89303e-16
5760 4170 -2.36967e-08
5859 4170 -3.79147e-09
4171 4171 422
4172 4171 -2.1327e-08
4173 4171 -1.09005e-08
4315 4171 -9.47867e-09
5759 4171 -2.1327e-08
4171 4172 -9e-06
4172 4172 422
4173 4172 -2.32475e-16
4312 4172 -1.09005e-08
4313 4172 -9.47867e-09
4315 4172 -2.02152e-16
5759 4172 -2.1327e-08
4170 4173 -9.7e-06
4171 4173 -4.6e-06
4172 4173 -9.81043e-14
4173 4173 762
4312 4173 -1.31234e-08
4313 4173 -1.22034e-24
4315 4173 -5.72203e-17
4316 4173 -2.20253e-24
5759 4173 -1.28746e-16
5760 4173 -1.31234e-08
5859 4173 -2.09974e-09
4174 4174 422
4175 4174 -2.1327e-08
4177 4174 -1.09005e-08
4314 4174 -9.47867e-09
5759 4174 -2.1327e-08
4174 4175 -9e-06
4175 4175 422
4176 4175 -1.09005e-08
4177 4175 -2.32475e-16
4314 4175 -9.47867e-09
5759 4175 -2.1327e-08
4175 4176 -4.6e-06
4176 4176 762
4177 4176 -1.31234e-08
4312 4176 -1.27297e-08
4314 4176 -5.72203e-17
5759 4176 -1.28746e-16
5760 4176 -1.31234e-08
5859 4176 -2.09974e-09
4174 4177 -4.6e-06
4175 4177 -9.81043e-14
4176 4177 -1e-05
4177 4177 762
4311 4177 -1.27297e-08
4312 4177 -1.67056e-16
4314 4177 -5.72203e-17
5759 4177 -1.28746e-16
5760 4177 -1.31234e-08
5859 4177 -2.09974e-09
4178 4178 422
4179 4178 -1.09005e-08
4316 4178 -9.47867e-09
5759 4178 -2.1327e-08
4178 4179 -4.6e-06
4179 4179 592
4182 4179 -1.63851e-08
4316 4179 -7.36518e-17
5759 4179 -1.65717e-16
5760 4179 -1.68919e-08
5859 4179 -2.7027e-09
4180 4180 422
4181 4180 -2.1327e-08
4182 4180 -1.09005e-08
4315 4180 -9.47867e-09
5759 4180 -2.1327e-08
4180 4181 -9e-06
4181 4181 422
4182 4181 -2.32475e-16
4311 4181 -1.09005e-08
4313 4181 -9.47867e-09
4315 4181 -2.02152e-16
5759 4181 -2.1327e-08
4179 4182 -9.7e-06
4180 4182 -4.6e-06
4181 4182 -9.81043e-14
4182 4182 762
4311 4182 -1.31234e-08
4313 4182 -1.22034e-24
4315 4182 -5.72203e-17
4316 4182 -9.37563e-25
5759 4182 -1.28746e-16
5760 4182 -1.31234e-08
5859 4182 -2.09974e-09
4183 4183 252
4184 4183 -1.8254e-08
4316 4183 -1.5873e-08
5759 4183 -3.57143e-08
4183 4184 -4.6e-06
4184 4184 422
4187 4184 -2.29858e-08
4316 4184 -1.73023e-16
5759 4184 -3.89303e-16
5760 4184 -2.36967e-08
5859 4184 -3.79147e-09
4185 4185 422
4186 4185 -2.1327e-08
4187 4185 -1.09005e-08
4315 4185 -9.47867e-09
5759 4185 -2.1327e-08
4185 4186 -9e-06
4186 4186 422
4187 4186 -2.32475e-16
4310 4186 -1.09005e-08
4313 4186 -9.47867e-09
4315 4186 -2.02152e-16
5759 4186 -2.1327e-08
4184 4187 -9.7e-06
4185 4187 -4.6e-06
4186 4187 -9.81043e-14
4187 4187 762
4310 4187 -1.31234e-08
4313 4187 -1.22034e-24
4315 4187 -5.72203e-17
4316 4187 -2.20253e-24
5759 4187 -1.28746e-16
5760 4187 -1.31234e-08
5859 4187 -2.09974e-09
4188 4188 422
4189 4188 -2.1327e-08
4191 4188 -1.09005e-08
4314 4188 -9.47867e-09
5759 4188 -2.1327e-08
4188 4189 -9e-06
4189 4189 422
4190 4189 -1.09005e-08
4191 4189 -2.32475e-16
4314 4189 -9.47867e-09
5759 4189 -2.1327e-08
4189 4190 -4.6e-06
4190 4190 762
4191 4190 -1.31234e-08
4310 4190 -1.27297e-08
4314 4190 -5.72203e-17
5759 4190 -1.28746e-16
5760 4190 -1.31234e-08
5859 4190 -2.09974e-09
4188 4191 -4.6e-06
4189 4191 -9.81043e-14
4190 4191 -1e-05
4191 4191 762
4309 4191 -1.27297e-08
4310 4191 -1.67056e-16
4314 4191 -5.72203e-17
5759 4191 -1.28746e-16
5760 4191 -1.31234e-08
5859 4191 -2.09974e-09
4192 4192 422
4193 4192 -1.09005e-08
4316 4192 -9.47867e-09
5759 4192 -2.1327e-08
4192 4193 -4.6e-06
4193 4193 592
4196 4193 -1.63851e-08
4316 4193 -7.36518e-17
5759 4193 -1.65717e-16
5760 4193 -1.68919e-08
5859 4193 -2.7027e-09
4194 4194 422
4195 4194 -2.1327e-08
4196 4194 -1.09005e-08
4315 4194 -9.47867e-09
5759 4194 -2.1327e-08
4194 4195 -9e-06
4195 4195 422
4196 4195 -2.32475e-16
4309 4195 -1.09005e-08
4313 4195 -9.47867e-09
4315 4195 -2.02152e-16
5759 4195 -2.1327e-08
4193 4196 -9.7e-06
4194 4196 -4.6e-06
4195 4196 -9.81043e-14
4196 4196 762
4309 4196 -1.31234e-08
4313 4196 -1.22034e-24
4315 4196 -5.72203e-17
4316 4196 -9.37563e-25
5759 4196 -1.28746e-16
5760 4196 -1.31234e-08
5859 4196 -2.09974e-09
4197 4197 252
4198 4197 -1.8254e-08
4316 4197 -1.5873e-08
5759 4197 -3.57143e-08
4197 4198 -4.6e-06
4198 4198 422
4201 4198 -2.29858e-08
4316 4198 -1.73023e-16
5759 4198 -3.89303e-16
5760 4198 -2.36967e-08
5859 4198 -3.79147e-09
4199 4199 422
4200 4199 -2.1327e-08
4201 4199 -1.09005e-08
4315 4199 -9.47867e-09
5759 4199 -2.1327e-08
4199 4200 -9e-06
4200 4200 422
4201 4200 -2.32475e-16
4308 4200 -1.09005e-08
4313 4200 -9.47867e-09
4315 4200 -2.02152e-16
5759 4200 -2.1327e-08
4198 4201 -9.7e-06
4199 4201 -4.6e-06
4200 4201 -9.81043e-14
4201 4201 762
4308 4201 -1.31234e-08
4313 4201 -1.22034e-24
4315 4201 -5.72203e-17
4316 4201 -2.20253e-24
5759 4201 -1.28746e-16
5760 4201 -1.31234e-08
5859 4201 -2.09974e-09
4202 4202 422
4203 4202 -2.1327e-08
4205 4202 -1.09005e-08
4314 4202 -9.47867e-09
5759 4202 -2.1327e-08
4202 4203 -9e-06
4203 4203 422
4204 4203 -1.09005e-08
4205 4203 -2.32475e-16
4314 4203 -9.47867e-09
5759 4203 -2.1327e-08
4203 4204 -4.6e-06
4204 4204 762
4205 4204 -1.31234e-08
4308 4204 -1.27297e-08
4314 4204 -5.72203e-17
5759 4204 -1.28746e-16
5760 4204 -1.31234e-08
5859 4204 -2.09974e-09
4202 4205 -4.6e-06
4203 4205 -9.81043e-14
4204 4205 -1e-05
4205 4205 762
4307 4205 -1.27297e-08
4308 4205 -1.67056e-16
4314 4205 -5.72203e-17
5759 4205 -1.28746e-16
5760 4205 -1.31234e-08
5859 4205 -2.09974e-09
4206 4206 422
4207 4206 -1.09005e-08
4316 4206 -9.47867e-09
5759 4206 -2.1327e-08
4206 4207 -4.6e-06
4207 4207 592
4210 4207 -1.63851e-08
4316 4207 -7.36518e-17
5759 4207 -1.65717e-16
5760 4207 -1.68919e-08
5859 4207 -2.7027e-09
4208 4208 422
4209 4208 -2.1327e-08
4210 4208 -1.09005e-08
4315 4208 -9.47867e-09
5759 4208 -2.1327e-08
4208 4209 -9e-06
4209 4209 422
4210 4209 -2.32475e-16
4307 4209 -1.09005e-08
4313 4209 -9.47867e-09
4315 4209 -2.02152e-16
5759 4209 -2.1327e-08
4207 4210 -9.7e-06
4208 4210 -4.6e-06
4209 4210 -9.81043e-14
4210 4210 762
4307 4210 -1.31234e-08
4313 4210 -1.22034e-24
4315 4210 -5.72203e-17
4316 4210 -9.37563e-25
5759 4210 -1.28746e-16
5760 4210 -1.31234e-08
5859 4210 -2.09974e-09
4211 4211 252
4212 4211 -1.8254e-08
4316 4211 -1.5873e-08
5759 4211 -3.57143e-08
4211 4212 -4.6e-06
4212 4212 422
4215 4212 -2.29858e-08
4316 4212 -1.73023e-16
5759 4212 -3.89303e-16
5760 4212 -2.36967e-08
5859 4212 -3.79147e-09
4213 4213 422
4214 4213 -2.1327e-08
4215 4213 -1.09005e-08
4315 4213 -9.47867e-09
5759 4213 -2.1327e-08
4213 4214 -9e-06
4214 4214 422
4215 4214 -2.32475e-16
4306 4214 -1.09005e-08
4313 4214 -9.47867e-09
4315 4214 -2.02152e-16
5759 4214 -2.1327e-08
4212 4215 -9.7e-06
4213 4215 -4.6e-06
4214 4215 -9.81043e-14
4215 4215 762
4306 4215 -1.31234e-08
4313 4215 -1.22034e-24
4315 4215 -5.72203e-17
4316 4215 -2.20253e-24
5759 4215 -1.28746e-16
5760 4215 -1.31234e-08
5859 4215 -2.09974e-09
4216 4216 422
4217 4216 -2.1327e-08
4219 4216 -1.09005e-08
4314 4216 -9.47867e-09
5759 4216 -2.1327e-08
4216 4217 -9e-06
4217 4217 422
4218 4217 -1.09005e-08
4219 4217 -2.32475e-16
4314 4217 -9.47867e-09
5759 4217 -2.1327e-08
4217 4218 -4.6e-06
4218 4218 762
4219 4218 -1.31234e-08
4306 4218 -1.27297e-08
4314 4218 -5.72203e-17
5759 4218 -1.28746e-16
5760 4218 -1.31234e-08
5859 4218 -2.09974e-09
4216 4219 -4.6e-06
4217 4219 -9.81043e-14
4218 4219 -1e-05
4219 4219 762
4305 4219 -1.27297e-08
4306 4219 -1.67056e-16
4314 4219 -5.72203e-17
5759 4219 -1.28746e-16
5760 4219 -1.31234e-08
5859 4219 -2.09974e-09
4220 4220 422
4221 4220 -1.09005e-08
4316 4220 -9.47867e-09
5759 4220 -2.1327e-08
4220 4221 -4.6e-06
4221 4221 592
4224 4221 -1.63851e-08
4316 4221 -7.36518e-17
5759 4221 -1.65717e-16
5760 4221 -1.68919e-08
5859 4221 -2.7027e-09
4222 4222 422
4223 4222 -2.1327e-08
4224 4222 -1.09005e-08
4315 4222 -9.47867e-09
5759 4222 -2.1327e-08
4222 4223 -9e-06
4223 4223 422
4224 4223 -2.32475e-16
4305 4223 -1.09005e-08
4313 4223 -9.47867e-09
4315 4223 -2.02152e-16
5759 4223 -2.1327e-08
4221 4224 -9.7e-06
4222 4224 -4.6e-06
4223 4224 -9.81043e-14
4224 4224 762
4305 4224 -1.31234e-08
4313 4224 -1.22034e-24
4315 4224 -5.72203e-17
4316 4224 -9.37563e-25
5759 4224 -1.28746e-16
5760 4224 -1.31234e-08
5859 4224 -2.09974e-09
4225 4225 252
4226 4225 -1.8254e-08
4316 4225 -1.5873e-08
5759 4225 -3.57143e-08
4225 4226 -4.6e-06
4226 4226 422
4229 4226 -2.29858e-08
4316 4226 -1.73023e-16
5759 4226 -3.89303e-16
5760 4226 -2.36967e-08
5859 4226 -3.79147e-09
4227 4227 422
4228 4227 -2.1327e-08
4229 4227 -1.09005e-08
4315 4227 -9.47867e-09
5759 4227 -2.1327e-08
4227 4228 -9e-06
4228 4228 422
4229 4228 -2.32475e-16
4304 4228 -1.09005e-08
4313 4228 -9.47867e-09
4315 4228 -2.02152e-16
5759 4228 -2.1327e-08
4226 4229 -9.7e-06
4227 4229 -4.6e-06
4228 4229 -9.81043e-14
4229 4229 762
4304 4229 -1.31234e-08
4313 4229 -1.22034e-24
4315 4229 -5.72203e-17
4316 4229 -2.20253e-24
5759 4229 -1.28746e-16
5760 4229 -1.31234e-08
5859 4229 -2.09974e-09
4230 4230 422
4231 4230 -2.1327e-08
4233 4230 -1.09005e-08
4314 4230 -9.47867e-09
5759 4230 -2.1327e-08
4230 4231 -9e-06
4231 4231 422
4232 4231 -1.09005e-08
4233 4231 -2.32475e-16
4314 4231 -9.47867e-09
5759 4231 -2.1327e-08
4231 4232 -4.6e-06
4232 4232 762
4233 4232 -1.31234e-08
4304 4232 -1.27297e-08
4314 4232 -5.72203e-17
5759 4232 -1.28746e-16
5760 4232 -1.31234e-08
5859 4232 -2.09974e-09
4230 4233 -4.6e-06
4231 4233 -9.81043e-14
4232 4233 -1e-05
4233 4233 762
4303 4233 -1.27297e-08
4304 4233 -1.67056e-16
4314 4233 -5.72203e-17
5759 4233 -1.28746e-16
5760 4233 -1.31234e-08
5859 4233 -2.09974e-09
4234 4234 422
4235 4234 -1.09005e-08
4316 4234 -9.47867e-09
5759 4234 -2.1327e-08
4234 4235 -4.6e-06
4235 4235 592
4238 4235 -1.63851e-08
4316 4235 -7.36518e-17
5759 4235 -1.65717e-16
5760 4235 -1.68919e-08
5859 4235 -2.7027e-09
4236 4236 422
4237 4236 -2.1327e-08
4238 4236 -1.09005e-08
4315 4236 -9.47867e-09
5759 4236 -2.1327e-08
4236 4237 -9e-06
4237 4237 422
4238 4237 -2.32475e-16
4303 4237 -1.09005e-08
4313 4237 -9.47867e-09
4315 4237 -2.02152e-16
5759 4237 -2.1327e-08
4235 4238 -9.7e-06
4236 4238 -4.6e-06
4237 4238 -9.81043e-14
4238 4238 762
4303 4238 -1.31234e-08
4313 4238 -1.22034e-24
4315 4238 -5.72203e-17
4316 4238 -9.37563e-25
5759 4238 -1.28746e-16
5760 4238 -1.31234e-08
5859 4238 -2.09974e-09
4239 4239 252
4240 4239 -1.8254e-08
4316 4239 -1.5873e-08
5759 4239 -3.57143e-08
4239 4240 -4.6e-06
4240 4240 422
4243 4240 -2.29858e-08
4316 4240 -1.73023e-16
5759 4240 -3.89303e-16
5760 4240 -2.36967e-08
5859 4240 -3.79147e-09
4241 4241 422
4242 4241 -2.1327e-08
4243 4241 -1.09005e-08
4315 4241 -9.47867e-09
5759 4241 -2.1327e-08
4241 4242 -9e-06
4242 4242 422
4243 4242 -2.32475e-16
4302 4242 -1.09005e-08
4313 4242 -9.47867e-09
4315 4242 -2.02152e-16
5759 4242 -2.1327e-08
4240 4243 -9.7e-06
4241 4243 -4.6e-06
4242 4243 -9.81043e-14
4243 4243 762
4302 4243 -1.31234e-08
4313 4243 -1.22034e-24
4315 4243 -5.72203e-17
4316 4243 -2.20253e-24
5759 4243 -1.28746e-16
5760 4243 -1.31234e-08
5859 4243 -2.09974e-09
4244 4244 422
4245 4244 -2.1327e-08
4247 4244 -1.09005e-08
4314 4244 -9.47867e-09
5759 4244 -2.1327e-08
4244 4245 -9e-06
4245 4245 422
4246 4245 -1.09005e-08
4247 4245 -2.32475e-16
4314 4245 -9.47867e-09
5759 4245 -2.1327e-08
4245 4246 -4.6e-06
4246 4246 762
4247 4246 -1.31234e-08
4302 4246 -1.27297e-08
4314 4246 -5.72203e-17
5759 4246 -1.28746e-16
5760 4246 -1.31234e-08
5859 4246 -2.09974e-09
4244 4247 -4.6e-06
4245 4247 -9.81043e-14
4246 4247 -1e-05
4247 4247 762
4301 4247 -1.27297e-08
4302 4247 -1.67056e-16
4314 4247 -5.72203e-17
5759 4247 -1.28746e-16
5760 4247 -1.31234e-08
5859 4247 -2.09974e-09
4248 4248 422
4249 4248 -1.09005e-08
4316 4248 -9.47867e-09
5759 4248 -2.1327e-08
4248 4249 -4.6e-06
4249 4249 592
4252 4249 -1.63851e-08
4316 4249 -7.36518e-17
5759 4249 -1.65717e-16
5760 4249 -1.68919e-08
5859 4249 -2.7027e-09
4250 4250 422
4251 4250 -2.1327e-08
4252 4250 -1.09005e-08
4315 4250 -9.47867e-09
5759 4250 -2.1327e-08
4250 4251 -9e-06
4251 4251 422
4252 4251 -2.32475e-16
4301 4251 -1.09005e-08
4313 4251 -9.47867e-09
4315 4251 -2.02152e-16
5759 4251 -2.1327e-08
4249 4252 -9.7e-06
4250 4252 -4.6e-06
4251 4252 -9.81043e-14
4252 4252 762
4301 4252 -1.31234e-08
4313 4252 -1.22034e-24
4315 4252 -5.72203e-17
4316 4252 -9.37563e-25
5759 4252 -1.28746e-16
5760 4252 -1.31234e-08
5859 4252 -2.09974e-09
4253 4253 252
4254 4253 -1.8254e-08
4316 4253 -1.5873e-08
5759 4253 -3.57143e-08
4253 4254 -4.6e-06
4254 4254 422
4257 4254 -2.29858e-08
4316 4254 -1.73023e-16
5759 4254 -3.89303e-16
5760 4254 -2.36967e-08
5859 4254 -3.79147e-09
4255 4255 422
4256 4255 -2.1327e-08
4257 4255 -1.09005e-08
4315 4255 -9.47867e-09
5759 4255 -2.1327e-08
4255 4256 -9e-06
4256 4256 422
4257 4256 -2.32475e-16
4300 4256 -1.09005e-08
4313 4256 -9.47867e-09
4315 4256 -2.02152e-16
5759 4256 -2.1327e-08
4254 4257 -9.7e-06
4255 4257 -4.6e-06
4256 4257 -9.81043e-14
4257 4257 762
4300 4257 -1.31234e-08
4313 4257 -1.22034e-24
4315 4257 -5.72203e-17
4316 4257 -2.20253e-24
5759 4257 -1.28746e-16
5760 4257 -1.31234e-08
5859 4257 -2.09974e-09
4258 4258 422
4259 4258 -2.1327e-08
4261 4258 -1.09005e-08
4314 4258 -9.47867e-09
5759 4258 -2.1327e-08
4258 4259 -9e-06
4259 4259 422
4260 4259 -1.09005e-08
4261 4259 -2.32475e-16
4314 4259 -9.47867e-09
5759 4259 -2.1327e-08
4259 4260 -4.6e-06
4260 4260 762
4261 4260 -1.31234e-08
4300 4260 -1.27297e-08
4314 4260 -5.72203e-17
5759 4260 -1.28746e-16
5760 4260 -1.31234e-08
5859 4260 -2.09974e-09
4258 4261 -4.6e-06
4259 4261 -9.81043e-14
4260 4261 -1e-05
4261 4261 762
4299 4261 -1.27297e-08
4300 4261 -1.67056e-16
4314 4261 -5.72203e-17
5759 4261 -1.28746e-16
5760 4261 -1.31234e-08
5859 4261 -2.09974e-09
4262 4262 422
4263 4262 -1.09005e-08
4316 4262 -9.47867e-09
5759 4262 -2.1327e-08
4262 4263 -4.6e-06
4263 4263 592
4266 4263 -1.63851e-08
4316 4263 -7.36518e-17
5759 4263 -1.65717e-16
5760 4263 -1.68919e-08
5859 4263 -2.7027e-09
4264 4264 422
4265 4264 -2.1327e-08
4266 4264 -1.09005e-08
4315 4264 -9.47867e-09
5759 4264 -2.1327e-08
4264 4265 -9e-06
4265 4265 422
4266 4265 -2.32475e-16
4299 4265 -1.09005e-08
4313 4265 -9.47867e-09
4315 4265 -2.02152e-16
5759 4265 -2.1327e-08
4263 4266 -9.7e-06
4264 4266 -4.6e-06
4265 4266 -9.81043e-14
4266 4266 762
4299 4266 -1.31234e-08
4313 4266 -1.22034e-24
4315 4266 -5.72203e-17
4316 4266 -9.37563e-25
5759 4266 -1.28746e-16
5760 4266 -1.31234e-08
5859 4266 -2.09974e-09
4267 4267 252
4268 4267 -1.8254e-08
4316 4267 -1.5873e-08
5759 4267 -3.57143e-08
4267 4268 -4.6e-06
4268 4268 422
4271 4268 -2.29858e-08
4316 4268 -1.73023e-16
5759 4268 -3.89303e-16
5760 4268 -2.36967e-08
5859 4268 -3.79147e-09
4269 4269 422
4270 4269 -2.1327e-08
4271 4269 -1.09005e-08
4315 4269 -9.47867e-09
5759 4269 -2.1327e-08
4269 4270 -9e-06
4270 4270 422
4271 4270 -2.32475e-16
4298 4270 -1.09005e-08
4313 4270 -9.47867e-09
4315 4270 -2.02152e-16
5759 4270 -2.1327e-08
4268 4271 -9.7e-06
4269 4271 -4.6e-06
4270 4271 -9.81043e-14
4271 4271 762
4298 4271 -1.31234e-08
4313 4271 -1.22034e-24
4315 4271 -5.72203e-17
4316 4271 -2.20253e-24
5759 4271 -1.28746e-16
5760 4271 -1.31234e-08
5859 4271 -2.09974e-09
4272 4272 422
4273 4272 -2.1327e-08
4275 4272 -1.09005e-08
4314 4272 -9.47867e-09
5759 4272 -2.1327e-08
4272 4273 -9e-06
4273 4273 422
4274 4273 -1.09005e-08
4275 4273 -2.32475e-16
4314 4273 -9.47867e-09
5759 4273 -2.1327e-08
4273 4274 -4.6e-06
4274 4274 762
4275 4274 -1.31234e-08
4298 4274 -1.27297e-08
4314 4274 -5.72203e-17
5759 4274 -1.28746e-16
5760 4274 -1.31234e-08
5859 4274 -2.09974e-09
4272 4275 -4.6e-06
4273 4275 -9.81043e-14
4274 4275 -1e-05
4275 4275 762
4297 4275 -1.27297e-08
4298 4275 -1.67056e-16
4314 4275 -5.72203e-17
5759 4275 -1.28746e-16
5760 4275 -1.31234e-08
5859 4275 -2.09974e-09
4276 4276 422
4277 4276 -1.09005e-08
4316 4276 -9.47867e-09
5759 4276 -2.1327e-08
4276 4277 -4.6e-06
4277 4277 592
4280 4277 -1.63851e-08
4316 4277 -7.36518e-17
5759 4277 -1.65717e-16
5760 4277 -1.68919e-08
5859 4277 -2.7027e-09
4278 4278 422
4279 4278 -2.1327e-08
4280 4278 -1.09005e-08
4315 4278 -9.47867e-09
5759 4278 -2.1327e-08
4278 4279 -9e-06
4279 4279 422
4280 4279 -2.32475e-16
4297 4279 -1.09005e-08
4313 4279 -9.47867e-09
4315 4279 -2.02152e-16
5759 4279 -2.1327e-08
4277 4280 -9.7e-06
4278 4280 -4.6e-06
4279 4280 -9.81043e-14
4280 4280 762
4297 4280 -1.31234e-08
4313 4280 -1.22034e-24
4315 4280 -5.72203e-17
4316 4280 -9.37563e-25
5759 4280 -1.28746e-16
5760 4280 -1.31234e-08
5859 4280 -2.09974e-09
4281 4281 252
4282 4281 -1.8254e-08
4316 4281 -1.5873e-08
5759 4281 -3.57143e-08
4281 4282 -4.6e-06
4282 4282 422
4285 4282 -2.29858e-08
4316 4282 -1.73023e-16
5759 4282 -3.89303e-16
5760 4282 -2.36967e-08
5859 4282 -3.79147e-09
4283 4283 422
4284 4283 -2.1327e-08
4285 4283 -1.09005e-08
4315 4283 -9.47867e-09
5759 4283 -2.1327e-08
4283 4284 -9e-06
4284 4284 422
4285 4284 -2.32475e-16
4296 4284 -1.09005e-08
4313 4284 -9.47867e-09
4315 4284 -2.02152e-16
5759 4284 -2.1327e-08
4282 4285 -9.7e-06
4283 4285 -4.6e-06
4284 4285 -9.81043e-14
4285 4285 762
4296 4285 -1.31234e-08
4313 4285 -1.22034e-24
4315 4285 -5.72203e-17
4316 4285 -2.20253e-24
5759 4285 -1.28746e-16
5760 4285 -1.31234e-08
5859 4285 -2.09974e-09
4286 4286 422
4287 4286 -2.1327e-08
4289 4286 -1.09005e-08
4314 4286 -9.47867e-09
5759 4286 -2.1327e-08
4286 4287 -9e-06
4287 4287 422
4288 4287 -1.09005e-08
4289 4287 -2.32475e-16
4314 4287 -9.47867e-09
5759 4287 -2.1327e-08
4287 4288 -4.6e-06
4288 4288 762
4289 4288 -1.31234e-08
4296 4288 -1.27297e-08
4314 4288 -5.72203e-17
5759 4288 -1.28746e-16
5760 4288 -1.31234e-08
5859 4288 -2.09974e-09
4286 4289 -4.6e-06
4287 4289 -9.81043e-14
4288 4289 -1e-05
4289 4289 762
4295 4289 -1.27297e-08
4296 4289 -1.67056e-16
4314 4289 -5.72203e-17
5759 4289 -1.28746e-16
5760 4289 -1.31234e-08
5859 4289 -2.09974e-09
4290 4290 422
4291 4290 -1.09005e-08
4316 4290 -9.47867e-09
5759 4290 -2.1327e-08
4290 4291 -4.6e-06
4291 4291 592
4294 4291 -1.63851e-08
4316 4291 -7.36518e-17
5759 4291 -1.65717e-16
5760 4291 -1.68919e-08
5859 4291 -2.7027e-09
4292 4292 422
4293 4292 -2.1327e-08
4294 4292 -1.09005e-08
4315 4292 -9.47867e-09
5759 4292 -2.1327e-08
4292 4293 -9e-06
4293 4293 422
4294 4293 -2.32475e-16
4295 4293 -1.09005e-08
4313 4293 -9.47867e-09
4315 4293 -2.02152e-16
5759 4293 -2.1327e-08
4291 4294 -9.7e-06
4292 4294 -4.6e-06
4293 4294 -9.81043e-14
4294 4294 762
4295 4294 -1.31234e-08
4313 4294 -1.22034e-24
4315 4294 -5.72203e-17
4316 4294 -9.37563e-25
5759 4294 -1.28746e-16
5760 4294 -1.31234e-08
5859 4294 -2.09974e-09
4289 4295 -9.7e-06
4293 4295 -4.6e-06
4294 4295 -1e-05
4295 4295 592
4296 4295 -2.73723e-24
4313 4295 -7.36518e-17
4314 4295 -9.37563e-25
4315 4295 -2.53733e-24
4316 4295 -1.58372e-32
5759 4295 -1.65717e-16
5760 4295 -1.68919e-08
5859 4295 -2.7027e-09
4284 4296 -4.6e-06
4285 4296 -1e-05
4288 4296 -9.7e-06
4289 4296 -1.27297e-13
4295 4296 -1.62044e-21
4296 4296 592
4313 4296 -7.36518e-17
4314 4296 -9.37563e-25
4315 4296 -2.53733e-24
4316 4296 -3.72049e-32
5759 4296 -1.65717e-16
5760 4296 -1.68919e-08
5859 4296 -2.7027e-09
4275 4297 -9.7e-06
4279 4297 -4.6e-06
4280 4297 -1e-05
4297 4297 592
4298 4297 -2.73723e-24
4313 4297 -7.36518e-17
4314 4297 -9.37563e-25
4315 4297 -2.53733e-24
4316 4297 -1.58372e-32
5759 4297 -1.65717e-16
5760 4297 -1.68919e-08
5859 4297 -2.7027e-09
4270 4298 -4.6e-06
4271 4298 -1e-05
4274 4298 -9.7e-06
4275 4298 -1.27297e-13
4297 4298 -1.62044e-21
4298 4298 592
4313 4298 -7.36518e-17
4314 4298 -9.37563e-25
4315 4298 -2.53733e-24
4316 4298 -3.72049e-32
5759 4298 -1.65717e-16
5760 4298 -1.68919e-08
5859 4298 -2.7027e-09
4261 4299 -9.7e-06
4265 4299 -4.6e-06
4266 4299 -1e-05
4299 4299 592
4300 4299 -2.73723e-24
4313 4299 -7.36518e-17
4314 4299 -9.37563e-25
4315 4299 -2.53733e-24
4316 4299 -1.58372e-32
5759 4299 -1.65717e-16
5760 4299 -1.68919e-08
5859 4299 -2.7027e-09
4256 4300 -4.6e-06
4257 4300 -1e-05
4260 4300 -9.7e-06
4261 4300 -1.27297e-13
4299 4300 -1.62044e-21
4300 4300 592
4313 4300 -7.36518e-17
4314 4300 -9.37563e-25
4315 4300 -2.53733e-24
4316 4300 -3.72049e-32
5759 4300 -1.65717e-16
5760 4300 -1.68919e-08
5859 4300 -2.7027e-09
4247 4301 -9.7e-06
4251 4301 -4.6e-06
4252 4301 -1e-05
4301 4301 592
4302 4301 -2.73723e-24
4313 4301 -7.36518e-17
4314 4301 -9.37563e-25
4315 4301 -2.53733e-24
4316 4301 -1.58372e-32
5759 4301 -1.65717e-16
5760 4301 -1.68919e-08
5859 4301 -2.7027e-09
4242 4302 -4.6e-06
4243 4302 -1e-05
4246 4302 -9.7e-06
4247 4302 -1.27297e-13
4301 4302 -1.62044e-21
4302 4302 592
4313 4302 -7.36518e-17
4314 4302 -9.37563e-25
4315 4302 -2.53733e-24
4316 4302 -3.72049e-32
5759 4302 -1.65717e-16
5760 4302 -1.68919e-08
5859 4302 -2.7027e-09
4233 4303 -9.7e-06
4237 4303 -4.6e-06
4238 4303 -1e-05
4303 4303 592
4304 4303 -2.73723e-24
4313 4303 -7.36518e-17
4314 4303 -9.37563e-25
4315 4303 -2.53733e-24
4316 4303 -1.58372e-32
5759 4303 -1.65717e-16
5760 4303 -1.68919e-08
5859 4303 -2.7027e-09
4228 4304 -4.6e-06
4229 4304 -1e-05
4232 4304 -9.7e-06
4233 4304 -1.27297e-13
4303 4304 -1.62044e-21
4304 4304 592
4313 4304 -7.36518e-17
4314 4304 -9.37563e-25
4315 4304 -2.53733e-24
4316 4304 -3.72049e-32
5759 4304 -1.65717e-16
5760 4304 -1.68919e-08
5859 4304 -2.7027e-09
4219 4305 -9.7e-06
4223 4305 -4.6e-06
4224 4305 -1e-05
4305 4305 592
4306 4305 -2.73723e-24
4313 4305 -7.36518e-17
4314 4305 -9.37563e-25
4315 4305 -2.53733e-24
4316 4305 -1.58372e-32
5759 4305 -1.65717e-16
5760 4305 -1.68919e-08
5859 4305 -2.7027e-09
4214 4306 -4.6e-06
4215 4306 -1e-05
4218 4306 -9.7e-06
4219 4306 -1.27297e-13
4305 4306 -1.62044e-21
4306 4306 592
4313 4306 -7.36518e-17
4314 4306 -9.37563e-25
4315 4306 -2.53733e-24
4316 4306 -3.72049e-32
5759 4306 -1.65717e-16
5760 4306 -1.68919e-08
5859 4306 -2.7027e-09
4205 4307 -9.7e-06
4209 4307 -4.6e-06
4210 4307 -1e-05
4307 4307 592
4308 4307 -2.73723e-24
4313 4307 -7.36518e-17
4314 4307 -9.37563e-25
4315 4307 -2.53733e-24
4316 4307 -1.58372e-32
5759 4307 -1.65717e-16
5760 4307 -1.68919e-08
5859 4307 -2.7027e-09
4200 4308 -4.6e-06
4201 4308 -1e-05
4204 4308 -9.7e-06
4205 4308 -1.27297e-13
4307 4308 -1.62044e-21
4308 4308 592
4313 4308 -7.36518e-17
4314 4308 -9.37563e-25
4315 4308 -2.53733e-24
4316 4308 -3.72049e-32
5759 4308 -1.65717e-16
5760 4308 -1.68919e-08
5859 4308 -2.7027e-09
4191 4309 -9.7e-06
4195 4309 -4.6e-06
4196 4309 -1e-05
4309 4309 592
4310 4309 -2.73723e-24
4313 4309 -7.36518e-17
4314 4309 -9.37563e-25
4315 4309 -2.53733e-24
4316 4309 -1.58372e-32
5759 4309 -1.65717e-16
5760 4309 -1.68919e-08
5859 4309 -2.7027e-09
4186 4310 -4.6e-06
4187 4310 -1e-05
4190 4310 -9.7e-06
4191 4310 -1.27297e-13
4309 4310 -1.62044e-21
4310 4310 592
4313 4310 -7.36518e-17
4314 4310 -9.37563e-25
4315 4310 -2.53733e-24
4316 4310 -3.72049e-32
5759 4310 -1.65717e-16
5760 4310 -1.68919e-08
5859 4310 -2.7027e-09
4177 4311 -9.7e-06
4181 4311 -4.6e-06
4182 4311 -1e-05
4311 4311 592
4312 4311 -2.73723e-24
4313 4311 -7.36518e-17
4314 4311 -9.37563e-25
4315 4311 -2.53733e-24
4316 4311 -1.58372e-32
5759 4311 -1.65717e-16
5760 4311 -1.68919e-08
5859 4311 -2.7027e-09
4172 4312 -4.6e-06
4173 4312 -1e-05
4176 4312 -9.7e-06
4177 4312 -1.27297e-13
4311 4312 -1.62044e-21
4312 4312 592
4313 4312 -7.36518e-17
4314 4312 -9.37563e-25
4315 4312 -2.53733e-24
4316 4312 -3.72049e-32
5759 4312 -1.65717e-16
5760 4312 -1.68919e-08
5859 4312 -2.7027e-09
4164 4313 -2.1e-05
4165 4313 -3.4585e-14
4168 4313 -2.42095e-13
4172 4313 -4e-06
4173 4313 -9.29898e-22
4181 4313 -4e-06
4182 4313 -9.29898e-22
4186 4313 -4e-06
4187 4313 -9.29898e-22
4195 4313 -4e-06
4196 4313 -9.29898e-22
4200 4313 -4e-06
4201 4313 -9.29898e-22
4209 4313 -4e-06
4210 4313 -9.29898e-22
4214 4313 -4e-06
4215 4313 -9.29898e-22
4223 4313 -4e-06
4224 4313 -9.29898e-22
4228 4313 -4e-06
4229 4313 -9.29898e-22
4237 4313 -4e-06
4238 4313 -9.29898e-22
4242 4313 -4e-06
4243 4313 -9.29898e-22
4251 4313 -4e-06
4252 4313 -9.29898e-22
4256 4313 -4e-06
4257 4313 -9.29898e-22
4265 4313 -4e-06
4266 4313 -9.29898e-22
4270 4313 -4e-06
4271 4313 -9.29898e-22
4279 4313 -4e-06
4280 4313 -9.29898e-22
4284 4313 -4e-06
4285 4313 -9.29898e-22
4293 4313 -4e-06
4294 4313 -9.29898e-22
4295 4313 -4.36019e-14
4296 4313 -4.36019e-14
4297 4313 -4.36019e-14
4298 4313 -4.36019e-14
4299 4313 -4.36019e-14
4300 4313 -4.36019e-14
4301 4313 -4.36019e-14
4302 4313 -4.36019e-14
4303 4313 -4.36019e-14
4304 4313 -4.36019e-14
4305 4313 -4.36019e-14
4306 4313 -4.36019e-14
4307 4313 -4.36019e-14
4308 4313 -4.36019e-14
4309 4313 -4.36019e-14
4310 4313 -4.36019e-14
4311 4313 -4.36019e-14
4312 4313 -4.36019e-14
4313 4313 28401
4314 4313 -1.58445e-09
4315 4313 -5.12479e-25
4316 4313 -0
5759 4313 -5.40666e-17
5760 4313 -4.66791e-25
5763 4313 -6.35827e-31
5764 4313 -6.35827e-31
5859 4313 -7.46866e-26
4165 4314 -2.1e-05
4168 4314 -2.42095e-13
4174 4314 -4e-06
4175 4314 -4e-06
4176 4314 -4.36019e-14
4177 4314 -4.36019e-14
4188 4314 -4e-06
4189 4314 -4e-06
4190 4314 -4.36019e-14
4191 4314 -4.36019e-14
4202 4314 -4e-06
4203 4314 -4e-06
4204 4314 -4.36019e-14
4205 4314 -4.36019e-14
4216 4314 -4e-06
4217 4314 -4e-06
4218 4314 -4.36019e-14
4219 4314 -4.36019e-14
4230 4314 -4e-06
4231 4314 -4e-06
4232 4314 -4.36019e-14
4233 4314 -4.36019e-14
4244 4314 -4e-06
4245 4314 -4e-06
4246 4314 -4.36019e-14
4247 4314 -4.36019e-14
4258 4314 -4e-06
4259 4314 -4e-06
4260 4314 -4.36019e-14
4261 4314 -4.36019e-14
4272 4314 -4e-06
4273 4314 -4e-06
4274 4314 -4.36019e-14
4275 4314 -4.36019e-14
4286 4314 -4e-06
4287 4314 -4e-06
4288 4314 -4.36019e-14
4289 4314 -4.36019e-14
4295 4314 -5.55037e-22
4296 4314 -5.55037e-22
4297 4314 -5.55037e-22
4298 4314 -5.55037e-22
4299 4314 -5.55037e-22
4300 4314 -5.55037e-22
4301 4314 -5.55037e-22
4302 4314 -5.55037e-22
4303 4314 -5.55037e-22
4304 4314 -5.55037e-22
4305 4314 -5.55037e-22
4306 4314 -5.55037e-22
4307 4314 -5.55037e-22
4308 4314 -5.55037e-22
4309 4314 -5.55037e-22
4310 4314 -5.55037e-22
4311 4314 -5.55037e-22
4312 4314 -5.55037e-22
4313 4314 -4.5e-05
4314 4314 28571
4315 4314 -8.07167e-34
4316 4314 0
5759 4314 -5.37449e-17
5760 4314 -3.60493e-25
5763 4314 -6.32044e-31
5764 4314 -6.32044e-31
5859 4314 -5.7679e-26
4160 4315 -2.1e-05
4163 4315 -2.42095e-13
4171 4315 -4e-06
4172 4315 -8.5308e-14
4173 4315 -4.36019e-14
4180 4315 -4e-06
4181 4315 -8.5308e-14
4182 4315 -4.36019e-14
4185 4315 -4e-06
4186 4315 -8.5308e-14
4187 4315 -4.36019e-14
4194 4315 -4e-06
4195 4315 -8.5308e-14
4196 4315 -4.36019e-14
4199 4315 -4e-06
4200 4315 -8.5308e-14
4201 4315 -4.36019e-14
4208 4315 -4e-06
4209 4315 -8.5308e-14
4210 4315 -4.36019e-14
4213 4315 -4e-06
4214 4315 -8.5308e-14
4215 4315 -4.36019e-14
4222 4315 -4e-06
4223 4315 -8.5308e-14
4224 4315 -4.36019e-14
4227 4315 -4e-06
4228 4315 -8.5308e-14
4229 4315 -4.36019e-14
4236 4315 -4e-06
4237 4315 -8.5308e-14
4238 4315 -4.36019e-14
4241 4315 -4e-06
4242 4315 -8.5308e-14
4243 4315 -4.36019e-14
4250 4315 -4e-06
4251 4315 -8.5308e-14
4252 4315 -4.36019e-14
4255 4315 -4e-06
4256 4315 -8.5308e-14
4257 4315 -4.36019e-14
4264 4315 -4e-06
4265 4315 -8.5308e-14
4266 4315 -4.36019e-14
4269 4315 -4e-06
4270 4315 -8.5308e-14
4271 4315 -4.36019e-14
4278 4315 -4e-06
4279 4315 -8.5308e-14
4280 4315 -4.36019e-14
4283 4315 -4e-06
4284 4315 -8.5308e-14
4285 4315 -4.36019e-14
4292 4315 -4e-06
4293 4315 -8.5308e-14
4294 4315 -4.36019e-14
4295 4315 -1.5021e-21
4296 4315 -1.5021e-21
4297 4315 -1.5021e-21
4298 4315 -1.5021e-21
4299 4315 -1.5021e-21
4300 4315 -1.5021e-21
4301 4315 -1.5021e-21
4302 4315 -1.5021e-21
4303 4315 -1.5021e-21
4304 4315 -1.5021e-21
4305 4315 -1.5021e-21
4306 4315 -1.5021e-21
4307 4315 -1.5021e-21
4308 4315 -1.5021e-21
4309 4315 -1.5021e-21
4310 4315 -1.5021e-21
4311 4315 -1.5021e-21
4312 4315 -1.5021e-21
4313 4315 -1.45549e-20
4314 4315 -2.30616e-29
4315 4315 28571
4316 4315 -1.57502e-09
5759 4315 -5.37449e-17
5760 4315 -3.60493e-25
5763 4315 0
5764 4315 0
5765 4315 -6.32044e-31
5770 4315 -6.32044e-31
5859 4315 -5.7679e-26
4159 4316 -2.1e-05
4160 4316 -3.4585e-14
4163 4316 -2.42095e-13
4169 4316 -4e-06
4170 4316 -7.30159e-14
4173 4316 -1.67833e-21
4178 4316 -4e-06
4179 4316 -4.36019e-14
4182 4316 -7.14423e-22
4183 4316 -4e-06
4184 4316 -7.30159e-14
4187 4316 -1.67833e-21
4192 4316 -4e-06
4193 4316 -4.36019e-14
4196 4316 -7.14423e-22
4197 4316 -4e-06
4198 4316 -7.30159e-14
4201 4316 -1.67833e-21
4206 4316 -4e-06
4207 4316 -4.36019e-14
4210 4316 -7.14423e-22
4211 4316 -4e-06
4212 4316 -7.30159e-14
4215 4316 -1.67833e-21
4220 4316 -4e-06
4221 4316 -4.36019e-14
4224 4316 -7.14423e-22
4225 4316 -4e-06
4226 4316 -7.30159e-14
4229 4316 -1.67833e-21
4234 4316 -4e-06
4235 4316 -4.36019e-14
4238 4316 -7.14423e-22
4239 4316 -4e-06
4240 4316 -7.30159e-14
4243 4316 -1.67833e-21
4248 4316 -4e-06
4249 4316 -4.36019e-14
4252 4316 -7.14423e-22
4253 4316 -4e-06
4254 4316 -7.30159e-14
4257 4316 -1.67833e-21
4262 4316 -4e-06
4263 4316 -4.36019e-14
4266 4316 -7.14423e-22
4267 4316 -4e-06
4268 4316 -7.30159e-14
4271 4316 -1.67833e-21
4276 4316 -4e-06
4277 4316 -4.36019e-14
4280 4316 -7.14423e-22
4281 4316 -4e-06
4282 4316 -7.30159e-14
4285 4316 -1.67833e-21
4290 4316 -4e-06
4291 4316 -4.36019e-14
4294 4316 -7.14423e-22
4295 4316 -9.37563e-30
4296 4316 -2.20253e-29
4297 4316 -9.37563e-30
4298 4316 -2.20253e-29
4299 4316 -9.37563e-30
4300 4316 -2.20253e-29
4301 4316 -9.37563e-30
4302 4316 -2.20253e-29
4303 4316 -9.37563e-30
4304 4316 -2.20253e-29
4305 4316 -9.37563e-30
4306 4316 -2.20253e-29
4307 4316 -9.37563e-30
4308 4316 -2.20253e-29
4309 4316 -9.37563e-30
4310 4316 -2.20253e-29
4311 4316 -9.37563e-30
4312 4316 -2.20253e-29
4313 4316 -3.78351e-44
4314 4316 0
4315 4316 -4.5e-05
4316 4316 28401
5759 4316 -7.23033e-17
5760 4316 -7.8169e-25
5763 4316 0
5764 4316 0
5765 4316 -6.35827e-31
5770 4316 -6.35827e-31
5859 4316 -1.2507e-25
4317 4317 3643.2
4318 4317 -1.6469e-09
4321 4317 -1.15283e-08
4474 4317 -5.76416e-09
4317 4318 -6e-06
4318 4318 3643.2
4321 4318 -1.15283e-08
4473 4318 -5.76416e-09
4474 4318 -9.49302e-18
4319 4319 170
4321 4319 -7.05881e-07
5765 4319 -7.05881e-07
4320 4320 170
4321 4320 -7.05881e-07
5770 4320 -7.05881e-07
4317 4321 -4.2e-05
4318 4321 -4.2e-05
4319 4321 -0.00012
4320 4321 -0.00012
4321 4321 1135.6
4473 4321 -2.13187e-16
4474 4321 -2.13187e-16
5765 4321 -7.45912e-14
5770 4321 -7.45912e-14
4322 4322 3643.2
4323 4322 -1.6469e-09
4326 4322 -1.15283e-08
4471 4322 -5.76416e-09
4322 4323 -6e-06
4323 4323 3643.2
4326 4323 -1.15283e-08
4471 4323 -9.49302e-18
4472 4323 -5.76416e-09
4324 4324 170
4326 4324 -7.05881e-07
5764 4324 -7.05881e-07
4325 4325 170
4326 4325 -7.05881e-07
5763 4325 -7.05881e-07
4322 4326 -4.2e-05
4323 4326 -4.2e-05
4324 4326 -0.00012
4325 4326 -0.00012
4326 4326 1135.6
4471 4326 -2.13187e-16
4472 4326 -2.13187e-16
5763 4326 -7.45912e-14
5764 4326 -7.45912e-14
4327 4327 252
4328 4327 -1.8254e-08
4474 4327 -1.5873e-08
5761 4327 -3.57143e-08
4327 4328 -4.6e-06
4328 4328 422
4331 4328 -2.29858e-08
4474 4328 -1.73023e-16
5761 4328 -3.89303e-16
5762 4328 -2.36967e-08
5859 4328 -3.79147e-09
4329 4329 422
4330 4329 -2.1327e-08
4331 4329 -1.09005e-08
4473 4329 -9.47867e-09
5761 4329 -2.1327e-08
4329 4330 -9e-06
4330 4330 422
4331 4330 -2.32475e-16
4470 4330 -1.09005e-08
4471 4330 -9.47867e-09
4473 4330 -2.02152e-16
5761 4330 -2.1327e-08
4328 4331 -9.7e-06
4329 4331 -4.6e-06
4330 4331 -9.81043e-14
4331 4331 762
4470 4331 -1.31234e-08
4471 4331 -1.22034e-24
4473 4331 -5.72203e-17
4474 4331 -2.20253e-24
5761 4331 -1.28746e-16
5762 4331 -1.31234e-08
5859 4331 -2.09974e-09
4332 4332 422
4333 4332 -2.1327e-08
4335 4332 -1.09005e-08
4472 4332 -9.47867e-09
5761 4332 -2.1327e-08
4332 4333 -9e-06
4333 4333 422
4334 4333 -1.09005e-08
4335 4333 -2.32475e-16
4472 4333 -9.47867e-09
5761 4333 -2.1327e-08
4333 4334 -4.6e-06
4334 4334 762
4335 4334 -1.31234e-08
4470 4334 -1.27297e-08
4472 4334 -5.72203e-17
5761 4334 -1.28746e-16
5762 4334 -1.31234e-08
5859 4334 -2.09974e-09
4332 4335 -4.6e-06
4333 4335 -9.81043e-14
4334 4335 -1e-05
4335 4335 762
4469 4335 -1.27297e-08
4470 4335 -1.67056e-16
4472 4335 -5.72203e-17
5761 4335 -1.28746e-16
5762 4335 -1.31234e-08
5859 4335 -2.09974e-09
4336 4336 422
4337 4336 -1.09005e-08
4474 4336 -9.47867e-09
5761 4336 -2.1327e-08
4336 4337 -4.6e-06
4337 4337 592
4340 4337 -1.63851e-08
4474 4337 -7.36518e-17
5761 4337 -1.65717e-16
5762 4337 -1.68919e-08
5859 4337 -2.7027e-09
4338 4338 422
4339 4338 -2.1327e-08
4340 4338 -1.09005e-08
4473 4338 -9.47867e-09
5761 4338 -2.1327e-08
4338 4339 -9e-06
4339 4339 422
4340 4339 -2.32475e-16
4469 4339 -1.09005e-08
4471 4339 -9.47867e-09
4473 4339 -2.02152e-16
5761 4339 -2.1327e-08
4337 4340 -9.7e-06
4338 4340 -4.6e-06
4339 4340 -9.81043e-14
4340 4340 762
4469 4340 -1.31234e-08
4471 4340 -1.22034e-24
4473 4340 -5.72203e-17
4474 4340 -9.37563e-25
5761 4340 -1.28746e-16
5762 4340 -1.31234e-08
5859 4340 -2.09974e-09
4341 4341 252
4342 4341 -1.8254e-08
4474 4341 -1.5873e-08
5761 4341 -3.57143e-08
4341 4342 -4.6e-06
4342 4342 422
4345 4342 -2.29858e-08
4474 4342 -1.73023e-16
5761 4342 -3.89303e-16
5762 4342 -2.36967e-08
5859 4342 -3.79147e-09
4343 4343 422
4344 4343 -2.1327e-08
4345 4343 -1.09005e-08
4473 4343 -9.47867e-09
5761 4343 -2.1327e-08
4343 4344 -9e-06
4344 4344 422
4345 4344 -2.32475e-16
4468 4344 -1.09005e-08
4471 4344 -9.47867e-09
4473 4344 -2.02152e-16
5761 4344 -2.1327e-08
4342 4345 -9.7e-06
4343 4345 -4.6e-06
4344 4345 -9.81043e-14
4345 4345 762
4468 4345 -1.31234e-08
4471 4345 -1.22034e-24
4473 4345 -5.72203e-17
4474 4345 -2.20253e-24
5761 4345 -1.28746e-16
5762 4345 -1.31234e-08
5859 4345 -2.09974e-09
4346 4346 422
4347 4346 -2.1327e-08
4349 4346 -1.09005e-08
4472 4346 -9.47867e-09
5761 4346 -2.1327e-08
4346 4347 -9e-06
4347 4347 422
4348 4347 -1.09005e-08
4349 4347 -2.32475e-16
4472 4347 -9.47867e-09
5761 4347 -2.1327e-08
4347 4348 -4.6e-06
4348 4348 762
4349 4348 -1.31234e-08
4468 4348 -1.27297e-08
4472 4348 -5.72203e-17
5761 4348 -1.28746e-16
5762 4348 -1.31234e-08
5859 4348 -2.09974e-09
4346 4349 -4.6e-06
4347 4349 -9.81043e-14
4348 4349 -1e-05
4349 4349 762
4467 4349 -1.27297e-08
4468 4349 -1.67056e-16
4472 4349 -5.72203e-17
5761 4349 -1.28746e-16
5762 4349 -1.31234e-08
5859 4349 -2.09974e-09
4350 4350 422
4351 4350 -1.09005e-08
4474 4350 -9.47867e-09
5761 4350 -2.1327e-08
4350 4351 -4.6e-06
4351 4351 592
4354 4351 -1.63851e-08
4474 4351 -7.36518e-17
5761 4351 -1.65717e-16
5762 4351 -1.68919e-08
5859 4351 -2.7027e-09
4352 4352 422
4353 4352 -2.1327e-08
4354 4352 -1.09005e-08
4473 4352 -9.47867e-09
5761 4352 -2.1327e-08
4352 4353 -9e-06
4353 4353 422
4354 4353 -2.32475e-16
4467 4353 -1.09005e-08
4471 4353 -9.47867e-09
4473 4353 -2.02152e-16
5761 4353 -2.1327e-08
4351 4354 -9.7e-06
4352 4354 -4.6e-06
4353 4354 -9.81043e-14
4354 4354 762
4467 4354 -1.31234e-08
4471 4354 -1.22034e-24
4473 4354 -5.72203e-17
4474 4354 -9.37563e-25
5761 4354 -1.28746e-16
5762 4354 -1.31234e-08
5859 4354 -2.09974e-09
4355 4355 252
4356 4355 -1.8254e-08
4474 4355 -1.5873e-08
5761 4355 -3.57143e-08
4355 4356 -4.6e-06
4356 4356 422
4359 4356 -2.29858e-08
4474 4356 -1.73023e-16
5761 4356 -3.89303e-16
5762 4356 -2.36967e-08
5859 4356 -3.79147e-09
4357 4357 422
4358 4357 -2.1327e-08
4359 4357 -1.09005e-08
4473 4357 -9.47867e-09
5761 4357 -2.1327e-08
4357 4358 -9e-06
4358 4358 422
4359 4358 -2.32475e-16
4466 4358 -1.09005e-08
4471 4358 -9.47867e-09
4473 4358 -2.02152e-16
5761 4358 -2.1327e-08
4356 4359 -9.7e-06
4357 4359 -4.6e-06
4358 4359 -9.81043e-14
4359 4359 762
4466 4359 -1.31234e-08
4471 4359 -1.22034e-24
4473 4359 -5.72203e-17
4474 4359 -2.20253e-24
5761 4359 -1.28746e-16
5762 4359 -1.31234e-08
5859 4359 -2.09974e-09
4360 4360 422
4361 4360 -2.1327e-08
4363 4360 -1.09005e-08
4472 4360 -9.47867e-09
5761 4360 -2.1327e-08
4360 4361 -9e-06
4361 4361 422
4362 4361 -1.09005e-08
4363 4361 -2.32475e-16
4472 4361 -9.47867e-09
5761 4361 -2.1327e-08
4361 4362 -4.6e-06
4362 4362 762
4363 4362 -1.31234e-08
4466 4362 -1.27297e-08
4472 4362 -5.72203e-17
5761 4362 -1.28746e-16
5762 4362 -1.31234e-08
5859 4362 -2.09974e-09
4360 4363 -4.6e-06
4361 4363 -9.81043e-14
4362 4363 -1e-05
4363 4363 762
4465 4363 -1.27297e-08
4466 4363 -1.67056e-16
4472 4363 -5.72203e-17
5761 4363 -1.28746e-16
5762 4363 -1.31234e-08
5859 4363 -2.09974e-09
4364 4364 422
4365 4364 -1.09005e-08
4474 4364 -9.47867e-09
5761 4364 -2.1327e-08
4364 4365 -4.6e-06
4365 4365 592
4368 4365 -1.63851e-08
4474 4365 -7.36518e-17
5761 4365 -1.65717e-16
5762 4365 -1.68919e-08
5859 4365 -2.7027e-09
4366 4366 422
4367 4366 -2.1327e-08
4368 4366 -1.09005e-08
4473 4366 -9.47867e-09
5761 4366 -2.1327e-08
4366 4367 -9e-06
4367 4367 422
4368 4367 -2.32475e-16
4465 4367 -1.09005e-08
4471 4367 -9.47867e-09
4473 4367 -2.02152e-16
5761 4367 -2.1327e-08
4365 4368 -9.7e-06
4366 4368 -4.6e-06
4367 4368 -9.81043e-14
4368 4368 762
4465 4368 -1.31234e-08
4471 4368 -1.22034e-24
4473 4368 -5.72203e-17
4474 4368 -9.37563e-25
5761 4368 -1.28746e-16
5762 4368 -1.31234e-08
5859 4368 -2.09974e-09
4369 4369 252
4370 4369 -1.8254e-08
4474 4369 -1.5873e-08
5761 4369 -3.57143e-08
4369 4370 -4.6e-06
4370 4370 422
4373 4370 -2.29858e-08
4474 4370 -1.73023e-16
5761 4370 -3.89303e-16
5762 4370 -2.36967e-08
5859 4370 -3.79147e-09
4371 4371 422
4372 4371 -2.1327e-08
4373 4371 -1.09005e-08
4473 4371 -9.47867e-09
5761 4371 -2.1327e-08
4371 4372 -9e-06
4372 4372 422
4373 4372 -2.32475e-16
4464 4372 -1.09005e-08
4471 4372 -9.47867e-09
4473 4372 -2.02152e-16
5761 4372 -2.1327e-08
4370 4373 -9.7e-06
4371 4373 -4.6e-06
4372 4373 -9.81043e-14
4373 4373 762
4464 4373 -1.31234e-08
4471 4373 -1.22034e-24
4473 4373 -5.72203e-17
4474 4373 -2.20253e-24
5761 4373 -1.28746e-16
5762 4373 -1.31234e-08
5859 4373 -2.09974e-09
4374 4374 422
4375 4374 -2.1327e-08
4377 4374 -1.09005e-08
4472 4374 -9.47867e-09
5761 4374 -2.1327e-08
4374 4375 -9e-06
4375 4375 422
4376 4375 -1.09005e-08
4377 4375 -2.32475e-16
4472 4375 -9.47867e-09
5761 4375 -2.1327e-08
4375 4376 -4.6e-06
4376 4376 762
4377 4376 -1.31234e-08
4464 4376 -1.27297e-08
4472 4376 -5.72203e-17
5761 4376 -1.28746e-16
5762 4376 -1.31234e-08
5859 4376 -2.09974e-09
4374 4377 -4.6e-06
4375 4377 -9.81043e-14
4376 4377 -1e-05
4377 4377 762
4463 4377 -1.27297e-08
4464 4377 -1.67056e-16
4472 4377 -5.72203e-17
5761 4377 -1.28746e-16
5762 4377 -1.31234e-08
5859 4377 -2.09974e-09
4378 4378 422
4379 4378 -1.09005e-08
4474 4378 -9.47867e-09
5761 4378 -2.1327e-08
4378 4379 -4.6e-06
4379 4379 592
4382 4379 -1.63851e-08
4474 4379 -7.36518e-17
5761 4379 -1.65717e-16
5762 4379 -1.68919e-08
5859 4379 -2.7027e-09
4380 4380 422
4381 4380 -2.1327e-08
4382 4380 -1.09005e-08
4473 4380 -9.47867e-09
5761 4380 -2.1327e-08
4380 4381 -9e-06
4381 4381 422
4382 4381 -2.32475e-16
4463 4381 -1.09005e-08
4471 4381 -9.47867e-09
4473 4381 -2.02152e-16
5761 4381 -2.1327e-08
4379 4382 -9.7e-06
4380 4382 -4.6e-06
4381 4382 -9.81043e-14
4382 4382 762
4463 4382 -1.31234e-08
4471 4382 -1.22034e-24
4473 4382 -5.72203e-17
4474 4382 -9.37563e-25
5761 4382 -1.28746e-16
5762 4382 -1.31234e-08
5859 4382 -2.09974e-09
4383 4383 252
4384 4383 -1.8254e-08
4474 4383 -1.5873e-08
5761 4383 -3.57143e-08
4383 4384 -4.6e-06
4384 4384 422
4387 4384 -2.29858e-08
4474 4384 -1.73023e-16
5761 4384 -3.89303e-16
5762 4384 -2.36967e-08
5859 4384 -3.79147e-09
4385 4385 422
4386 4385 -2.1327e-08
4387 4385 -1.09005e-08
4473 4385 -9.47867e-09
5761 4385 -2.1327e-08
4385 4386 -9e-06
4386 4386 422
4387 4386 -2.32475e-16
4462 4386 -1.09005e-08
4471 4386 -9.47867e-09
4473 4386 -2.02152e-16
5761 4386 -2.1327e-08
4384 4387 -9.7e-06
4385 4387 -4.6e-06
4386 4387 -9.81043e-14
4387 4387 762
4462 4387 -1.31234e-08
4471 4387 -1.22034e-24
4473 4387 -5.72203e-17
4474 4387 -2.20253e-24
5761 4387 -1.28746e-16
5762 4387 -1.31234e-08
5859 4387 -2.09974e-09
4388 4388 422
4389 4388 -2.1327e-08
4391 4388 -1.09005e-08
4472 4388 -9.47867e-09
5761 4388 -2.1327e-08
4388 4389 -9e-06
4389 4389 422
4390 4389 -1.09005e-08
4391 4389 -2.32475e-16
4472 4389 -9.47867e-09
5761 4389 -2.1327e-08
4389 4390 -4.6e-06
4390 4390 762
4391 4390 -1.31234e-08
4462 4390 -1.27297e-08
4472 4390 -5.72203e-17
5761 4390 -1.28746e-16
5762 4390 -1.31234e-08
5859 4390 -2.09974e-09
4388 4391 -4.6e-06
4389 4391 -9.81043e-14
4390 4391 -1e-05
4391 4391 762
4461 4391 -1.27297e-08
4462 4391 -1.67056e-16
4472 4391 -5.72203e-17
5761 4391 -1.28746e-16
5762 4391 -1.31234e-08
5859 4391 -2.09974e-09
4392 4392 422
4393 4392 -1.09005e-08
4474 4392 -9.47867e-09
5761 4392 -2.1327e-08
4392 4393 -4.6e-06
4393 4393 592
4396 4393 -1.63851e-08
4474 4393 -7.36518e-17
5761 4393 -1.65717e-16
5762 4393 -1.68919e-08
5859 4393 -2.7027e-09
4394 4394 422
4395 4394 -2.1327e-08
4396 4394 -1.09005e-08
4473 4394 -9.47867e-09
5761 4394 -2.1327e-08
4394 4395 -9e-06
4395 4395 422
4396 4395 -2.32475e-16
4461 4395 -1.09005e-08
4471 4395 -9.47867e-09
4473 4395 -2.02152e-16
5761 4395 -2.1327e-08
4393 4396 -9.7e-06
4394 4396 -4.6e-06
4395 4396 -9.81043e-14
4396 4396 762
4461 4396 -1.31234e-08
4471 4396 -1.22034e-24
4473 4396 -5.72203e-17
4474 4396 -9.37563e-25
5761 4396 -1.28746e-16
5762 4396 -1.31234e-08
5859 4396 -2.09974e-09
4397 4397 252
4398 4397 -1.8254e-08
4474 4397 -1.5873e-08
5761 4397 -3.57143e-08
4397 4398 -4.6e-06
4398 4398 422
4401 4398 -2.29858e-08
4474 4398 -1.73023e-16
5761 4398 -3.89303e-16
5762 4398 -2.36967e-08
5859 4398 -3.79147e-09
4399 4399 422
4400 4399 -2.1327e-08
4401 4399 -1.09005e-08
4473 4399 -9.47867e-09
5761 4399 -2.1327e-08
4399 4400 -9e-06
4400 4400 422
4401 4400 -2.32475e-16
4460 4400 -1.09005e-08
4471 4400 -9.47867e-09
4473 4400 -2.02152e-16
5761 4400 -2.1327e-08
4398 4401 -9.7e-06
4399 4401 -4.6e-06
4400 4401 -9.81043e-14
4401 4401 762
4460 4401 -1.31234e-08
4471 4401 -1.22034e-24
4473 4401 -5.72203e-17
4474 4401 -2.20253e-24
5761 4401 -1.28746e-16
5762 4401 -1.31234e-08
5859 4401 -2.09974e-09
4402 4402 422
4403 4402 -2.1327e-08
4405 4402 -1.09005e-08
4472 4402 -9.47867e-09
5761 4402 -2.1327e-08
4402 4403 -9e-06
4403 4403 422
4404 4403 -1.09005e-08
4405 4403 -2.32475e-16
4472 4403 -9.47867e-09
5761 4403 -2.1327e-08
4403 4404 -4.6e-06
4404 4404 762
4405 4404 -1.31234e-08
4460 4404 -1.27297e-08
4472 4404 -5.72203e-17
5761 4404 -1.28746e-16
5762 4404 -1.31234e-08
5859 4404 -2.09974e-09
4402 4405 -4.6e-06
4403 4405 -9.81043e-14
4404 4405 -1e-05
4405 4405 762
4459 4405 -1.27297e-08
4460 4405 -1.67056e-16
4472 4405 -5.72203e-17
5761 4405 -1.28746e-16
5762 4405 -1.31234e-08
5859 4405 -2.09974e-09
4406 4406 422
4407 4406 -1.09005e-08
4474 4406 -9.47867e-09
5761 4406 -2.1327e-08
4406 4407 -4.6e-06
4407 4407 592
4410 4407 -1.63851e-08
4474 4407 -7.36518e-17
5761 4407 -1.65717e-16
5762 4407 -1.68919e-08
5859 4407 -2.7027e-09
4408 4408 422
4409 4408 -2.1327e-08
4410 4408 -1.09005e-08
4473 4408 -9.47867e-09
5761 4408 -2.1327e-08
4408 4409 -9e-06
4409 4409 422
4410 4409 -2.32475e-16
4459 4409 -1.09005e-08
4471 4409 -9.47867e-09
4473 4409 -2.02152e-16
5761 4409 -2.1327e-08
4407 4410 -9.7e-06
4408 4410 -4.6e-06
4409 4410 -9.81043e-14
4410 4410 762
4459 4410 -1.31234e-08
4471 4410 -1.22034e-24
4473 4410 -5.72203e-17
4474 4410 -9.37563e-25
5761 4410 -1.28746e-16
5762 4410 -1.31234e-08
5859 4410 -2.09974e-09
4411 4411 252
4412 4411 -1.8254e-08
4474 4411 -1.5873e-08
5761 4411 -3.57143e-08
4411 4412 -4.6e-06
4412 4412 422
4415 4412 -2.29858e-08
4474 4412 -1.73023e-16
5761 4412 -3.89303e-16
5762 4412 -2.36967e-08
5859 4412 -3.79147e-09
4413 4413 422
4414 4413 -2.1327e-08
4415 4413 -1.09005e-08
4473 4413 -9.47867e-09
5761 4413 -2.1327e-08
4413 4414 -9e-06
4414 4414 422
4415 4414 -2.32475e-16
4458 4414 -1.09005e-08
4471 4414 -9.47867e-09
4473 4414 -2.02152e-16
5761 4414 -2.1327e-08
4412 4415 -9.7e-06
4413 4415 -4.6e-06
4414 4415 -9.81043e-14
4415 4415 762
4458 4415 -1.31234e-08
4471 4415 -1.22034e-24
4473 4415 -5.72203e-17
4474 4415 -2.20253e-24
5761 4415 -1.28746e-16
5762 4415 -1.31234e-08
5859 4415 -2.09974e-09
4416 4416 422
4417 4416 -2.1327e-08
4419 4416 -1.09005e-08
4472 4416 -9.47867e-09
5761 4416 -2.1327e-08
4416 4417 -9e-06
4417 4417 422
4418 4417 -1.09005e-08
4419 4417 -2.32475e-16
4472 4417 -9.47867e-09
5761 4417 -2.1327e-08
4417 4418 -4.6e-06
4418 4418 762
4419 4418 -1.31234e-08
4458 4418 -1.27297e-08
4472 4418 -5.72203e-17
5761 4418 -1.28746e-16
5762 4418 -1.31234e-08
5859 4418 -2.09974e-09
4416 4419 -4.6e-06
4417 4419 -9.81043e-14
4418 4419 -1e-05
4419 4419 762
4457 4419 -1.27297e-08
4458 4419 -1.67056e-16
4472 4419 -5.72203e-17
5761 4419 -1.28746e-16
5762 4419 -1.31234e-08
5859 4419 -2.09974e-09
4420 4420 422
4421 4420 -1.09005e-08
4474 4420 -9.47867e-09
5761 4420 -2.1327e-08
4420 4421 -4.6e-06
4421 4421 592
4424 4421 -1.63851e-08
4474 4421 -7.36518e-17
5761 4421 -1.65717e-16
5762 4421 -1.68919e-08
5859 4421 -2.7027e-09
4422 4422 422
4423 4422 -2.1327e-08
4424 4422 -1.09005e-08
4473 4422 -9.47867e-09
5761 4422 -2.1327e-08
4422 4423 -9e-06
4423 4423 422
4424 4423 -2.32475e-16
4457 4423 -1.09005e-08
4471 4423 -9.47867e-09
4473 4423 -2.02152e-16
5761 4423 -2.1327e-08
4421 4424 -9.7e-06
4422 4424 -4.6e-06
4423 4424 -9.81043e-14
4424 4424 762
4457 4424 -1.31234e-08
4471 4424 -1.22034e-24
4473 4424 -5.72203e-17
4474 4424 -9.37563e-25
5761 4424 -1.28746e-16
5762 4424 -1.31234e-08
5859 4424 -2.09974e-09
4425 4425 252
4426 4425 -1.8254e-08
4474 4425 -1.5873e-08
5761 4425 -3.57143e-08
4425 4426 -4.6e-06
4426 4426 422
4429 4426 -2.29858e-08
4474 4426 -1.73023e-16
5761 4426 -3.89303e-16
5762 4426 -2.36967e-08
5859 4426 -3.79147e-09
4427 4427 422
4428 4427 -2.1327e-08
4429 4427 -1.09005e-08
4473 4427 -9.47867e-09
5761 4427 -2.1327e-08
4427 4428 -9e-06
4428 4428 422
4429 4428 -2.32475e-16
4456 4428 -1.09005e-08
4471 4428 -9.47867e-09
4473 4428 -2.02152e-16
5761 4428 -2.1327e-08
4426 4429 -9.7e-06
4427 4429 -4.6e-06
4428 4429 -9.81043e-14
4429 4429 762
4456 4429 -1.31234e-08
4471 4429 -1.22034e-24
4473 4429 -5.72203e-17
4474 4429 -2.20253e-24
5761 4429 -1.28746e-16
5762 4429 -1.31234e-08
5859 4429 -2.09974e-09
4430 4430 422
4431 4430 -2.1327e-08
4433 4430 -1.09005e-08
4472 4430 -9.47867e-09
5761 4430 -2.1327e-08
4430 4431 -9e-06
4431 4431 422
4432 4431 -1.09005e-08
4433 4431 -2.32475e-16
4472 4431 -9.47867e-09
5761 4431 -2.1327e-08
4431 4432 -4.6e-06
4432 4432 762
4433 4432 -1.31234e-08
4456 4432 -1.27297e-08
4472 4432 -5.72203e-17
5761 4432 -1.28746e-16
5762 4432 -1.31234e-08
5859 4432 -2.09974e-09
4430 4433 -4.6e-06
4431 4433 -9.81043e-14
4432 4433 -1e-05
4433 4433 762
4455 4433 -1.27297e-08
4456 4433 -1.67056e-16
4472 4433 -5.72203e-17
5761 4433 -1.28746e-16
5762 4433 -1.31234e-08
5859 4433 -2.09974e-09
4434 4434 422
4435 4434 -1.09005e-08
4474 4434 -9.47867e-09
5761 4434 -2.1327e-08
4434 4435 -4.6e-06
4435 4435 592
4438 4435 -1.63851e-08
4474 4435 -7.36518e-17
5761 4435 -1.65717e-16
5762 4435 -1.68919e-08
5859 4435 -2.7027e-09
4436 4436 422
4437 4436 -2.1327e-08
4438 4436 -1.09005e-08
4473 4436 -9.47867e-09
5761 4436 -2.1327e-08
4436 4437 -9e-06
4437 4437 422
4438 4437 -2.32475e-16
4455 4437 -1.09005e-08
4471 4437 -9.47867e-09
4473 4437 -2.02152e-16
5761 4437 -2.1327e-08
4435 4438 -9.7e-06
4436 4438 -4.6e-06
4437 4438 -9.81043e-14
4438 4438 762
4455 4438 -1.31234e-08
4471 4438 -1.22034e-24
4473 4438 -5.72203e-17
4474 4438 -9.37563e-25
5761 4438 -1.28746e-16
5762 4438 -1.31234e-08
5859 4438 -2.09974e-09
4439 4439 252
4440 4439 -1.8254e-08
4474 4439 -1.5873e-08
5761 4439 -3.57143e-08
4439 4440 -4.6e-06
4440 4440 422
4443 4440 -2.29858e-08
4474 4440 -1.73023e-16
5761 4440 -3.89303e-16
5762 4440 -2.36967e-08
5859 4440 -3.79147e-09
4441 4441 422
4442 4441 -2.1327e-08
4443 4441 -1.09005e-08
4473 4441 -9.47867e-09
5761 4441 -2.1327e-08
4441 4442 -9e-06
4442 4442 422
4443 4442 -2.32475e-16
4454 4442 -1.09005e-08
4471 4442 -9.47867e-09
4473 4442 -2.02152e-16
5761 4442 -2.1327e-08
4440 4443 -9.7e-06
4441 4443 -4.6e-06
4442 4443 -9.81043e-14
4443 4443 762
4454 4443 -1.31234e-08
4471 4443 -1.22034e-24
4473 4443 -5.72203e-17
4474 4443 -2.20253e-24
5761 4443 -1.28746e-16
5762 4443 -1.31234e-08
5859 4443 -2.09974e-09
4444 4444 422
4445 4444 -2.1327e-08
4447 4444 -1.09005e-08
4472 4444 -9.47867e-09
5761 4444 -2.1327e-08
4444 4445 -9e-06
4445 4445 422
4446 4445 -1.09005e-08
4447 4445 -2.32475e-16
4472 4445 -9.47867e-09
5761 4445 -2.1327e-08
4445 4446 -4.6e-06
4446 4446 762
4447 4446 -1.31234e-08
4454 4446 -1.27297e-08
4472 4446 -5.72203e-17
5761 4446 -1.28746e-16
5762 4446 -1.31234e-08
5859 4446 -2.09974e-09
4444 4447 -4.6e-06
4445 4447 -9.81043e-14
4446 4447 -1e-05
4447 4447 762
4453 4447 -1.27297e-08
4454 4447 -1.67056e-16
4472 4447 -5.72203e-17
5761 4447 -1.28746e-16
5762 4447 -1.31234e-08
5859 4447 -2.09974e-09
4448 4448 422
4449 4448 -1.09005e-08
4474 4448 -9.47867e-09
5761 4448 -2.1327e-08
4448 4449 -4.6e-06
4449 4449 592
4452 4449 -1.63851e-08
4474 4449 -7.36518e-17
5761 4449 -1.65717e-16
5762 4449 -1.68919e-08
5859 4449 -2.7027e-09
4450 4450 422
4451 4450 -2.1327e-08
4452 4450 -1.09005e-08
4473 4450 -9.47867e-09
5761 4450 -2.1327e-08
4450 4451 -9e-06
4451 4451 422
4452 4451 -2.32475e-16
4453 4451 -1.09005e-08
4471 4451 -9.47867e-09
4473 4451 -2.02152e-16
5761 4451 -2.1327e-08
4449 4452 -9.7e-06
4450 4452 -4.6e-06
4451 4452 -9.81043e-14
4452 4452 762
4453 4452 -1.31234e-08
4471 4452 -1.22034e-24
4473 4452 -5.72203e-17
4474 4452 -9.37563e-25
5761 4452 -1.28746e-16
5762 4452 -1.31234e-08
5859 4452 -2.09974e-09
4447 4453 -9.7e-06
4451 4453 -4.6e-06
4452 4453 -1e-05
4453 4453 592
4454 4453 -2.73723e-24
4471 4453 -7.36518e-17
4472 4453 -9.37563e-25
4473 4453 -2.53733e-24
4474 4453 -1.58372e-32
5761 4453 -1.65717e-16
5762 4453 -1.68919e-08
5859 4453 -2.7027e-09
4442 4454 -4.6e-06
4443 4454 -1e-05
4446 4454 -9.7e-06
4447 4454 -1.27297e-13
4453 4454 -1.62044e-21
4454 4454 592
4471 4454 -7.36518e-17
4472 4454 -9.37563e-25
4473 4454 -2.53733e-24
4474 4454 -3.72049e-32
5761 4454 -1.65717e-16
5762 4454 -1.68919e-08
5859 4454 -2.7027e-09
4433 4455 -9.7e-06
4437 4455 -4.6e-06
4438 4455 -1e-05
4455 4455 592
4456 4455 -2.73723e-24
4471 4455 -7.36518e-17
4472 4455 -9.37563e-25
4473 4455 -2.53733e-24
4474 4455 -1.58372e-32
5761 4455 -1.65717e-16
5762 4455 -1.68919e-08
5859 4455 -2.7027e-09
4428 4456 -4.6e-06
4429 4456 -1e-05
4432 4456 -9.7e-06
4433 4456 -1.27297e-13
4455 4456 -1.62044e-21
4456 4456 592
4471 4456 -7.36518e-17
4472 4456 -9.37563e-25
4473 4456 -2.53733e-24
4474 4456 -3.72049e-32
5761 4456 -1.65717e-16
5762 4456 -1.68919e-08
5859 4456 -2.7027e-09
4419 4457 -9.7e-06
4423 4457 -4.6e-06
4424 4457 -1e-05
4457 4457 592
4458 4457 -2.73723e-24
4471 4457 -7.36518e-17
4472 4457 -9.37563e-25
4473 4457 -2.53733e-24
4474 4457 -1.58372e-32
5761 4457 -1.65717e-16
5762 4457 -1.68919e-08
5859 4457 -2.7027e-09
4414 4458 -4.6e-06
4415 4458 -1e-05
4418 4458 -9.7e-06
4419 4458 -1.27297e-13
4457 4458 -1.62044e-21
4458 4458 592
4471 4458 -7.36518e-17
4472 4458 -9.37563e-25
4473 4458 -2.53733e-24
4474 4458 -3.72049e-32
5761 4458 -1.65717e-16
5762 4458 -1.68919e-08
5859 4458 -2.7027e-09
4405 4459 -9.7e-06
4409 4459 -4.6e-06
4410 4459 -1e-05
4459 4459 592
4460 4459 -2.73723e-24
4471 4459 -7.36518e-17
4472 4459 -9.37563e-25
4473 4459 -2.53733e-24
4474 4459 -1.58372e-32
5761 4459 -1.65717e-16
5762 4459 -1.68919e-08
5859 4459 -2.7027e-09
4400 4460 -4.6e-06
4401 4460 -1e-05
4404 4460 -9.7e-06
4405 4460 -1.27297e-13
4459 4460 -1.62044e-21
4460 4460 592
4471 4460 -7.36518e-17
4472 4460 -9.37563e-25
4473 4460 -2.53733e-24
4474 4460 -3.72049e-32
5761 4460 -1.65717e-16
5762 4460 -1.68919e-08
5859 4460 -2.7027e-09
4391 4461 -9.7e-06
4395 4461 -4.6e-06
4396 4461 -1e-05
4461 4461 592
4462 4461 -2.73723e-24
4471 4461 -7.36518e-17
4472 4461 -9.37563e-25
4473 4461 -2.53733e-24
4474 4461 -1.58372e-32
5761 4461 -1.65717e-16
5762 4461 -1.68919e-08
5859 4461 -2.7027e-09
4386 4462 -4.6e-06
4387 4462 -1e-05
4390 4462 -9.7e-06
4391 4462 -1.27297e-13
4461 4462 -1.62044e-21
4462 4462 592
4471 4462 -7.36518e-17
4472 4462 -9.37563e-25
4473 4462 -2.53733e-24
4474 4462 -3.72049e-32
5761 4462 -1.65717e-16
5762 4462 -1.68919e-08
5859 4462 -2.7027e-09
4377 4463 -9.7e-06
4381 4463 -4.6e-06
4382 4463 -1e-05
4463 4463 592
4464 4463 -2.73723e-24
4471 4463 -7.36518e-17
4472 4463 -9.37563e-25
4473 4463 -2.53733e-24
4474 4463 -1.58372e-32
5761 4463 -1.65717e-16
5762 4463 -1.68919e-08
5859 4463 -2.7027e-09
4372 4464 -4.6e-06
4373 4464 -1e-05
4376 4464 -9.7e-06
4377 4464 -1.27297e-13
4463 4464 -1.62044e-21
4464 4464 592
4471 4464 -7.36518e-17
4472 4464 -9.37563e-25
4473 4464 -2.53733e-24
4474 4464 -3.72049e-32
5761 4464 -1.65717e-16
5762 4464 -1.68919e-08
5859 4464 -2.7027e-09
4363 4465 -9.7e-06
4367 4465 -4.6e-06
4368 4465 -1e-05
4465 4465 592
4466 4465 -2.73723e-24
4471 4465 -7.36518e-17
4472 4465 -9.37563e-25
4473 4465 -2.53733e-24
4474 4465 -1.58372e-32
5761 4465 -1.65717e-16
5762 4465 -1.68919e-08
5859 4465 -2.7027e-09
4358 4466 -4.6e-06
4359 4466 -1e-05
4362 4466 -9.7e-06
4363 4466 -1.27297e-13
4465 4466 -1.62044e-21
4466 4466 592
4471 4466 -7.36518e-17
4472 4466 -9.37563e-25
4473 4466 -2.53733e-24
4474 4466 -3.72049e-32
5761 4466 -1.65717e-16
5762 4466 -1.68919e-08
5859 4466 -2.7027e-09
4349 4467 -9.7e-06
4353 4467 -4.6e-06
4354 4467 -1e-05
4467 4467 592
4468 4467 -2.73723e-24
4471 4467 -7.36518e-17
4472 4467 -9.37563e-25
4473 4467 -2.53733e-24
4474 4467 -1.58372e-32
5761 4467 -1.65717e-16
5762 4467 -1.68919e-08
5859 4467 -2.7027e-09
4344 4468 -4.6e-06
4345 4468 -1e-05
4348 4468 -9.7e-06
4349 4468 -1.27297e-13
4467 4468 -1.62044e-21
4468 4468 592
4471 4468 -7.36518e-17
4472 4468 -9.37563e-25
4473 4468 -2.53733e-24
4474 4468 -3.72049e-32
5761 4468 -1.65717e-16
5762 4468 -1.68919e-08
5859 4468 -2.7027e-09
4335 4469 -9.7e-06
4339 4469 -4.6e-06
4340 4469 -1e-05
4469 4469 592
4470 4469 -2.73723e-24
4471 4469 -7.36518e-17
4472 4469 -9.37563e-25
4473 4469 -2.53733e-24
4474 4469 -1.58372e-32
5761 4469 -1.65717e-16
5762 4469 -1.68919e-08
5859 4469 -2.7027e-09
4330 4470 -4.6e-06
4331 4470 -1e-05
4334 4470 -9.7e-06
4335 4470 -1.27297e-13
4469 4470 -1.62044e-21
4470 4470 592
4471 4470 -7.36518e-17
4472 4470 -9.37563e-25
4473 4470 -2.53733e-24
4474 4470 -3.72049e-32
5761 4470 -1.65717e-16
5762 4470 -1.68919e-08
5859 4470 -2.7027e-09
4322 4471 -2.1e-05
4323 4471 -3.4585e-14
4326 4471 -2.42095e-13
4330 4471 -4e-06
4331 4471 -9.29898e-22
4339 4471 -4e-06
4340 4471 -9.29898e-22
4344 4471 -4e-06
4345 4471 -9.29898e-22
4353 4471 -4e-06
4354 4471 -9.29898e-22
4358 4471 -4e-06
4359 4471 -9.29898e-22
4367 4471 -4e-06
4368 4471 -9.29898e-22
4372 4471 -4e-06
4373 4471 -9.29898e-22
4381 4471 -4e-06
4382 4471 -9.29898e-22
4386 4471 -4e-06
4387 4471 -9.29898e-22
4395 4471 -4e-06
4396 4471 -9.29898e-22
4400 4471 -4e-06
4401 4471 -9.29898e-22
4409 4471 -4e-06
4410 4471 -9.29898e-22
4414 4471 -4e-06
4415 4471 -9.29898e-22
4423 4471 -4e-06
4424 4471 -9.29898e-22
4428 4471 -4e-06
4429 4471 -9.29898e-22
4437 4471 -4e-06
4438 4471 -9.29898e-22
4442 4471 -4e-06
4443 4471 -9.29898e-22
4451 4471 -4e-06
4452 4471 -9.29898e-22
4453 4471 -4.36019e-14
4454 4471 -4.36019e-14
4455 4471 -4.36019e-14
4456 4471 -4.36019e-14
4457 4471 -4.36019e-14
4458 4471 -4.36019e-14
4459 4471 -4.36019e-14
4460 4471 -4.36019e-14
4461 4471 -4.36019e-14
4462 4471 -4.36019e-14
4463 4471 -4.36019e-14
4464 4471 -4.36019e-14
4465 4471 -4.36019e-14
4466 4471 -4.36019e-14
4467 4471 -4.36019e-14
4468 4471 -4.36019e-14
4469 4471 -4.36019e-14
4470 4471 -4.36019e-14
4471 4471 28401
4472 4471 -1.58445e-09
4473 4471 -5.12479e-25
4474 4471 -0
5761 4471 -5.40666e-17
5762 4471 -4.66791e-25
5763 4471 -6.35827e-31
5764 4471 -6.35827e-31
5859 4471 -7.46866e-26
4323 4472 -2.1e-05
4326 4472 -2.42095e-13
4332 4472 -4e-06
4333 4472 -4e-06
4334 4472 -4.36019e-14
4335 4472 -4.36019e-14
4346 4472 -4e-06
4347 4472 -4e-06
4348 4472 -4.36019e-14
4349 4472 -4.36019e-14
4360 4472 -4e-06
4361 4472 -4e-06
4362 4472 -4.36019e-14
4363 4472 -4.36019e-14
4374 4472 -4e-06
4375 4472 -4e-06
4376 4472 -4.36019e-14
4377 4472 -4.36019e-14
4388 4472 -4e-06
4389 4472 -4e-06
4390 4472 -4.36019e-14
4391 4472 -4.36019e-14
4402 4472 -4e-06
4403 4472 -4e-06
4404 4472 -4.36019e-14
4405 4472 -4.36019e-14
4416 4472 -4e-06
4417 4472 -4e-06
4418 4472 -4.36019e-14
4419 4472 -4.36019e-14
4430 4472 -4e-06
4431 4472 -4e-06
4432 4472 -4.36019e-14
4433 4472 -4.36019e-14
4444 4472 -4e-06
4445 4472 -4e-06
4446 4472 -4.36019e-14
4447 4472 -4.36019e-14
4453 4472 -5.55037e-22
4454 4472 -5.55037e-22
4455 4472 -5.55037e-22
4456 4472 -5.55037e-22
4457 4472 -5.55037e-22
4458 4472 -5.55037e-22
4459 4472 -5.55037e-22
4460 4472 -5.55037e-22
4461 4472 -5.55037e-22
4462 4472 -5.55037e-22
4463 4472 -5.55037e-22
4464 4472 -5.55037e-22
4465 4472 -5.55037e-22
4466 4472 -5.55037e-22
4467 4472 -5.55037e-22
4468 4472 -5.55037e-22
4469 4472 -5.55037e-22
4470 4472 -5.55037e-22
4471 4472 -4.5e-05
4472 4472 28571
4473 4472 -8.07167e-34
4474 4472 0
5761 4472 -5.37449e-17
5762 4472 -3.60493e-25
5763 4472 -6.32044e-31
5764 4472 -6.32044e-31
5859 4472 -5.7679e-26
4318 4473 -2.1e-05
4321 4473 -2.42095e-13
4329 4473 -4e-06
4330 4473 -8.5308e-14
4331 4473 -4.36019e-14
4338 4473 -4e-06
4339 4473 -8.5308e-14
4340 4473 -4.36019e-14
4343 4473 -4e-06
4344 4473 -8.5308e-14
4345 4473 -4.36019e-14
4352 4473 -4e-06
4353 4473 -8.5308e-14
4354 4473 -4.36019e-14
4357 4473 -4e-06
4358 4473 -8.5308e-14
4359 4473 -4.36019e-14
4366 4473 -4e-06
4367 4473 -8.5308e-14
4368 4473 -4.36019e-14
4371 4473 -4e-06
4372 4473 -8.5308e-14
4373 4473 -4.36019e-14
4380 4473 -4e-06
4381 4473 -8.5308e-14
4382 4473 -4.36019e-14
4385 4473 -4e-06
4386 4473 -8.5308e-14
4387 4473 -4.36019e-14
4394 4473 -4e-06
4395 4473 -8.5308e-14
4396 4473 -4.36019e-14
4399 4473 -4e-06
4400 4473 -8.5308e-14
4401 4473 -4.36019e-14
4408 4473 -4e-06
4409 4473 -8.5308e-14
4410 4473 -4.36019e-14
4413 4473 -4e-06
4414 4473 -8.5308e-14
4415 4473 -4.36019e-14
4422 4473 -4e-06
4423 4473 -8.5308e-14
4424 4473 -4.36019e-14
4427 4473 -4e-06
4428 4473 -8.5308e-14
4429 4473 -4.36019e-14
4436 4473 -4e-06
4437 4473 -8.5308e-14
4438 4473 -4.36019e-14
4441 4473 -4e-06
4442 4473 -8.5308e-14
4443 4473 -4.36019e-14
4450 4473 -4e-06
4451 4473 -8.5308e-14
4452 4473 -4.36019e-14
4453 4473 -1.5021e-21
4454 4473 -1.5021e-21
4455 4473 -1.5021e-21
4456 4473 -1.5021e-21
4457 4473 -1.5021e-21
4458 4473 -1.5021e-21
4459 4473 -1.5021e-21
4460 4473 -1.5021e-21
4461 4473 -1.5021e-21
4462 4473 -1.5021e-21
4463 4473 -1.5021e-21
4464 4473 -1.5021e-21
4465 4473 -1.5021e-21
4466 4473 -1.5021e-21
4467 4473 -1.5021e-21
4468 4473 -1.5021e-21
4469 4473 -1.5021e-21
4470 4473 -1.5021e-21
4471 4473 -1.45549e-20
4472 4473 -2.30616e-29
4473 4473 28571
4474 4473 -1.57502e-09
5761 4473 -5.37449e-17
5762 4473 -3.60493e-25
5763 4473 0
5764 4473 0
5765 4473 -6.32044e-31
5770 4473 -6.32044e-31
5859 4473 -5.7679e-26
4317 4474 -2.1e-05
4318 4474 -3.4585e-14
4321 4474 -2.42095e-13
4327 4474 -4e-06
4328 4474 -7.30159e-14
4331 4474 -1.67833e-21
4336 4474 -4e-06
4337 4474 -4.36019e-14
4340 4474 -7.14423e-22
4341 4474 -4e-06
4342 4474 -7.30159e-14
4345 4474 -1.67833e-21
4350 4474 -4e-06
4351 4474 -4.36019e-14
4354 4474 -7.14423e-22
4355 4474 -4e-06
4356 4474 -7.30159e-14
4359 4474 -1.67833e-21
4364 4474 -4e-06
4365 4474 -4.36019e-14
4368 4474 -7.14423e-22
4369 4474 -4e-06
4370 4474 -7.30159e-14
4373 4474 -1.67833e-21
4378 4474 -4e-06
4379 4474 -4.36019e-14
4382 4474 -7.14423e-22
4383 4474 -4e-06
4384 4474 -7.30159e-14
4387 4474 -1.67833e-21
4392 4474 -4e-06
4393 4474 -4.36019e-14
4396 4474 -7.14423e-22
4397 4474 -4e-06
4398 4474 -7.30159e-14
4401 4474 -1.67833e-21
4406 4474 -4e-06
4407 4474 -4.36019e-14
4410 4474 -7.14423e-22
4411 4474 -4e-06
4412 4474 -7.30159e-14
4415 4474 -1.67833e-21
4420 4474 -4e-06
4421 4474 -4.36019e-14
4424 4474 -7.14423e-22
4425 4474 -4e-06
4426 4474 -7.30159e-14
4429 4474 -1.67833e-21
4434 4474 -4e-06
4435 4474 -4.36019e-14
4438 4474 -7.14423e-22
4439 4474 -4e-06
4440 4474 -7.30159e-14
4443 4474 -1.67833e-21
4448 4474 -4e-06
4449 4474 -4.36019e-14
4452 4474 -7.14423e-22
4453 4474 -9.37563e-30
4454 4474 -2.20253e-29
4455 4474 -9.37563e-30
4456 4474 -2.20253e-29
4457 4474 -9.37563e-30
4458 4474 -2.20253e-29
4459 4474 -9.37563e-30
4460 4474 -2.20253e-29
4461 4474 -9.37563e-30
4462 4474 -2.20253e-29
4463 4474 -9.37563e-30
4464 4474 -2.20253e-29
4465 4474 -9.37563e-30
4466 4474 -2.20253e-29
4467 4474 -9.37563e-30
4468 4474 -2.20253e-29
4469 4474 -9.37563e-30
4470 4474 -2.20253e-29
4471 4474 -3.78351e-44
4472 4474 0
4473 4474 -4.5e-05
4474 4474 28401
5761 4474 -7.23033e-17
5762 4474 -7.8169e-25
5763 4474 0
5764 4474 0
5765 4474 -6.35827e-31
5770 4474 -6.35827e-31
5859 4474 -1.2507e-25
4475 4475 3643.2
4476 4475 -1.6469e-09
4479 4475 -1.15283e-08
4632 4475 -5.76416e-09
4475 4476 -6e-06
4476 4476 3643.2
4479 4476 -1.15283e-08
4631 4476 -5.76416e-09
4632 4476 -9.49302e-18
4477 4477 170
4479 4477 -7.05881e-07
5741 4477 -7.05881e-07
4478 4478 170
4479 4478 -7.05881e-07
5746 4478 -7.05881e-07
4475 4479 -4.2e-05
4476 4479 -4.2e-05
4477 4479 -0.00012
4478 4479 -0.00012
4479 4479 1135.6
4631 4479 -2.13187e-16
4632 4479 -2.13187e-16
5741 4479 -7.45912e-14
5746 4479 -7.45912e-14
4480 4480 3643.2
4481 4480 -1.6469e-09
4484 4480 -1.15283e-08
4629 4480 -5.76416e-09
4480 4481 -6e-06
4481 4481 3643.2
4484 4481 -1.15283e-08
4629 4481 -9.49302e-18
4630 4481 -5.76416e-09
4482 4482 170
4484 4482 -7.05881e-07
5740 4482 -7.05881e-07
4483 4483 170
4484 4483 -7.05881e-07
5739 4483 -7.05881e-07
4480 4484 -4.2e-05
4481 4484 -4.2e-05
4482 4484 -0.00012
4483 4484 -0.00012
4484 4484 1135.6
4629 4484 -2.13187e-16
4630 4484 -2.13187e-16
5739 4484 -7.45912e-14
5740 4484 -7.45912e-14
4485 4485 252
4486 4485 -1.8254e-08
4632 4485 -1.5873e-08
5747 4485 -3.57143e-08
4485 4486 -4.6e-06
4486 4486 422
4489 4486 -2.29858e-08
4632 4486 -1.73023e-16
5747 4486 -3.89303e-16
5748 4486 -2.36967e-08
5859 4486 -3.79147e-09
4487 4487 422
4488 4487 -2.1327e-08
4489 4487 -1.09005e-08
4631 4487 -9.47867e-09
5747 4487 -2.1327e-08
4487 4488 -9e-06
4488 4488 422
4489 4488 -2.32475e-16
4628 4488 -1.09005e-08
4629 4488 -9.47867e-09
4631 4488 -2.02152e-16
5747 4488 -2.1327e-08
4486 4489 -9.7e-06
4487 4489 -4.6e-06
4488 4489 -9.81043e-14
4489 4489 762
4628 4489 -1.31234e-08
4629 4489 -1.22034e-24
4631 4489 -5.72203e-17
4632 4489 -2.20253e-24
5747 4489 -1.28746e-16
5748 4489 -1.31234e-08
5859 4489 -2.09974e-09
4490 4490 422
4491 4490 -1.09005e-08
4632 4490 -9.47867e-09
5747 4490 -2.1327e-08
4490 4491 -4.6e-06
4491 4491 592
4494 4491 -1.63851e-08
4632 4491 -7.36518e-17
5747 4491 -1.65717e-16
5748 4491 -1.68919e-08
5859 4491 -2.7027e-09
4492 4492 422
4493 4492 -2.1327e-08
4494 4492 -1.09005e-08
4631 4492 -9.47867e-09
5747 4492 -2.1327e-08
4492 4493 -9e-06
4493 4493 422
4494 4493 -2.32475e-16
4627 4493 -1.09005e-08
4629 4493 -9.47867e-09
4631 4493 -2.02152e-16
5747 4493 -2.1327e-08
4491 4494 -9.7e-06
4492 4494 -4.6e-06
4493 4494 -9.81043e-14
4494 4494 762
4627 4494 -1.31234e-08
4629 4494 -1.22034e-24
4631 4494 -5.72203e-17
4632 4494 -9.37563e-25
5747 4494 -1.28746e-16
5748 4494 -1.31234e-08
5859 4494 -2.09974e-09
4495 4495 422
4496 4495 -2.1327e-08
4498 4495 -1.09005e-08
4630 4495 -9.47867e-09
5747 4495 -2.1327e-08
4495 4496 -9e-06
4496 4496 422
4497 4496 -1.09005e-08
4498 4496 -2.32475e-16
4630 4496 -9.47867e-09
5747 4496 -2.1327e-08
4496 4497 -4.6e-06
4497 4497 762
4498 4497 -1.31234e-08
4628 4497 -1.27297e-08
4630 4497 -5.72203e-17
5747 4497 -1.28746e-16
5748 4497 -1.31234e-08
5859 4497 -2.09974e-09
4495 4498 -4.6e-06
4496 4498 -9.81043e-14
4497 4498 -1e-05
4498 4498 762
4627 4498 -1.27297e-08
4628 4498 -1.67056e-16
4630 4498 -5.72203e-17
5747 4498 -1.28746e-16
5748 4498 -1.31234e-08
5859 4498 -2.09974e-09
4499 4499 252
4500 4499 -1.8254e-08
4632 4499 -1.5873e-08
5747 4499 -3.57143e-08
4499 4500 -4.6e-06
4500 4500 422
4503 4500 -2.29858e-08
4632 4500 -1.73023e-16
5747 4500 -3.89303e-16
5748 4500 -2.36967e-08
5859 4500 -3.79147e-09
4501 4501 422
4502 4501 -2.1327e-08
4503 4501 -1.09005e-08
4631 4501 -9.47867e-09
5747 4501 -2.1327e-08
4501 4502 -9e-06
4502 4502 422
4503 4502 -2.32475e-16
4626 4502 -1.09005e-08
4629 4502 -9.47867e-09
4631 4502 -2.02152e-16
5747 4502 -2.1327e-08
4500 4503 -9.7e-06
4501 4503 -4.6e-06
4502 4503 -9.81043e-14
4503 4503 762
4626 4503 -1.31234e-08
4629 4503 -1.22034e-24
4631 4503 -5.72203e-17
4632 4503 -2.20253e-24
5747 4503 -1.28746e-16
5748 4503 -1.31234e-08
5859 4503 -2.09974e-09
4504 4504 422
4505 4504 -1.09005e-08
4632 4504 -9.47867e-09
5747 4504 -2.1327e-08
4504 4505 -4.6e-06
4505 4505 592
4508 4505 -1.63851e-08
4632 4505 -7.36518e-17
5747 4505 -1.65717e-16
5748 4505 -1.68919e-08
5859 4505 -2.7027e-09
4506 4506 422
4507 4506 -2.1327e-08
4508 4506 -1.09005e-08
4631 4506 -9.47867e-09
5747 4506 -2.1327e-08
4506 4507 -9e-06
4507 4507 422
4508 4507 -2.32475e-16
4625 4507 -1.09005e-08
4629 4507 -9.47867e-09
4631 4507 -2.02152e-16
5747 4507 -2.1327e-08
4505 4508 -9.7e-06
4506 4508 -4.6e-06
4507 4508 -9.81043e-14
4508 4508 762
4625 4508 -1.31234e-08
4629 4508 -1.22034e-24
4631 4508 -5.72203e-17
4632 4508 -9.37563e-25
5747 4508 -1.28746e-16
5748 4508 -1.31234e-08
5859 4508 -2.09974e-09
4509 4509 422
4510 4509 -2.1327e-08
4512 4509 -1.09005e-08
4630 4509 -9.47867e-09
5747 4509 -2.1327e-08
4509 4510 -9e-06
4510 4510 422
4511 4510 -1.09005e-08
4512 4510 -2.32475e-16
4630 4510 -9.47867e-09
5747 4510 -2.1327e-08
4510 4511 -4.6e-06
4511 4511 762
4512 4511 -1.31234e-08
4626 4511 -1.27297e-08
4630 4511 -5.72203e-17
5747 4511 -1.28746e-16
5748 4511 -1.31234e-08
5859 4511 -2.09974e-09
4509 4512 -4.6e-06
4510 4512 -9.81043e-14
4511 4512 -1e-05
4512 4512 762
4625 4512 -1.27297e-08
4626 4512 -1.67056e-16
4630 4512 -5.72203e-17
5747 4512 -1.28746e-16
5748 4512 -1.31234e-08
5859 4512 -2.09974e-09
4513 4513 252
4514 4513 -1.8254e-08
4632 4513 -1.5873e-08
5747 4513 -3.57143e-08
4513 4514 -4.6e-06
4514 4514 422
4517 4514 -2.29858e-08
4632 4514 -1.73023e-16
5747 4514 -3.89303e-16
5748 4514 -2.36967e-08
5859 4514 -3.79147e-09
4515 4515 422
4516 4515 -2.1327e-08
4517 4515 -1.09005e-08
4631 4515 -9.47867e-09
5747 4515 -2.1327e-08
4515 4516 -9e-06
4516 4516 422
4517 4516 -2.32475e-16
4624 4516 -1.09005e-08
4629 4516 -9.47867e-09
4631 4516 -2.02152e-16
5747 4516 -2.1327e-08
4514 4517 -9.7e-06
4515 4517 -4.6e-06
4516 4517 -9.81043e-14
4517 4517 762
4624 4517 -1.31234e-08
4629 4517 -1.22034e-24
4631 4517 -5.72203e-17
4632 4517 -2.20253e-24
5747 4517 -1.28746e-16
5748 4517 -1.31234e-08
5859 4517 -2.09974e-09
4518 4518 422
4519 4518 -1.09005e-08
4632 4518 -9.47867e-09
5747 4518 -2.1327e-08
4518 4519 -4.6e-06
4519 4519 592
4522 4519 -1.63851e-08
4632 4519 -7.36518e-17
5747 4519 -1.65717e-16
5748 4519 -1.68919e-08
5859 4519 -2.7027e-09
4520 4520 422
4521 4520 -2.1327e-08
4522 4520 -1.09005e-08
4631 4520 -9.47867e-09
5747 4520 -2.1327e-08
4520 4521 -9e-06
4521 4521 422
4522 4521 -2.32475e-16
4623 4521 -1.09005e-08
4629 4521 -9.47867e-09
4631 4521 -2.02152e-16
5747 4521 -2.1327e-08
4519 4522 -9.7e-06
4520 4522 -4.6e-06
4521 4522 -9.81043e-14
4522 4522 762
4623 4522 -1.31234e-08
4629 4522 -1.22034e-24
4631 4522 -5.72203e-17
4632 4522 -9.37563e-25
5747 4522 -1.28746e-16
5748 4522 -1.31234e-08
5859 4522 -2.09974e-09
4523 4523 422
4524 4523 -2.1327e-08
4526 4523 -1.09005e-08
4630 4523 -9.47867e-09
5747 4523 -2.1327e-08
4523 4524 -9e-06
4524 4524 422
4525 4524 -1.09005e-08
4526 4524 -2.32475e-16
4630 4524 -9.47867e-09
5747 4524 -2.1327e-08
4524 4525 -4.6e-06
4525 4525 762
4526 4525 -1.31234e-08
4624 4525 -1.27297e-08
4630 4525 -5.72203e-17
5747 4525 -1.28746e-16
5748 4525 -1.31234e-08
5859 4525 -2.09974e-09
4523 4526 -4.6e-06
4524 4526 -9.81043e-14
4525 4526 -1e-05
4526 4526 762
4623 4526 -1.27297e-08
4624 4526 -1.67056e-16
4630 4526 -5.72203e-17
5747 4526 -1.28746e-16
5748 4526 -1.31234e-08
5859 4526 -2.09974e-09
4527 4527 252
4528 4527 -1.8254e-08
4632 4527 -1.5873e-08
5747 4527 -3.57143e-08
4527 4528 -4.6e-06
4528 4528 422
4531 4528 -2.29858e-08
4632 4528 -1.73023e-16
5747 4528 -3.89303e-16
5748 4528 -2.36967e-08
5859 4528 -3.79147e-09
4529 4529 422
4530 4529 -2.1327e-08
4531 4529 -1.09005e-08
4631 4529 -9.47867e-09
5747 4529 -2.1327e-08
4529 4530 -9e-06
4530 4530 422
4531 4530 -2.32475e-16
4622 4530 -1.09005e-08
4629 4530 -9.47867e-09
4631 4530 -2.02152e-16
5747 4530 -2.1327e-08
4528 4531 -9.7e-06
4529 4531 -4.6e-06
4530 4531 -9.81043e-14
4531 4531 762
4622 4531 -1.31234e-08
4629 4531 -1.22034e-24
4631 4531 -5.72203e-17
4632 4531 -2.20253e-24
5747 4531 -1.28746e-16
5748 4531 -1.31234e-08
5859 4531 -2.09974e-09
4532 4532 422
4533 4532 -1.09005e-08
4632 4532 -9.47867e-09
5747 4532 -2.1327e-08
4532 4533 -4.6e-06
4533 4533 592
4536 4533 -1.63851e-08
4632 4533 -7.36518e-17
5747 4533 -1.65717e-16
5748 4533 -1.68919e-08
5859 4533 -2.7027e-09
4534 4534 422
4535 4534 -2.1327e-08
4536 4534 -1.09005e-08
4631 4534 -9.47867e-09
5747 4534 -2.1327e-08
4534 4535 -9e-06
4535 4535 422
4536 4535 -2.32475e-16
4621 4535 -1.09005e-08
4629 4535 -9.47867e-09
4631 4535 -2.02152e-16
5747 4535 -2.1327e-08
4533 4536 -9.7e-06
4534 4536 -4.6e-06
4535 4536 -9.81043e-14
4536 4536 762
4621 4536 -1.31234e-08
4629 4536 -1.22034e-24
4631 4536 -5.72203e-17
4632 4536 -9.37563e-25
5747 4536 -1.28746e-16
5748 4536 -1.31234e-08
5859 4536 -2.09974e-09
4537 4537 422
4538 4537 -2.1327e-08
4540 4537 -1.09005e-08
4630 4537 -9.47867e-09
5747 4537 -2.1327e-08
4537 4538 -9e-06
4538 4538 422
4539 4538 -1.09005e-08
4540 4538 -2.32475e-16
4630 4538 -9.47867e-09
5747 4538 -2.1327e-08
4538 4539 -4.6e-06
4539 4539 762
4540 4539 -1.31234e-08
4622 4539 -1.27297e-08
4630 4539 -5.72203e-17
5747 4539 -1.28746e-16
5748 4539 -1.31234e-08
5859 4539 -2.09974e-09
4537 4540 -4.6e-06
4538 4540 -9.81043e-14
4539 4540 -1e-05
4540 4540 762
4621 4540 -1.27297e-08
4622 4540 -1.67056e-16
4630 4540 -5.72203e-17
5747 4540 -1.28746e-16
5748 4540 -1.31234e-08
5859 4540 -2.09974e-09
4541 4541 252
4542 4541 -1.8254e-08
4632 4541 -1.5873e-08
5747 4541 -3.57143e-08
4541 4542 -4.6e-06
4542 4542 422
4545 4542 -2.29858e-08
4632 4542 -1.73023e-16
5747 4542 -3.89303e-16
5748 4542 -2.36967e-08
5859 4542 -3.79147e-09
4543 4543 422
4544 4543 -2.1327e-08
4620 4543 -1.09005e-08
4629 4543 -9.47867e-09
5747 4543 -2.1327e-08
4543 4544 -9e-06
4544 4544 422
4545 4544 -1.09005e-08
4620 4544 -2.32475e-16
4629 4544 -2.02152e-16
4631 4544 -9.47867e-09
5747 4544 -2.1327e-08
4542 4545 -9.7e-06
4544 4545 -4.6e-06
4545 4545 762
4620 4545 -1.31234e-08
4629 4545 -1.22034e-24
4631 4545 -5.72203e-17
4632 4545 -2.20253e-24
5747 4545 -1.28746e-16
5748 4545 -1.31234e-08
5859 4545 -2.09974e-09
4546 4546 422
4547 4546 -2.1327e-08
4549 4546 -1.09005e-08
4630 4546 -9.47867e-09
5747 4546 -2.1327e-08
4546 4547 -9e-06
4547 4547 422
4548 4547 -1.09005e-08
4549 4547 -2.32475e-16
4630 4547 -9.47867e-09
5747 4547 -2.1327e-08
4547 4548 -4.6e-06
4548 4548 762
4549 4548 -1.31234e-08
4620 4548 -1.27297e-08
4630 4548 -5.72203e-17
5747 4548 -1.28746e-16
5748 4548 -1.31234e-08
5859 4548 -2.09974e-09
4546 4549 -4.6e-06
4547 4549 -9.81043e-14
4548 4549 -1e-05
4549 4549 762
4619 4549 -1.27297e-08
4620 4549 -1.67056e-16
4630 4549 -5.72203e-17
5747 4549 -1.28746e-16
5748 4549 -1.31234e-08
5859 4549 -2.09974e-09
4550 4550 422
4551 4550 -1.09005e-08
4632 4550 -9.47867e-09
5747 4550 -2.1327e-08
4550 4551 -4.6e-06
4551 4551 592
4554 4551 -1.63851e-08
4632 4551 -7.36518e-17
5747 4551 -1.65717e-16
5748 4551 -1.68919e-08
5859 4551 -2.7027e-09
4552 4552 422
4553 4552 -2.1327e-08
4554 4552 -1.09005e-08
4631 4552 -9.47867e-09
5747 4552 -2.1327e-08
4552 4553 -9e-06
4553 4553 422
4554 4553 -2.32475e-16
4619 4553 -1.09005e-08
4629 4553 -9.47867e-09
4631 4553 -2.02152e-16
5747 4553 -2.1327e-08
4551 4554 -9.7e-06
4552 4554 -4.6e-06
4553 4554 -9.81043e-14
4554 4554 762
4619 4554 -1.31234e-08
4629 4554 -1.22034e-24
4631 4554 -5.72203e-17
4632 4554 -9.37563e-25
5747 4554 -1.28746e-16
5748 4554 -1.31234e-08
5859 4554 -2.09974e-09
4555 4555 252
4556 4555 -1.8254e-08
4632 4555 -1.5873e-08
5747 4555 -3.57143e-08
4555 4556 -4.6e-06
4556 4556 422
4559 4556 -2.29858e-08
4632 4556 -1.73023e-16
5747 4556 -3.89303e-16
5748 4556 -2.36967e-08
5859 4556 -3.79147e-09
4557 4557 422
4558 4557 -2.1327e-08
4618 4557 -1.09005e-08
4629 4557 -9.47867e-09
5747 4557 -2.1327e-08
4557 4558 -9e-06
4558 4558 422
4559 4558 -1.09005e-08
4618 4558 -2.32475e-16
4629 4558 -2.02152e-16
4631 4558 -9.47867e-09
5747 4558 -2.1327e-08
4556 4559 -9.7e-06
4558 4559 -4.6e-06
4559 4559 762
4618 4559 -1.31234e-08
4629 4559 -1.22034e-24
4631 4559 -5.72203e-17
4632 4559 -2.20253e-24
5747 4559 -1.28746e-16
5748 4559 -1.31234e-08
5859 4559 -2.09974e-09
4560 4560 422
4561 4560 -2.1327e-08
4563 4560 -1.09005e-08
4630 4560 -9.47867e-09
5747 4560 -2.1327e-08
4560 4561 -9e-06
4561 4561 422
4562 4561 -1.09005e-08
4563 4561 -2.32475e-16
4630 4561 -9.47867e-09
5747 4561 -2.1327e-08
4561 4562 -4.6e-06
4562 4562 762
4563 4562 -1.31234e-08
4618 4562 -1.27297e-08
4630 4562 -5.72203e-17
5747 4562 -1.28746e-16
5748 4562 -1.31234e-08
5859 4562 -2.09974e-09
4560 4563 -4.6e-06
4561 4563 -9.81043e-14
4562 4563 -1e-05
4563 4563 762
4617 4563 -1.27297e-08
4618 4563 -1.67056e-16
4630 4563 -5.72203e-17
5747 4563 -1.28746e-16
5748 4563 -1.31234e-08
5859 4563 -2.09974e-09
4564 4564 422
4565 4564 -1.09005e-08
4632 4564 -9.47867e-09
5747 4564 -2.1327e-08
4564 4565 -4.6e-06
4565 4565 592
4568 4565 -1.63851e-08
4632 4565 -7.36518e-17
5747 4565 -1.65717e-16
5748 4565 -1.68919e-08
5859 4565 -2.7027e-09
4566 4566 422
4567 4566 -2.1327e-08
4568 4566 -1.09005e-08
4631 4566 -9.47867e-09
5747 4566 -2.1327e-08
4566 4567 -9e-06
4567 4567 422
4568 4567 -2.32475e-16
4617 4567 -1.09005e-08
4629 4567 -9.47867e-09
4631 4567 -2.02152e-16
5747 4567 -2.1327e-08
4565 4568 -9.7e-06
4566 4568 -4.6e-06
4567 4568 -9.81043e-14
4568 4568 762
4617 4568 -1.31234e-08
4629 4568 -1.22034e-24
4631 4568 -5.72203e-17
4632 4568 -9.37563e-25
5747 4568 -1.28746e-16
5748 4568 -1.31234e-08
5859 4568 -2.09974e-09
4569 4569 252
4570 4569 -1.8254e-08
4632 4569 -1.5873e-08
5747 4569 -3.57143e-08
4569 4570 -4.6e-06
4570 4570 422
4573 4570 -2.29858e-08
4632 4570 -1.73023e-16
5747 4570 -3.89303e-16
5748 4570 -2.36967e-08
5859 4570 -3.79147e-09
4571 4571 422
4572 4571 -2.1327e-08
4616 4571 -1.09005e-08
4629 4571 -9.47867e-09
5747 4571 -2.1327e-08
4571 4572 -9e-06
4572 4572 422
4573 4572 -1.09005e-08
4616 4572 -2.32475e-16
4629 4572 -2.02152e-16
4631 4572 -9.47867e-09
5747 4572 -2.1327e-08
4570 4573 -9.7e-06
4572 4573 -4.6e-06
4573 4573 762
4616 4573 -1.31234e-08
4629 4573 -1.22034e-24
4631 4573 -5.72203e-17
4632 4573 -2.20253e-24
5747 4573 -1.28746e-16
5748 4573 -1.31234e-08
5859 4573 -2.09974e-09
4574 4574 422
4575 4574 -2.1327e-08
4577 4574 -1.09005e-08
4630 4574 -9.47867e-09
5747 4574 -2.1327e-08
4574 4575 -9e-06
4575 4575 422
4576 4575 -1.09005e-08
4577 4575 -2.32475e-16
4630 4575 -9.47867e-09
5747 4575 -2.1327e-08
4575 4576 -4.6e-06
4576 4576 762
4577 4576 -1.31234e-08
4616 4576 -1.27297e-08
4630 4576 -5.72203e-17
5747 4576 -1.28746e-16
5748 4576 -1.31234e-08
5859 4576 -2.09974e-09
4574 4577 -4.6e-06
4575 4577 -9.81043e-14
4576 4577 -1e-05
4577 4577 762
4615 4577 -1.27297e-08
4616 4577 -1.67056e-16
4630 4577 -5.72203e-17
5747 4577 -1.28746e-16
5748 4577 -1.31234e-08
5859 4577 -2.09974e-09
4578 4578 422
4579 4578 -1.09005e-08
4632 4578 -9.47867e-09
5747 4578 -2.1327e-08
4578 4579 -4.6e-06
4579 4579 592
4582 4579 -1.63851e-08
4632 4579 -7.36518e-17
5747 4579 -1.65717e-16
5748 4579 -1.68919e-08
5859 4579 -2.7027e-09
4580 4580 422
4581 4580 -2.1327e-08
4582 4580 -1.09005e-08
4631 4580 -9.47867e-09
5747 4580 -2.1327e-08
4580 4581 -9e-06
4581 4581 422
4582 4581 -2.32475e-16
4615 4581 -1.09005e-08
4629 4581 -9.47867e-09
4631 4581 -2.02152e-16
5747 4581 -2.1327e-08
4579 4582 -9.7e-06
4580 4582 -4.6e-06
4581 4582 -9.81043e-14
4582 4582 762
4615 4582 -1.31234e-08
4629 4582 -1.22034e-24
4631 4582 -5.72203e-17
4632 4582 -9.37563e-25
5747 4582 -1.28746e-16
5748 4582 -1.31234e-08
5859 4582 -2.09974e-09
4583 4583 252
4584 4583 -1.8254e-08
4632 4583 -1.5873e-08
5747 4583 -3.57143e-08
4583 4584 -4.6e-06
4584 4584 422
4587 4584 -2.29858e-08
4632 4584 -1.73023e-16
5747 4584 -3.89303e-16
5748 4584 -2.36967e-08
5859 4584 -3.79147e-09
4585 4585 422
4586 4585 -2.1327e-08
4614 4585 -1.09005e-08
4629 4585 -9.47867e-09
5747 4585 -2.1327e-08
4585 4586 -9e-06
4586 4586 422
4587 4586 -1.09005e-08
4614 4586 -2.32475e-16
4629 4586 -2.02152e-16
4631 4586 -9.47867e-09
5747 4586 -2.1327e-08
4584 4587 -9.7e-06
4586 4587 -4.6e-06
4587 4587 762
4614 4587 -1.31234e-08
4629 4587 -1.22034e-24
4631 4587 -5.72203e-17
4632 4587 -2.20253e-24
5747 4587 -1.28746e-16
5748 4587 -1.31234e-08
5859 4587 -2.09974e-09
4588 4588 422
4589 4588 -2.1327e-08
4591 4588 -1.09005e-08
4630 4588 -9.47867e-09
5747 4588 -2.1327e-08
4588 4589 -9e-06
4589 4589 422
4590 4589 -1.09005e-08
4591 4589 -2.32475e-16
4630 4589 -9.47867e-09
5747 4589 -2.1327e-08
4589 4590 -4.6e-06
4590 4590 762
4591 4590 -1.31234e-08
4614 4590 -1.27297e-08
4630 4590 -5.72203e-17
5747 4590 -1.28746e-16
5748 4590 -1.31234e-08
5859 4590 -2.09974e-09
4588 4591 -4.6e-06
4589 4591 -9.81043e-14
4590 4591 -1e-05
4591 4591 762
4613 4591 -1.27297e-08
4614 4591 -1.67056e-16
4630 4591 -5.72203e-17
5747 4591 -1.28746e-16
5748 4591 -1.31234e-08
5859 4591 -2.09974e-09
4592 4592 422
4593 4592 -1.09005e-08
4632 4592 -9.47867e-09
5747 4592 -2.1327e-08
4592 4593 -4.6e-06
4593 4593 592
4596 4593 -1.63851e-08
4632 4593 -7.36518e-17
5747 4593 -1.65717e-16
5748 4593 -1.68919e-08
5859 4593 -2.7027e-09
4594 4594 422
4595 4594 -2.1327e-08
4596 4594 -1.09005e-08
4631 4594 -9.47867e-09
5747 4594 -2.1327e-08
4594 4595 -9e-06
4595 4595 422
4596 4595 -2.32475e-16
4613 4595 -1.09005e-08
4629 4595 -9.47867e-09
4631 4595 -2.02152e-16
5747 4595 -2.1327e-08
4593 4596 -9.7e-06
4594 4596 -4.6e-06
4595 4596 -9.81043e-14
4596 4596 762
4613 4596 -1.31234e-08
4629 4596 -1.22034e-24
4631 4596 -5.72203e-17
4632 4596 -9.37563e-25
5747 4596 -1.28746e-16
5748 4596 -1.31234e-08
5859 4596 -2.09974e-09
4597 4597 252
4598 4597 -1.8254e-08
4632 4597 -1.5873e-08
5747 4597 -3.57143e-08
4597 4598 -4.6e-06
4598 4598 422
4601 4598 -2.29858e-08
4632 4598 -1.73023e-16
5747 4598 -3.89303e-16
5748 4598 -2.36967e-08
5859 4598 -3.79147e-09
4599 4599 422
4600 4599 -2.1327e-08
4601 4599 -1.09005e-08
4631 4599 -9.47867e-09
5747 4599 -2.1327e-08
4599 4600 -9e-06
4600 4600 422
4601 4600 -2.32475e-16
4612 4600 -1.09005e-08
4629 4600 -9.47867e-09
4631 4600 -2.02152e-16
5747 4600 -2.1327e-08
4598 4601 -9.7e-06
4599 4601 -4.6e-06
4600 4601 -9.81043e-14
4601 4601 762
4612 4601 -1.31234e-08
4629 4601 -1.22034e-24
4631 4601 -5.72203e-17
4632 4601 -2.20253e-24
5747 4601 -1.28746e-16
5748 4601 -1.31234e-08
5859 4601 -2.09974e-09
4602 4602 422
4603 4602 -2.1327e-08
4605 4602 -1.09005e-08
4630 4602 -9.47867e-09
5747 4602 -2.1327e-08
4602 4603 -9e-06
4603 4603 422
4604 4603 -1.09005e-08
4605 4603 -2.32475e-16
4630 4603 -9.47867e-09
5747 4603 -2.1327e-08
4603 4604 -4.6e-06
4604 4604 762
4605 4604 -1.31234e-08
4612 4604 -1.27297e-08
4630 4604 -5.72203e-17
5747 4604 -1.28746e-16
5748 4604 -1.31234e-08
5859 4604 -2.09974e-09
4602 4605 -4.6e-06
4603 4605 -9.81043e-14
4604 4605 -1e-05
4605 4605 762
4611 4605 -1.27297e-08
4612 4605 -1.67056e-16
4630 4605 -5.72203e-17
5747 4605 -1.28746e-16
5748 4605 -1.31234e-08
5859 4605 -2.09974e-09
4606 4606 422
4607 4606 -1.09005e-08
4632 4606 -9.47867e-09
5747 4606 -2.1327e-08
4606 4607 -4.6e-06
4607 4607 592
4610 4607 -1.63851e-08
4632 4607 -7.36518e-17
5747 4607 -1.65717e-16
5748 4607 -1.68919e-08
5859 4607 -2.7027e-09
4608 4608 422
4609 4608 -2.1327e-08
4610 4608 -1.09005e-08
4631 4608 -9.47867e-09
5747 4608 -2.1327e-08
4608 4609 -9e-06
4609 4609 422
4610 4609 -2.32475e-16
4611 4609 -1.09005e-08
4629 4609 -9.47867e-09
4631 4609 -2.02152e-16
5747 4609 -2.1327e-08
4607 4610 -9.7e-06
4608 4610 -4.6e-06
4609 4610 -9.81043e-14
4610 4610 762
4611 4610 -1.31234e-08
4629 4610 -1.22034e-24
4631 4610 -5.72203e-17
4632 4610 -9.37563e-25
5747 4610 -1.28746e-16
5748 4610 -1.31234e-08
5859 4610 -2.09974e-09
4605 4611 -9.7e-06
4609 4611 -4.6e-06
4610 4611 -1e-05
4611 4611 592
4612 4611 -2.73723e-24
4629 4611 -7.36518e-17
4630 4611 -9.37563e-25
4631 4611 -2.53733e-24
4632 4611 -1.58372e-32
5747 4611 -1.65717e-16
5748 4611 -1.68919e-08
5859 4611 -2.7027e-09
4600 4612 -4.6e-06
4601 4612 -1e-05
4604 4612 -9.7e-06
4605 4612 -1.27297e-13
4611 4612 -1.62044e-21
4612 4612 592
4629 4612 -7.36518e-17
4630 4612 -9.37563e-25
4631 4612 -2.53733e-24
4632 4612 -3.72049e-32
5747 4612 -1.65717e-16
5748 4612 -1.68919e-08
5859 4612 -2.7027e-09
4591 4613 -9.7e-06
4595 4613 -4.6e-06
4596 4613 -1e-05
4613 4613 592
4614 4613 -2.73723e-24
4629 4613 -7.36518e-17
4630 4613 -9.37563e-25
4631 4613 -2.53733e-24
4632 4613 -1.58372e-32
5747 4613 -1.65717e-16
5748 4613 -1.68919e-08
5859 4613 -2.7027e-09
4585 4614 -4.6e-06
4586 4614 -9.81043e-14
4587 4614 -1e-05
4590 4614 -9.7e-06
4591 4614 -1.27297e-13
4613 4614 -1.62044e-21
4614 4614 592
4629 4614 -7.36518e-17
4630 4614 -9.37563e-25
4631 4614 -2.53733e-24
4632 4614 -3.72049e-32
5747 4614 -1.65717e-16
5748 4614 -1.68919e-08
5859 4614 -2.7027e-09
4577 4615 -9.7e-06
4581 4615 -4.6e-06
4582 4615 -1e-05
4615 4615 592
4616 4615 -2.73723e-24
4629 4615 -7.36518e-17
4630 4615 -9.37563e-25
4631 4615 -2.53733e-24
4632 4615 -1.58372e-32
5747 4615 -1.65717e-16
5748 4615 -1.68919e-08
5859 4615 -2.7027e-09
4571 4616 -4.6e-06
4572 4616 -9.81043e-14
4573 4616 -1e-05
4576 4616 -9.7e-06
4577 4616 -1.27297e-13
4615 4616 -1.62044e-21
4616 4616 592
4629 4616 -7.36518e-17
4630 4616 -9.37563e-25
4631 4616 -2.53733e-24
4632 4616 -3.72049e-32
5747 4616 -1.65717e-16
5748 4616 -1.68919e-08
5859 4616 -2.7027e-09
4563 4617 -9.7e-06
4567 4617 -4.6e-06
4568 4617 -1e-05
4617 4617 592
4618 4617 -2.73723e-24
4629 4617 -7.36518e-17
4630 4617 -9.37563e-25
4631 4617 -2.53733e-24
4632 4617 -1.58372e-32
5747 4617 -1.65717e-16
5748 4617 -1.68919e-08
5859 4617 -2.7027e-09
4557 4618 -4.6e-06
4558 4618 -9.81043e-14
4559 4618 -1e-05
4562 4618 -9.7e-06
4563 4618 -1.27297e-13
4617 4618 -1.62044e-21
4618 4618 592
4629 4618 -7.36518e-17
4630 4618 -9.37563e-25
4631 4618 -2.53733e-24
4632 4618 -3.72049e-32
5747 4618 -1.65717e-16
5748 4618 -1.68919e-08
5859 4618 -2.7027e-09
4549 4619 -9.7e-06
4553 4619 -4.6e-06
4554 4619 -1e-05
4619 4619 592
4620 4619 -2.73723e-24
4629 4619 -7.36518e-17
4630 4619 -9.37563e-25
4631 4619 -2.53733e-24
4632 4619 -1.58372e-32
5747 4619 -1.65717e-16
5748 4619 -1.68919e-08
5859 4619 -2.7027e-09
4543 4620 -4.6e-06
4544 4620 -9.81043e-14
4545 4620 -1e-05
4548 4620 -9.7e-06
4549 4620 -1.27297e-13
4619 4620 -1.62044e-21
4620 4620 592
4629 4620 -7.36518e-17
4630 4620 -9.37563e-25
4631 4620 -2.53733e-24
4632 4620 -3.72049e-32
5747 4620 -1.65717e-16
5748 4620 -1.68919e-08
5859 4620 -2.7027e-09
4535 4621 -4.6e-06
4536 4621 -1e-05
4540 4621 -9.7e-06
4621 4621 592
4622 4621 -2.73723e-24
4629 4621 -7.36518e-17
4630 4621 -9.37563e-25
4631 4621 -2.53733e-24
4632 4621 -1.58372e-32
5747 4621 -1.65717e-16
5748 4621 -1.68919e-08
5859 4621 -2.7027e-09
4530 4622 -4.6e-06
4531 4622 -1e-05
4539 4622 -9.7e-06
4540 4622 -1.27297e-13
4621 4622 -1.62044e-21
4622 4622 592
4629 4622 -7.36518e-17
4630 4622 -9.37563e-25
4631 4622 -2.53733e-24
4632 4622 -3.72049e-32
5747 4622 -1.65717e-16
5748 4622 -1.68919e-08
5859 4622 -2.7027e-09
4521 4623 -4.6e-06
4522 4623 -1e-05
4526 4623 -9.7e-06
4623 4623 592
4624 4623 -2.73723e-24
4629 4623 -7.36518e-17
4630 4623 -9.37563e-25
4631 4623 -2.53733e-24
4632 4623 -1.58372e-32
5747 4623 -1.65717e-16
5748 4623 -1.68919e-08
5859 4623 -2.7027e-09
4516 4624 -4.6e-06
4517 4624 -1e-05
4525 4624 -9.7e-06
4526 4624 -1.27297e-13
4623 4624 -1.62044e-21
4624 4624 592
4629 4624 -7.36518e-17
4630 4624 -9.37563e-25
4631 4624 -2.53733e-24
4632 4624 -3.72049e-32
5747 4624 -1.65717e-16
5748 4624 -1.68919e-08
5859 4624 -2.7027e-09
4507 4625 -4.6e-06
4508 4625 -1e-05
4512 4625 -9.7e-06
4625 4625 592
4626 4625 -2.73723e-24
4629 4625 -7.36518e-17
4630 4625 -9.37563e-25
4631 4625 -2.53733e-24
4632 4625 -1.58372e-32
5747 4625 -1.65717e-16
5748 4625 -1.68919e-08
5859 4625 -2.7027e-09
4502 4626 -4.6e-06
4503 4626 -1e-05
4511 4626 -9.7e-06
4512 4626 -1.27297e-13
4625 4626 -1.62044e-21
4626 4626 592
4629 4626 -7.36518e-17
4630 4626 -9.37563e-25
4631 4626 -2.53733e-24
4632 4626 -3.72049e-32
5747 4626 -1.65717e-16
5748 4626 -1.68919e-08
5859 4626 -2.7027e-09
4493 4627 -4.6e-06
4494 4627 -1e-05
4498 4627 -9.7e-06
4627 4627 592
4628 4627 -2.73723e-24
4629 4627 -7.36518e-17
4630 4627 -9.37563e-25
4631 4627 -2.53733e-24
4632 4627 -1.58372e-32
5747 4627 -1.65717e-16
5748 4627 -1.68919e-08
5859 4627 -2.7027e-09
4488 4628 -4.6e-06
4489 4628 -1e-05
4497 4628 -9.7e-06
4498 4628 -1.27297e-13
4627 4628 -1.62044e-21
4628 4628 592
4629 4628 -7.36518e-17
4630 4628 -9.37563e-25
4631 4628 -2.53733e-24
4632 4628 -3.72049e-32
5747 4628 -1.65717e-16
5748 4628 -1.68919e-08
5859 4628 -2.7027e-09
4480 4629 -2.1e-05
4481 4629 -3.4585e-14
4484 4629 -2.42095e-13
4488 4629 -4e-06
4489 4629 -9.29898e-22
4493 4629 -4e-06
4494 4629 -9.29898e-22
4502 4629 -4e-06
4503 4629 -9.29898e-22
4507 4629 -4e-06
4508 4629 -9.29898e-22
4516 4629 -4e-06
4517 4629 -9.29898e-22
4521 4629 -4e-06
4522 4629 -9.29898e-22
4530 4629 -4e-06
4531 4629 -9.29898e-22
4535 4629 -4e-06
4536 4629 -9.29898e-22
4543 4629 -4e-06
4544 4629 -8.5308e-14
4545 4629 -9.29898e-22
4553 4629 -4e-06
4554 4629 -9.29898e-22
4557 4629 -4e-06
4558 4629 -8.5308e-14
4559 4629 -9.29898e-22
4567 4629 -4e-06
4568 4629 -9.29898e-22
4571 4629 -4e-06
4572 4629 -8.5308e-14
4573 4629 -9.29898e-22
4581 4629 -4e-06
4582 4629 -9.29898e-22
4585 4629 -4e-06
4586 4629 -8.5308e-14
4587 4629 -9.29898e-22
4595 4629 -4e-06
4596 4629 -9.29898e-22
4600 4629 -4e-06
4601 4629 -9.29898e-22
4609 4629 -4e-06
4610 4629 -9.29898e-22
4611 4629 -4.36019e-14
4612 4629 -4.36019e-14
4613 4629 -4.36019e-14
4614 4629 -4.36019e-14
4615 4629 -4.36019e-14
4616 4629 -4.36019e-14
4617 4629 -4.36019e-14
4618 4629 -4.36019e-14
4619 4629 -4.36019e-14
4620 4629 -4.36019e-14
4621 4629 -4.36019e-14
4622 4629 -4.36019e-14
4623 4629 -4.36019e-14
4624 4629 -4.36019e-14
4625 4629 -4.36019e-14
4626 4629 -4.36019e-14
4627 4629 -4.36019e-14
4628 4629 -4.36019e-14
4629 4629 28401
4630 4629 -1.58445e-09
4631 4629 -5.12479e-25
4632 4629 -0
5739 4629 -6.35827e-31
5740 4629 -6.35827e-31
5747 4629 -5.40666e-17
5748 4629 -4.66791e-25
5859 4629 -7.46866e-26
4481 4630 -2.1e-05
4484 4630 -2.42095e-13
4495 4630 -4e-06
4496 4630 -4e-06
4497 4630 -4.36019e-14
4498 4630 -4.36019e-14
4509 4630 -4e-06
4510 4630 -4e-06
4511 4630 -4.36019e-14
4512 4630 -4.36019e-14
4523 4630 -4e-06
4524 4630 -4e-06
4525 4630 -4.36019e-14
4526 4630 -4.36019e-14
4537 4630 -4e-06
4538 4630 -4e-06
4539 4630 -4.36019e-14
4540 4630 -4.36019e-14
4546 4630 -4e-06
4547 4630 -4e-06
4548 4630 -4.36019e-14
4549 4630 -4.36019e-14
4560 4630 -4e-06
4561 4630 -4e-06
4562 4630 -4.36019e-14
4563 4630 -4.36019e-14
4574 4630 -4e-06
4575 4630 -4e-06
4576 4630 -4.36019e-14
4577 4630 -4.36019e-14
4588 4630 -4e-06
4589 4630 -4e-06
4590 4630 -4.36019e-14
4591 4630 -4.36019e-14
4602 4630 -4e-06
4603 4630 -4e-06
4604 4630 -4.36019e-14
4605 4630 -4.36019e-14
4611 4630 -5.55037e-22
4612 4630 -5.55037e-22
4613 4630 -5.55037e-22
4614 4630 -5.55037e-22
4615 4630 -5.55037e-22
4616 4630 -5.55037e-22
4617 4630 -5.55037e-22
4618 4630 -5.55037e-22
4619 4630 -5.55037e-22
4620 4630 -5.55037e-22
4621 4630 -5.55037e-22
4622 4630 -5.55037e-22
4623 4630 -5.55037e-22
4624 4630 -5.55037e-22
4625 4630 -5.55037e-22
4626 4630 -5.55037e-22
4627 4630 -5.55037e-22
4628 4630 -5.55037e-22
4629 4630 -4.5e-05
4630 4630 28571
4631 4630 -8.07167e-34
4632 4630 0
5739 4630 -6.32044e-31
5740 4630 -6.32044e-31
5747 4630 -5.37449e-17
5748 4630 -3.60493e-25
5859 4630 -5.7679e-26
4476 4631 -2.1e-05
4479 4631 -2.42095e-13
4487 4631 -4e-06
4488 4631 -8.5308e-14
4489 4631 -4.36019e-14
4492 4631 -4e-06
4493 4631 -8.5308e-14
4494 4631 -4.36019e-14
4501 4631 -4e-06
4502 4631 -8.5308e-14
4503 4631 -4.36019e-14
4506 4631 -4e-06
4507 4631 -8.5308e-14
4508 4631 -4.36019e-14
4515 4631 -4e-06
4516 4631 -8.5308e-14
4517 4631 -4.36019e-14
4520 4631 -4e-06
4521 4631 -8.5308e-14
4522 4631 -4.36019e-14
4529 4631 -4e-06
4530 4631 -8.5308e-14
4531 4631 -4.36019e-14
4534 4631 -4e-06
4535 4631 -8.5308e-14
4536 4631 -4.36019e-14
4544 4631 -4e-06
4545 4631 -4.36019e-14
4552 4631 -4e-06
4553 4631 -8.5308e-14
4554 4631 -4.36019e-14
4558 4631 -4e-06
4559 4631 -4.36019e-14
4566 4631 -4e-06
4567 4631 -8.5308e-14
4568 4631 -4.36019e-14
4572 4631 -4e-06
4573 4631 -4.36019e-14
4580 4631 -4e-06
4581 4631 -8.5308e-14
4582 4631 -4.36019e-14
4586 4631 -4e-06
4587 4631 -4.36019e-14
4594 4631 -4e-06
4595 4631 -8.5308e-14
4596 4631 -4.36019e-14
4599 4631 -4e-06
4600 4631 -8.5308e-14
4601 4631 -4.36019e-14
4608 4631 -4e-06
4609 4631 -8.5308e-14
4610 4631 -4.36019e-14
4611 4631 -1.5021e-21
4612 4631 -1.5021e-21
4613 4631 -1.5021e-21
4614 4631 -1.5021e-21
4615 4631 -1.5021e-21
4616 4631 -1.5021e-21
4617 4631 -1.5021e-21
4618 4631 -1.5021e-21
4619 4631 -1.5021e-21
4620 4631 -1.5021e-21
4621 4631 -1.5021e-21
4622 4631 -1.5021e-21
4623 4631 -1.5021e-21
4624 4631 -1.5021e-21
4625 4631 -1.5021e-21
4626 4631 -1.5021e-21
4627 4631 -1.5021e-21
4628 4631 -1.5021e-21
4629 4631 -1.45549e-20
4630 4631 -2.30616e-29
4631 4631 28571
4632 4631 -1.57502e-09
5739 4631 0
5740 4631 0
5741 4631 -6.32044e-31
5746 4631 -6.32044e-31
5747 4631 -5.37449e-17
5748 4631 -3.60493e-25
5859 4631 -5.7679e-26
4475 4632 -2.1e-05
4476 4632 -3.4585e-14
4479 4632 -2.42095e-13
4485 4632 -4e-06
4486 4632 -7.30159e-14
4489 4632 -1.67833e-21
4490 4632 -4e-06
4491 4632 -4.36019e-14
4494 4632 -7.14423e-22
4499 4632 -4e-06
4500 4632 -7.30159e-14
4503 4632 -1.67833e-21
4504 4632 -4e-06
4505 4632 -4.36019e-14
4508 4632 -7.14423e-22
4513 4632 -4e-06
4514 4632 -7.30159e-14
4517 4632 -1.67833e-21
4518 4632 -4e-06
4519 4632 -4.36019e-14
4522 4632 -7.14423e-22
4527 4632 -4e-06
4528 4632 -7.30159e-14
4531 4632 -1.67833e-21
4532 4632 -4e-06
4533 4632 -4.36019e-14
4536 4632 -7.14423e-22
4541 4632 -4e-06
4542 4632 -7.30159e-14
4545 4632 -1.67833e-21
4550 4632 -4e-06
4551 4632 -4.36019e-14
4554 4632 -7.14423e-22
4555 4632 -4e-06
4556 4632 -7.30159e-14
4559 4632 -1.67833e-21
4564 4632 -4e-06
4565 4632 -4.36019e-14
4568 4632 -7.14423e-22
4569 4632 -4e-06
4570 4632 -7.30159e-14
4573 4632 -1.67833e-21
4578 4632 -4e-06
4579 4632 -4.36019e-14
4582 4632 -7.14423e-22
4583 4632 -4e-06
4584 4632 -7.30159e-14
4587 4632 -1.67833e-21
4592 4632 -4e-06
4593 4632 -4.36019e-14
4596 4632 -7.14423e-22
4597 4632 -4e-06
4598 4632 -7.30159e-14
4601 4632 -1.67833e-21
4606 4632 -4e-06
4607 4632 -4.36019e-14
4610 4632 -7.14423e-22
4611 4632 -9.37563e-30
4612 4632 -2.20253e-29
4613 4632 -9.37563e-30
4614 4632 -2.20253e-29
4615 4632 -9.37563e-30
4616 4632 -2.20253e-29
4617 4632 -9.37563e-30
4618 4632 -2.20253e-29
4619 4632 -9.37563e-30
4620 4632 -2.20253e-29
4621 4632 -9.37563e-30
4622 4632 -2.20253e-29
4623 4632 -9.37563e-30
4624 4632 -2.20253e-29
4625 4632 -9.37563e-30
4626 4632 -2.20253e-29
4627 4632 -9.37563e-30
4628 4632 -2.20253e-29
4629 4632 -3.78351e-44
4630 4632 0
4631 4632 -4.5e-05
4632 4632 28401
5739 4632 0
5740 4632 0
5741 4632 -6.35827e-31
5746 4632 -6.35827e-31
5747 4632 -7.23033e-17
5748 4632 -7.8169e-25
5859 4632 -1.2507e-25
4633 4633 3643.2
4634 4633 -1.6469e-09
4637 4633 -1.15283e-08
4790 4633 -5.76416e-09
4633 4634 -6e-06
4634 4634 3643.2
4637 4634 -1.15283e-08
4789 4634 -5.76416e-09
4790 4634 -9.49302e-18
4635 4635 170
4637 4635 -7.05881e-07
5741 4635 -7.05881e-07
4636 4636 170
4637 4636 -7.05881e-07
5746 4636 -7.05881e-07
4633 4637 -4.2e-05
4634 4637 -4.2e-05
4635 4637 -0.00012
4636 4637 -0.00012
4637 4637 1135.6
4789 4637 -2.13187e-16
4790 4637 -2.13187e-16
5741 4637 -7.45912e-14
5746 4637 -7.45912e-14
4638 4638 3643.2
4639 4638 -1.6469e-09
4642 4638 -1.15283e-08
4787 4638 -5.76416e-09
4638 4639 -6e-06
4639 4639 3643.2
4642 4639 -1.15283e-08
4787 4639 -9.49302e-18
4788 4639 -5.76416e-09
4640 4640 170
4642 4640 -7.05881e-07
5740 4640 -7.05881e-07
4641 4641 170
4642 4641 -7.05881e-07
5739 4641 -7.05881e-07
4638 4642 -4.2e-05
4639 4642 -4.2e-05
4640 4642 -0.00012
4641 4642 -0.00012
4642 4642 1135.6
4787 4642 -2.13187e-16
4788 4642 -2.13187e-16
5739 4642 -7.45912e-14
5740 4642 -7.45912e-14
4643 4643 252
4644 4643 -1.8254e-08
4790 4643 -1.5873e-08
5749 4643 -3.57143e-08
4643 4644 -4.6e-06
4644 4644 422
4647 4644 -2.29858e-08
4790 4644 -1.73023e-16
5749 4644 -3.89303e-16
5750 4644 -2.36967e-08
5859 4644 -3.79147e-09
4645 4645 422
4646 4645 -2.1327e-08
4647 4645 -1.09005e-08
4789 4645 -9.47867e-09
5749 4645 -2.1327e-08
4645 4646 -9e-06
4646 4646 422
4647 4646 -2.32475e-16
4786 4646 -1.09005e-08
4787 4646 -9.47867e-09
4789 4646 -2.02152e-16
5749 4646 -2.1327e-08
4644 4647 -9.7e-06
4645 4647 -4.6e-06
4646 4647 -9.81043e-14
4647 4647 762
4786 4647 -1.31234e-08
4787 4647 -1.22034e-24
4789 4647 -5.72203e-17
4790 4647 -2.20253e-24
5749 4647 -1.28746e-16
5750 4647 -1.31234e-08
5859 4647 -2.09974e-09
4648 4648 422
4649 4648 -1.09005e-08
4790 4648 -9.47867e-09
5749 4648 -2.1327e-08
4648 4649 -4.6e-06
4649 4649 592
4652 4649 -1.63851e-08
4790 4649 -7.36518e-17
5749 4649 -1.65717e-16
5750 4649 -1.68919e-08
5859 4649 -2.7027e-09
4650 4650 422
4651 4650 -2.1327e-08
4652 4650 -1.09005e-08
4789 4650 -9.47867e-09
5749 4650 -2.1327e-08
4650 4651 -9e-06
4651 4651 422
4652 4651 -2.32475e-16
4785 4651 -1.09005e-08
4787 4651 -9.47867e-09
4789 4651 -2.02152e-16
5749 4651 -2.1327e-08
4649 4652 -9.7e-06
4650 4652 -4.6e-06
4651 4652 -9.81043e-14
4652 4652 762
4785 4652 -1.31234e-08
4787 4652 -1.22034e-24
4789 4652 -5.72203e-17
4790 4652 -9.37563e-25
5749 4652 -1.28746e-16
5750 4652 -1.31234e-08
5859 4652 -2.09974e-09
4653 4653 422
4654 4653 -2.1327e-08
4656 4653 -1.09005e-08
4788 4653 -9.47867e-09
5749 4653 -2.1327e-08
4653 4654 -9e-06
4654 4654 422
4655 4654 -1.09005e-08
4656 4654 -2.32475e-16
4788 4654 -9.47867e-09
5749 4654 -2.1327e-08
4654 4655 -4.6e-06
4655 4655 762
4656 4655 -1.31234e-08
4786 4655 -1.27297e-08
4788 4655 -5.72203e-17
5749 4655 -1.28746e-16
5750 4655 -1.31234e-08
5859 4655 -2.09974e-09
4653 4656 -4.6e-06
4654 4656 -9.81043e-14
4655 4656 -1e-05
4656 4656 762
4785 4656 -1.27297e-08
4786 4656 -1.67056e-16
4788 4656 -5.72203e-17
5749 4656 -1.28746e-16
5750 4656 -1.31234e-08
5859 4656 -2.09974e-09
4657 4657 252
4658 4657 -1.8254e-08
4790 4657 -1.5873e-08
5749 4657 -3.57143e-08
4657 4658 -4.6e-06
4658 4658 422
4661 4658 -2.29858e-08
4790 4658 -1.73023e-16
5749 4658 -3.89303e-16
5750 4658 -2.36967e-08
5859 4658 -3.79147e-09
4659 4659 422
4660 4659 -2.1327e-08
4661 4659 -1.09005e-08
4789 4659 -9.47867e-09
5749 4659 -2.1327e-08
4659 4660 -9e-06
4660 4660 422
4661 4660 -2.32475e-16
4784 4660 -1.09005e-08
4787 4660 -9.47867e-09
4789 4660 -2.02152e-16
5749 4660 -2.1327e-08
4658 4661 -9.7e-06
4659 4661 -4.6e-06
4660 4661 -9.81043e-14
4661 4661 762
4784 4661 -1.31234e-08
4787 4661 -1.22034e-24
4789 4661 -5.72203e-17
4790 4661 -2.20253e-24
5749 4661 -1.28746e-16
5750 4661 -1.31234e-08
5859 4661 -2.09974e-09
4662 4662 422
4663 4662 -1.09005e-08
4790 4662 -9.47867e-09
5749 4662 -2.1327e-08
4662 4663 -4.6e-06
4663 4663 592
4666 4663 -1.63851e-08
4790 4663 -7.36518e-17
5749 4663 -1.65717e-16
5750 4663 -1.68919e-08
5859 4663 -2.7027e-09
4664 4664 422
4665 4664 -2.1327e-08
4666 4664 -1.09005e-08
4789 4664 -9.47867e-09
5749 4664 -2.1327e-08
4664 4665 -9e-06
4665 4665 422
4666 4665 -2.32475e-16
4783 4665 -1.09005e-08
4787 4665 -9.47867e-09
4789 4665 -2.02152e-16
5749 4665 -2.1327e-08
4663 4666 -9.7e-06
4664 4666 -4.6e-06
4665 4666 -9.81043e-14
4666 4666 762
4783 4666 -1.31234e-08
4787 4666 -1.22034e-24
4789 4666 -5.72203e-17
4790 4666 -9.37563e-25
5749 4666 -1.28746e-16
5750 4666 -1.31234e-08
5859 4666 -2.09974e-09
4667 4667 422
4668 4667 -2.1327e-08
4670 4667 -1.09005e-08
4788 4667 -9.47867e-09
5749 4667 -2.1327e-08
4667 4668 -9e-06
4668 4668 422
4669 4668 -1.09005e-08
4670 4668 -2.32475e-16
4788 4668 -9.47867e-09
5749 4668 -2.1327e-08
4668 4669 -4.6e-06
4669 4669 762
4670 4669 -1.31234e-08
4784 4669 -1.27297e-08
4788 4669 -5.72203e-17
5749 4669 -1.28746e-16
5750 4669 -1.31234e-08
5859 4669 -2.09974e-09
4667 4670 -4.6e-06
4668 4670 -9.81043e-14
4669 4670 -1e-05
4670 4670 762
4783 4670 -1.27297e-08
4784 4670 -1.67056e-16
4788 4670 -5.72203e-17
5749 4670 -1.28746e-16
5750 4670 -1.31234e-08
5859 4670 -2.09974e-09
4671 4671 252
4672 4671 -1.8254e-08
4790 4671 -1.5873e-08
5749 4671 -3.57143e-08
4671 4672 -4.6e-06
4672 4672 422
4675 4672 -2.29858e-08
4790 4672 -1.73023e-16
5749 4672 -3.89303e-16
5750 4672 -2.36967e-08
5859 4672 -3.79147e-09
4673 4673 422
4674 4673 -2.1327e-08
4675 4673 -1.09005e-08
4789 4673 -9.47867e-09
5749 4673 -2.1327e-08
4673 4674 -9e-06
4674 4674 422
4675 4674 -2.32475e-16
4782 4674 -1.09005e-08
4787 4674 -9.47867e-09
4789 4674 -2.02152e-16
5749 4674 -2.1327e-08
4672 4675 -9.7e-06
4673 4675 -4.6e-06
4674 4675 -9.81043e-14
4675 4675 762
4782 4675 -1.31234e-08
4787 4675 -1.22034e-24
4789 4675 -5.72203e-17
4790 4675 -2.20253e-24
5749 4675 -1.28746e-16
5750 4675 -1.31234e-08
5859 4675 -2.09974e-09
4676 4676 422
4677 4676 -1.09005e-08
4790 4676 -9.47867e-09
5749 4676 -2.1327e-08
4676 4677 -4.6e-06
4677 4677 592
4680 4677 -1.63851e-08
4790 4677 -7.36518e-17
5749 4677 -1.65717e-16
5750 4677 -1.68919e-08
5859 4677 -2.7027e-09
4678 4678 422
4679 4678 -2.1327e-08
4680 4678 -1.09005e-08
4789 4678 -9.47867e-09
5749 4678 -2.1327e-08
4678 4679 -9e-06
4679 4679 422
4680 4679 -2.32475e-16
4781 4679 -1.09005e-08
4787 4679 -9.47867e-09
4789 4679 -2.02152e-16
5749 4679 -2.1327e-08
4677 4680 -9.7e-06
4678 4680 -4.6e-06
4679 4680 -9.81043e-14
4680 4680 762
4781 4680 -1.31234e-08
4787 4680 -1.22034e-24
4789 4680 -5.72203e-17
4790 4680 -9.37563e-25
5749 4680 -1.28746e-16
5750 4680 -1.31234e-08
5859 4680 -2.09974e-09
4681 4681 422
4682 4681 -2.1327e-08
4684 4681 -1.09005e-08
4788 4681 -9.47867e-09
5749 4681 -2.1327e-08
4681 4682 -9e-06
4682 4682 422
4683 4682 -1.09005e-08
4684 4682 -2.32475e-16
4788 4682 -9.47867e-09
5749 4682 -2.1327e-08
4682 4683 -4.6e-06
4683 4683 762
4684 4683 -1.31234e-08
4782 4683 -1.27297e-08
4788 4683 -5.72203e-17
5749 4683 -1.28746e-16
5750 4683 -1.31234e-08
5859 4683 -2.09974e-09
4681 4684 -4.6e-06
4682 4684 -9.81043e-14
4683 4684 -1e-05
4684 4684 762
4781 4684 -1.27297e-08
4782 4684 -1.67056e-16
4788 4684 -5.72203e-17
5749 4684 -1.28746e-16
5750 4684 -1.31234e-08
5859 4684 -2.09974e-09
4685 4685 252
4686 4685 -1.8254e-08
4790 4685 -1.5873e-08
5749 4685 -3.57143e-08
4685 4686 -4.6e-06
4686 4686 422
4689 4686 -2.29858e-08
4790 4686 -1.73023e-16
5749 4686 -3.89303e-16
5750 4686 -2.36967e-08
5859 4686 -3.79147e-09
4687 4687 422
4688 4687 -2.1327e-08
4689 4687 -1.09005e-08
4789 4687 -9.47867e-09
5749 4687 -2.1327e-08
4687 4688 -9e-06
4688 4688 422
4689 4688 -2.32475e-16
4780 4688 -1.09005e-08
4787 4688 -9.47867e-09
4789 4688 -2.02152e-16
5749 4688 -2.1327e-08
4686 4689 -9.7e-06
4687 4689 -4.6e-06
4688 4689 -9.81043e-14
4689 4689 762
4780 4689 -1.31234e-08
4787 4689 -1.22034e-24
4789 4689 -5.72203e-17
4790 4689 -2.20253e-24
5749 4689 -1.28746e-16
5750 4689 -1.31234e-08
5859 4689 -2.09974e-09
4690 4690 422
4691 4690 -1.09005e-08
4790 4690 -9.47867e-09
5749 4690 -2.1327e-08
4690 4691 -4.6e-06
4691 4691 592
4694 4691 -1.63851e-08
4790 4691 -7.36518e-17
5749 4691 -1.65717e-16
5750 4691 -1.68919e-08
5859 4691 -2.7027e-09
4692 4692 422
4693 4692 -2.1327e-08
4694 4692 -1.09005e-08
4789 4692 -9.47867e-09
5749 4692 -2.1327e-08
4692 4693 -9e-06
4693 4693 422
4694 4693 -2.32475e-16
4779 4693 -1.09005e-08
4787 4693 -9.47867e-09
4789 4693 -2.02152e-16
5749 4693 -2.1327e-08
4691 4694 -9.7e-06
4692 4694 -4.6e-06
4693 4694 -9.81043e-14
4694 4694 762
4779 4694 -1.31234e-08
4787 4694 -1.22034e-24
4789 4694 -5.72203e-17
4790 4694 -9.37563e-25
5749 4694 -1.28746e-16
5750 4694 -1.31234e-08
5859 4694 -2.09974e-09
4695 4695 422
4696 4695 -2.1327e-08
4698 4695 -1.09005e-08
4788 4695 -9.47867e-09
5749 4695 -2.1327e-08
4695 4696 -9e-06
4696 4696 422
4697 4696 -1.09005e-08
4698 4696 -2.32475e-16
4788 4696 -9.47867e-09
5749 4696 -2.1327e-08
4696 4697 -4.6e-06
4697 4697 762
4698 4697 -1.31234e-08
4780 4697 -1.27297e-08
4788 4697 -5.72203e-17
5749 4697 -1.28746e-16
5750 4697 -1.31234e-08
5859 4697 -2.09974e-09
4695 4698 -4.6e-06
4696 4698 -9.81043e-14
4697 4698 -1e-05
4698 4698 762
4779 4698 -1.27297e-08
4780 4698 -1.67056e-16
4788 4698 -5.72203e-17
5749 4698 -1.28746e-16
5750 4698 -1.31234e-08
5859 4698 -2.09974e-09
4699 4699 252
4700 4699 -1.8254e-08
4790 4699 -1.5873e-08
5749 4699 -3.57143e-08
4699 4700 -4.6e-06
4700 4700 422
4703 4700 -2.29858e-08
4790 4700 -1.73023e-16
5749 4700 -3.89303e-16
5750 4700 -2.36967e-08
5859 4700 -3.79147e-09
4701 4701 422
4702 4701 -2.1327e-08
4778 4701 -1.09005e-08
4787 4701 -9.47867e-09
5749 4701 -2.1327e-08
4701 4702 -9e-06
4702 4702 422
4703 4702 -1.09005e-08
4778 4702 -2.32475e-16
4787 4702 -2.02152e-16
4789 4702 -9.47867e-09
5749 4702 -2.1327e-08
4700 4703 -9.7e-06
4702 4703 -4.6e-06
4703 4703 762
4778 4703 -1.31234e-08
4787 4703 -1.22034e-24
4789 4703 -5.72203e-17
4790 4703 -2.20253e-24
5749 4703 -1.28746e-16
5750 4703 -1.31234e-08
5859 4703 -2.09974e-09
4704 4704 422
4705 4704 -2.1327e-08
4707 4704 -1.09005e-08
4788 4704 -9.47867e-09
5749 4704 -2.1327e-08
4704 4705 -9e-06
4705 4705 422
4706 4705 -1.09005e-08
4707 4705 -2.32475e-16
4788 4705 -9.47867e-09
5749 4705 -2.1327e-08
4705 4706 -4.6e-06
4706 4706 762
4707 4706 -1.31234e-08
4778 4706 -1.27297e-08
4788 4706 -5.72203e-17
5749 4706 -1.28746e-16
5750 4706 -1.31234e-08
5859 4706 -2.09974e-09
4704 4707 -4.6e-06
4705 4707 -9.81043e-14
4706 4707 -1e-05
4707 4707 762
4777 4707 -1.27297e-08
4778 4707 -1.67056e-16
4788 4707 -5.72203e-17
5749 4707 -1.28746e-16
5750 4707 -1.31234e-08
5859 4707 -2.09974e-09
4708 4708 422
4709 4708 -1.09005e-08
4790 4708 -9.47867e-09
5749 4708 -2.1327e-08
4708 4709 -4.6e-06
4709 4709 592
4712 4709 -1.63851e-08
4790 4709 -7.36518e-17
5749 4709 -1.65717e-16
5750 4709 -1.68919e-08
5859 4709 -2.7027e-09
4710 4710 422
4711 4710 -2.1327e-08
4712 4710 -1.09005e-08
4789 4710 -9.47867e-09
5749 4710 -2.1327e-08
4710 4711 -9e-06
4711 4711 422
4712 4711 -2.32475e-16
4777 4711 -1.09005e-08
4787 4711 -9.47867e-09
4789 4711 -2.02152e-16
5749 4711 -2.1327e-08
4709 4712 -9.7e-06
4710 4712 -4.6e-06
4711 4712 -9.81043e-14
4712 4712 762
4777 4712 -1.31234e-08
4787 4712 -1.22034e-24
4789 4712 -5.72203e-17
4790 4712 -9.37563e-25
5749 4712 -1.28746e-16
5750 4712 -1.31234e-08
5859 4712 -2.09974e-09
4713 4713 252
4714 4713 -1.8254e-08
4790 4713 -1.5873e-08
5749 4713 -3.57143e-08
4713 4714 -4.6e-06
4714 4714 422
4717 4714 -2.29858e-08
4790 4714 -1.73023e-16
5749 4714 -3.89303e-16
5750 4714 -2.36967e-08
5859 4714 -3.79147e-09
4715 4715 422
4716 4715 -2.1327e-08
4776 4715 -1.09005e-08
4787 4715 -9.47867e-09
5749 4715 -2.1327e-08
4715 4716 -9e-06
4716 4716 422
4717 4716 -1.09005e-08
4776 4716 -2.32475e-16
4787 4716 -2.02152e-16
4789 4716 -9.47867e-09
5749 4716 -2.1327e-08
4714 4717 -9.7e-06
4716 4717 -4.6e-06
4717 4717 762
4776 4717 -1.31234e-08
4787 4717 -1.22034e-24
4789 4717 -5.72203e-17
4790 4717 -2.20253e-24
5749 4717 -1.28746e-16
5750 4717 -1.31234e-08
5859 4717 -2.09974e-09
4718 4718 422
4719 4718 -2.1327e-08
4721 4718 -1.09005e-08
4788 4718 -9.47867e-09
5749 4718 -2.1327e-08
4718 4719 -9e-06
4719 4719 422
4720 4719 -1.09005e-08
4721 4719 -2.32475e-16
4788 4719 -9.47867e-09
5749 4719 -2.1327e-08
4719 4720 -4.6e-06
4720 4720 762
4721 4720 -1.31234e-08
4776 4720 -1.27297e-08
4788 4720 -5.72203e-17
5749 4720 -1.28746e-16
5750 4720 -1.31234e-08
5859 4720 -2.09974e-09
4718 4721 -4.6e-06
4719 4721 -9.81043e-14
4720 4721 -1e-05
4721 4721 762
4775 4721 -1.27297e-08
4776 4721 -1.67056e-16
4788 4721 -5.72203e-17
5749 4721 -1.28746e-16
5750 4721 -1.31234e-08
5859 4721 -2.09974e-09
4722 4722 422
4723 4722 -1.09005e-08
4790 4722 -9.47867e-09
5749 4722 -2.1327e-08
4722 4723 -4.6e-06
4723 4723 592
4726 4723 -1.63851e-08
4790 4723 -7.36518e-17
5749 4723 -1.65717e-16
5750 4723 -1.68919e-08
5859 4723 -2.7027e-09
4724 4724 422
4725 4724 -2.1327e-08
4726 4724 -1.09005e-08
4789 4724 -9.47867e-09
5749 4724 -2.1327e-08
4724 4725 -9e-06
4725 4725 422
4726 4725 -2.32475e-16
4775 4725 -1.09005e-08
4787 4725 -9.47867e-09
4789 4725 -2.02152e-16
5749 4725 -2.1327e-08
4723 4726 -9.7e-06
4724 4726 -4.6e-06
4725 4726 -9.81043e-14
4726 4726 762
4775 4726 -1.31234e-08
4787 4726 -1.22034e-24
4789 4726 -5.72203e-17
4790 4726 -9.37563e-25
5749 4726 -1.28746e-16
5750 4726 -1.31234e-08
5859 4726 -2.09974e-09
4727 4727 252
4728 4727 -1.8254e-08
4790 4727 -1.5873e-08
5749 4727 -3.57143e-08
4727 4728 -4.6e-06
4728 4728 422
4731 4728 -2.29858e-08
4790 4728 -1.73023e-16
5749 4728 -3.89303e-16
5750 4728 -2.36967e-08
5859 4728 -3.79147e-09
4729 4729 422
4730 4729 -2.1327e-08
4774 4729 -1.09005e-08
4787 4729 -9.47867e-09
5749 4729 -2.1327e-08
4729 4730 -9e-06
4730 4730 422
4731 4730 -1.09005e-08
4774 4730 -2.32475e-16
4787 4730 -2.02152e-16
4789 4730 -9.47867e-09
5749 4730 -2.1327e-08
4728 4731 -9.7e-06
4730 4731 -4.6e-06
4731 4731 762
4774 4731 -1.31234e-08
4787 4731 -1.22034e-24
4789 4731 -5.72203e-17
4790 4731 -2.20253e-24
5749 4731 -1.28746e-16
5750 4731 -1.31234e-08
5859 4731 -2.09974e-09
4732 4732 422
4733 4732 -2.1327e-08
4735 4732 -1.09005e-08
4788 4732 -9.47867e-09
5749 4732 -2.1327e-08
4732 4733 -9e-06
4733 4733 422
4734 4733 -1.09005e-08
4735 4733 -2.32475e-16
4788 4733 -9.47867e-09
5749 4733 -2.1327e-08
4733 4734 -4.6e-06
4734 4734 762
4735 4734 -1.31234e-08
4774 4734 -1.27297e-08
4788 4734 -5.72203e-17
5749 4734 -1.28746e-16
5750 4734 -1.31234e-08
5859 4734 -2.09974e-09
4732 4735 -4.6e-06
4733 4735 -9.81043e-14
4734 4735 -1e-05
4735 4735 762
4773 4735 -1.27297e-08
4774 4735 -1.67056e-16
4788 4735 -5.72203e-17
5749 4735 -1.28746e-16
5750 4735 -1.31234e-08
5859 4735 -2.09974e-09
4736 4736 422
4737 4736 -1.09005e-08
4790 4736 -9.47867e-09
5749 4736 -2.1327e-08
4736 4737 -4.6e-06
4737 4737 592
4740 4737 -1.63851e-08
4790 4737 -7.36518e-17
5749 4737 -1.65717e-16
5750 4737 -1.68919e-08
5859 4737 -2.7027e-09
4738 4738 422
4739 4738 -2.1327e-08
4740 4738 -1.09005e-08
4789 4738 -9.47867e-09
5749 4738 -2.1327e-08
4738 4739 -9e-06
4739 4739 422
4740 4739 -2.32475e-16
4773 4739 -1.09005e-08
4787 4739 -9.47867e-09
4789 4739 -2.02152e-16
5749 4739 -2.1327e-08
4737 4740 -9.7e-06
4738 4740 -4.6e-06
4739 4740 -9.81043e-14
4740 4740 762
4773 4740 -1.31234e-08
4787 4740 -1.22034e-24
4789 4740 -5.72203e-17
4790 4740 -9.37563e-25
5749 4740 -1.28746e-16
5750 4740 -1.31234e-08
5859 4740 -2.09974e-09
4741 4741 252
4742 4741 -1.8254e-08
4790 4741 -1.5873e-08
5749 4741 -3.57143e-08
4741 4742 -4.6e-06
4742 4742 422
4745 4742 -2.29858e-08
4790 4742 -1.73023e-16
5749 4742 -3.89303e-16
5750 4742 -2.36967e-08
5859 4742 -3.79147e-09
4743 4743 422
4744 4743 -2.1327e-08
4772 4743 -1.09005e-08
4787 4743 -9.47867e-09
5749 4743 -2.1327e-08
4743 4744 -9e-06
4744 4744 422
4745 4744 -1.09005e-08
4772 4744 -2.32475e-16
4787 4744 -2.02152e-16
4789 4744 -9.47867e-09
5749 4744 -2.1327e-08
4742 4745 -9.7e-06
4744 4745 -4.6e-06
4745 4745 762
4772 4745 -1.31234e-08
4787 4745 -1.22034e-24
4789 4745 -5.72203e-17
4790 4745 -2.20253e-24
5749 4745 -1.28746e-16
5750 4745 -1.31234e-08
5859 4745 -2.09974e-09
4746 4746 422
4747 4746 -2.1327e-08
4749 4746 -1.09005e-08
4788 4746 -9.47867e-09
5749 4746 -2.1327e-08
4746 4747 -9e-06
4747 4747 422
4748 4747 -1.09005e-08
4749 4747 -2.32475e-16
4788 4747 -9.47867e-09
5749 4747 -2.1327e-08
4747 4748 -4.6e-06
4748 4748 762
4749 4748 -1.31234e-08
4772 4748 -1.27297e-08
4788 4748 -5.72203e-17
5749 4748 -1.28746e-16
5750 4748 -1.31234e-08
5859 4748 -2.09974e-09
4746 4749 -4.6e-06
4747 4749 -9.81043e-14
4748 4749 -1e-05
4749 4749 762
4771 4749 -1.27297e-08
4772 4749 -1.67056e-16
4788 4749 -5.72203e-17
5749 4749 -1.28746e-16
5750 4749 -1.31234e-08
5859 4749 -2.09974e-09
4750 4750 422
4751 4750 -1.09005e-08
4790 4750 -9.47867e-09
5749 4750 -2.1327e-08
4750 4751 -4.6e-06
4751 4751 592
4754 4751 -1.63851e-08
4790 4751 -7.36518e-17
5749 4751 -1.65717e-16
5750 4751 -1.68919e-08
5859 4751 -2.7027e-09
4752 4752 422
4753 4752 -2.1327e-08
4754 4752 -1.09005e-08
4789 4752 -9.47867e-09
5749 4752 -2.1327e-08
4752 4753 -9e-06
4753 4753 422
4754 4753 -2.32475e-16
4771 4753 -1.09005e-08
4787 4753 -9.47867e-09
4789 4753 -2.02152e-16
5749 4753 -2.1327e-08
4751 4754 -9.7e-06
4752 4754 -4.6e-06
4753 4754 -9.81043e-14
4754 4754 762
4771 4754 -1.31234e-08
4787 4754 -1.22034e-24
4789 4754 -5.72203e-17
4790 4754 -9.37563e-25
5749 4754 -1.28746e-16
5750 4754 -1.31234e-08
5859 4754 -2.09974e-09
4755 4755 252
4756 4755 -1.8254e-08
4790 4755 -1.5873e-08
5749 4755 -3.57143e-08
4755 4756 -4.6e-06
4756 4756 422
4759 4756 -2.29858e-08
4790 4756 -1.73023e-16
5749 4756 -3.89303e-16
5750 4756 -2.36967e-08
5859 4756 -3.79147e-09
4757 4757 422
4758 4757 -2.1327e-08
4759 4757 -1.09005e-08
4789 4757 -9.47867e-09
5749 4757 -2.1327e-08
4757 4758 -9e-06
4758 4758 422
4759 4758 -2.32475e-16
4770 4758 -1.09005e-08
4787 4758 -9.47867e-09
4789 4758 -2.02152e-16
5749 4758 -2.1327e-08
4756 4759 -9.7e-06
4757 4759 -4.6e-06
4758 4759 -9.81043e-14
4759 4759 762
4770 4759 -1.31234e-08
4787 4759 -1.22034e-24
4789 4759 -5.72203e-17
4790 4759 -2.20253e-24
5749 4759 -1.28746e-16
5750 4759 -1.31234e-08
5859 4759 -2.09974e-09
4760 4760 422
4761 4760 -2.1327e-08
4763 4760 -1.09005e-08
4788 4760 -9.47867e-09
5749 4760 -2.1327e-08
4760 4761 -9e-06
4761 4761 422
4762 4761 -1.09005e-08
4763 4761 -2.32475e-16
4788 4761 -9.47867e-09
5749 4761 -2.1327e-08
4761 4762 -4.6e-06
4762 4762 762
4763 4762 -1.31234e-08
4770 4762 -1.27297e-08
4788 4762 -5.72203e-17
5749 4762 -1.28746e-16
5750 4762 -1.31234e-08
5859 4762 -2.09974e-09
4760 4763 -4.6e-06
4761 4763 -9.81043e-14
4762 4763 -1e-05
4763 4763 762
4769 4763 -1.27297e-08
4770 4763 -1.67056e-16
4788 4763 -5.72203e-17
5749 4763 -1.28746e-16
5750 4763 -1.31234e-08
5859 4763 -2.09974e-09
4764 4764 422
4765 4764 -1.09005e-08
4790 4764 -9.47867e-09
5749 4764 -2.1327e-08
4764 4765 -4.6e-06
4765 4765 592
4768 4765 -1.63851e-08
4790 4765 -7.36518e-17
5749 4765 -1.65717e-16
5750 4765 -1.68919e-08
5859 4765 -2.7027e-09
4766 4766 422
4767 4766 -2.1327e-08
4768 4766 -1.09005e-08
4789 4766 -9.47867e-09
5749 4766 -2.1327e-08
4766 4767 -9e-06
4767 4767 422
4768 4767 -2.32475e-16
4769 4767 -1.09005e-08
4787 4767 -9.47867e-09
4789 4767 -2.02152e-16
5749 4767 -2.1327e-08
4765 4768 -9.7e-06
4766 4768 -4.6e-06
4767 4768 -9.81043e-14
4768 4768 762
4769 4768 -1.31234e-08
4787 4768 -1.22034e-24
4789 4768 -5.72203e-17
4790 4768 -9.37563e-25
5749 4768 -1.28746e-16
5750 4768 -1.31234e-08
5859 4768 -2.09974e-09
4763 4769 -9.7e-06
4767 4769 -4.6e-06
4768 4769 -1e-05
4769 4769 592
4770 4769 -2.73723e-24
4787 4769 -7.36518e-17
4788 4769 -9.37563e-25
4789 4769 -2.53733e-24
4790 4769 -1.58372e-32
5749 4769 -1.65717e-16
5750 4769 -1.68919e-08
5859 4769 -2.7027e-09
4758 4770 -4.6e-06
4759 4770 -1e-05
4762 4770 -9.7e-06
4763 4770 -1.27297e-13
4769 4770 -1.62044e-21
4770 4770 592
4787 4770 -7.36518e-17
4788 4770 -9.37563e-25
4789 4770 -2.53733e-24
4790 4770 -3.72049e-32
5749 4770 -1.65717e-16
5750 4770 -1.68919e-08
5859 4770 -2.7027e-09
4749 4771 -9.7e-06
4753 4771 -4.6e-06
4754 4771 -1e-05
4771 4771 592
4772 4771 -2.73723e-24
4787 4771 -7.36518e-17
4788 4771 -9.37563e-25
4789 4771 -2.53733e-24
4790 4771 -1.58372e-32
5749 4771 -1.65717e-16
5750 4771 -1.68919e-08
5859 4771 -2.7027e-09
4743 4772 -4.6e-06
4744 4772 -9.81043e-14
4745 4772 -1e-05
4748 4772 -9.7e-06
4749 4772 -1.27297e-13
4771 4772 -1.62044e-21
4772 4772 592
4787 4772 -7.36518e-17
4788 4772 -9.37563e-25
4789 4772 -2.53733e-24
4790 4772 -3.72049e-32
5749 4772 -1.65717e-16
5750 4772 -1.68919e-08
5859 4772 -2.7027e-09
4735 4773 -9.7e-06
4739 4773 -4.6e-06
4740 4773 -1e-05
4773 4773 592
4774 4773 -2.73723e-24
4787 4773 -7.36518e-17
4788 4773 -9.37563e-25
4789 4773 -2.53733e-24
4790 4773 -1.58372e-32
5749 4773 -1.65717e-16
5750 4773 -1.68919e-08
5859 4773 -2.7027e-09
4729 4774 -4.6e-06
4730 4774 -9.81043e-14
4731 4774 -1e-05
4734 4774 -9.7e-06
4735 4774 -1.27297e-13
4773 4774 -1.62044e-21
4774 4774 592
4787 4774 -7.36518e-17
4788 4774 -9.37563e-25
4789 4774 -2.53733e-24
4790 4774 -3.72049e-32
5749 4774 -1.65717e-16
5750 4774 -1.68919e-08
5859 4774 -2.7027e-09
4721 4775 -9.7e-06
4725 4775 -4.6e-06
4726 4775 -1e-05
4775 4775 592
4776 4775 -2.73723e-24
4787 4775 -7.36518e-17
4788 4775 -9.37563e-25
4789 4775 -2.53733e-24
4790 4775 -1.58372e-32
5749 4775 -1.65717e-16
5750 4775 -1.68919e-08
5859 4775 -2.7027e-09
4715 4776 -4.6e-06
4716 4776 -9.81043e-14
4717 4776 -1e-05
4720 4776 -9.7e-06
4721 4776 -1.27297e-13
4775 4776 -1.62044e-21
4776 4776 592
4787 4776 -7.36518e-17
4788 4776 -9.37563e-25
4789 4776 -2.53733e-24
4790 4776 -3.72049e-32
5749 4776 -1.65717e-16
5750 4776 -1.68919e-08
5859 4776 -2.7027e-09
4707 4777 -9.7e-06
4711 4777 -4.6e-06
4712 4777 -1e-05
4777 4777 592
4778 4777 -2.73723e-24
4787 4777 -7.36518e-17
4788 4777 -9.37563e-25
4789 4777 -2.53733e-24
4790 4777 -1.58372e-32
5749 4777 -1.65717e-16
5750 4777 -1.68919e-08
5859 4777 -2.7027e-09
4701 4778 -4.6e-06
4702 4778 -9.81043e-14
4703 4778 -1e-05
4706 4778 -9.7e-06
4707 4778 -1.27297e-13
4777 4778 -1.62044e-21
4778 4778 592
4787 4778 -7.36518e-17
4788 4778 -9.37563e-25
4789 4778 -2.53733e-24
4790 4778 -3.72049e-32
5749 4778 -1.65717e-16
5750 4778 -1.68919e-08
5859 4778 -2.7027e-09
4693 4779 -4.6e-06
4694 4779 -1e-05
4698 4779 -9.7e-06
4779 4779 592
4780 4779 -2.73723e-24
4787 4779 -7.36518e-17
4788 4779 -9.37563e-25
4789 4779 -2.53733e-24
4790 4779 -1.58372e-32
5749 4779 -1.65717e-16
5750 4779 -1.68919e-08
5859 4779 -2.7027e-09
4688 4780 -4.6e-06
4689 4780 -1e-05
4697 4780 -9.7e-06
4698 4780 -1.27297e-13
4779 4780 -1.62044e-21
4780 4780 592
4787 4780 -7.36518e-17
4788 4780 -9.37563e-25
4789 4780 -2.53733e-24
4790 4780 -3.72049e-32
5749 4780 -1.65717e-16
5750 4780 -1.68919e-08
5859 4780 -2.7027e-09
4679 4781 -4.6e-06
4680 4781 -1e-05
4684 4781 -9.7e-06
4781 4781 592
4782 4781 -2.73723e-24
4787 4781 -7.36518e-17
4788 4781 -9.37563e-25
4789 4781 -2.53733e-24
4790 4781 -1.58372e-32
5749 4781 -1.65717e-16
5750 4781 -1.68919e-08
5859 4781 -2.7027e-09
4674 4782 -4.6e-06
4675 4782 -1e-05
4683 4782 -9.7e-06
4684 4782 -1.27297e-13
4781 4782 -1.62044e-21
4782 4782 592
4787 4782 -7.36518e-17
4788 4782 -9.37563e-25
4789 4782 -2.53733e-24
4790 4782 -3.72049e-32
5749 4782 -1.65717e-16
5750 4782 -1.68919e-08
5859 4782 -2.7027e-09
4665 4783 -4.6e-06
4666 4783 -1e-05
4670 4783 -9.7e-06
4783 4783 592
4784 4783 -2.73723e-24
4787 4783 -7.36518e-17
4788 4783 -9.37563e-25
4789 4783 -2.53733e-24
4790 4783 -1.58372e-32
5749 4783 -1.65717e-16
5750 4783 -1.68919e-08
5859 4783 -2.7027e-09
4660 4784 -4.6e-06
4661 4784 -1e-05
4669 4784 -9.7e-06
4670 4784 -1.27297e-13
4783 4784 -1.62044e-21
4784 4784 592
4787 4784 -7.36518e-17
4788 4784 -9.37563e-25
4789 4784 -2.53733e-24
4790 4784 -3.72049e-32
5749 4784 -1.65717e-16
5750 4784 -1.68919e-08
5859 4784 -2.7027e-09
4651 4785 -4.6e-06
4652 4785 -1e-05
4656 4785 -9.7e-06
4785 4785 592
4786 4785 -2.73723e-24
4787 4785 -7.36518e-17
4788 4785 -9.37563e-25
4789 4785 -2.53733e-24
4790 4785 -1.58372e-32
5749 4785 -1.65717e-16
5750 4785 -1.68919e-08
5859 4785 -2.7027e-09
4646 4786 -4.6e-06
4647 4786 -1e-05
4655 4786 -9.7e-06
4656 4786 -1.27297e-13
4785 4786 -1.62044e-21
4786 4786 592
4787 4786 -7.36518e-17
4788 4786 -9.37563e-25
4789 4786 -2.53733e-24
4790 4786 -3.72049e-32
5749 4786 -1.65717e-16
5750 4786 -1.68919e-08
5859 4786 -2.7027e-09
4638 4787 -2.1e-05
4639 4787 -3.4585e-14
4642 4787 -2.42095e-13
4646 4787 -4e-06
4647 4787 -9.29898e-22
4651 4787 -4e-06
4652 4787 -9.29898e-22
4660 4787 -4e-06
4661 4787 -9.29898e-22
4665 4787 -4e-06
4666 4787 -9.29898e-22
4674 4787 -4e-06
4675 4787 -9.29898e-22
4679 4787 -4e-06
4680 4787 -9.29898e-22
4688 4787 -4e-06
4689 4787 -9.29898e-22
4693 4787 -4e-06
4694 4787 -9.29898e-22
4701 4787 -4e-06
4702 4787 -8.5308e-14
4703 4787 -9.29898e-22
4711 4787 -4e-06
4712 4787 -9.29898e-22
4715 4787 -4e-06
4716 4787 -8.5308e-14
4717 4787 -9.29898e-22
4725 4787 -4e-06
4726 4787 -9.29898e-22
4729 4787 -4e-06
4730 4787 -8.5308e-14
4731 4787 -9.29898e-22
4739 4787 -4e-06
4740 4787 -9.29898e-22
4743 4787 -4e-06
4744 4787 -8.5308e-14
4745 4787 -9.29898e-22
4753 4787 -4e-06
4754 4787 -9.29898e-22
4758 4787 -4e-06
4759 4787 -9.29898e-22
4767 4787 -4e-06
4768 4787 -9.29898e-22
4769 4787 -4.36019e-14
4770 4787 -4.36019e-14
4771 4787 -4.36019e-14
4772 4787 -4.36019e-14
4773 4787 -4.36019e-14
4774 4787 -4.36019e-14
4775 4787 -4.36019e-14
4776 4787 -4.36019e-14
4777 4787 -4.36019e-14
4778 4787 -4.36019e-14
4779 4787 -4.36019e-14
4780 4787 -4.36019e-14
4781 4787 -4.36019e-14
4782 4787 -4.36019e-14
4783 4787 -4.36019e-14
4784 4787 -4.36019e-14
4785 4787 -4.36019e-14
4786 4787 -4.36019e-14
4787 4787 28401
4788 4787 -1.58445e-09
4789 4787 -5.12479e-25
4790 4787 -0
5739 4787 -6.35827e-31
5740 4787 -6.35827e-31
5749 4787 -5.40666e-17
5750 4787 -4.66791e-25
5859 4787 -7.46866e-26
4639 4788 -2.1e-05
4642 4788 -2.42095e-13
4653 4788 -4e-06
4654 4788 -4e-06
4655 4788 -4.36019e-14
4656 4788 -4.36019e-14
4667 4788 -4e-06
4668 4788 -4e-06
4669 4788 -4.36019e-14
4670 4788 -4.36019e-14
4681 4788 -4e-06
4682 4788 -4e-06
4683 4788 -4.36019e-14
4684 4788 -4.36019e-14
4695 4788 -4e-06
4696 4788 -4e-06
4697 4788 -4.36019e-14
4698 4788 -4.36019e-14
4704 4788 -4e-06
4705 4788 -4e-06
4706 4788 -4.36019e-14
4707 4788 -4.36019e-14
4718 4788 -4e-06
4719 4788 -4e-06
4720 4788 -4.36019e-14
4721 4788 -4.36019e-14
4732 4788 -4e-06
4733 4788 -4e-06
4734 4788 -4.36019e-14
4735 4788 -4.36019e-14
4746 4788 -4e-06
4747 4788 -4e-06
4748 4788 -4.36019e-14
4749 4788 -4.36019e-14
4760 4788 -4e-06
4761 4788 -4e-06
4762 4788 -4.36019e-14
4763 4788 -4.36019e-14
4769 4788 -5.55037e-22
4770 4788 -5.55037e-22
4771 4788 -5.55037e-22
4772 4788 -5.55037e-22
4773 4788 -5.55037e-22
4774 4788 -5.55037e-22
4775 4788 -5.55037e-22
4776 4788 -5.55037e-22
4777 4788 -5.55037e-22
4778 4788 -5.55037e-22
4779 4788 -5.55037e-22
4780 4788 -5.55037e-22
4781 4788 -5.55037e-22
4782 4788 -5.55037e-22
4783 4788 -5.55037e-22
4784 4788 -5.55037e-22
4785 4788 -5.55037e-22
4786 4788 -5.55037e-22
4787 4788 -4.5e-05
4788 4788 28571
4789 4788 -8.07167e-34
4790 4788 0
5739 4788 -6.32044e-31
5740 4788 -6.32044e-31
5749 4788 -5.37449e-17
5750 4788 -3.60493e-25
5859 4788 -5.7679e-26
4634 4789 -2.1e-05
4637 4789 -2.42095e-13
4645 4789 -4e-06
4646 4789 -8.5308e-14
4647 4789 -4.36019e-14
4650 4789 -4e-06
4651 4789 -8.5308e-14
4652 4789 -4.36019e-14
4659 4789 -4e-06
4660 4789 -8.5308e-14
4661 4789 -4.36019e-14
4664 4789 -4e-06
4665 4789 -8.5308e-14
4666 4789 -4.36019e-14
4673 4789 -4e-06
4674 4789 -8.5308e-14
4675 4789 -4.36019e-14
4678 4789 -4e-06
4679 4789 -8.5308e-14
4680 4789 -4.36019e-14
4687 4789 -4e-06
4688 4789 -8.5308e-14
4689 4789 -4.36019e-14
4692 4789 -4e-06
4693 4789 -8.5308e-14
4694 4789 -4.36019e-14
4702 4789 -4e-06
4703 4789 -4.36019e-14
4710 4789 -4e-06
4711 4789 -8.5308e-14
4712 4789 -4.36019e-14
4716 4789 -4e-06
4717 4789 -4.36019e-14
4724 4789 -4e-06
4725 4789 -8.5308e-14
4726 4789 -4.36019e-14
4730 4789 -4e-06
4731 4789 -4.36019e-14
4738 4789 -4e-06
4739 4789 -8.5308e-14
4740 4789 -4.36019e-14
4744 4789 -4e-06
4745 4789 -4.36019e-14
4752 4789 -4e-06
4753 4789 -8.5308e-14
4754 4789 -4.36019e-14
4757 4789 -4e-06
4758 4789 -8.5308e-14
4759 4789 -4.36019e-14
4766 4789 -4e-06
4767 4789 -8.5308e-14
4768 4789 -4.36019e-14
4769 4789 -1.5021e-21
4770 4789 -1.5021e-21
4771 4789 -1.5021e-21
4772 4789 -1.5021e-21
4773 4789 -1.5021e-21
4774 4789 -1.5021e-21
4775 4789 -1.5021e-21
4776 4789 -1.5021e-21
4777 4789 -1.5021e-21
4778 4789 -1.5021e-21
4779 4789 -1.5021e-21
4780 4789 -1.5021e-21
4781 4789 -1.5021e-21
4782 4789 -1.5021e-21
4783 4789 -1.5021e-21
4784 4789 -1.5021e-21
4785 4789 -1.5021e-21
4786 4789 -1.5021e-21
4787 4789 -1.45549e-20
4788 4789 -2.30616e-29
4789 4789 28571
4790 4789 -1.57502e-09
5739 4789 0
5740 4789 0
5741 4789 -6.32044e-31
5746 4789 -6.32044e-31
5749 4789 -5.37449e-17
5750 4789 -3.60493e-25
5859 4789 -5.7679e-26
4633 4790 -2.1e-05
4634 4790 -3.4585e-14
4637 4790 -2.42095e-13
4643 4790 -4e-06
4644 4790 -7.30159e-14
4647 4790 -1.67833e-21
4648 4790 -4e-06
4649 4790 -4.36019e-14
4652 4790 -7.14423e-22
4657 4790 -4e-06
4658 4790 -7.30159e-14
4661 4790 -1.67833e-21
4662 4790 -4e-06
4663 4790 -4.36019e-14
4666 4790 -7.14423e-22
4671 4790 -4e-06
4672 4790 -7.30159e-14
4675 4790 -1.67833e-21
4676 4790 -4e-06
4677 4790 -4.36019e-14
4680 4790 -7.14423e-22
4685 4790 -4e-06
4686 4790 -7.30159e-14
4689 4790 -1.67833e-21
4690 4790 -4e-06
4691 4790 -4.36019e-14
4694 4790 -7.14423e-22
4699 4790 -4e-06
4700 4790 -7.30159e-14
4703 4790 -1.67833e-21
4708 4790 -4e-06
4709 4790 -4.36019e-14
4712 4790 -7.14423e-22
4713 4790 -4e-06
4714 4790 -7.30159e-14
4717 4790 -1.67833e-21
4722 4790 -4e-06
4723 4790 -4.36019e-14
4726 4790 -7.14423e-22
4727 4790 -4e-06
4728 4790 -7.30159e-14
4731 4790 -1.67833e-21
4736 4790 -4e-06
4737 4790 -4.36019e-14
4740 4790 -7.14423e-22
4741 4790 -4e-06
4742 4790 -7.30159e-14
4745 4790 -1.67833e-21
4750 4790 -4e-06
4751 4790 -4.36019e-14
4754 4790 -7.14423e-22
4755 4790 -4e-06
4756 4790 -7.30159e-14
4759 4790 -1.67833e-21
4764 4790 -4e-06
4765 4790 -4.36019e-14
4768 4790 -7.14423e-22
4769 4790 -9.37563e-30
4770 4790 -2.20253e-29
4771 4790 -9.37563e-30
4772 4790 -2.20253e-29
4773 4790 -9.37563e-30
4774 4790 -2.20253e-29
4775 4790 -9.37563e-30
4776 4790 -2.20253e-29
4777 4790 -9.37563e-30
4778 4790 -2.20253e-29
4779 4790 -9.37563e-30
4780 4790 -2.20253e-29
4781 4790 -9.37563e-30
4782 4790 -2.20253e-29
4783 4790 -9.37563e-30
4784 4790 -2.20253e-29
4785 4790 -9.37563e-30
4786 4790 -2.20253e-29
4787 4790 -3.78351e-44
4788 4790 0
4789 4790 -4.5e-05
4790 4790 28401
5739 4790 0
5740 4790 0
5741 4790 -6.35827e-31
5746 4790 -6.35827e-31
5749 4790 -7.23033e-17
5750 4790 -7.8169e-25
5859 4790 -1.2507e-25
4791 4791 3643.2
4792 4791 -1.6469e-09
4795 4791 -1.15283e-08
4948 4791 -5.76416e-09
4791 4792 -6e-06
4792 4792 3643.2
4795 4792 -1.15283e-08
4947 4792 -5.76416e-09
4948 4792 -9.49302e-18
4793 4793 170
4795 4793 -7.05881e-07
5741 4793 -7.05881e-07
4794 4794 170
4795 4794 -7.05881e-07
5746 4794 -7.05881e-07
4791 4795 -4.2e-05
4792 4795 -4.2e-05
4793 4795 -0.00012
4794 4795 -0.00012
4795 4795 1135.6
4947 4795 -2.13187e-16
4948 4795 -2.13187e-16
5741 4795 -7.45912e-14
5746 4795 -7.45912e-14
4796 4796 3643.2
4797 4796 -1.6469e-09
4800 4796 -1.15283e-08
4945 4796 -5.76416e-09
4796 4797 -6e-06
4797 4797 3643.2
4800 4797 -1.15283e-08
4945 4797 -9.49302e-18
4946 4797 -5.76416e-09
4798 4798 170
4800 4798 -7.05881e-07
5740 4798 -7.05881e-07
4799 4799 170
4800 4799 -7.05881e-07
5739 4799 -7.05881e-07
4796 4800 -4.2e-05
4797 4800 -4.2e-05
4798 4800 -0.00012
4799 4800 -0.00012
4800 4800 1135.6
4945 4800 -2.13187e-16
4946 4800 -2.13187e-16
5739 4800 -7.45912e-14
5740 4800 -7.45912e-14
4801 4801 252
4802 4801 -1.8254e-08
4948 4801 -1.5873e-08
5751 4801 -3.57143e-08
4801 4802 -4.6e-06
4802 4802 422
4805 4802 -2.29858e-08
4948 4802 -1.73023e-16
5751 4802 -3.89303e-16
5752 4802 -2.36967e-08
5859 4802 -3.79147e-09
4803 4803 422
4804 4803 -2.1327e-08
4805 4803 -1.09005e-08
4947 4803 -9.47867e-09
5751 4803 -2.1327e-08
4803 4804 -9e-06
4804 4804 422
4805 4804 -2.32475e-16
4944 4804 -1.09005e-08
4945 4804 -9.47867e-09
4947 4804 -2.02152e-16
5751 4804 -2.1327e-08
4802 4805 -9.7e-06
4803 4805 -4.6e-06
4804 4805 -9.81043e-14
4805 4805 762
4944 4805 -1.31234e-08
4945 4805 -1.22034e-24
4947 4805 -5.72203e-17
4948 4805 -2.20253e-24
5751 4805 -1.28746e-16
5752 4805 -1.31234e-08
5859 4805 -2.09974e-09
4806 4806 422
4807 4806 -1.09005e-08
4948 4806 -9.47867e-09
5751 4806 -2.1327e-08
4806 4807 -4.6e-06
4807 4807 592
4810 4807 -1.63851e-08
4948 4807 -7.36518e-17
5751 4807 -1.65717e-16
5752 4807 -1.68919e-08
5859 4807 -2.7027e-09
4808 4808 422
4809 4808 -2.1327e-08
4810 4808 -1.09005e-08
4947 4808 -9.47867e-09
5751 4808 -2.1327e-08
4808 4809 -9e-06
4809 4809 422
4810 4809 -2.32475e-16
4943 4809 -1.09005e-08
4945 4809 -9.47867e-09
4947 4809 -2.02152e-16
5751 4809 -2.1327e-08
4807 4810 -9.7e-06
4808 4810 -4.6e-06
4809 4810 -9.81043e-14
4810 4810 762
4943 4810 -1.31234e-08
4945 4810 -1.22034e-24
4947 4810 -5.72203e-17
4948 4810 -9.37563e-25
5751 4810 -1.28746e-16
5752 4810 -1.31234e-08
5859 4810 -2.09974e-09
4811 4811 422
4812 4811 -2.1327e-08
4814 4811 -1.09005e-08
4946 4811 -9.47867e-09
5751 4811 -2.1327e-08
4811 4812 -9e-06
4812 4812 422
4813 4812 -1.09005e-08
4814 4812 -2.32475e-16
4946 4812 -9.47867e-09
5751 4812 -2.1327e-08
4812 4813 -4.6e-06
4813 4813 762
4814 4813 -1.31234e-08
4944 4813 -1.27297e-08
4946 4813 -5.72203e-17
5751 4813 -1.28746e-16
5752 4813 -1.31234e-08
5859 4813 -2.09974e-09
4811 4814 -4.6e-06
4812 4814 -9.81043e-14
4813 4814 -1e-05
4814 4814 762
4943 4814 -1.27297e-08
4944 4814 -1.67056e-16
4946 4814 -5.72203e-17
5751 4814 -1.28746e-16
5752 4814 -1.31234e-08
5859 4814 -2.09974e-09
4815 4815 252
4816 4815 -1.8254e-08
4948 4815 -1.5873e-08
5751 4815 -3.57143e-08
4815 4816 -4.6e-06
4816 4816 422
4819 4816 -2.29858e-08
4948 4816 -1.73023e-16
5751 4816 -3.89303e-16
5752 4816 -2.36967e-08
5859 4816 -3.79147e-09
4817 4817 422
4818 4817 -2.1327e-08
4819 4817 -1.09005e-08
4947 4817 -9.47867e-09
5751 4817 -2.1327e-08
4817 4818 -9e-06
4818 4818 422
4819 4818 -2.32475e-16
4942 4818 -1.09005e-08
4945 4818 -9.47867e-09
4947 4818 -2.02152e-16
5751 4818 -2.1327e-08
4816 4819 -9.7e-06
4817 4819 -4.6e-06
4818 4819 -9.81043e-14
4819 4819 762
4942 4819 -1.31234e-08
4945 4819 -1.22034e-24
4947 4819 -5.72203e-17
4948 4819 -2.20253e-24
5751 4819 -1.28746e-16
5752 4819 -1.31234e-08
5859 4819 -2.09974e-09
4820 4820 422
4821 4820 -1.09005e-08
4948 4820 -9.47867e-09
5751 4820 -2.1327e-08
4820 4821 -4.6e-06
4821 4821 592
4824 4821 -1.63851e-08
4948 4821 -7.36518e-17
5751 4821 -1.65717e-16
5752 4821 -1.68919e-08
5859 4821 -2.7027e-09
4822 4822 422
4823 4822 -2.1327e-08
4824 4822 -1.09005e-08
4947 4822 -9.47867e-09
5751 4822 -2.1327e-08
4822 4823 -9e-06
4823 4823 422
4824 4823 -2.32475e-16
4941 4823 -1.09005e-08
4945 4823 -9.47867e-09
4947 4823 -2.02152e-16
5751 4823 -2.1327e-08
4821 4824 -9.7e-06
4822 4824 -4.6e-06
4823 4824 -9.81043e-14
4824 4824 762
4941 4824 -1.31234e-08
4945 4824 -1.22034e-24
4947 4824 -5.72203e-17
4948 4824 -9.37563e-25
5751 4824 -1.28746e-16
5752 4824 -1.31234e-08
5859 4824 -2.09974e-09
4825 4825 422
4826 4825 -2.1327e-08
4828 4825 -1.09005e-08
4946 4825 -9.47867e-09
5751 4825 -2.1327e-08
4825 4826 -9e-06
4826 4826 422
4827 4826 -1.09005e-08
4828 4826 -2.32475e-16
4946 4826 -9.47867e-09
5751 4826 -2.1327e-08
4826 4827 -4.6e-06
4827 4827 762
4828 4827 -1.31234e-08
4942 4827 -1.27297e-08
4946 4827 -5.72203e-17
5751 4827 -1.28746e-16
5752 4827 -1.31234e-08
5859 4827 -2.09974e-09
4825 4828 -4.6e-06
4826 4828 -9.81043e-14
4827 4828 -1e-05
4828 4828 762
4941 4828 -1.27297e-08
4942 4828 -1.67056e-16
4946 4828 -5.72203e-17
5751 4828 -1.28746e-16
5752 4828 -1.31234e-08
5859 4828 -2.09974e-09
4829 4829 252
4830 4829 -1.8254e-08
4948 4829 -1.5873e-08
5751 4829 -3.57143e-08
4829 4830 -4.6e-06
4830 4830 422
4833 4830 -2.29858e-08
4948 4830 -1.73023e-16
5751 4830 -3.89303e-16
5752 4830 -2.36967e-08
5859 4830 -3.79147e-09
4831 4831 422
4832 4831 -2.1327e-08
4833 4831 -1.09005e-08
4947 4831 -9.47867e-09
5751 4831 -2.1327e-08
4831 4832 -9e-06
4832 4832 422
4833 4832 -2.32475e-16
4940 4832 -1.09005e-08
4945 4832 -9.47867e-09
4947 4832 -2.02152e-16
5751 4832 -2.1327e-08
4830 4833 -9.7e-06
4831 4833 -4.6e-06
4832 4833 -9.81043e-14
4833 4833 762
4940 4833 -1.31234e-08
4945 4833 -1.22034e-24
4947 4833 -5.72203e-17
4948 4833 -2.20253e-24
5751 4833 -1.28746e-16
5752 4833 -1.31234e-08
5859 4833 -2.09974e-09
4834 4834 422
4835 4834 -1.09005e-08
4948 4834 -9.47867e-09
5751 4834 -2.1327e-08
4834 4835 -4.6e-06
4835 4835 592
4838 4835 -1.63851e-08
4948 4835 -7.36518e-17
5751 4835 -1.65717e-16
5752 4835 -1.68919e-08
5859 4835 -2.7027e-09
4836 4836 422
4837 4836 -2.1327e-08
4838 4836 -1.09005e-08
4947 4836 -9.47867e-09
5751 4836 -2.1327e-08
4836 4837 -9e-06
4837 4837 422
4838 4837 -2.32475e-16
4939 4837 -1.09005e-08
4945 4837 -9.47867e-09
4947 4837 -2.02152e-16
5751 4837 -2.1327e-08
4835 4838 -9.7e-06
4836 4838 -4.6e-06
4837 4838 -9.81043e-14
4838 4838 762
4939 4838 -1.31234e-08
4945 4838 -1.22034e-24
4947 4838 -5.72203e-17
4948 4838 -9.37563e-25
5751 4838 -1.28746e-16
5752 4838 -1.31234e-08
5859 4838 -2.09974e-09
4839 4839 422
4840 4839 -2.1327e-08
4842 4839 -1.09005e-08
4946 4839 -9.47867e-09
5751 4839 -2.1327e-08
4839 4840 -9e-06
4840 4840 422
4841 4840 -1.09005e-08
4842 4840 -2.32475e-16
4946 4840 -9.47867e-09
5751 4840 -2.1327e-08
4840 4841 -4.6e-06
4841 4841 762
4842 4841 -1.31234e-08
4940 4841 -1.27297e-08
4946 4841 -5.72203e-17
5751 4841 -1.28746e-16
5752 4841 -1.31234e-08
5859 4841 -2.09974e-09
4839 4842 -4.6e-06
4840 4842 -9.81043e-14
4841 4842 -1e-05
4842 4842 762
4939 4842 -1.27297e-08
4940 4842 -1.67056e-16
4946 4842 -5.72203e-17
5751 4842 -1.28746e-16
5752 4842 -1.31234e-08
5859 4842 -2.09974e-09
4843 4843 252
4844 4843 -1.8254e-08
4948 4843 -1.5873e-08
5751 4843 -3.57143e-08
4843 4844 -4.6e-06
4844 4844 422
4847 4844 -2.29858e-08
4948 4844 -1.73023e-16
5751 4844 -3.89303e-16
5752 4844 -2.36967e-08
5859 4844 -3.79147e-09
4845 4845 422
4846 4845 -2.1327e-08
4847 4845 -1.09005e-08
4947 4845 -9.47867e-09
5751 4845 -2.1327e-08
4845 4846 -9e-06
4846 4846 422
4847 4846 -2.32475e-16
4938 4846 -1.09005e-08
4945 4846 -9.47867e-09
4947 4846 -2.02152e-16
5751 4846 -2.1327e-08
4844 4847 -9.7e-06
4845 4847 -4.6e-06
4846 4847 -9.81043e-14
4847 4847 762
4938 4847 -1.31234e-08
4945 4847 -1.22034e-24
4947 4847 -5.72203e-17
4948 4847 -2.20253e-24
5751 4847 -1.28746e-16
5752 4847 -1.31234e-08
5859 4847 -2.09974e-09
4848 4848 422
4849 4848 -1.09005e-08
4948 4848 -9.47867e-09
5751 4848 -2.1327e-08
4848 4849 -4.6e-06
4849 4849 592
4852 4849 -1.63851e-08
4948 4849 -7.36518e-17
5751 4849 -1.65717e-16
5752 4849 -1.68919e-08
5859 4849 -2.7027e-09
4850 4850 422
4851 4850 -2.1327e-08
4852 4850 -1.09005e-08
4947 4850 -9.47867e-09
5751 4850 -2.1327e-08
4850 4851 -9e-06
4851 4851 422
4852 4851 -2.32475e-16
4937 4851 -1.09005e-08
4945 4851 -9.47867e-09
4947 4851 -2.02152e-16
5751 4851 -2.1327e-08
4849 4852 -9.7e-06
4850 4852 -4.6e-06
4851 4852 -9.81043e-14
4852 4852 762
4937 4852 -1.31234e-08
4945 4852 -1.22034e-24
4947 4852 -5.72203e-17
4948 4852 -9.37563e-25
5751 4852 -1.28746e-16
5752 4852 -1.31234e-08
5859 4852 -2.09974e-09
4853 4853 422
4854 4853 -2.1327e-08
4856 4853 -1.09005e-08
4946 4853 -9.47867e-09
5751 4853 -2.1327e-08
4853 4854 -9e-06
4854 4854 422
4855 4854 -1.09005e-08
4856 4854 -2.32475e-16
4946 4854 -9.47867e-09
5751 4854 -2.1327e-08
4854 4855 -4.6e-06
4855 4855 762
4856 4855 -1.31234e-08
4938 4855 -1.27297e-08
4946 4855 -5.72203e-17
5751 4855 -1.28746e-16
5752 4855 -1.31234e-08
5859 4855 -2.09974e-09
4853 4856 -4.6e-06
4854 4856 -9.81043e-14
4855 4856 -1e-05
4856 4856 762
4937 4856 -1.27297e-08
4938 4856 -1.67056e-16
4946 4856 -5.72203e-17
5751 4856 -1.28746e-16
5752 4856 -1.31234e-08
5859 4856 -2.09974e-09
4857 4857 252
4858 4857 -1.8254e-08
4948 4857 -1.5873e-08
5751 4857 -3.57143e-08
4857 4858 -4.6e-06
4858 4858 422
4861 4858 -2.29858e-08
4948 4858 -1.73023e-16
5751 4858 -3.89303e-16
5752 4858 -2.36967e-08
5859 4858 -3.79147e-09
4859 4859 422
4860 4859 -2.1327e-08
4936 4859 -1.09005e-08
4945 4859 -9.47867e-09
5751 4859 -2.1327e-08
4859 4860 -9e-06
4860 4860 422
4861 4860 -1.09005e-08
4936 4860 -2.32475e-16
4945 4860 -2.02152e-16
4947 4860 -9.47867e-09
5751 4860 -2.1327e-08
4858 4861 -9.7e-06
4860 4861 -4.6e-06
4861 4861 762
4936 4861 -1.31234e-08
4945 4861 -1.22034e-24
4947 4861 -5.72203e-17
4948 4861 -2.20253e-24
5751 4861 -1.28746e-16
5752 4861 -1.31234e-08
5859 4861 -2.09974e-09
4862 4862 422
4863 4862 -2.1327e-08
4865 4862 -1.09005e-08
4946 4862 -9.47867e-09
5751 4862 -2.1327e-08
4862 4863 -9e-06
4863 4863 422
4864 4863 -1.09005e-08
4865 4863 -2.32475e-16
4946 4863 -9.47867e-09
5751 4863 -2.1327e-08
4863 4864 -4.6e-06
4864 4864 762
4865 4864 -1.31234e-08
4936 4864 -1.27297e-08
4946 4864 -5.72203e-17
5751 4864 -1.28746e-16
5752 4864 -1.31234e-08
5859 4864 -2.09974e-09
4862 4865 -4.6e-06
4863 4865 -9.81043e-14
4864 4865 -1e-05
4865 4865 762
4935 4865 -1.27297e-08
4936 4865 -1.67056e-16
4946 4865 -5.72203e-17
5751 4865 -1.28746e-16
5752 4865 -1.31234e-08
5859 4865 -2.09974e-09
4866 4866 422
4867 4866 -1.09005e-08
4948 4866 -9.47867e-09
5751 4866 -2.1327e-08
4866 4867 -4.6e-06
4867 4867 592
4870 4867 -1.63851e-08
4948 4867 -7.36518e-17
5751 4867 -1.65717e-16
5752 4867 -1.68919e-08
5859 4867 -2.7027e-09
4868 4868 422
4869 4868 -2.1327e-08
4870 4868 -1.09005e-08
4947 4868 -9.47867e-09
5751 4868 -2.1327e-08
4868 4869 -9e-06
4869 4869 422
4870 4869 -2.32475e-16
4935 4869 -1.09005e-08
4945 4869 -9.47867e-09
4947 4869 -2.02152e-16
5751 4869 -2.1327e-08
4867 4870 -9.7e-06
4868 4870 -4.6e-06
4869 4870 -9.81043e-14
4870 4870 762
4935 4870 -1.31234e-08
4945 4870 -1.22034e-24
4947 4870 -5.72203e-17
4948 4870 -9.37563e-25
5751 4870 -1.28746e-16
5752 4870 -1.31234e-08
5859 4870 -2.09974e-09
4871 4871 252
4872 4871 -1.8254e-08
4948 4871 -1.5873e-08
5751 4871 -3.57143e-08
4871 4872 -4.6e-06
4872 4872 422
4875 4872 -2.29858e-08
4948 4872 -1.73023e-16
5751 4872 -3.89303e-16
5752 4872 -2.36967e-08
5859 4872 -3.79147e-09
4873 4873 422
4874 4873 -2.1327e-08
4934 4873 -1.09005e-08
4945 4873 -9.47867e-09
5751 4873 -2.1327e-08
4873 4874 -9e-06
4874 4874 422
4875 4874 -1.09005e-08
4934 4874 -2.32475e-16
4945 4874 -2.02152e-16
4947 4874 -9.47867e-09
5751 4874 -2.1327e-08
4872 4875 -9.7e-06
4874 4875 -4.6e-06
4875 4875 762
4934 4875 -1.31234e-08
4945 4875 -1.22034e-24
4947 4875 -5.72203e-17
4948 4875 -2.20253e-24
5751 4875 -1.28746e-16
5752 4875 -1.31234e-08
5859 4875 -2.09974e-09
4876 4876 422
4877 4876 -2.1327e-08
4879 4876 -1.09005e-08
4946 4876 -9.47867e-09
5751 4876 -2.1327e-08
4876 4877 -9e-06
4877 4877 422
4878 4877 -1.09005e-08
4879 4877 -2.32475e-16
4946 4877 -9.47867e-09
5751 4877 -2.1327e-08
4877 4878 -4.6e-06
4878 4878 762
4879 4878 -1.31234e-08
4934 4878 -1.27297e-08
4946 4878 -5.72203e-17
5751 4878 -1.28746e-16
5752 4878 -1.31234e-08
5859 4878 -2.09974e-09
4876 4879 -4.6e-06
4877 4879 -9.81043e-14
4878 4879 -1e-05
4879 4879 762
4933 4879 -1.27297e-08
4934 4879 -1.67056e-16
4946 4879 -5.72203e-17
5751 4879 -1.28746e-16
5752 4879 -1.31234e-08
5859 4879 -2.09974e-09
4880 4880 422
4881 4880 -1.09005e-08
4948 4880 -9.47867e-09
5751 4880 -2.1327e-08
4880 4881 -4.6e-06
4881 4881 592
4884 4881 -1.63851e-08
4948 4881 -7.36518e-17
5751 4881 -1.65717e-16
5752 4881 -1.68919e-08
5859 4881 -2.7027e-09
4882 4882 422
4883 4882 -2.1327e-08
4884 4882 -1.09005e-08
4947 4882 -9.47867e-09
5751 4882 -2.1327e-08
4882 4883 -9e-06
4883 4883 422
4884 4883 -2.32475e-16
4933 4883 -1.09005e-08
4945 4883 -9.47867e-09
4947 4883 -2.02152e-16
5751 4883 -2.1327e-08
4881 4884 -9.7e-06
4882 4884 -4.6e-06
4883 4884 -9.81043e-14
4884 4884 762
4933 4884 -1.31234e-08
4945 4884 -1.22034e-24
4947 4884 -5.72203e-17
4948 4884 -9.37563e-25
5751 4884 -1.28746e-16
5752 4884 -1.31234e-08
5859 4884 -2.09974e-09
4885 4885 252
4886 4885 -1.8254e-08
4948 4885 -1.5873e-08
5751 4885 -3.57143e-08
4885 4886 -4.6e-06
4886 4886 422
4889 4886 -2.29858e-08
4948 4886 -1.73023e-16
5751 4886 -3.89303e-16
5752 4886 -2.36967e-08
5859 4886 -3.79147e-09
4887 4887 422
4888 4887 -2.1327e-08
4932 4887 -1.09005e-08
4945 4887 -9.47867e-09
5751 4887 -2.1327e-08
4887 4888 -9e-06
4888 4888 422
4889 4888 -1.09005e-08
4932 4888 -2.32475e-16
4945 4888 -2.02152e-16
4947 4888 -9.47867e-09
5751 4888 -2.1327e-08
4886 4889 -9.7e-06
4888 4889 -4.6e-06
4889 4889 762
4932 4889 -1.31234e-08
4945 4889 -1.22034e-24
4947 4889 -5.72203e-17
4948 4889 -2.20253e-24
5751 4889 -1.28746e-16
5752 4889 -1.31234e-08
5859 4889 -2.09974e-09
4890 4890 422
4891 4890 -2.1327e-08
4893 4890 -1.09005e-08
4946 4890 -9.47867e-09
5751 4890 -2.1327e-08
4890 4891 -9e-06
4891 4891 422
4892 4891 -1.09005e-08
4893 4891 -2.32475e-16
4946 4891 -9.47867e-09
5751 4891 -2.1327e-08
4891 4892 -4.6e-06
4892 4892 762
4893 4892 -1.31234e-08
4932 4892 -1.27297e-08
4946 4892 -5.72203e-17
5751 4892 -1.28746e-16
5752 4892 -1.31234e-08
5859 4892 -2.09974e-09
4890 4893 -4.6e-06
4891 4893 -9.81043e-14
4892 4893 -1e-05
4893 4893 762
4931 4893 -1.27297e-08
4932 4893 -1.67056e-16
4946 4893 -5.72203e-17
5751 4893 -1.28746e-16
5752 4893 -1.31234e-08
5859 4893 -2.09974e-09
4894 4894 422
4895 4894 -1.09005e-08
4948 4894 -9.47867e-09
5751 4894 -2.1327e-08
4894 4895 -4.6e-06
4895 4895 592
4898 4895 -1.63851e-08
4948 4895 -7.36518e-17
5751 4895 -1.65717e-16
5752 4895 -1.68919e-08
5859 4895 -2.7027e-09
4896 4896 422
4897 4896 -2.1327e-08
4898 4896 -1.09005e-08
4947 4896 -9.47867e-09
5751 4896 -2.1327e-08
4896 4897 -9e-06
4897 4897 422
4898 4897 -2.32475e-16
4931 4897 -1.09005e-08
4945 4897 -9.47867e-09
4947 4897 -2.02152e-16
5751 4897 -2.1327e-08
4895 4898 -9.7e-06
4896 4898 -4.6e-06
4897 4898 -9.81043e-14
4898 4898 762
4931 4898 -1.31234e-08
4945 4898 -1.22034e-24
4947 4898 -5.72203e-17
4948 4898 -9.37563e-25
5751 4898 -1.28746e-16
5752 4898 -1.31234e-08
5859 4898 -2.09974e-09
4899 4899 252
4900 4899 -1.8254e-08
4948 4899 -1.5873e-08
5751 4899 -3.57143e-08
4899 4900 -4.6e-06
4900 4900 422
4903 4900 -2.29858e-08
4948 4900 -1.73023e-16
5751 4900 -3.89303e-16
5752 4900 -2.36967e-08
5859 4900 -3.79147e-09
4901 4901 422
4902 4901 -2.1327e-08
4930 4901 -1.09005e-08
4945 4901 -9.47867e-09
5751 4901 -2.1327e-08
4901 4902 -9e-06
4902 4902 422
4903 4902 -1.09005e-08
4930 4902 -2.32475e-16
4945 4902 -2.02152e-16
4947 4902 -9.47867e-09
5751 4902 -2.1327e-08
4900 4903 -9.7e-06
4902 4903 -4.6e-06
4903 4903 762
4930 4903 -1.31234e-08
4945 4903 -1.22034e-24
4947 4903 -5.72203e-17
4948 4903 -2.20253e-24
5751 4903 -1.28746e-16
5752 4903 -1.31234e-08
5859 4903 -2.09974e-09
4904 4904 422
4905 4904 -2.1327e-08
4907 4904 -1.09005e-08
4946 4904 -9.47867e-09
5751 4904 -2.1327e-08
4904 4905 -9e-06
4905 4905 422
4906 4905 -1.09005e-08
4907 4905 -2.32475e-16
4946 4905 -9.47867e-09
5751 4905 -2.1327e-08
4905 4906 -4.6e-06
4906 4906 762
4907 4906 -1.31234e-08
4930 4906 -1.27297e-08
4946 4906 -5.72203e-17
5751 4906 -1.28746e-16
5752 4906 -1.31234e-08
5859 4906 -2.09974e-09
4904 4907 -4.6e-06
4905 4907 -9.81043e-14
4906 4907 -1e-05
4907 4907 762
4929 4907 -1.27297e-08
4930 4907 -1.67056e-16
4946 4907 -5.72203e-17
5751 4907 -1.28746e-16
5752 4907 -1.31234e-08
5859 4907 -2.09974e-09
4908 4908 422
4909 4908 -1.09005e-08
4948 4908 -9.47867e-09
5751 4908 -2.1327e-08
4908 4909 -4.6e-06
4909 4909 592
4912 4909 -1.63851e-08
4948 4909 -7.36518e-17
5751 4909 -1.65717e-16
5752 4909 -1.68919e-08
5859 4909 -2.7027e-09
4910 4910 422
4911 4910 -2.1327e-08
4912 4910 -1.09005e-08
4947 4910 -9.47867e-09
5751 4910 -2.1327e-08
4910 4911 -9e-06
4911 4911 422
4912 4911 -2.32475e-16
4929 4911 -1.09005e-08
4945 4911 -9.47867e-09
4947 4911 -2.02152e-16
5751 4911 -2.1327e-08
4909 4912 -9.7e-06
4910 4912 -4.6e-06
4911 4912 -9.81043e-14
4912 4912 762
4929 4912 -1.31234e-08
4945 4912 -1.22034e-24
4947 4912 -5.72203e-17
4948 4912 -9.37563e-25
5751 4912 -1.28746e-16
5752 4912 -1.31234e-08
5859 4912 -2.09974e-09
4913 4913 252
4914 4913 -1.8254e-08
4948 4913 -1.5873e-08
5751 4913 -3.57143e-08
4913 4914 -4.6e-06
4914 4914 422
4917 4914 -2.29858e-08
4948 4914 -1.73023e-16
5751 4914 -3.89303e-16
5752 4914 -2.36967e-08
5859 4914 -3.79147e-09
4915 4915 422
4916 4915 -2.1327e-08
4917 4915 -1.09005e-08
4947 4915 -9.47867e-09
5751 4915 -2.1327e-08
4915 4916 -9e-06
4916 4916 422
4917 4916 -2.32475e-16
4928 4916 -1.09005e-08
4945 4916 -9.47867e-09
4947 4916 -2.02152e-16
5751 4916 -2.1327e-08
4914 4917 -9.7e-06
4915 4917 -4.6e-06
4916 4917 -9.81043e-14
4917 4917 762
4928 4917 -1.31234e-08
4945 4917 -1.22034e-24
4947 4917 -5.72203e-17
4948 4917 -2.20253e-24
5751 4917 -1.28746e-16
5752 4917 -1.31234e-08
5859 4917 -2.09974e-09
4918 4918 422
4919 4918 -2.1327e-08
4921 4918 -1.09005e-08
4946 4918 -9.47867e-09
5751 4918 -2.1327e-08
4918 4919 -9e-06
4919 4919 422
4920 4919 -1.09005e-08
4921 4919 -2.32475e-16
4946 4919 -9.47867e-09
5751 4919 -2.1327e-08
4919 4920 -4.6e-06
4920 4920 762
4921 4920 -1.31234e-08
4928 4920 -1.27297e-08
4946 4920 -5.72203e-17
5751 4920 -1.28746e-16
5752 4920 -1.31234e-08
5859 4920 -2.09974e-09
4918 4921 -4.6e-06
4919 4921 -9.81043e-14
4920 4921 -1e-05
4921 4921 762
4927 4921 -1.27297e-08
4928 4921 -1.67056e-16
4946 4921 -5.72203e-17
5751 4921 -1.28746e-16
5752 4921 -1.31234e-08
5859 4921 -2.09974e-09
4922 4922 422
4923 4922 -1.09005e-08
4948 4922 -9.47867e-09
5751 4922 -2.1327e-08
4922 4923 -4.6e-06
4923 4923 592
4926 4923 -1.63851e-08
4948 4923 -7.36518e-17
5751 4923 -1.65717e-16
5752 4923 -1.68919e-08
5859 4923 -2.7027e-09
4924 4924 422
4925 4924 -2.1327e-08
4926 4924 -1.09005e-08
4947 4924 -9.47867e-09
5751 4924 -2.1327e-08
4924 4925 -9e-06
4925 4925 422
4926 4925 -2.32475e-16
4927 4925 -1.09005e-08
4945 4925 -9.47867e-09
4947 4925 -2.02152e-16
5751 4925 -2.1327e-08
4923 4926 -9.7e-06
4924 4926 -4.6e-06
4925 4926 -9.81043e-14
4926 4926 762
4927 4926 -1.31234e-08
4945 4926 -1.22034e-24
4947 4926 -5.72203e-17
4948 4926 -9.37563e-25
5751 4926 -1.28746e-16
5752 4926 -1.31234e-08
5859 4926 -2.09974e-09
4921 4927 -9.7e-06
4925 4927 -4.6e-06
4926 4927 -1e-05
4927 4927 592
4928 4927 -2.73723e-24
4945 4927 -7.36518e-17
4946 4927 -9.37563e-25
4947 4927 -2.53733e-24
4948 4927 -1.58372e-32
5751 4927 -1.65717e-16
5752 4927 -1.68919e-08
5859 4927 -2.7027e-09
4916 4928 -4.6e-06
4917 4928 -1e-05
4920 4928 -9.7e-06
4921 4928 -1.27297e-13
4927 4928 -1.62044e-21
4928 4928 592
4945 4928 -7.36518e-17
4946 4928 -9.37563e-25
4947 4928 -2.53733e-24
4948 4928 -3.72049e-32
5751 4928 -1.65717e-16
5752 4928 -1.68919e-08
5859 4928 -2.7027e-09
4907 4929 -9.7e-06
4911 4929 -4.6e-06
4912 4929 -1e-05
4929 4929 592
4930 4929 -2.73723e-24
4945 4929 -7.36518e-17
4946 4929 -9.37563e-25
4947 4929 -2.53733e-24
4948 4929 -1.58372e-32
5751 4929 -1.65717e-16
5752 4929 -1.68919e-08
5859 4929 -2.7027e-09
4901 4930 -4.6e-06
4902 4930 -9.81043e-14
4903 4930 -1e-05
4906 4930 -9.7e-06
4907 4930 -1.27297e-13
4929 4930 -1.62044e-21
4930 4930 592
4945 4930 -7.36518e-17
4946 4930 -9.37563e-25
4947 4930 -2.53733e-24
4948 4930 -3.72049e-32
5751 4930 -1.65717e-16
5752 4930 -1.68919e-08
5859 4930 -2.7027e-09
4893 4931 -9.7e-06
4897 4931 -4.6e-06
4898 4931 -1e-05
4931 4931 592
4932 4931 -2.73723e-24
4945 4931 -7.36518e-17
4946 4931 -9.37563e-25
4947 4931 -2.53733e-24
4948 4931 -1.58372e-32
5751 4931 -1.65717e-16
5752 4931 -1.68919e-08
5859 4931 -2.7027e-09
4887 4932 -4.6e-06
4888 4932 -9.81043e-14
4889 4932 -1e-05
4892 4932 -9.7e-06
4893 4932 -1.27297e-13
4931 4932 -1.62044e-21
4932 4932 592
4945 4932 -7.36518e-17
4946 4932 -9.37563e-25
4947 4932 -2.53733e-24
4948 4932 -3.72049e-32
5751 4932 -1.65717e-16
5752 4932 -1.68919e-08
5859 4932 -2.7027e-09
4879 4933 -9.7e-06
4883 4933 -4.6e-06
4884 4933 -1e-05
4933 4933 592
4934 4933 -2.73723e-24
4945 4933 -7.36518e-17
4946 4933 -9.37563e-25
4947 4933 -2.53733e-24
4948 4933 -1.58372e-32
5751 4933 -1.65717e-16
5752 4933 -1.68919e-08
5859 4933 -2.7027e-09
4873 4934 -4.6e-06
4874 4934 -9.81043e-14
4875 4934 -1e-05
4878 4934 -9.7e-06
4879 4934 -1.27297e-13
4933 4934 -1.62044e-21
4934 4934 592
4945 4934 -7.36518e-17
4946 4934 -9.37563e-25
4947 4934 -2.53733e-24
4948 4934 -3.72049e-32
5751 4934 -1.65717e-16
5752 4934 -1.68919e-08
5859 4934 -2.7027e-09
4865 4935 -9.7e-06
4869 4935 -4.6e-06
4870 4935 -1e-05
4935 4935 592
4936 4935 -2.73723e-24
4945 4935 -7.36518e-17
4946 4935 -9.37563e-25
4947 4935 -2.53733e-24
4948 4935 -1.58372e-32
5751 4935 -1.65717e-16
5752 4935 -1.68919e-08
5859 4935 -2.7027e-09
4859 4936 -4.6e-06
4860 4936 -9.81043e-14
4861 4936 -1e-05
4864 4936 -9.7e-06
4865 4936 -1.27297e-13
4935 4936 -1.62044e-21
4936 4936 592
4945 4936 -7.36518e-17
4946 4936 -9.37563e-25
4947 4936 -2.53733e-24
4948 4936 -3.72049e-32
5751 4936 -1.65717e-16
5752 4936 -1.68919e-08
5859 4936 -2.7027e-09
4851 4937 -4.6e-06
4852 4937 -1e-05
4856 4937 -9.7e-06
4937 4937 592
4938 4937 -2.73723e-24
4945 4937 -7.36518e-17
4946 4937 -9.37563e-25
4947 4937 -2.53733e-24
4948 4937 -1.58372e-32
5751 4937 -1.65717e-16
5752 4937 -1.68919e-08
5859 4937 -2.7027e-09
4846 4938 -4.6e-06
4847 4938 -1e-05
4855 4938 -9.7e-06
4856 4938 -1.27297e-13
4937 4938 -1.62044e-21
4938 4938 592
4945 4938 -7.36518e-17
4946 4938 -9.37563e-25
4947 4938 -2.53733e-24
4948 4938 -3.72049e-32
5751 4938 -1.65717e-16
5752 4938 -1.68919e-08
5859 4938 -2.7027e-09
4837 4939 -4.6e-06
4838 4939 -1e-05
4842 4939 -9.7e-06
4939 4939 592
4940 4939 -2.73723e-24
4945 4939 -7.36518e-17
4946 4939 -9.37563e-25
4947 4939 -2.53733e-24
4948 4939 -1.58372e-32
5751 4939 -1.65717e-16
5752 4939 -1.68919e-08
5859 4939 -2.7027e-09
4832 4940 -4.6e-06
4833 4940 -1e-05
4841 4940 -9.7e-06
4842 4940 -1.27297e-13
4939 4940 -1.62044e-21
4940 4940 592
4945 4940 -7.36518e-17
4946 4940 -9.37563e-25
4947 4940 -2.53733e-24
4948 4940 -3.72049e-32
5751 4940 -1.65717e-16
5752 4940 -1.68919e-08
5859 4940 -2.7027e-09
4823 4941 -4.6e-06
4824 4941 -1e-05
4828 4941 -9.7e-06
4941 4941 592
4942 4941 -2.73723e-24
4945 4941 -7.36518e-17
4946 4941 -9.37563e-25
4947 4941 -2.53733e-24
4948 4941 -1.58372e-32
5751 4941 -1.65717e-16
5752 4941 -1.68919e-08
5859 4941 -2.7027e-09
4818 4942 -4.6e-06
4819 4942 -1e-05
4827 4942 -9.7e-06
4828 4942 -1.27297e-13
4941 4942 -1.62044e-21
4942 4942 592
4945 4942 -7.36518e-17
4946 4942 -9.37563e-25
4947 4942 -2.53733e-24
4948 4942 -3.72049e-32
5751 4942 -1.65717e-16
5752 4942 -1.68919e-08
5859 4942 -2.7027e-09
4809 4943 -4.6e-06
4810 4943 -1e-05
4814 4943 -9.7e-06
4943 4943 592
4944 4943 -2.73723e-24
4945 4943 -7.36518e-17
4946 4943 -9.37563e-25
4947 4943 -2.53733e-24
4948 4943 -1.58372e-32
5751 4943 -1.65717e-16
5752 4943 -1.68919e-08
5859 4943 -2.7027e-09
4804 4944 -4.6e-06
4805 4944 -1e-05
4813 4944 -9.7e-06
4814 4944 -1.27297e-13
4943 4944 -1.62044e-21
4944 4944 592
4945 4944 -7.36518e-17
4946 4944 -9.37563e-25
4947 4944 -2.53733e-24
4948 4944 -3.72049e-32
5751 4944 -1.65717e-16
5752 4944 -1.68919e-08
5859 4944 -2.7027e-09
4796 4945 -2.1e-05
4797 4945 -3.4585e-14
4800 4945 -2.42095e-13
4804 4945 -4e-06
4805 4945 -9.29898e-22
4809 4945 -4e-06
4810 4945 -9.29898e-22
4818 4945 -4e-06
4819 4945 -9.29898e-22
4823 4945 -4e-06
4824 4945 -9.29898e-22
4832 4945 -4e-06
4833 4945 -9.29898e-22
4837 4945 -4e-06
4838 4945 -9.29898e-22
4846 4945 -4e-06
4847 4945 -9.29898e-22
4851 4945 -4e-06
4852 4945 -9.29898e-22
4859 4945 -4e-06
4860 4945 -8.5308e-14
4861 4945 -9.29898e-22
4869 4945 -4e-06
4870 4945 -9.29898e-22
4873 4945 -4e-06
4874 4945 -8.5308e-14
4875 4945 -9.29898e-22
4883 4945 -4e-06
4884 4945 -9.29898e-22
4887 4945 -4e-06
4888 4945 -8.5308e-14
4889 4945 -9.29898e-22
4897 4945 -4e-06
4898 4945 -9.29898e-22
4901 4945 -4e-06
4902 4945 -8.5308e-14
4903 4945 -9.29898e-22
4911 4945 -4e-06
4912 4945 -9.29898e-22
4916 4945 -4e-06
4917 4945 -9.29898e-22
4925 4945 -4e-06
4926 4945 -9.29898e-22
4927 4945 -4.36019e-14
4928 4945 -4.36019e-14
4929 4945 -4.36019e-14
4930 4945 -4.36019e-14
4931 4945 -4.36019e-14
4932 4945 -4.36019e-14
4933 4945 -4.36019e-14
4934 4945 -4.36019e-14
4935 4945 -4.36019e-14
4936 4945 -4.36019e-14
4937 4945 -4.36019e-14
4938 4945 -4.36019e-14
4939 4945 -4.36019e-14
4940 4945 -4.36019e-14
4941 4945 -4.36019e-14
4942 4945 -4.36019e-14
4943 4945 -4.36019e-14
4944 4945 -4.36019e-14
4945 4945 28401
4946 4945 -1.58445e-09
4947 4945 -5.12479e-25
4948 4945 -0
5739 4945 -6.35827e-31
5740 4945 -6.35827e-31
5751 4945 -5.40666e-17
5752 4945 -4.66791e-25
5859 4945 -7.46866e-26
4797 4946 -2.1e-05
4800 4946 -2.42095e-13
4811 4946 -4e-06
4812 4946 -4e-06
4813 4946 -4.36019e-14
4814 4946 -4.36019e-14
4825 4946 -4e-06
4826 4946 -4e-06
4827 4946 -4.36019e-14
4828 4946 -4.36019e-14
4839 4946 -4e-06
4840 4946 -4e-06
4841 4946 -4.36019e-14
4842 4946 -4.36019e-14
4853 4946 -4e-06
4854 4946 -4e-06
4855 4946 -4.36019e-14
4856 4946 -4.36019e-14
4862 4946 -4e-06
4863 4946 -4e-06
4864 4946 -4.36019e-14
4865 4946 -4.36019e-14
4876 4946 -4e-06
4877 4946 -4e-06
4878 4946 -4.36019e-14
4879 4946 -4.36019e-14
4890 4946 -4e-06
4891 4946 -4e-06
4892 4946 -4.36019e-14
4893 4946 -4.36019e-14
4904 4946 -4e-06
4905 4946 -4e-06
4906 4946 -4.36019e-14
4907 4946 -4.36019e-14
4918 4946 -4e-06
4919 4946 -4e-06
4920 4946 -4.36019e-14
4921 4946 -4.36019e-14
4927 4946 -5.55037e-22
4928 4946 -5.55037e-22
4929 4946 -5.55037e-22
4930 4946 -5.55037e-22
4931 4946 -5.55037e-22
4932 4946 -5.55037e-22
4933 4946 -5.55037e-22
4934 4946 -5.55037e-22
4935 4946 -5.55037e-22
4936 4946 -5.55037e-22
4937 4946 -5.55037e-22
4938 4946 -5.55037e-22
4939 4946 -5.55037e-22
4940 4946 -5.55037e-22
4941 4946 -5.55037e-22
4942 4946 -5.55037e-22
4943 4946 -5.55037e-22
4944 4946 -5.55037e-22
4945 4946 -4.5e-05
4946 4946 28571
4947 4946 -8.07167e-34
4948 4946 0
5739 4946 -6.32044e-31
5740 4946 -6.32044e-31
5751 4946 -5.37449e-17
5752 4946 -3.60493e-25
5859 4946 -5.7679e-26
4792 4947 -2.1e-05
4795 4947 -2.42095e-13
4803 4947 -4e-06
4804 4947 -8.5308e-14
4805 4947 -4.36019e-14
4808 4947 -4e-06
4809 4947 -8.5308e-14
4810 4947 -4.36019e-14
4817 4947 -4e-06
4818 4947 -8.5308e-14
4819 4947 -4.36019e-14
4822 4947 -4e-06
4823 4947 -8.5308e-14
4824 4947 -4.36019e-14
4831 4947 -4e-06
4832 4947 -8.5308e-14
4833 4947 -4.36019e-14
4836 4947 -4e-06
4837 4947 -8.5308e-14
4838 4947 -4.36019e-14
4845 4947 -4e-06
4846 4947 -8.5308e-14
4847 4947 -4.36019e-14
4850 4947 -4e-06
4851 4947 -8.5308e-14
4852 4947 -4.36019e-14
4860 4947 -4e-06
4861 4947 -4.36019e-14
4868 4947 -4e-06
4869 4947 -8.5308e-14
4870 4947 -4.36019e-14
4874 4947 -4e-06
4875 4947 -4.36019e-14
4882 4947 -4e-06
4883 4947 -8.5308e-14
4884 4947 -4.36019e-14
4888 4947 -4e-06
4889 4947 -4.36019e-14
4896 4947 -4e-06
4897 4947 -8.5308e-14
4898 4947 -4.36019e-14
4902 4947 -4e-06
4903 4947 -4.36019e-14
4910 4947 -4e-06
4911 4947 -8.5308e-14
4912 4947 -4.36019e-14
4915 4947 -4e-06
4916 4947 -8.5308e-14
4917 4947 -4.36019e-14
4924 4947 -4e-06
4925 4947 -8.5308e-14
4926 4947 -4.36019e-14
4927 4947 -1.5021e-21
4928 4947 -1.5021e-21
4929 4947 -1.5021e-21
4930 4947 -1.5021e-21
4931 4947 -1.5021e-21
4932 4947 -1.5021e-21
4933 4947 -1.5021e-21
4934 4947 -1.5021e-21
4935 4947 -1.5021e-21
4936 4947 -1.5021e-21
4937 4947 -1.5021e-21
4938 4947 -1.5021e-21
4939 4947 -1.5021e-21
4940 4947 -1.5021e-21
4941 4947 -1.5021e-21
4942 4947 -1.5021e-21
4943 4947 -1.5021e-21
4944 4947 -1.5021e-21
4945 4947 -1.45549e-20
4946 4947 -2.30616e-29
4947 4947 28571
4948 4947 -1.57502e-09
5739 4947 0
5740 4947 0
5741 4947 -6.32044e-31
5746 4947 -6.32044e-31
5751 4947 -5.37449e-17
5752 4947 -3.60493e-25
5859 4947 -5.7679e-26
4791 4948 -2.1e-05
4792 4948 -3.4585e-14
4795 4948 -2.42095e-13
4801 4948 -4e-06
4802 4948 -7.30159e-14
4805 4948 -1.67833e-21
4806 4948 -4e-06
4807 4948 -4.36019e-14
4810 4948 -7.14423e-22
4815 4948 -4e-06
4816 4948 -7.30159e-14
4819 4948 -1.67833e-21
4820 4948 -4e-06
4821 4948 -4.36019e-14
4824 4948 -7.14423e-22
4829 4948 -4e-06
4830 4948 -7.30159e-14
4833 4948 -1.67833e-21
4834 4948 -4e-06
4835 4948 -4.36019e-14
4838 4948 -7.14423e-22
4843 4948 -4e-06
4844 4948 -7.30159e-14
4847 4948 -1.67833e-21
4848 4948 -4e-06
4849 4948 -4.36019e-14
4852 4948 -7.14423e-22
4857 4948 -4e-06
4858 4948 -7.30159e-14
4861 4948 -1.67833e-21
4866 4948 -4e-06
4867 4948 -4.36019e-14
4870 4948 -7.14423e-22
4871 4948 -4e-06
4872 4948 -7.30159e-14
4875 4948 -1.67833e-21
4880 4948 -4e-06
4881 4948 -4.36019e-14
4884 4948 -7.14423e-22
4885 4948 -4e-06
4886 4948 -7.30159e-14
4889 4948 -1.67833e-21
4894 4948 -4e-06
4895 4948 -4.36019e-14
4898 4948 -7.14423e-22
4899 4948 -4e-06
4900 4948 -7.30159e-14
4903 4948 -1.67833e-21
4908 4948 -4e-06
4909 4948 -4.36019e-14
4912 4948 -7.14423e-22
4913 4948 -4e-06
4914 4948 -7.30159e-14
4917 4948 -1.67833e-21
4922 4948 -4e-06
4923 4948 -4.36019e-14
4926 4948 -7.14423e-22
4927 4948 -9.37563e-30
4928 4948 -2.20253e-29
4929 4948 -9.37563e-30
4930 4948 -2.20253e-29
4931 4948 -9.37563e-30
4932 4948 -2.20253e-29
4933 4948 -9.37563e-30
4934 4948 -2.20253e-29
4935 4948 -9.37563e-30
4936 4948 -2.20253e-29
4937 4948 -9.37563e-30
4938 4948 -2.20253e-29
4939 4948 -9.37563e-30
4940 4948 -2.20253e-29
4941 4948 -9.37563e-30
4942 4948 -2.20253e-29
4943 4948 -9.37563e-30
4944 4948 -2.20253e-29
4945 4948 -3.78351e-44
4946 4948 0
4947 4948 -4.5e-05
4948 4948 28401
5739 4948 0
5740 4948 0
5741 4948 -6.35827e-31
5746 4948 -6.35827e-31
5751 4948 -7.23033e-17
5752 4948 -7.8169e-25
5859 4948 -1.2507e-25
4949 4949 3643.2
4950 4949 -1.6469e-09
4953 4949 -1.15283e-08
5106 4949 -5.76416e-09
4949 4950 -6e-06
4950 4950 3643.2
4953 4950 -1.15283e-08
5105 4950 -5.76416e-09
5106 4950 -9.49302e-18
4951 4951 170
4953 4951 -7.05881e-07
5741 4951 -7.05881e-07
4952 4952 170
4953 4952 -7.05881e-07
5746 4952 -7.05881e-07
4949 4953 -4.2e-05
4950 4953 -4.2e-05
4951 4953 -0.00012
4952 4953 -0.00012
4953 4953 1135.6
5105 4953 -2.13187e-16
5106 4953 -2.13187e-16
5741 4953 -7.45912e-14
5746 4953 -7.45912e-14
4954 4954 3643.2
4955 4954 -1.6469e-09
4958 4954 -1.15283e-08
5103 4954 -5.76416e-09
4954 4955 -6e-06
4955 4955 3643.2
4958 4955 -1.15283e-08
5103 4955 -9.49302e-18
5104 4955 -5.76416e-09
4956 4956 170
4958 4956 -7.05881e-07
5740 4956 -7.05881e-07
4957 4957 170
4958 4957 -7.05881e-07
5739 4957 -7.05881e-07
4954 4958 -4.2e-05
4955 4958 -4.2e-05
4956 4958 -0.00012
4957 4958 -0.00012
4958 4958 1135.6
5103 4958 -2.13187e-16
5104 4958 -2.13187e-16
5739 4958 -7.45912e-14
5740 4958 -7.45912e-14
4959 4959 252
4960 4959 -1.8254e-08
5106 4959 -1.5873e-08
5753 4959 -3.57143e-08
4959 4960 -4.6e-06
4960 4960 422
4963 4960 -2.29858e-08
5106 4960 -1.73023e-16
5753 4960 -3.89303e-16
5754 4960 -2.36967e-08
5859 4960 -3.79147e-09
4961 4961 422
4962 4961 -2.1327e-08
4963 4961 -1.09005e-08
5105 4961 -9.47867e-09
5753 4961 -2.1327e-08
4961 4962 -9e-06
4962 4962 422
4963 4962 -2.32475e-16
5102 4962 -1.09005e-08
5103 4962 -9.47867e-09
5105 4962 -2.02152e-16
5753 4962 -2.1327e-08
4960 4963 -9.7e-06
4961 4963 -4.6e-06
4962 4963 -9.81043e-14
4963 4963 762
5102 4963 -1.31234e-08
5103 4963 -1.22034e-24
5105 4963 -5.72203e-17
5106 4963 -2.20253e-24
5753 4963 -1.28746e-16
5754 4963 -1.31234e-08
5859 4963 -2.09974e-09
4964 4964 422
4965 4964 -1.09005e-08
5106 4964 -9.47867e-09
5753 4964 -2.1327e-08
4964 4965 -4.6e-06
4965 4965 592
4968 4965 -1.63851e-08
5106 4965 -7.36518e-17
5753 4965 -1.65717e-16
5754 4965 -1.68919e-08
5859 4965 -2.7027e-09
4966 4966 422
4967 4966 -2.1327e-08
4968 4966 -1.09005e-08
5105 4966 -9.47867e-09
5753 4966 -2.1327e-08
4966 4967 -9e-06
4967 4967 422
4968 4967 -2.32475e-16
5101 4967 -1.09005e-08
5103 4967 -9.47867e-09
5105 4967 -2.02152e-16
5753 4967 -2.1327e-08
4965 4968 -9.7e-06
4966 4968 -4.6e-06
4967 4968 -9.81043e-14
4968 4968 762
5101 4968 -1.31234e-08
5103 4968 -1.22034e-24
5105 4968 -5.72203e-17
5106 4968 -9.37563e-25
5753 4968 -1.28746e-16
5754 4968 -1.31234e-08
5859 4968 -2.09974e-09
4969 4969 422
4970 4969 -2.1327e-08
4972 4969 -1.09005e-08
5104 4969 -9.47867e-09
5753 4969 -2.1327e-08
4969 4970 -9e-06
4970 4970 422
4971 4970 -1.09005e-08
4972 4970 -2.32475e-16
5104 4970 -9.47867e-09
5753 4970 -2.1327e-08
4970 4971 -4.6e-06
4971 4971 762
4972 4971 -1.31234e-08
5102 4971 -1.27297e-08
5104 4971 -5.72203e-17
5753 4971 -1.28746e-16
5754 4971 -1.31234e-08
5859 4971 -2.09974e-09
4969 4972 -4.6e-06
4970 4972 -9.81043e-14
4971 4972 -1e-05
4972 4972 762
5101 4972 -1.27297e-08
5102 4972 -1.67056e-16
5104 4972 -5.72203e-17
5753 4972 -1.28746e-16
5754 4972 -1.31234e-08
5859 4972 -2.09974e-09
4973 4973 252
4974 4973 -1.8254e-08
5106 4973 -1.5873e-08
5753 4973 -3.57143e-08
4973 4974 -4.6e-06
4974 4974 422
4977 4974 -2.29858e-08
5106 4974 -1.73023e-16
5753 4974 -3.89303e-16
5754 4974 -2.36967e-08
5859 4974 -3.79147e-09
4975 4975 422
4976 4975 -2.1327e-08
4977 4975 -1.09005e-08
5105 4975 -9.47867e-09
5753 4975 -2.1327e-08
4975 4976 -9e-06
4976 4976 422
4977 4976 -2.32475e-16
5100 4976 -1.09005e-08
5103 4976 -9.47867e-09
5105 4976 -2.02152e-16
5753 4976 -2.1327e-08
4974 4977 -9.7e-06
4975 4977 -4.6e-06
4976 4977 -9.81043e-14
4977 4977 762
5100 4977 -1.31234e-08
5103 4977 -1.22034e-24
5105 4977 -5.72203e-17
5106 4977 -2.20253e-24
5753 4977 -1.28746e-16
5754 4977 -1.31234e-08
5859 4977 -2.09974e-09
4978 4978 422
4979 4978 -1.09005e-08
5106 4978 -9.47867e-09
5753 4978 -2.1327e-08
4978 4979 -4.6e-06
4979 4979 592
4982 4979 -1.63851e-08
5106 4979 -7.36518e-17
5753 4979 -1.65717e-16
5754 4979 -1.68919e-08
5859 4979 -2.7027e-09
4980 4980 422
4981 4980 -2.1327e-08
4982 4980 -1.09005e-08
5105 4980 -9.47867e-09
5753 4980 -2.1327e-08
4980 4981 -9e-06
4981 4981 422
4982 4981 -2.32475e-16
5099 4981 -1.09005e-08
5103 4981 -9.47867e-09
5105 4981 -2.02152e-16
5753 4981 -2.1327e-08
4979 4982 -9.7e-06
4980 4982 -4.6e-06
4981 4982 -9.81043e-14
4982 4982 762
5099 4982 -1.31234e-08
5103 4982 -1.22034e-24
5105 4982 -5.72203e-17
5106 4982 -9.37563e-25
5753 4982 -1.28746e-16
5754 4982 -1.31234e-08
5859 4982 -2.09974e-09
4983 4983 422
4984 4983 -2.1327e-08
4986 4983 -1.09005e-08
5104 4983 -9.47867e-09
5753 4983 -2.1327e-08
4983 4984 -9e-06
4984 4984 422
4985 4984 -1.09005e-08
4986 4984 -2.32475e-16
5104 4984 -9.47867e-09
5753 4984 -2.1327e-08
4984 4985 -4.6e-06
4985 4985 762
4986 4985 -1.31234e-08
5100 4985 -1.27297e-08
5104 4985 -5.72203e-17
5753 4985 -1.28746e-16
5754 4985 -1.31234e-08
5859 4985 -2.09974e-09
4983 4986 -4.6e-06
4984 4986 -9.81043e-14
4985 4986 -1e-05
4986 4986 762
5099 4986 -1.27297e-08
5100 4986 -1.67056e-16
5104 4986 -5.72203e-17
5753 4986 -1.28746e-16
5754 4986 -1.31234e-08
5859 4986 -2.09974e-09
4987 4987 252
4988 4987 -1.8254e-08
5106 4987 -1.5873e-08
5753 4987 -3.57143e-08
4987 4988 -4.6e-06
4988 4988 422
4991 4988 -2.29858e-08
5106 4988 -1.73023e-16
5753 4988 -3.89303e-16
5754 4988 -2.36967e-08
5859 4988 -3.79147e-09
4989 4989 422
4990 4989 -2.1327e-08
4991 4989 -1.09005e-08
5105 4989 -9.47867e-09
5753 4989 -2.1327e-08
4989 4990 -9e-06
4990 4990 422
4991 4990 -2.32475e-16
5098 4990 -1.09005e-08
5103 4990 -9.47867e-09
5105 4990 -2.02152e-16
5753 4990 -2.1327e-08
4988 4991 -9.7e-06
4989 4991 -4.6e-06
4990 4991 -9.81043e-14
4991 4991 762
5098 4991 -1.31234e-08
5103 4991 -1.22034e-24
5105 4991 -5.72203e-17
5106 4991 -2.20253e-24
5753 4991 -1.28746e-16
5754 4991 -1.31234e-08
5859 4991 -2.09974e-09
4992 4992 422
4993 4992 -1.09005e-08
5106 4992 -9.47867e-09
5753 4992 -2.1327e-08
4992 4993 -4.6e-06
4993 4993 592
4996 4993 -1.63851e-08
5106 4993 -7.36518e-17
5753 4993 -1.65717e-16
5754 4993 -1.68919e-08
5859 4993 -2.7027e-09
4994 4994 422
4995 4994 -2.1327e-08
4996 4994 -1.09005e-08
5105 4994 -9.47867e-09
5753 4994 -2.1327e-08
4994 4995 -9e-06
4995 4995 422
4996 4995 -2.32475e-16
5097 4995 -1.09005e-08
5103 4995 -9.47867e-09
5105 4995 -2.02152e-16
5753 4995 -2.1327e-08
4993 4996 -9.7e-06
4994 4996 -4.6e-06
4995 4996 -9.81043e-14
4996 4996 762
5097 4996 -1.31234e-08
5103 4996 -1.22034e-24
5105 4996 -5.72203e-17
5106 4996 -9.37563e-25
5753 4996 -1.28746e-16
5754 4996 -1.31234e-08
5859 4996 -2.09974e-09
4997 4997 422
4998 4997 -2.1327e-08
5000 4997 -1.09005e-08
5104 4997 -9.47867e-09
5753 4997 -2.1327e-08
4997 4998 -9e-06
4998 4998 422
4999 4998 -1.09005e-08
5000 4998 -2.32475e-16
5104 4998 -9.47867e-09
5753 4998 -2.1327e-08
4998 4999 -4.6e-06
4999 4999 762
5000 4999 -1.31234e-08
5098 4999 -1.27297e-08
5104 4999 -5.72203e-17
5753 4999 -1.28746e-16
5754 4999 -1.31234e-08
5859 4999 -2.09974e-09
4997 5000 -4.6e-06
4998 5000 -9.81043e-14
4999 5000 -1e-05
5000 5000 762
5097 5000 -1.27297e-08
5098 5000 -1.67056e-16
5104 5000 -5.72203e-17
5753 5000 -1.28746e-16
5754 5000 -1.31234e-08
5859 5000 -2.09974e-09
5001 5001 252
5002 5001 -1.8254e-08
5106 5001 -1.5873e-08
5753 5001 -3.57143e-08
5001 5002 -4.6e-06
5002 5002 422
5005 5002 -2.29858e-08
5106 5002 -1.73023e-16
5753 5002 -3.89303e-16
5754 5002 -2.36967e-08
5859 5002 -3.79147e-09
5003 5003 422
5004 5003 -2.1327e-08
5005 5003 -1.09005e-08
5105 5003 -9.47867e-09
5753 5003 -2.1327e-08
5003 5004 -9e-06
5004 5004 422
5005 5004 -2.32475e-16
5096 5004 -1.09005e-08
5103 5004 -9.47867e-09
5105 5004 -2.02152e-16
5753 5004 -2.1327e-08
5002 5005 -9.7e-06
5003 5005 -4.6e-06
5004 5005 -9.81043e-14
5005 5005 762
5096 5005 -1.31234e-08
5103 5005 -1.22034e-24
5105 5005 -5.72203e-17
5106 5005 -2.20253e-24
5753 5005 -1.28746e-16
5754 5005 -1.31234e-08
5859 5005 -2.09974e-09
5006 5006 422
5007 5006 -1.09005e-08
5106 5006 -9.47867e-09
5753 5006 -2.1327e-08
5006 5007 -4.6e-06
5007 5007 592
5010 5007 -1.63851e-08
5106 5007 -7.36518e-17
5753 5007 -1.65717e-16
5754 5007 -1.68919e-08
5859 5007 -2.7027e-09
5008 5008 422
5009 5008 -2.1327e-08
5010 5008 -1.09005e-08
5105 5008 -9.47867e-09
5753 5008 -2.1327e-08
5008 5009 -9e-06
5009 5009 422
5010 5009 -2.32475e-16
5095 5009 -1.09005e-08
5103 5009 -9.47867e-09
5105 5009 -2.02152e-16
5753 5009 -2.1327e-08
5007 5010 -9.7e-06
5008 5010 -4.6e-06
5009 5010 -9.81043e-14
5010 5010 762
5095 5010 -1.31234e-08
5103 5010 -1.22034e-24
5105 5010 -5.72203e-17
5106 5010 -9.37563e-25
5753 5010 -1.28746e-16
5754 5010 -1.31234e-08
5859 5010 -2.09974e-09
5011 5011 422
5012 5011 -2.1327e-08
5014 5011 -1.09005e-08
5104 5011 -9.47867e-09
5753 5011 -2.1327e-08
5011 5012 -9e-06
5012 5012 422
5013 5012 -1.09005e-08
5014 5012 -2.32475e-16
5104 5012 -9.47867e-09
5753 5012 -2.1327e-08
5012 5013 -4.6e-06
5013 5013 762
5014 5013 -1.31234e-08
5096 5013 -1.27297e-08
5104 5013 -5.72203e-17
5753 5013 -1.28746e-16
5754 5013 -1.31234e-08
5859 5013 -2.09974e-09
5011 5014 -4.6e-06
5012 5014 -9.81043e-14
5013 5014 -1e-05
5014 5014 762
5095 5014 -1.27297e-08
5096 5014 -1.67056e-16
5104 5014 -5.72203e-17
5753 5014 -1.28746e-16
5754 5014 -1.31234e-08
5859 5014 -2.09974e-09
5015 5015 252
5016 5015 -1.8254e-08
5106 5015 -1.5873e-08
5753 5015 -3.57143e-08
5015 5016 -4.6e-06
5016 5016 422
5019 5016 -2.29858e-08
5106 5016 -1.73023e-16
5753 5016 -3.89303e-16
5754 5016 -2.36967e-08
5859 5016 -3.79147e-09
5017 5017 422
5018 5017 -2.1327e-08
5094 5017 -1.09005e-08
5103 5017 -9.47867e-09
5753 5017 -2.1327e-08
5017 5018 -9e-06
5018 5018 422
5019 5018 -1.09005e-08
5094 5018 -2.32475e-16
5103 5018 -2.02152e-16
5105 5018 -9.47867e-09
5753 5018 -2.1327e-08
5016 5019 -9.7e-06
5018 5019 -4.6e-06
5019 5019 762
5094 5019 -1.31234e-08
5103 5019 -1.22034e-24
5105 5019 -5.72203e-17
5106 5019 -2.20253e-24
5753 5019 -1.28746e-16
5754 5019 -1.31234e-08
5859 5019 -2.09974e-09
5020 5020 422
5021 5020 -2.1327e-08
5023 5020 -1.09005e-08
5104 5020 -9.47867e-09
5753 5020 -2.1327e-08
5020 5021 -9e-06
5021 5021 422
5022 5021 -1.09005e-08
5023 5021 -2.32475e-16
5104 5021 -9.47867e-09
5753 5021 -2.1327e-08
5021 5022 -4.6e-06
5022 5022 762
5023 5022 -1.31234e-08
5094 5022 -1.27297e-08
5104 5022 -5.72203e-17
5753 5022 -1.28746e-16
5754 5022 -1.31234e-08
5859 5022 -2.09974e-09
5020 5023 -4.6e-06
5021 5023 -9.81043e-14
5022 5023 -1e-05
5023 5023 762
5093 5023 -1.27297e-08
5094 5023 -1.67056e-16
5104 5023 -5.72203e-17
5753 5023 -1.28746e-16
5754 5023 -1.31234e-08
5859 5023 -2.09974e-09
5024 5024 422
5025 5024 -1.09005e-08
5106 5024 -9.47867e-09
5753 5024 -2.1327e-08
5024 5025 -4.6e-06
5025 5025 592
5028 5025 -1.63851e-08
5106 5025 -7.36518e-17
5753 5025 -1.65717e-16
5754 5025 -1.68919e-08
5859 5025 -2.7027e-09
5026 5026 422
5027 5026 -2.1327e-08
5028 5026 -1.09005e-08
5105 5026 -9.47867e-09
5753 5026 -2.1327e-08
5026 5027 -9e-06
5027 5027 422
5028 5027 -2.32475e-16
5093 5027 -1.09005e-08
5103 5027 -9.47867e-09
5105 5027 -2.02152e-16
5753 5027 -2.1327e-08
5025 5028 -9.7e-06
5026 5028 -4.6e-06
5027 5028 -9.81043e-14
5028 5028 762
5093 5028 -1.31234e-08
5103 5028 -1.22034e-24
5105 5028 -5.72203e-17
5106 5028 -9.37563e-25
5753 5028 -1.28746e-16
5754 5028 -1.31234e-08
5859 5028 -2.09974e-09
5029 5029 252
5030 5029 -1.8254e-08
5106 5029 -1.5873e-08
5753 5029 -3.57143e-08
5029 5030 -4.6e-06
5030 5030 422
5033 5030 -2.29858e-08
5106 5030 -1.73023e-16
5753 5030 -3.89303e-16
5754 5030 -2.36967e-08
5859 5030 -3.79147e-09
5031 5031 422
5032 5031 -2.1327e-08
5092 5031 -1.09005e-08
5103 5031 -9.47867e-09
5753 5031 -2.1327e-08
5031 5032 -9e-06
5032 5032 422
5033 5032 -1.09005e-08
5092 5032 -2.32475e-16
5103 5032 -2.02152e-16
5105 5032 -9.47867e-09
5753 5032 -2.1327e-08
5030 5033 -9.7e-06
5032 5033 -4.6e-06
5033 5033 762
5092 5033 -1.31234e-08
5103 5033 -1.22034e-24
5105 5033 -5.72203e-17
5106 5033 -2.20253e-24
5753 5033 -1.28746e-16
5754 5033 -1.31234e-08
5859 5033 -2.09974e-09
5034 5034 422
5035 5034 -2.1327e-08
5037 5034 -1.09005e-08
5104 5034 -9.47867e-09
5753 5034 -2.1327e-08
5034 5035 -9e-06
5035 5035 422
5036 5035 -1.09005e-08
5037 5035 -2.32475e-16
5104 5035 -9.47867e-09
5753 5035 -2.1327e-08
5035 5036 -4.6e-06
5036 5036 762
5037 5036 -1.31234e-08
5092 5036 -1.27297e-08
5104 5036 -5.72203e-17
5753 5036 -1.28746e-16
5754 5036 -1.31234e-08
5859 5036 -2.09974e-09
5034 5037 -4.6e-06
5035 5037 -9.81043e-14
5036 5037 -1e-05
5037 5037 762
5091 5037 -1.27297e-08
5092 5037 -1.67056e-16
5104 5037 -5.72203e-17
5753 5037 -1.28746e-16
5754 5037 -1.31234e-08
5859 5037 -2.09974e-09
5038 5038 422
5039 5038 -1.09005e-08
5106 5038 -9.47867e-09
5753 5038 -2.1327e-08
5038 5039 -4.6e-06
5039 5039 592
5042 5039 -1.63851e-08
5106 5039 -7.36518e-17
5753 5039 -1.65717e-16
5754 5039 -1.68919e-08
5859 5039 -2.7027e-09
5040 5040 422
5041 5040 -2.1327e-08
5042 5040 -1.09005e-08
5105 5040 -9.47867e-09
5753 5040 -2.1327e-08
5040 5041 -9e-06
5041 5041 422
5042 5041 -2.32475e-16
5091 5041 -1.09005e-08
5103 5041 -9.47867e-09
5105 5041 -2.02152e-16
5753 5041 -2.1327e-08
5039 5042 -9.7e-06
5040 5042 -4.6e-06
5041 5042 -9.81043e-14
5042 5042 762
5091 5042 -1.31234e-08
5103 5042 -1.22034e-24
5105 5042 -5.72203e-17
5106 5042 -9.37563e-25
5753 5042 -1.28746e-16
5754 5042 -1.31234e-08
5859 5042 -2.09974e-09
5043 5043 252
5044 5043 -1.8254e-08
5106 5043 -1.5873e-08
5753 5043 -3.57143e-08
5043 5044 -4.6e-06
5044 5044 422
5047 5044 -2.29858e-08
5106 5044 -1.73023e-16
5753 5044 -3.89303e-16
5754 5044 -2.36967e-08
5859 5044 -3.79147e-09
5045 5045 422
5046 5045 -2.1327e-08
5090 5045 -1.09005e-08
5103 5045 -9.47867e-09
5753 5045 -2.1327e-08
5045 5046 -9e-06
5046 5046 422
5047 5046 -1.09005e-08
5090 5046 -2.32475e-16
5103 5046 -2.02152e-16
5105 5046 -9.47867e-09
5753 5046 -2.1327e-08
5044 5047 -9.7e-06
5046 5047 -4.6e-06
5047 5047 762
5090 5047 -1.31234e-08
5103 5047 -1.22034e-24
5105 5047 -5.72203e-17
5106 5047 -2.20253e-24
5753 5047 -1.28746e-16
5754 5047 -1.31234e-08
5859 5047 -2.09974e-09
5048 5048 422
5049 5048 -2.1327e-08
5051 5048 -1.09005e-08
5104 5048 -9.47867e-09
5753 5048 -2.1327e-08
5048 5049 -9e-06
5049 5049 422
5050 5049 -1.09005e-08
5051 5049 -2.32475e-16
5104 5049 -9.47867e-09
5753 5049 -2.1327e-08
5049 5050 -4.6e-06
5050 5050 762
5051 5050 -1.31234e-08
5090 5050 -1.27297e-08
5104 5050 -5.72203e-17
5753 5050 -1.28746e-16
5754 5050 -1.31234e-08
5859 5050 -2.09974e-09
5048 5051 -4.6e-06
5049 5051 -9.81043e-14
5050 5051 -1e-05
5051 5051 762
5089 5051 -1.27297e-08
5090 5051 -1.67056e-16
5104 5051 -5.72203e-17
5753 5051 -1.28746e-16
5754 5051 -1.31234e-08
5859 5051 -2.09974e-09
5052 5052 422
5053 5052 -1.09005e-08
5106 5052 -9.47867e-09
5753 5052 -2.1327e-08
5052 5053 -4.6e-06
5053 5053 592
5056 5053 -1.63851e-08
5106 5053 -7.36518e-17
5753 5053 -1.65717e-16
5754 5053 -1.68919e-08
5859 5053 -2.7027e-09
5054 5054 422
5055 5054 -2.1327e-08
5056 5054 -1.09005e-08
5105 5054 -9.47867e-09
5753 5054 -2.1327e-08
5054 5055 -9e-06
5055 5055 422
5056 5055 -2.32475e-16
5089 5055 -1.09005e-08
5103 5055 -9.47867e-09
5105 5055 -2.02152e-16
5753 5055 -2.1327e-08
5053 5056 -9.7e-06
5054 5056 -4.6e-06
5055 5056 -9.81043e-14
5056 5056 762
5089 5056 -1.31234e-08
5103 5056 -1.22034e-24
5105 5056 -5.72203e-17
5106 5056 -9.37563e-25
5753 5056 -1.28746e-16
5754 5056 -1.31234e-08
5859 5056 -2.09974e-09
5057 5057 252
5058 5057 -1.8254e-08
5106 5057 -1.5873e-08
5753 5057 -3.57143e-08
5057 5058 -4.6e-06
5058 5058 422
5061 5058 -2.29858e-08
5106 5058 -1.73023e-16
5753 5058 -3.89303e-16
5754 5058 -2.36967e-08
5859 5058 -3.79147e-09
5059 5059 422
5060 5059 -2.1327e-08
5088 5059 -1.09005e-08
5103 5059 -9.47867e-09
5753 5059 -2.1327e-08
5059 5060 -9e-06
5060 5060 422
5061 5060 -1.09005e-08
5088 5060 -2.32475e-16
5103 5060 -2.02152e-16
5105 5060 -9.47867e-09
5753 5060 -2.1327e-08
5058 5061 -9.7e-06
5060 5061 -4.6e-06
5061 5061 762
5088 5061 -1.31234e-08
5103 5061 -1.22034e-24
5105 5061 -5.72203e-17
5106 5061 -2.20253e-24
5753 5061 -1.28746e-16
5754 5061 -1.31234e-08
5859 5061 -2.09974e-09
5062 5062 422
5063 5062 -2.1327e-08
5065 5062 -1.09005e-08
5104 5062 -9.47867e-09
5753 5062 -2.1327e-08
5062 5063 -9e-06
5063 5063 422
5064 5063 -1.09005e-08
5065 5063 -2.32475e-16
5104 5063 -9.47867e-09
5753 5063 -2.1327e-08
5063 5064 -4.6e-06
5064 5064 762
5065 5064 -1.31234e-08
5088 5064 -1.27297e-08
5104 5064 -5.72203e-17
5753 5064 -1.28746e-16
5754 5064 -1.31234e-08
5859 5064 -2.09974e-09
5062 5065 -4.6e-06
5063 5065 -9.81043e-14
5064 5065 -1e-05
5065 5065 762
5087 5065 -1.27297e-08
5088 5065 -1.67056e-16
5104 5065 -5.72203e-17
5753 5065 -1.28746e-16
5754 5065 -1.31234e-08
5859 5065 -2.09974e-09
5066 5066 422
5067 5066 -1.09005e-08
5106 5066 -9.47867e-09
5753 5066 -2.1327e-08
5066 5067 -4.6e-06
5067 5067 592
5070 5067 -1.63851e-08
5106 5067 -7.36518e-17
5753 5067 -1.65717e-16
5754 5067 -1.68919e-08
5859 5067 -2.7027e-09
5068 5068 422
5069 5068 -2.1327e-08
5070 5068 -1.09005e-08
5105 5068 -9.47867e-09
5753 5068 -2.1327e-08
5068 5069 -9e-06
5069 5069 422
5070 5069 -2.32475e-16
5087 5069 -1.09005e-08
5103 5069 -9.47867e-09
5105 5069 -2.02152e-16
5753 5069 -2.1327e-08
5067 5070 -9.7e-06
5068 5070 -4.6e-06
5069 5070 -9.81043e-14
5070 5070 762
5087 5070 -1.31234e-08
5103 5070 -1.22034e-24
5105 5070 -5.72203e-17
5106 5070 -9.37563e-25
5753 5070 -1.28746e-16
5754 5070 -1.31234e-08
5859 5070 -2.09974e-09
5071 5071 252
5072 5071 -1.8254e-08
5106 5071 -1.5873e-08
5753 5071 -3.57143e-08
5071 5072 -4.6e-06
5072 5072 422
5075 5072 -2.29858e-08
5106 5072 -1.73023e-16
5753 5072 -3.89303e-16
5754 5072 -2.36967e-08
5859 5072 -3.79147e-09
5073 5073 422
5074 5073 -2.1327e-08
5075 5073 -1.09005e-08
5105 5073 -9.47867e-09
5753 5073 -2.1327e-08
5073 5074 -9e-06
5074 5074 422
5075 5074 -2.32475e-16
5086 5074 -1.09005e-08
5103 5074 -9.47867e-09
5105 5074 -2.02152e-16
5753 5074 -2.1327e-08
5072 5075 -9.7e-06
5073 5075 -4.6e-06
5074 5075 -9.81043e-14
5075 5075 762
5086 5075 -1.31234e-08
5103 5075 -1.22034e-24
5105 5075 -5.72203e-17
5106 5075 -2.20253e-24
5753 5075 -1.28746e-16
5754 5075 -1.31234e-08
5859 5075 -2.09974e-09
5076 5076 422
5077 5076 -2.1327e-08
5079 5076 -1.09005e-08
5104 5076 -9.47867e-09
5753 5076 -2.1327e-08
5076 5077 -9e-06
5077 5077 422
5078 5077 -1.09005e-08
5079 5077 -2.32475e-16
5104 5077 -9.47867e-09
5753 5077 -2.1327e-08
5077 5078 -4.6e-06
5078 5078 762
5079 5078 -1.31234e-08
5086 5078 -1.27297e-08
5104 5078 -5.72203e-17
5753 5078 -1.28746e-16
5754 5078 -1.31234e-08
5859 5078 -2.09974e-09
5076 5079 -4.6e-06
5077 5079 -9.81043e-14
5078 5079 -1e-05
5079 5079 762
5085 5079 -1.27297e-08
5086 5079 -1.67056e-16
5104 5079 -5.72203e-17
5753 5079 -1.28746e-16
5754 5079 -1.31234e-08
5859 5079 -2.09974e-09
5080 5080 422
5081 5080 -1.09005e-08
5106 5080 -9.47867e-09
5753 5080 -2.1327e-08
5080 5081 -4.6e-06
5081 5081 592
5084 5081 -1.63851e-08
5106 5081 -7.36518e-17
5753 5081 -1.65717e-16
5754 5081 -1.68919e-08
5859 5081 -2.7027e-09
5082 5082 422
5083 5082 -2.1327e-08
5084 5082 -1.09005e-08
5105 5082 -9.47867e-09
5753 5082 -2.1327e-08
5082 5083 -9e-06
5083 5083 422
5084 5083 -2.32475e-16
5085 5083 -1.09005e-08
5103 5083 -9.47867e-09
5105 5083 -2.02152e-16
5753 5083 -2.1327e-08
5081 5084 -9.7e-06
5082 5084 -4.6e-06
5083 5084 -9.81043e-14
5084 5084 762
5085 5084 -1.31234e-08
5103 5084 -1.22034e-24
5105 5084 -5.72203e-17
5106 5084 -9.37563e-25
5753 5084 -1.28746e-16
5754 5084 -1.31234e-08
5859 5084 -2.09974e-09
5079 5085 -9.7e-06
5083 5085 -4.6e-06
5084 5085 -1e-05
5085 5085 592
5086 5085 -2.73723e-24
5103 5085 -7.36518e-17
5104 5085 -9.37563e-25
5105 5085 -2.53733e-24
5106 5085 -1.58372e-32
5753 5085 -1.65717e-16
5754 5085 -1.68919e-08
5859 5085 -2.7027e-09
5074 5086 -4.6e-06
5075 5086 -1e-05
5078 5086 -9.7e-06
5079 5086 -1.27297e-13
5085 5086 -1.62044e-21
5086 5086 592
5103 5086 -7.36518e-17
5104 5086 -9.37563e-25
5105 5086 -2.53733e-24
5106 5086 -3.72049e-32
5753 5086 -1.65717e-16
5754 5086 -1.68919e-08
5859 5086 -2.7027e-09
5065 5087 -9.7e-06
5069 5087 -4.6e-06
5070 5087 -1e-05
5087 5087 592
5088 5087 -2.73723e-24
5103 5087 -7.36518e-17
5104 5087 -9.37563e-25
5105 5087 -2.53733e-24
5106 5087 -1.58372e-32
5753 5087 -1.65717e-16
5754 5087 -1.68919e-08
5859 5087 -2.7027e-09
5059 5088 -4.6e-06
5060 5088 -9.81043e-14
5061 5088 -1e-05
5064 5088 -9.7e-06
5065 5088 -1.27297e-13
5087 5088 -1.62044e-21
5088 5088 592
5103 5088 -7.36518e-17
5104 5088 -9.37563e-25
5105 5088 -2.53733e-24
5106 5088 -3.72049e-32
5753 5088 -1.65717e-16
5754 5088 -1.68919e-08
5859 5088 -2.7027e-09
5051 5089 -9.7e-06
5055 5089 -4.6e-06
5056 5089 -1e-05
5089 5089 592
5090 5089 -2.73723e-24
5103 5089 -7.36518e-17
5104 5089 -9.37563e-25
5105 5089 -2.53733e-24
5106 5089 -1.58372e-32
5753 5089 -1.65717e-16
5754 5089 -1.68919e-08
5859 5089 -2.7027e-09
5045 5090 -4.6e-06
5046 5090 -9.81043e-14
5047 5090 -1e-05
5050 5090 -9.7e-06
5051 5090 -1.27297e-13
5089 5090 -1.62044e-21
5090 5090 592
5103 5090 -7.36518e-17
5104 5090 -9.37563e-25
5105 5090 -2.53733e-24
5106 5090 -3.72049e-32
5753 5090 -1.65717e-16
5754 5090 -1.68919e-08
5859 5090 -2.7027e-09
5037 5091 -9.7e-06
5041 5091 -4.6e-06
5042 5091 -1e-05
5091 5091 592
5092 5091 -2.73723e-24
5103 5091 -7.36518e-17
5104 5091 -9.37563e-25
5105 5091 -2.53733e-24
5106 5091 -1.58372e-32
5753 5091 -1.65717e-16
5754 5091 -1.68919e-08
5859 5091 -2.7027e-09
5031 5092 -4.6e-06
5032 5092 -9.81043e-14
5033 5092 -1e-05
5036 5092 -9.7e-06
5037 5092 -1.27297e-13
5091 5092 -1.62044e-21
5092 5092 592
5103 5092 -7.36518e-17
5104 5092 -9.37563e-25
5105 5092 -2.53733e-24
5106 5092 -3.72049e-32
5753 5092 -1.65717e-16
5754 5092 -1.68919e-08
5859 5092 -2.7027e-09
5023 5093 -9.7e-06
5027 5093 -4.6e-06
5028 5093 -1e-05
5093 5093 592
5094 5093 -2.73723e-24
5103 5093 -7.36518e-17
5104 5093 -9.37563e-25
5105 5093 -2.53733e-24
5106 5093 -1.58372e-32
5753 5093 -1.65717e-16
5754 5093 -1.68919e-08
5859 5093 -2.7027e-09
5017 5094 -4.6e-06
5018 5094 -9.81043e-14
5019 5094 -1e-05
5022 5094 -9.7e-06
5023 5094 -1.27297e-13
5093 5094 -1.62044e-21
5094 5094 592
5103 5094 -7.36518e-17
5104 5094 -9.37563e-25
5105 5094 -2.53733e-24
5106 5094 -3.72049e-32
5753 5094 -1.65717e-16
5754 5094 -1.68919e-08
5859 5094 -2.7027e-09
5009 5095 -4.6e-06
5010 5095 -1e-05
5014 5095 -9.7e-06
5095 5095 592
5096 5095 -2.73723e-24
5103 5095 -7.36518e-17
5104 5095 -9.37563e-25
5105 5095 -2.53733e-24
5106 5095 -1.58372e-32
5753 5095 -1.65717e-16
5754 5095 -1.68919e-08
5859 5095 -2.7027e-09
5004 5096 -4.6e-06
5005 5096 -1e-05
5013 5096 -9.7e-06
5014 5096 -1.27297e-13
5095 5096 -1.62044e-21
5096 5096 592
5103 5096 -7.36518e-17
5104 5096 -9.37563e-25
5105 5096 -2.53733e-24
5106 5096 -3.72049e-32
5753 5096 -1.65717e-16
5754 5096 -1.68919e-08
5859 5096 -2.7027e-09
4995 5097 -4.6e-06
4996 5097 -1e-05
5000 5097 -9.7e-06
5097 5097 592
5098 5097 -2.73723e-24
5103 5097 -7.36518e-17
5104 5097 -9.37563e-25
5105 5097 -2.53733e-24
5106 5097 -1.58372e-32
5753 5097 -1.65717e-16
5754 5097 -1.68919e-08
5859 5097 -2.7027e-09
4990 5098 -4.6e-06
4991 5098 -1e-05
4999 5098 -9.7e-06
5000 5098 -1.27297e-13
5097 5098 -1.62044e-21
5098 5098 592
5103 5098 -7.36518e-17
5104 5098 -9.37563e-25
5105 5098 -2.53733e-24
5106 5098 -3.72049e-32
5753 5098 -1.65717e-16
5754 5098 -1.68919e-08
5859 5098 -2.7027e-09
4981 5099 -4.6e-06
4982 5099 -1e-05
4986 5099 -9.7e-06
5099 5099 592
5100 5099 -2.73723e-24
5103 5099 -7.36518e-17
5104 5099 -9.37563e-25
5105 5099 -2.53733e-24
5106 5099 -1.58372e-32
5753 5099 -1.65717e-16
5754 5099 -1.68919e-08
5859 5099 -2.7027e-09
4976 5100 -4.6e-06
4977 5100 -1e-05
4985 5100 -9.7e-06
4986 5100 -1.27297e-13
5099 5100 -1.62044e-21
5100 5100 592
5103 5100 -7.36518e-17
5104 5100 -9.37563e-25
5105 5100 -2.53733e-24
5106 5100 -3.72049e-32
5753 5100 -1.65717e-16
5754 5100 -1.68919e-08
5859 5100 -2.7027e-09
4967 5101 -4.6e-06
4968 5101 -1e-05
4972 5101 -9.7e-06
5101 5101 592
5102 5101 -2.73723e-24
5103 5101 -7.36518e-17
5104 5101 -9.37563e-25
5105 5101 -2.53733e-24
5106 5101 -1.58372e-32
5753 5101 -1.65717e-16
5754 5101 -1.68919e-08
5859 5101 -2.7027e-09
4962 5102 -4.6e-06
4963 5102 -1e-05
4971 5102 -9.7e-06
4972 5102 -1.27297e-13
5101 5102 -1.62044e-21
5102 5102 592
5103 5102 -7.36518e-17
5104 5102 -9.37563e-25
5105 5102 -2.53733e-24
5106 5102 -3.72049e-32
5753 5102 -1.65717e-16
5754 5102 -1.68919e-08
5859 5102 -2.7027e-09
4954 5103 -2.1e-05
4955 5103 -3.4585e-14
4958 5103 -2.42095e-13
4962 5103 -4e-06
4963 5103 -9.29898e-22
4967 5103 -4e-06
4968 5103 -9.29898e-22
4976 5103 -4e-06
4977 5103 -9.29898e-22
4981 5103 -4e-06
4982 5103 -9.29898e-22
4990 5103 -4e-06
4991 5103 -9.29898e-22
4995 5103 -4e-06
4996 5103 -9.29898e-22
5004 5103 -4e-06
5005 5103 -9.29898e-22
5009 5103 -4e-06
5010 5103 -9.29898e-22
5017 5103 -4e-06
5018 5103 -8.5308e-14
5019 5103 -9.29898e-22
5027 5103 -4e-06
5028 5103 -9.29898e-22
5031 5103 -4e-06
5032 5103 -8.5308e-14
5033 5103 -9.29898e-22
5041 5103 -4e-06
5042 5103 -9.29898e-22
5045 5103 -4e-06
5046 5103 -8.5308e-14
5047 5103 -9.29898e-22
5055 5103 -4e-06
5056 5103 -9.29898e-22
5059 5103 -4e-06
5060 5103 -8.5308e-14
5061 5103 -9.29898e-22
5069 5103 -4e-06
5070 5103 -9.29898e-22
5074 5103 -4e-06
5075 5103 -9.29898e-22
5083 5103 -4e-06
5084 5103 -9.29898e-22
5085 5103 -4.36019e-14
5086 5103 -4.36019e-14
5087 5103 -4.36019e-14
5088 5103 -4.36019e-14
5089 5103 -4.36019e-14
5090 5103 -4.36019e-14
5091 5103 -4.36019e-14
5092 5103 -4.36019e-14
5093 5103 -4.36019e-14
5094 5103 -4.36019e-14
5095 5103 -4.36019e-14
5096 5103 -4.36019e-14
5097 5103 -4.36019e-14
5098 5103 -4.36019e-14
5099 5103 -4.36019e-14
5100 5103 -4.36019e-14
5101 5103 -4.36019e-14
5102 5103 -4.36019e-14
5103 5103 28401
5104 5103 -1.58445e-09
5105 5103 -5.12479e-25
5106 5103 -0
5739 5103 -6.35827e-31
5740 5103 -6.35827e-31
5753 5103 -5.40666e-17
5754 5103 -4.66791e-25
5859 5103 -7.46866e-26
4955 5104 -2.1e-05
4958 5104 -2.42095e-13
4969 5104 -4e-06
4970 5104 -4e-06
4971 5104 -4.36019e-14
4972 5104 -4.36019e-14
4983 5104 -4e-06
4984 5104 -4e-06
4985 5104 -4.36019e-14
4986 5104 -4.36019e-14
4997 5104 -4e-06
4998 5104 -4e-06
4999 5104 -4.36019e-14
5000 5104 -4.36019e-14
5011 5104 -4e-06
5012 5104 -4e-06
5013 5104 -4.36019e-14
5014 5104 -4.36019e-14
5020 5104 -4e-06
5021 5104 -4e-06
5022 5104 -4.36019e-14
5023 5104 -4.36019e-14
5034 5104 -4e-06
5035 5104 -4e-06
5036 5104 -4.36019e-14
5037 5104 -4.36019e-14
5048 5104 -4e-06
5049 5104 -4e-06
5050 5104 -4.36019e-14
5051 5104 -4.36019e-14
5062 5104 -4e-06
5063 5104 -4e-06
5064 5104 -4.36019e-14
5065 5104 -4.36019e-14
5076 5104 -4e-06
5077 5104 -4e-06
5078 5104 -4.36019e-14
5079 5104 -4.36019e-14
5085 5104 -5.55037e-22
5086 5104 -5.55037e-22
5087 5104 -5.55037e-22
5088 5104 -5.55037e-22
5089 5104 -5.55037e-22
5090 5104 -5.55037e-22
5091 5104 -5.55037e-22
5092 5104 -5.55037e-22
5093 5104 -5.55037e-22
5094 5104 -5.55037e-22
5095 5104 -5.55037e-22
5096 5104 -5.55037e-22
5097 5104 -5.55037e-22
5098 5104 -5.55037e-22
5099 5104 -5.55037e-22
5100 5104 -5.55037e-22
5101 5104 -5.55037e-22
5102 5104 -5.55037e-22
5103 5104 -4.5e-05
5104 5104 28571
5105 5104 -8.07167e-34
5106 5104 0
5739 5104 -6.32044e-31
5740 5104 -6.32044e-31
5753 5104 -5.37449e-17
5754 5104 -3.60493e-25
5859 5104 -5.7679e-26
4950 5105 -2.1e-05
4953 5105 -2.42095e-13
4961 5105 -4e-06
4962 5105 -8.5308e-14
4963 5105 -4.36019e-14
4966 5105 -4e-06
4967 5105 -8.5308e-14
4968 5105 -4.36019e-14
4975 5105 -4e-06
4976 5105 -8.5308e-14
4977 5105 -4.36019e-14
4980 5105 -4e-06
4981 5105 -8.5308e-14
4982 5105 -4.36019e-14
4989 5105 -4e-06
4990 5105 -8.5308e-14
4991 5105 -4.36019e-14
4994 5105 -4e-06
4995 5105 -8.5308e-14
4996 5105 -4.36019e-14
5003 5105 -4e-06
5004 5105 -8.5308e-14
5005 5105 -4.36019e-14
5008 5105 -4e-06
5009 5105 -8.5308e-14
5010 5105 -4.36019e-14
5018 5105 -4e-06
5019 5105 -4.36019e-14
5026 5105 -4e-06
5027 5105 -8.5308e-14
5028 5105 -4.36019e-14
5032 5105 -4e-06
5033 5105 -4.36019e-14
5040 5105 -4e-06
5041 5105 -8.5308e-14
5042 5105 -4.36019e-14
5046 5105 -4e-06
5047 5105 -4.36019e-14
5054 5105 -4e-06
5055 5105 -8.5308e-14
5056 5105 -4.36019e-14
5060 5105 -4e-06
5061 5105 -4.36019e-14
5068 5105 -4e-06
5069 5105 -8.5308e-14
5070 5105 -4.36019e-14
5073 5105 -4e-06
5074 5105 -8.5308e-14
5075 5105 -4.36019e-14
5082 5105 -4e-06
5083 5105 -8.5308e-14
5084 5105 -4.36019e-14
5085 5105 -1.5021e-21
5086 5105 -1.5021e-21
5087 5105 -1.5021e-21
5088 5105 -1.5021e-21
5089 5105 -1.5021e-21
5090 5105 -1.5021e-21
5091 5105 -1.5021e-21
5092 5105 -1.5021e-21
5093 5105 -1.5021e-21
5094 5105 -1.5021e-21
5095 5105 -1.5021e-21
5096 5105 -1.5021e-21
5097 5105 -1.5021e-21
5098 5105 -1.5021e-21
5099 5105 -1.5021e-21
5100 5105 -1.5021e-21
5101 5105 -1.5021e-21
5102 5105 -1.5021e-21
5103 5105 -1.45549e-20
5104 5105 -2.30616e-29
5105 5105 28571
5106 5105 -1.57502e-09
5739 5105 0
5740 5105 0
5741 5105 -6.32044e-31
5746 5105 -6.32044e-31
5753 5105 -5.37449e-17
5754 5105 -3.60493e-25
5859 5105 -5.7679e-26
4949 5106 -2.1e-05
4950 5106 -3.4585e-14
4953 5106 -2.42095e-13
4959 5106 -4e-06
4960 5106 -7.30159e-14
4963 5106 -1.67833e-21
4964 5106 -4e-06
4965 5106 -4.36019e-14
4968 5106 -7.14423e-22
4973 5106 -4e-06
4974 5106 -7.30159e-14
4977 5106 -1.67833e-21
4978 5106 -4e-06
4979 5106 -4.36019e-14
4982 5106 -7.14423e-22
4987 5106 -4e-06
4988 5106 -7.30159e-14
4991 5106 -1.67833e-21
4992 5106 -4e-06
4993 5106 -4.36019e-14
4996 5106 -7.14423e-22
5001 5106 -4e-06
5002 5106 -7.30159e-14
5005 5106 -1.67833e-21
5006 5106 -4e-06
5007 5106 -4.36019e-14
5010 5106 -7.14423e-22
5015 5106 -4e-06
5016 5106 -7.30159e-14
5019 5106 -1.67833e-21
5024 5106 -4e-06
5025 5106 -4.36019e-14
5028 5106 -7.14423e-22
5029 5106 -4e-06
5030 5106 -7.30159e-14
5033 5106 -1.67833e-21
5038 5106 -4e-06
5039 5106 -4.36019e-14
5042 5106 -7.14423e-22
5043 5106 -4e-06
5044 5106 -7.30159e-14
5047 5106 -1.67833e-21
5052 5106 -4e-06
5053 5106 -4.36019e-14
5056 5106 -7.14423e-22
5057 5106 -4e-06
5058 5106 -7.30159e-14
5061 5106 -1.67833e-21
5066 5106 -4e-06
5067 5106 -4.36019e-14
5070 5106 -7.14423e-22
5071 5106 -4e-06
5072 5106 -7.30159e-14
5075 5106 -1.67833e-21
5080 5106 -4e-06
5081 5106 -4.36019e-14
5084 5106 -7.14423e-22
5085 5106 -9.37563e-30
5086 5106 -2.20253e-29
5087 5106 -9.37563e-30
5088 5106 -2.20253e-29
5089 5106 -9.37563e-30
5090 5106 -2.20253e-29
5091 5106 -9.37563e-30
5092 5106 -2.20253e-29
5093 5106 -9.37563e-30
5094 5106 -2.20253e-29
5095 5106 -9.37563e-30
5096 5106 -2.20253e-29
5097 5106 -9.37563e-30
5098 5106 -2.20253e-29
5099 5106 -9.37563e-30
5100 5106 -2.20253e-29
5101 5106 -9.37563e-30
5102 5106 -2.20253e-29
5103 5106 -3.78351e-44
5104 5106 0
5105 5106 -4.5e-05
5106 5106 28401
5739 5106 0
5740 5106 0
5741 5106 -6.35827e-31
5746 5106 -6.35827e-31
5753 5106 -7.23033e-17
5754 5106 -7.8169e-25
5859 5106 -1.2507e-25
5107 5107 3643.2
5108 5107 -1.6469e-09
5111 5107 -1.15283e-08
5264 5107 -5.76416e-09
5107 5108 -6e-06
5108 5108 3643.2
5111 5108 -1.15283e-08
5263 5108 -5.76416e-09
5264 5108 -9.49302e-18
5109 5109 170
5111 5109 -7.05881e-07
5741 5109 -7.05881e-07
5110 5110 170
5111 5110 -7.05881e-07
5746 5110 -7.05881e-07
5107 5111 -4.2e-05
5108 5111 -4.2e-05
5109 5111 -0.00012
5110 5111 -0.00012
5111 5111 1135.6
5263 5111 -2.13187e-16
5264 5111 -2.13187e-16
5741 5111 -7.45912e-14
5746 5111 -7.45912e-14
5112 5112 3643.2
5113 5112 -1.6469e-09
5116 5112 -1.15283e-08
5261 5112 -5.76416e-09
5112 5113 -6e-06
5113 5113 3643.2
5116 5113 -1.15283e-08
5261 5113 -9.49302e-18
5262 5113 -5.76416e-09
5114 5114 170
5116 5114 -7.05881e-07
5740 5114 -7.05881e-07
5115 5115 170
5116 5115 -7.05881e-07
5739 5115 -7.05881e-07
5112 5116 -4.2e-05
5113 5116 -4.2e-05
5114 5116 -0.00012
5115 5116 -0.00012
5116 5116 1135.6
5261 5116 -2.13187e-16
5262 5116 -2.13187e-16
5739 5116 -7.45912e-14
5740 5116 -7.45912e-14
5117 5117 252
5118 5117 -1.8254e-08
5264 5117 -1.5873e-08
5755 5117 -3.57143e-08
5117 5118 -4.6e-06
5118 5118 422
5121 5118 -2.29858e-08
5264 5118 -1.73023e-16
5755 5118 -3.89303e-16
5756 5118 -2.36967e-08
5859 5118 -3.79147e-09
5119 5119 422
5120 5119 -2.1327e-08
5121 5119 -1.09005e-08
5263 5119 -9.47867e-09
5755 5119 -2.1327e-08
5119 5120 -9e-06
5120 5120 422
5121 5120 -2.32475e-16
5260 5120 -1.09005e-08
5261 5120 -9.47867e-09
5263 5120 -2.02152e-16
5755 5120 -2.1327e-08
5118 5121 -9.7e-06
5119 5121 -4.6e-06
5120 5121 -9.81043e-14
5121 5121 762
5260 5121 -1.31234e-08
5261 5121 -1.22034e-24
5263 5121 -5.72203e-17
5264 5121 -2.20253e-24
5755 5121 -1.28746e-16
5756 5121 -1.31234e-08
5859 5121 -2.09974e-09
5122 5122 422
5123 5122 -1.09005e-08
5264 5122 -9.47867e-09
5755 5122 -2.1327e-08
5122 5123 -4.6e-06
5123 5123 592
5126 5123 -1.63851e-08
5264 5123 -7.36518e-17
5755 5123 -1.65717e-16
5756 5123 -1.68919e-08
5859 5123 -2.7027e-09
5124 5124 422
5125 5124 -2.1327e-08
5126 5124 -1.09005e-08
5263 5124 -9.47867e-09
5755 5124 -2.1327e-08
5124 5125 -9e-06
5125 5125 422
5126 5125 -2.32475e-16
5259 5125 -1.09005e-08
5261 5125 -9.47867e-09
5263 5125 -2.02152e-16
5755 5125 -2.1327e-08
5123 5126 -9.7e-06
5124 5126 -4.6e-06
5125 5126 -9.81043e-14
5126 5126 762
5259 5126 -1.31234e-08
5261 5126 -1.22034e-24
5263 5126 -5.72203e-17
5264 5126 -9.37563e-25
5755 5126 -1.28746e-16
5756 5126 -1.31234e-08
5859 5126 -2.09974e-09
5127 5127 422
5128 5127 -2.1327e-08
5130 5127 -1.09005e-08
5262 5127 -9.47867e-09
5755 5127 -2.1327e-08
5127 5128 -9e-06
5128 5128 422
5129 5128 -1.09005e-08
5130 5128 -2.32475e-16
5262 5128 -9.47867e-09
5755 5128 -2.1327e-08
5128 5129 -4.6e-06
5129 5129 762
5130 5129 -1.31234e-08
5260 5129 -1.27297e-08
5262 5129 -5.72203e-17
5755 5129 -1.28746e-16
5756 5129 -1.31234e-08
5859 5129 -2.09974e-09
5127 5130 -4.6e-06
5128 5130 -9.81043e-14
5129 5130 -1e-05
5130 5130 762
5259 5130 -1.27297e-08
5260 5130 -1.67056e-16
5262 5130 -5.72203e-17
5755 5130 -1.28746e-16
5756 5130 -1.31234e-08
5859 5130 -2.09974e-09
5131 5131 252
5132 5131 -1.8254e-08
5264 5131 -1.5873e-08
5755 5131 -3.57143e-08
5131 5132 -4.6e-06
5132 5132 422
5135 5132 -2.29858e-08
5264 5132 -1.73023e-16
5755 5132 -3.89303e-16
5756 5132 -2.36967e-08
5859 5132 -3.79147e-09
5133 5133 422
5134 5133 -2.1327e-08
5135 5133 -1.09005e-08
5263 5133 -9.47867e-09
5755 5133 -2.1327e-08
5133 5134 -9e-06
5134 5134 422
5135 5134 -2.32475e-16
5258 5134 -1.09005e-08
5261 5134 -9.47867e-09
5263 5134 -2.02152e-16
5755 5134 -2.1327e-08
5132 5135 -9.7e-06
5133 5135 -4.6e-06
5134 5135 -9.81043e-14
5135 5135 762
5258 5135 -1.31234e-08
5261 5135 -1.22034e-24
5263 5135 -5.72203e-17
5264 5135 -2.20253e-24
5755 5135 -1.28746e-16
5756 5135 -1.31234e-08
5859 5135 -2.09974e-09
5136 5136 422
5137 5136 -1.09005e-08
5264 5136 -9.47867e-09
5755 5136 -2.1327e-08
5136 5137 -4.6e-06
5137 5137 592
5140 5137 -1.63851e-08
5264 5137 -7.36518e-17
5755 5137 -1.65717e-16
5756 5137 -1.68919e-08
5859 5137 -2.7027e-09
5138 5138 422
5139 5138 -2.1327e-08
5140 5138 -1.09005e-08
5263 5138 -9.47867e-09
5755 5138 -2.1327e-08
5138 5139 -9e-06
5139 5139 422
5140 5139 -2.32475e-16
5257 5139 -1.09005e-08
5261 5139 -9.47867e-09
5263 5139 -2.02152e-16
5755 5139 -2.1327e-08
5137 5140 -9.7e-06
5138 5140 -4.6e-06
5139 5140 -9.81043e-14
5140 5140 762
5257 5140 -1.31234e-08
5261 5140 -1.22034e-24
5263 5140 -5.72203e-17
5264 5140 -9.37563e-25
5755 5140 -1.28746e-16
5756 5140 -1.31234e-08
5859 5140 -2.09974e-09
5141 5141 422
5142 5141 -2.1327e-08
5144 5141 -1.09005e-08
5262 5141 -9.47867e-09
5755 5141 -2.1327e-08
5141 5142 -9e-06
5142 5142 422
5143 5142 -1.09005e-08
5144 5142 -2.32475e-16
5262 5142 -9.47867e-09
5755 5142 -2.1327e-08
5142 5143 -4.6e-06
5143 5143 762
5144 5143 -1.31234e-08
5258 5143 -1.27297e-08
5262 5143 -5.72203e-17
5755 5143 -1.28746e-16
5756 5143 -1.31234e-08
5859 5143 -2.09974e-09
5141 5144 -4.6e-06
5142 5144 -9.81043e-14
5143 5144 -1e-05
5144 5144 762
5257 5144 -1.27297e-08
5258 5144 -1.67056e-16
5262 5144 -5.72203e-17
5755 5144 -1.28746e-16
5756 5144 -1.31234e-08
5859 5144 -2.09974e-09
5145 5145 252
5146 5145 -1.8254e-08
5264 5145 -1.5873e-08
5755 5145 -3.57143e-08
5145 5146 -4.6e-06
5146 5146 422
5149 5146 -2.29858e-08
5264 5146 -1.73023e-16
5755 5146 -3.89303e-16
5756 5146 -2.36967e-08
5859 5146 -3.79147e-09
5147 5147 422
5148 5147 -2.1327e-08
5149 5147 -1.09005e-08
5263 5147 -9.47867e-09
5755 5147 -2.1327e-08
5147 5148 -9e-06
5148 5148 422
5149 5148 -2.32475e-16
5256 5148 -1.09005e-08
5261 5148 -9.47867e-09
5263 5148 -2.02152e-16
5755 5148 -2.1327e-08
5146 5149 -9.7e-06
5147 5149 -4.6e-06
5148 5149 -9.81043e-14
5149 5149 762
5256 5149 -1.31234e-08
5261 5149 -1.22034e-24
5263 5149 -5.72203e-17
5264 5149 -2.20253e-24
5755 5149 -1.28746e-16
5756 5149 -1.31234e-08
5859 5149 -2.09974e-09
5150 5150 422
5151 5150 -1.09005e-08
5264 5150 -9.47867e-09
5755 5150 -2.1327e-08
5150 5151 -4.6e-06
5151 5151 592
5154 5151 -1.63851e-08
5264 5151 -7.36518e-17
5755 5151 -1.65717e-16
5756 5151 -1.68919e-08
5859 5151 -2.7027e-09
5152 5152 422
5153 5152 -2.1327e-08
5154 5152 -1.09005e-08
5263 5152 -9.47867e-09
5755 5152 -2.1327e-08
5152 5153 -9e-06
5153 5153 422
5154 5153 -2.32475e-16
5255 5153 -1.09005e-08
5261 5153 -9.47867e-09
5263 5153 -2.02152e-16
5755 5153 -2.1327e-08
5151 5154 -9.7e-06
5152 5154 -4.6e-06
5153 5154 -9.81043e-14
5154 5154 762
5255 5154 -1.31234e-08
5261 5154 -1.22034e-24
5263 5154 -5.72203e-17
5264 5154 -9.37563e-25
5755 5154 -1.28746e-16
5756 5154 -1.31234e-08
5859 5154 -2.09974e-09
5155 5155 422
5156 5155 -2.1327e-08
5158 5155 -1.09005e-08
5262 5155 -9.47867e-09
5755 5155 -2.1327e-08
5155 5156 -9e-06
5156 5156 422
5157 5156 -1.09005e-08
5158 5156 -2.32475e-16
5262 5156 -9.47867e-09
5755 5156 -2.1327e-08
5156 5157 -4.6e-06
5157 5157 762
5158 5157 -1.31234e-08
5256 5157 -1.27297e-08
5262 5157 -5.72203e-17
5755 5157 -1.28746e-16
5756 5157 -1.31234e-08
5859 5157 -2.09974e-09
5155 5158 -4.6e-06
5156 5158 -9.81043e-14
5157 5158 -1e-05
5158 5158 762
5255 5158 -1.27297e-08
5256 5158 -1.67056e-16
5262 5158 -5.72203e-17
5755 5158 -1.28746e-16
5756 5158 -1.31234e-08
5859 5158 -2.09974e-09
5159 5159 252
5160 5159 -1.8254e-08
5264 5159 -1.5873e-08
5755 5159 -3.57143e-08
5159 5160 -4.6e-06
5160 5160 422
5163 5160 -2.29858e-08
5264 5160 -1.73023e-16
5755 5160 -3.89303e-16
5756 5160 -2.36967e-08
5859 5160 -3.79147e-09
5161 5161 422
5162 5161 -2.1327e-08
5163 5161 -1.09005e-08
5263 5161 -9.47867e-09
5755 5161 -2.1327e-08
5161 5162 -9e-06
5162 5162 422
5163 5162 -2.32475e-16
5254 5162 -1.09005e-08
5261 5162 -9.47867e-09
5263 5162 -2.02152e-16
5755 5162 -2.1327e-08
5160 5163 -9.7e-06
5161 5163 -4.6e-06
5162 5163 -9.81043e-14
5163 5163 762
5254 5163 -1.31234e-08
5261 5163 -1.22034e-24
5263 5163 -5.72203e-17
5264 5163 -2.20253e-24
5755 5163 -1.28746e-16
5756 5163 -1.31234e-08
5859 5163 -2.09974e-09
5164 5164 422
5165 5164 -1.09005e-08
5264 5164 -9.47867e-09
5755 5164 -2.1327e-08
5164 5165 -4.6e-06
5165 5165 592
5168 5165 -1.63851e-08
5264 5165 -7.36518e-17
5755 5165 -1.65717e-16
5756 5165 -1.68919e-08
5859 5165 -2.7027e-09
5166 5166 422
5167 5166 -2.1327e-08
5168 5166 -1.09005e-08
5263 5166 -9.47867e-09
5755 5166 -2.1327e-08
5166 5167 -9e-06
5167 5167 422
5168 5167 -2.32475e-16
5253 5167 -1.09005e-08
5261 5167 -9.47867e-09
5263 5167 -2.02152e-16
5755 5167 -2.1327e-08
5165 5168 -9.7e-06
5166 5168 -4.6e-06
5167 5168 -9.81043e-14
5168 5168 762
5253 5168 -1.31234e-08
5261 5168 -1.22034e-24
5263 5168 -5.72203e-17
5264 5168 -9.37563e-25
5755 5168 -1.28746e-16
5756 5168 -1.31234e-08
5859 5168 -2.09974e-09
5169 5169 422
5170 5169 -2.1327e-08
5172 5169 -1.09005e-08
5262 5169 -9.47867e-09
5755 5169 -2.1327e-08
5169 5170 -9e-06
5170 5170 422
5171 5170 -1.09005e-08
5172 5170 -2.32475e-16
5262 5170 -9.47867e-09
5755 5170 -2.1327e-08
5170 5171 -4.6e-06
5171 5171 762
5172 5171 -1.31234e-08
5254 5171 -1.27297e-08
5262 5171 -5.72203e-17
5755 5171 -1.28746e-16
5756 5171 -1.31234e-08
5859 5171 -2.09974e-09
5169 5172 -4.6e-06
5170 5172 -9.81043e-14
5171 5172 -1e-05
5172 5172 762
5253 5172 -1.27297e-08
5254 5172 -1.67056e-16
5262 5172 -5.72203e-17
5755 5172 -1.28746e-16
5756 5172 -1.31234e-08
5859 5172 -2.09974e-09
5173 5173 252
5174 5173 -1.8254e-08
5264 5173 -1.5873e-08
5755 5173 -3.57143e-08
5173 5174 -4.6e-06
5174 5174 422
5177 5174 -2.29858e-08
5264 5174 -1.73023e-16
5755 5174 -3.89303e-16
5756 5174 -2.36967e-08
5859 5174 -3.79147e-09
5175 5175 422
5176 5175 -2.1327e-08
5252 5175 -1.09005e-08
5261 5175 -9.47867e-09
5755 5175 -2.1327e-08
5175 5176 -9e-06
5176 5176 422
5177 5176 -1.09005e-08
5252 5176 -2.32475e-16
5261 5176 -2.02152e-16
5263 5176 -9.47867e-09
5755 5176 -2.1327e-08
5174 5177 -9.7e-06
5176 5177 -4.6e-06
5177 5177 762
5252 5177 -1.31234e-08
5261 5177 -1.22034e-24
5263 5177 -5.72203e-17
5264 5177 -2.20253e-24
5755 5177 -1.28746e-16
5756 5177 -1.31234e-08
5859 5177 -2.09974e-09
5178 5178 422
5179 5178 -2.1327e-08
5181 5178 -1.09005e-08
5262 5178 -9.47867e-09
5755 5178 -2.1327e-08
5178 5179 -9e-06
5179 5179 422
5180 5179 -1.09005e-08
5181 5179 -2.32475e-16
5262 5179 -9.47867e-09
5755 5179 -2.1327e-08
5179 5180 -4.6e-06
5180 5180 762
5181 5180 -1.31234e-08
5252 5180 -1.27297e-08
5262 5180 -5.72203e-17
5755 5180 -1.28746e-16
5756 5180 -1.31234e-08
5859 5180 -2.09974e-09
5178 5181 -4.6e-06
5179 5181 -9.81043e-14
5180 5181 -1e-05
5181 5181 762
5251 5181 -1.27297e-08
5252 5181 -1.67056e-16
5262 5181 -5.72203e-17
5755 5181 -1.28746e-16
5756 5181 -1.31234e-08
5859 5181 -2.09974e-09
5182 5182 422
5183 5182 -1.09005e-08
5264 5182 -9.47867e-09
5755 5182 -2.1327e-08
5182 5183 -4.6e-06
5183 5183 592
5186 5183 -1.63851e-08
5264 5183 -7.36518e-17
5755 5183 -1.65717e-16
5756 5183 -1.68919e-08
5859 5183 -2.7027e-09
5184 5184 422
5185 5184 -2.1327e-08
5186 5184 -1.09005e-08
5263 5184 -9.47867e-09
5755 5184 -2.1327e-08
5184 5185 -9e-06
5185 5185 422
5186 5185 -2.32475e-16
5251 5185 -1.09005e-08
5261 5185 -9.47867e-09
5263 5185 -2.02152e-16
5755 5185 -2.1327e-08
5183 5186 -9.7e-06
5184 5186 -4.6e-06
5185 5186 -9.81043e-14
5186 5186 762
5251 5186 -1.31234e-08
5261 5186 -1.22034e-24
5263 5186 -5.72203e-17
5264 5186 -9.37563e-25
5755 5186 -1.28746e-16
5756 5186 -1.31234e-08
5859 5186 -2.09974e-09
5187 5187 252
5188 5187 -1.8254e-08
5264 5187 -1.5873e-08
5755 5187 -3.57143e-08
5187 5188 -4.6e-06
5188 5188 422
5191 5188 -2.29858e-08
5264 5188 -1.73023e-16
5755 5188 -3.89303e-16
5756 5188 -2.36967e-08
5859 5188 -3.79147e-09
5189 5189 422
5190 5189 -2.1327e-08
5250 5189 -1.09005e-08
5261 5189 -9.47867e-09
5755 5189 -2.1327e-08
5189 5190 -9e-06
5190 5190 422
5191 5190 -1.09005e-08
5250 5190 -2.32475e-16
5261 5190 -2.02152e-16
5263 5190 -9.47867e-09
5755 5190 -2.1327e-08
5188 5191 -9.7e-06
5190 5191 -4.6e-06
5191 5191 762
5250 5191 -1.31234e-08
5261 5191 -1.22034e-24
5263 5191 -5.72203e-17
5264 5191 -2.20253e-24
5755 5191 -1.28746e-16
5756 5191 -1.31234e-08
5859 5191 -2.09974e-09
5192 5192 422
5193 5192 -2.1327e-08
5195 5192 -1.09005e-08
5262 5192 -9.47867e-09
5755 5192 -2.1327e-08
5192 5193 -9e-06
5193 5193 422
5194 5193 -1.09005e-08
5195 5193 -2.32475e-16
5262 5193 -9.47867e-09
5755 5193 -2.1327e-08
5193 5194 -4.6e-06
5194 5194 762
5195 5194 -1.31234e-08
5250 5194 -1.27297e-08
5262 5194 -5.72203e-17
5755 5194 -1.28746e-16
5756 5194 -1.31234e-08
5859 5194 -2.09974e-09
5192 5195 -4.6e-06
5193 5195 -9.81043e-14
5194 5195 -1e-05
5195 5195 762
5249 5195 -1.27297e-08
5250 5195 -1.67056e-16
5262 5195 -5.72203e-17
5755 5195 -1.28746e-16
5756 5195 -1.31234e-08
5859 5195 -2.09974e-09
5196 5196 422
5197 5196 -1.09005e-08
5264 5196 -9.47867e-09
5755 5196 -2.1327e-08
5196 5197 -4.6e-06
5197 5197 592
5200 5197 -1.63851e-08
5264 5197 -7.36518e-17
5755 5197 -1.65717e-16
5756 5197 -1.68919e-08
5859 5197 -2.7027e-09
5198 5198 422
5199 5198 -2.1327e-08
5200 5198 -1.09005e-08
5263 5198 -9.47867e-09
5755 5198 -2.1327e-08
5198 5199 -9e-06
5199 5199 422
5200 5199 -2.32475e-16
5249 5199 -1.09005e-08
5261 5199 -9.47867e-09
5263 5199 -2.02152e-16
5755 5199 -2.1327e-08
5197 5200 -9.7e-06
5198 5200 -4.6e-06
5199 5200 -9.81043e-14
5200 5200 762
5249 5200 -1.31234e-08
5261 5200 -1.22034e-24
5263 5200 -5.72203e-17
5264 5200 -9.37563e-25
5755 5200 -1.28746e-16
5756 5200 -1.31234e-08
5859 5200 -2.09974e-09
5201 5201 252
5202 5201 -1.8254e-08
5264 5201 -1.5873e-08
5755 5201 -3.57143e-08
5201 5202 -4.6e-06
5202 5202 422
5205 5202 -2.29858e-08
5264 5202 -1.73023e-16
5755 5202 -3.89303e-16
5756 5202 -2.36967e-08
5859 5202 -3.79147e-09
5203 5203 422
5204 5203 -2.1327e-08
5248 5203 -1.09005e-08
5261 5203 -9.47867e-09
5755 5203 -2.1327e-08
5203 5204 -9e-06
5204 5204 422
5205 5204 -1.09005e-08
5248 5204 -2.32475e-16
5261 5204 -2.02152e-16
5263 5204 -9.47867e-09
5755 5204 -2.1327e-08
5202 5205 -9.7e-06
5204 5205 -4.6e-06
5205 5205 762
5248 5205 -1.31234e-08
5261 5205 -1.22034e-24
5263 5205 -5.72203e-17
5264 5205 -2.20253e-24
5755 5205 -1.28746e-16
5756 5205 -1.31234e-08
5859 5205 -2.09974e-09
5206 5206 422
5207 5206 -2.1327e-08
5209 5206 -1.09005e-08
5262 5206 -9.47867e-09
5755 5206 -2.1327e-08
5206 5207 -9e-06
5207 5207 422
5208 5207 -1.09005e-08
5209 5207 -2.32475e-16
5262 5207 -9.47867e-09
5755 5207 -2.1327e-08
5207 5208 -4.6e-06
5208 5208 762
5209 5208 -1.31234e-08
5248 5208 -1.27297e-08
5262 5208 -5.72203e-17
5755 5208 -1.28746e-16
5756 5208 -1.31234e-08
5859 5208 -2.09974e-09
5206 5209 -4.6e-06
5207 5209 -9.81043e-14
5208 5209 -1e-05
5209 5209 762
5247 5209 -1.27297e-08
5248 5209 -1.67056e-16
5262 5209 -5.72203e-17
5755 5209 -1.28746e-16
5756 5209 -1.31234e-08
5859 5209 -2.09974e-09
5210 5210 422
5211 5210 -1.09005e-08
5264 5210 -9.47867e-09
5755 5210 -2.1327e-08
5210 5211 -4.6e-06
5211 5211 592
5214 5211 -1.63851e-08
5264 5211 -7.36518e-17
5755 5211 -1.65717e-16
5756 5211 -1.68919e-08
5859 5211 -2.7027e-09
5212 5212 422
5213 5212 -2.1327e-08
5214 5212 -1.09005e-08
5263 5212 -9.47867e-09
5755 5212 -2.1327e-08
5212 5213 -9e-06
5213 5213 422
5214 5213 -2.32475e-16
5247 5213 -1.09005e-08
5261 5213 -9.47867e-09
5263 5213 -2.02152e-16
5755 5213 -2.1327e-08
5211 5214 -9.7e-06
5212 5214 -4.6e-06
5213 5214 -9.81043e-14
5214 5214 762
5247 5214 -1.31234e-08
5261 5214 -1.22034e-24
5263 5214 -5.72203e-17
5264 5214 -9.37563e-25
5755 5214 -1.28746e-16
5756 5214 -1.31234e-08
5859 5214 -2.09974e-09
5215 5215 252
5216 5215 -1.8254e-08
5264 5215 -1.5873e-08
5755 5215 -3.57143e-08
5215 5216 -4.6e-06
5216 5216 422
5219 5216 -2.29858e-08
5264 5216 -1.73023e-16
5755 5216 -3.89303e-16
5756 5216 -2.36967e-08
5859 5216 -3.79147e-09
5217 5217 422
5218 5217 -2.1327e-08
5246 5217 -1.09005e-08
5261 5217 -9.47867e-09
5755 5217 -2.1327e-08
5217 5218 -9e-06
5218 5218 422
5219 5218 -1.09005e-08
5246 5218 -2.32475e-16
5261 5218 -2.02152e-16
5263 5218 -9.47867e-09
5755 5218 -2.1327e-08
5216 5219 -9.7e-06
5218 5219 -4.6e-06
5219 5219 762
5246 5219 -1.31234e-08
5261 5219 -1.22034e-24
5263 5219 -5.72203e-17
5264 5219 -2.20253e-24
5755 5219 -1.28746e-16
5756 5219 -1.31234e-08
5859 5219 -2.09974e-09
5220 5220 422
5221 5220 -2.1327e-08
5223 5220 -1.09005e-08
5262 5220 -9.47867e-09
5755 5220 -2.1327e-08
5220 5221 -9e-06
5221 5221 422
5222 5221 -1.09005e-08
5223 5221 -2.32475e-16
5262 5221 -9.47867e-09
5755 5221 -2.1327e-08
5221 5222 -4.6e-06
5222 5222 762
5223 5222 -1.31234e-08
5246 5222 -1.27297e-08
5262 5222 -5.72203e-17
5755 5222 -1.28746e-16
5756 5222 -1.31234e-08
5859 5222 -2.09974e-09
5220 5223 -4.6e-06
5221 5223 -9.81043e-14
5222 5223 -1e-05
5223 5223 762
5245 5223 -1.27297e-08
5246 5223 -1.67056e-16
5262 5223 -5.72203e-17
5755 5223 -1.28746e-16
5756 5223 -1.31234e-08
5859 5223 -2.09974e-09
5224 5224 422
5225 5224 -1.09005e-08
5264 5224 -9.47867e-09
5755 5224 -2.1327e-08
5224 5225 -4.6e-06
5225 5225 592
5228 5225 -1.63851e-08
5264 5225 -7.36518e-17
5755 5225 -1.65717e-16
5756 5225 -1.68919e-08
5859 5225 -2.7027e-09
5226 5226 422
5227 5226 -2.1327e-08
5228 5226 -1.09005e-08
5263 5226 -9.47867e-09
5755 5226 -2.1327e-08
5226 5227 -9e-06
5227 5227 422
5228 5227 -2.32475e-16
5245 5227 -1.09005e-08
5261 5227 -9.47867e-09
5263 5227 -2.02152e-16
5755 5227 -2.1327e-08
5225 5228 -9.7e-06
5226 5228 -4.6e-06
5227 5228 -9.81043e-14
5228 5228 762
5245 5228 -1.31234e-08
5261 5228 -1.22034e-24
5263 5228 -5.72203e-17
5264 5228 -9.37563e-25
5755 5228 -1.28746e-16
5756 5228 -1.31234e-08
5859 5228 -2.09974e-09
5229 5229 252
5230 5229 -1.8254e-08
5264 5229 -1.5873e-08
5755 5229 -3.57143e-08
5229 5230 -4.6e-06
5230 5230 422
5233 5230 -2.29858e-08
5264 5230 -1.73023e-16
5755 5230 -3.89303e-16
5756 5230 -2.36967e-08
5859 5230 -3.79147e-09
5231 5231 422
5232 5231 -2.1327e-08
5233 5231 -1.09005e-08
5263 5231 -9.47867e-09
5755 5231 -2.1327e-08
5231 5232 -9e-06
5232 5232 422
5233 5232 -2.32475e-16
5244 5232 -1.09005e-08
5261 5232 -9.47867e-09
5263 5232 -2.02152e-16
5755 5232 -2.1327e-08
5230 5233 -9.7e-06
5231 5233 -4.6e-06
5232 5233 -9.81043e-14
5233 5233 762
5244 5233 -1.31234e-08
5261 5233 -1.22034e-24
5263 5233 -5.72203e-17
5264 5233 -2.20253e-24
5755 5233 -1.28746e-16
5756 5233 -1.31234e-08
5859 5233 -2.09974e-09
5234 5234 422
5235 5234 -2.1327e-08
5237 5234 -1.09005e-08
5262 5234 -9.47867e-09
5755 5234 -2.1327e-08
5234 5235 -9e-06
5235 5235 422
5236 5235 -1.09005e-08
5237 5235 -2.32475e-16
5262 5235 -9.47867e-09
5755 5235 -2.1327e-08
5235 5236 -4.6e-06
5236 5236 762
5237 5236 -1.31234e-08
5244 5236 -1.27297e-08
5262 5236 -5.72203e-17
5755 5236 -1.28746e-16
5756 5236 -1.31234e-08
5859 5236 -2.09974e-09
5234 5237 -4.6e-06
5235 5237 -9.81043e-14
5236 5237 -1e-05
5237 5237 762
5243 5237 -1.27297e-08
5244 5237 -1.67056e-16
5262 5237 -5.72203e-17
5755 5237 -1.28746e-16
5756 5237 -1.31234e-08
5859 5237 -2.09974e-09
5238 5238 422
5239 5238 -1.09005e-08
5264 5238 -9.47867e-09
5755 5238 -2.1327e-08
5238 5239 -4.6e-06
5239 5239 592
5242 5239 -1.63851e-08
5264 5239 -7.36518e-17
5755 5239 -1.65717e-16
5756 5239 -1.68919e-08
5859 5239 -2.7027e-09
5240 5240 422
5241 5240 -2.1327e-08
5242 5240 -1.09005e-08
5263 5240 -9.47867e-09
5755 5240 -2.1327e-08
5240 5241 -9e-06
5241 5241 422
5242 5241 -2.32475e-16
5243 5241 -1.09005e-08
5261 5241 -9.47867e-09
5263 5241 -2.02152e-16
5755 5241 -2.1327e-08
5239 5242 -9.7e-06
5240 5242 -4.6e-06
5241 5242 -9.81043e-14
5242 5242 762
5243 5242 -1.31234e-08
5261 5242 -1.22034e-24
5263 5242 -5.72203e-17
5264 5242 -9.37563e-25
5755 5242 -1.28746e-16
5756 5242 -1.31234e-08
5859 5242 -2.09974e-09
5237 5243 -9.7e-06
5241 5243 -4.6e-06
5242 5243 -1e-05
5243 5243 592
5244 5243 -2.73723e-24
5261 5243 -7.36518e-17
5262 5243 -9.37563e-25
5263 5243 -2.53733e-24
5264 5243 -1.58372e-32
5755 5243 -1.65717e-16
5756 5243 -1.68919e-08
5859 5243 -2.7027e-09
5232 5244 -4.6e-06
5233 5244 -1e-05
5236 5244 -9.7e-06
5237 5244 -1.27297e-13
5243 5244 -1.62044e-21
5244 5244 592
5261 5244 -7.36518e-17
5262 5244 -9.37563e-25
5263 5244 -2.53733e-24
5264 5244 -3.72049e-32
5755 5244 -1.65717e-16
5756 5244 -1.68919e-08
5859 5244 -2.7027e-09
5223 5245 -9.7e-06
5227 5245 -4.6e-06
5228 5245 -1e-05
5245 5245 592
5246 5245 -2.73723e-24
5261 5245 -7.36518e-17
5262 5245 -9.37563e-25
5263 5245 -2.53733e-24
5264 5245 -1.58372e-32
5755 5245 -1.65717e-16
5756 5245 -1.68919e-08
5859 5245 -2.7027e-09
5217 5246 -4.6e-06
5218 5246 -9.81043e-14
5219 5246 -1e-05
5222 5246 -9.7e-06
5223 5246 -1.27297e-13
5245 5246 -1.62044e-21
5246 5246 592
5261 5246 -7.36518e-17
5262 5246 -9.37563e-25
5263 5246 -2.53733e-24
5264 5246 -3.72049e-32
5755 5246 -1.65717e-16
5756 5246 -1.68919e-08
5859 5246 -2.7027e-09
5209 5247 -9.7e-06
5213 5247 -4.6e-06
5214 5247 -1e-05
5247 5247 592
5248 5247 -2.73723e-24
5261 5247 -7.36518e-17
5262 5247 -9.37563e-25
5263 5247 -2.53733e-24
5264 5247 -1.58372e-32
5755 5247 -1.65717e-16
5756 5247 -1.68919e-08
5859 5247 -2.7027e-09
5203 5248 -4.6e-06
5204 5248 -9.81043e-14
5205 5248 -1e-05
5208 5248 -9.7e-06
5209 5248 -1.27297e-13
5247 5248 -1.62044e-21
5248 5248 592
5261 5248 -7.36518e-17
5262 5248 -9.37563e-25
5263 5248 -2.53733e-24
5264 5248 -3.72049e-32
5755 5248 -1.65717e-16
5756 5248 -1.68919e-08
5859 5248 -2.7027e-09
5195 5249 -9.7e-06
5199 5249 -4.6e-06
5200 5249 -1e-05
5249 5249 592
5250 5249 -2.73723e-24
5261 5249 -7.36518e-17
5262 5249 -9.37563e-25
5263 5249 -2.53733e-24
5264 5249 -1.58372e-32
5755 5249 -1.65717e-16
5756 5249 -1.68919e-08
5859 5249 -2.7027e-09
5189 5250 -4.6e-06
5190 5250 -9.81043e-14
5191 5250 -1e-05
5194 5250 -9.7e-06
5195 5250 -1.27297e-13
5249 5250 -1.62044e-21
5250 5250 592
5261 5250 -7.36518e-17
5262 5250 -9.37563e-25
5263 5250 -2.53733e-24
5264 5250 -3.72049e-32
5755 5250 -1.65717e-16
5756 5250 -1.68919e-08
5859 5250 -2.7027e-09
5181 5251 -9.7e-06
5185 5251 -4.6e-06
5186 5251 -1e-05
5251 5251 592
5252 5251 -2.73723e-24
5261 5251 -7.36518e-17
5262 5251 -9.37563e-25
5263 5251 -2.53733e-24
5264 5251 -1.58372e-32
5755 5251 -1.65717e-16
5756 5251 -1.68919e-08
5859 5251 -2.7027e-09
5175 5252 -4.6e-06
5176 5252 -9.81043e-14
5177 5252 -1e-05
5180 5252 -9.7e-06
5181 5252 -1.27297e-13
5251 5252 -1.62044e-21
5252 5252 592
5261 5252 -7.36518e-17
5262 5252 -9.37563e-25
5263 5252 -2.53733e-24
5264 5252 -3.72049e-32
5755 5252 -1.65717e-16
5756 5252 -1.68919e-08
5859 5252 -2.7027e-09
5167 5253 -4.6e-06
5168 5253 -1e-05
5172 5253 -9.7e-06
5253 5253 592
5254 5253 -2.73723e-24
5261 5253 -7.36518e-17
5262 5253 -9.37563e-25
5263 5253 -2.53733e-24
5264 5253 -1.58372e-32
5755 5253 -1.65717e-16
5756 5253 -1.68919e-08
5859 5253 -2.7027e-09
5162 5254 -4.6e-06
5163 5254 -1e-05
5171 5254 -9.7e-06
5172 5254 -1.27297e-13
5253 5254 -1.62044e-21
5254 5254 592
5261 5254 -7.36518e-17
5262 5254 -9.37563e-25
5263 5254 -2.53733e-24
5264 5254 -3.72049e-32
5755 5254 -1.65717e-16
5756 5254 -1.68919e-08
5859 5254 -2.7027e-09
5153 5255 -4.6e-06
5154 5255 -1e-05
5158 5255 -9.7e-06
5255 5255 592
5256 5255 -2.73723e-24
5261 5255 -7.36518e-17
5262 5255 -9.37563e-25
5263 5255 -2.53733e-24
5264 5255 -1.58372e-32
5755 5255 -1.65717e-16
5756 5255 -1.68919e-08
5859 5255 -2.7027e-09
5148 5256 -4.6e-06
5149 5256 -1e-05
5157 5256 -9.7e-06
5158 5256 -1.27297e-13
5255 5256 -1.62044e-21
5256 5256 592
5261 5256 -7.36518e-17
5262 5256 -9.37563e-25
5263 5256 -2.53733e-24
5264 5256 -3.72049e-32
5755 5256 -1.65717e-16
5756 5256 -1.68919e-08
5859 5256 -2.7027e-09
5139 5257 -4.6e-06
5140 5257 -1e-05
5144 5257 -9.7e-06
5257 5257 592
5258 5257 -2.73723e-24
5261 5257 -7.36518e-17
5262 5257 -9.37563e-25
5263 5257 -2.53733e-24
5264 5257 -1.58372e-32
5755 5257 -1.65717e-16
5756 5257 -1.68919e-08
5859 5257 -2.7027e-09
5134 5258 -4.6e-06
5135 5258 -1e-05
5143 5258 -9.7e-06
5144 5258 -1.27297e-13
5257 5258 -1.62044e-21
5258 5258 592
5261 5258 -7.36518e-17
5262 5258 -9.37563e-25
5263 5258 -2.53733e-24
5264 5258 -3.72049e-32
5755 5258 -1.65717e-16
5756 5258 -1.68919e-08
5859 5258 -2.7027e-09
5125 5259 -4.6e-06
5126 5259 -1e-05
5130 5259 -9.7e-06
5259 5259 592
5260 5259 -2.73723e-24
5261 5259 -7.36518e-17
5262 5259 -9.37563e-25
5263 5259 -2.53733e-24
5264 5259 -1.58372e-32
5755 5259 -1.65717e-16
5756 5259 -1.68919e-08
5859 5259 -2.7027e-09
5120 5260 -4.6e-06
5121 5260 -1e-05
5129 5260 -9.7e-06
5130 5260 -1.27297e-13
5259 5260 -1.62044e-21
5260 5260 592
5261 5260 -7.36518e-17
5262 5260 -9.37563e-25
5263 5260 -2.53733e-24
5264 5260 -3.72049e-32
5755 5260 -1.65717e-16
5756 5260 -1.68919e-08
5859 5260 -2.7027e-09
5112 5261 -2.1e-05
5113 5261 -3.4585e-14
5116 5261 -2.42095e-13
5120 5261 -4e-06
5121 5261 -9.29898e-22
5125 5261 -4e-06
5126 5261 -9.29898e-22
5134 5261 -4e-06
5135 5261 -9.29898e-22
5139 5261 -4e-06
5140 5261 -9.29898e-22
5148 5261 -4e-06
5149 5261 -9.29898e-22
5153 5261 -4e-06
5154 5261 -9.29898e-22
5162 5261 -4e-06
5163 5261 -9.29898e-22
5167 5261 -4e-06
5168 5261 -9.29898e-22
5175 5261 -4e-06
5176 5261 -8.5308e-14
5177 5261 -9.29898e-22
5185 5261 -4e-06
5186 5261 -9.29898e-22
5189 5261 -4e-06
5190 5261 -8.5308e-14
5191 5261 -9.29898e-22
5199 5261 -4e-06
5200 5261 -9.29898e-22
5203 5261 -4e-06
5204 5261 -8.5308e-14
5205 5261 -9.29898e-22
5213 5261 -4e-06
5214 5261 -9.29898e-22
5217 5261 -4e-06
5218 5261 -8.5308e-14
5219 5261 -9.29898e-22
5227 5261 -4e-06
5228 5261 -9.29898e-22
5232 5261 -4e-06
5233 5261 -9.29898e-22
5241 5261 -4e-06
5242 5261 -9.29898e-22
5243 5261 -4.36019e-14
5244 5261 -4.36019e-14
5245 5261 -4.36019e-14
5246 5261 -4.36019e-14
5247 5261 -4.36019e-14
5248 5261 -4.36019e-14
5249 5261 -4.36019e-14
5250 5261 -4.36019e-14
5251 5261 -4.36019e-14
5252 5261 -4.36019e-14
5253 5261 -4.36019e-14
5254 5261 -4.36019e-14
5255 5261 -4.36019e-14
5256 5261 -4.36019e-14
5257 5261 -4.36019e-14
5258 5261 -4.36019e-14
5259 5261 -4.36019e-14
5260 5261 -4.36019e-14
5261 5261 28401
5262 5261 -1.58445e-09
5263 5261 -5.12479e-25
5264 5261 -0
5739 5261 -6.35827e-31
5740 5261 -6.35827e-31
5755 5261 -5.40666e-17
5756 5261 -4.66791e-25
5859 5261 -7.46866e-26
5113 5262 -2.1e-05
5116 5262 -2.42095e-13
5127 5262 -4e-06
5128 5262 -4e-06
5129 5262 -4.36019e-14
5130 5262 -4.36019e-14
5141 5262 -4e-06
5142 5262 -4e-06
5143 5262 -4.36019e-14
5144 5262 -4.36019e-14
5155 5262 -4e-06
5156 5262 -4e-06
5157 5262 -4.36019e-14
5158 5262 -4.36019e-14
5169 5262 -4e-06
5170 5262 -4e-06
5171 5262 -4.36019e-14
5172 5262 -4.36019e-14
5178 5262 -4e-06
5179 5262 -4e-06
5180 5262 -4.36019e-14
5181 5262 -4.36019e-14
5192 5262 -4e-06
5193 5262 -4e-06
5194 5262 -4.36019e-14
5195 5262 -4.36019e-14
5206 5262 -4e-06
5207 5262 -4e-06
5208 5262 -4.36019e-14
5209 5262 -4.36019e-14
5220 5262 -4e-06
5221 5262 -4e-06
5222 5262 -4.36019e-14
5223 5262 -4.36019e-14
5234 5262 -4e-06
5235 5262 -4e-06
5236 5262 -4.36019e-14
5237 5262 -4.36019e-14
5243 5262 -5.55037e-22
5244 5262 -5.55037e-22
5245 5262 -5.55037e-22
5246 5262 -5.55037e-22
5247 5262 -5.55037e-22
5248 5262 -5.55037e-22
5249 5262 -5.55037e-22
5250 5262 -5.55037e-22
5251 5262 -5.55037e-22
5252 5262 -5.55037e-22
5253 5262 -5.55037e-22
5254 5262 -5.55037e-22
5255 5262 -5.55037e-22
5256 5262 -5.55037e-22
5257 5262 -5.55037e-22
5258 5262 -5.55037e-22
5259 5262 -5.55037e-22
5260 5262 -5.55037e-22
5261 5262 -4.5e-05
5262 5262 28571
5263 5262 -8.07167e-34
5264 5262 0
5739 5262 -6.32044e-31
5740 5262 -6.32044e-31
5755 5262 -5.37449e-17
5756 5262 -3.60493e-25
5859 5262 -5.7679e-26
5108 5263 -2.1e-05
5111 5263 -2.42095e-13
5119 5263 -4e-06
5120 5263 -8.5308e-14
5121 5263 -4.36019e-14
5124 5263 -4e-06
5125 5263 -8.5308e-14
5126 5263 -4.36019e-14
5133 5263 -4e-06
5134 5263 -8.5308e-14
5135 5263 -4.36019e-14
5138 5263 -4e-06
5139 5263 -8.5308e-14
5140 5263 -4.36019e-14
5147 5263 -4e-06
5148 5263 -8.5308e-14
5149 5263 -4.36019e-14
5152 5263 -4e-06
5153 5263 -8.5308e-14
5154 5263 -4.36019e-14
5161 5263 -4e-06
5162 5263 -8.5308e-14
5163 5263 -4.36019e-14
5166 5263 -4e-06
5167 5263 -8.5308e-14
5168 5263 -4.36019e-14
5176 5263 -4e-06
5177 5263 -4.36019e-14
5184 5263 -4e-06
5185 5263 -8.5308e-14
5186 5263 -4.36019e-14
5190 5263 -4e-06
5191 5263 -4.36019e-14
5198 5263 -4e-06
5199 5263 -8.5308e-14
5200 5263 -4.36019e-14
5204 5263 -4e-06
5205 5263 -4.36019e-14
5212 5263 -4e-06
5213 5263 -8.5308e-14
5214 5263 -4.36019e-14
5218 5263 -4e-06
5219 5263 -4.36019e-14
5226 5263 -4e-06
5227 5263 -8.5308e-14
5228 5263 -4.36019e-14
5231 5263 -4e-06
5232 5263 -8.5308e-14
5233 5263 -4.36019e-14
5240 5263 -4e-06
5241 5263 -8.5308e-14
5242 5263 -4.36019e-14
5243 5263 -1.5021e-21
5244 5263 -1.5021e-21
5245 5263 -1.5021e-21
5246 5263 -1.5021e-21
5247 5263 -1.5021e-21
5248 5263 -1.5021e-21
5249 5263 -1.5021e-21
5250 5263 -1.5021e-21
5251 5263 -1.5021e-21
5252 5263 -1.5021e-21
5253 5263 -1.5021e-21
5254 5263 -1.5021e-21
5255 5263 -1.5021e-21
5256 5263 -1.5021e-21
5257 5263 -1.5021e-21
5258 5263 -1.5021e-21
5259 5263 -1.5021e-21
5260 5263 -1.5021e-21
5261 5263 -1.45549e-20
5262 5263 -2.30616e-29
5263 5263 28571
5264 5263 -1.57502e-09
5739 5263 0
5740 5263 0
5741 5263 -6.32044e-31
5746 5263 -6.32044e-31
5755 5263 -5.37449e-17
5756 5263 -3.60493e-25
5859 5263 -5.7679e-26
5107 5264 -2.1e-05
5108 5264 -3.4585e-14
5111 5264 -2.42095e-13
5117 5264 -4e-06
5118 5264 -7.30159e-14
5121 5264 -1.67833e-21
5122 5264 -4e-06
5123 5264 -4.36019e-14
5126 5264 -7.14423e-22
5131 5264 -4e-06
5132 5264 -7.30159e-14
5135 5264 -1.67833e-21
5136 5264 -4e-06
5137 5264 -4.36019e-14
5140 5264 -7.14423e-22
5145 5264 -4e-06
5146 5264 -7.30159e-14
5149 5264 -1.67833e-21
5150 5264 -4e-06
5151 5264 -4.36019e-14
5154 5264 -7.14423e-22
5159 5264 -4e-06
5160 5264 -7.30159e-14
5163 5264 -1.67833e-21
5164 5264 -4e-06
5165 5264 -4.36019e-14
5168 5264 -7.14423e-22
5173 5264 -4e-06
5174 5264 -7.30159e-14
5177 5264 -1.67833e-21
5182 5264 -4e-06
5183 5264 -4.36019e-14
5186 5264 -7.14423e-22
5187 5264 -4e-06
5188 5264 -7.30159e-14
5191 5264 -1.67833e-21
5196 5264 -4e-06
5197 5264 -4.36019e-14
5200 5264 -7.14423e-22
5201 5264 -4e-06
5202 5264 -7.30159e-14
5205 5264 -1.67833e-21
5210 5264 -4e-06
5211 5264 -4.36019e-14
5214 5264 -7.14423e-22
5215 5264 -4e-06
5216 5264 -7.30159e-14
5219 5264 -1.67833e-21
5224 5264 -4e-06
5225 5264 -4.36019e-14
5228 5264 -7.14423e-22
5229 5264 -4e-06
5230 5264 -7.30159e-14
5233 5264 -1.67833e-21
5238 5264 -4e-06
5239 5264 -4.36019e-14
5242 5264 -7.14423e-22
5243 5264 -9.37563e-30
5244 5264 -2.20253e-29
5245 5264 -9.37563e-30
5246 5264 -2.20253e-29
5247 5264 -9.37563e-30
5248 5264 -2.20253e-29
5249 5264 -9.37563e-30
5250 5264 -2.20253e-29
5251 5264 -9.37563e-30
5252 5264 -2.20253e-29
5253 5264 -9.37563e-30
5254 5264 -2.20253e-29
5255 5264 -9.37563e-30
5256 5264 -2.20253e-29
5257 5264 -9.37563e-30
5258 5264 -2.20253e-29
5259 5264 -9.37563e-30
5260 5264 -2.20253e-29
5261 5264 -3.78351e-44
5262 5264 0
5263 5264 -4.5e-05
5264 5264 28401
5739 5264 0
5740 5264 0
5741 5264 -6.35827e-31
5746 5264 -6.35827e-31
5755 5264 -7.23033e-17
5756 5264 -7.8169e-25
5859 5264 -1.2507e-25
5265 5265 3643.2
5266 5265 -1.6469e-09
5269 5265 -1.15283e-08
5422 5265 -5.76416e-09
5265 5266 -6e-06
5266 5266 3643.2
5269 5266 -1.15283e-08
5421 5266 -5.76416e-09
5422 5266 -9.49302e-18
5267 5267 170
5269 5267 -7.05881e-07
5741 5267 -7.05881e-07
5268 5268 170
5269 5268 -7.05881e-07
5746 5268 -7.05881e-07
5265 5269 -4.2e-05
5266 5269 -4.2e-05
5267 5269 -0.00012
5268 5269 -0.00012
5269 5269 1135.6
5421 5269 -2.13187e-16
5422 5269 -2.13187e-16
5741 5269 -7.45912e-14
5746 5269 -7.45912e-14
5270 5270 3643.2
5271 5270 -1.6469e-09
5274 5270 -1.15283e-08
5419 5270 -5.76416e-09
5270 5271 -6e-06
5271 5271 3643.2
5274 5271 -1.15283e-08
5419 5271 -9.49302e-18
5420 5271 -5.76416e-09
5272 5272 170
5274 5272 -7.05881e-07
5740 5272 -7.05881e-07
5273 5273 170
5274 5273 -7.05881e-07
5739 5273 -7.05881e-07
5270 5274 -4.2e-05
5271 5274 -4.2e-05
5272 5274 -0.00012
5273 5274 -0.00012
5274 5274 1135.6
5419 5274 -2.13187e-16
5420 5274 -2.13187e-16
5739 5274 -7.45912e-14
5740 5274 -7.45912e-14
5275 5275 252
5276 5275 -1.8254e-08
5422 5275 -1.5873e-08
5757 5275 -3.57143e-08
5275 5276 -4.6e-06
5276 5276 422
5279 5276 -2.29858e-08
5422 5276 -1.73023e-16
5757 5276 -3.89303e-16
5758 5276 -2.36967e-08
5859 5276 -3.79147e-09
5277 5277 422
5278 5277 -2.1327e-08
5279 5277 -1.09005e-08
5421 5277 -9.47867e-09
5757 5277 -2.1327e-08
5277 5278 -9e-06
5278 5278 422
5279 5278 -2.32475e-16
5418 5278 -1.09005e-08
5419 5278 -9.47867e-09
5421 5278 -2.02152e-16
5757 5278 -2.1327e-08
5276 5279 -9.7e-06
5277 5279 -4.6e-06
5278 5279 -9.81043e-14
5279 5279 762
5418 5279 -1.31234e-08
5419 5279 -1.22034e-24
5421 5279 -5.72203e-17
5422 5279 -2.20253e-24
5757 5279 -1.28746e-16
5758 5279 -1.31234e-08
5859 5279 -2.09974e-09
5280 5280 422
5281 5280 -1.09005e-08
5422 5280 -9.47867e-09
5757 5280 -2.1327e-08
5280 5281 -4.6e-06
5281 5281 592
5284 5281 -1.63851e-08
5422 5281 -7.36518e-17
5757 5281 -1.65717e-16
5758 5281 -1.68919e-08
5859 5281 -2.7027e-09
5282 5282 422
5283 5282 -2.1327e-08
5284 5282 -1.09005e-08
5421 5282 -9.47867e-09
5757 5282 -2.1327e-08
5282 5283 -9e-06
5283 5283 422
5284 5283 -2.32475e-16
5417 5283 -1.09005e-08
5419 5283 -9.47867e-09
5421 5283 -2.02152e-16
5757 5283 -2.1327e-08
5281 5284 -9.7e-06
5282 5284 -4.6e-06
5283 5284 -9.81043e-14
5284 5284 762
5417 5284 -1.31234e-08
5419 5284 -1.22034e-24
5421 5284 -5.72203e-17
5422 5284 -9.37563e-25
5757 5284 -1.28746e-16
5758 5284 -1.31234e-08
5859 5284 -2.09974e-09
5285 5285 422
5286 5285 -2.1327e-08
5288 5285 -1.09005e-08
5420 5285 -9.47867e-09
5757 5285 -2.1327e-08
5285 5286 -9e-06
5286 5286 422
5287 5286 -1.09005e-08
5288 5286 -2.32475e-16
5420 5286 -9.47867e-09
5757 5286 -2.1327e-08
5286 5287 -4.6e-06
5287 5287 762
5288 5287 -1.31234e-08
5418 5287 -1.27297e-08
5420 5287 -5.72203e-17
5757 5287 -1.28746e-16
5758 5287 -1.31234e-08
5859 5287 -2.09974e-09
5285 5288 -4.6e-06
5286 5288 -9.81043e-14
5287 5288 -1e-05
5288 5288 762
5417 5288 -1.27297e-08
5418 5288 -1.67056e-16
5420 5288 -5.72203e-17
5757 5288 -1.28746e-16
5758 5288 -1.31234e-08
5859 5288 -2.09974e-09
5289 5289 252
5290 5289 -1.8254e-08
5422 5289 -1.5873e-08
5757 5289 -3.57143e-08
5289 5290 -4.6e-06
5290 5290 422
5293 5290 -2.29858e-08
5422 5290 -1.73023e-16
5757 5290 -3.89303e-16
5758 5290 -2.36967e-08
5859 5290 -3.79147e-09
5291 5291 422
5292 5291 -2.1327e-08
5293 5291 -1.09005e-08
5421 5291 -9.47867e-09
5757 5291 -2.1327e-08
5291 5292 -9e-06
5292 5292 422
5293 5292 -2.32475e-16
5416 5292 -1.09005e-08
5419 5292 -9.47867e-09
5421 5292 -2.02152e-16
5757 5292 -2.1327e-08
5290 5293 -9.7e-06
5291 5293 -4.6e-06
5292 5293 -9.81043e-14
5293 5293 762
5416 5293 -1.31234e-08
5419 5293 -1.22034e-24
5421 5293 -5.72203e-17
5422 5293 -2.20253e-24
5757 5293 -1.28746e-16
5758 5293 -1.31234e-08
5859 5293 -2.09974e-09
5294 5294 422
5295 5294 -1.09005e-08
5422 5294 -9.47867e-09
5757 5294 -2.1327e-08
5294 5295 -4.6e-06
5295 5295 592
5298 5295 -1.63851e-08
5422 5295 -7.36518e-17
5757 5295 -1.65717e-16
5758 5295 -1.68919e-08
5859 5295 -2.7027e-09
5296 5296 422
5297 5296 -2.1327e-08
5298 5296 -1.09005e-08
5421 5296 -9.47867e-09
5757 5296 -2.1327e-08
5296 5297 -9e-06
5297 5297 422
5298 5297 -2.32475e-16
5415 5297 -1.09005e-08
5419 5297 -9.47867e-09
5421 5297 -2.02152e-16
5757 5297 -2.1327e-08
5295 5298 -9.7e-06
5296 5298 -4.6e-06
5297 5298 -9.81043e-14
5298 5298 762
5415 5298 -1.31234e-08
5419 5298 -1.22034e-24
5421 5298 -5.72203e-17
5422 5298 -9.37563e-25
5757 5298 -1.28746e-16
5758 5298 -1.31234e-08
5859 5298 -2.09974e-09
5299 5299 422
5300 5299 -2.1327e-08
5302 5299 -1.09005e-08
5420 5299 -9.47867e-09
5757 5299 -2.1327e-08
5299 5300 -9e-06
5300 5300 422
5301 5300 -1.09005e-08
5302 5300 -2.32475e-16
5420 5300 -9.47867e-09
5757 5300 -2.1327e-08
5300 5301 -4.6e-06
5301 5301 762
5302 5301 -1.31234e-08
5416 5301 -1.27297e-08
5420 5301 -5.72203e-17
5757 5301 -1.28746e-16
5758 5301 -1.31234e-08
5859 5301 -2.09974e-09
5299 5302 -4.6e-06
5300 5302 -9.81043e-14
5301 5302 -1e-05
5302 5302 762
5415 5302 -1.27297e-08
5416 5302 -1.67056e-16
5420 5302 -5.72203e-17
5757 5302 -1.28746e-16
5758 5302 -1.31234e-08
5859 5302 -2.09974e-09
5303 5303 252
5304 5303 -1.8254e-08
5422 5303 -1.5873e-08
5757 5303 -3.57143e-08
5303 5304 -4.6e-06
5304 5304 422
5307 5304 -2.29858e-08
5422 5304 -1.73023e-16
5757 5304 -3.89303e-16
5758 5304 -2.36967e-08
5859 5304 -3.79147e-09
5305 5305 422
5306 5305 -2.1327e-08
5307 5305 -1.09005e-08
5421 5305 -9.47867e-09
5757 5305 -2.1327e-08
5305 5306 -9e-06
5306 5306 422
5307 5306 -2.32475e-16
5414 5306 -1.09005e-08
5419 5306 -9.47867e-09
5421 5306 -2.02152e-16
5757 5306 -2.1327e-08
5304 5307 -9.7e-06
5305 5307 -4.6e-06
5306 5307 -9.81043e-14
5307 5307 762
5414 5307 -1.31234e-08
5419 5307 -1.22034e-24
5421 5307 -5.72203e-17
5422 5307 -2.20253e-24
5757 5307 -1.28746e-16
5758 5307 -1.31234e-08
5859 5307 -2.09974e-09
5308 5308 422
5309 5308 -1.09005e-08
5422 5308 -9.47867e-09
5757 5308 -2.1327e-08
5308 5309 -4.6e-06
5309 5309 592
5312 5309 -1.63851e-08
5422 5309 -7.36518e-17
5757 5309 -1.65717e-16
5758 5309 -1.68919e-08
5859 5309 -2.7027e-09
5310 5310 422
5311 5310 -2.1327e-08
5312 5310 -1.09005e-08
5421 5310 -9.47867e-09
5757 5310 -2.1327e-08
5310 5311 -9e-06
5311 5311 422
5312 5311 -2.32475e-16
5413 5311 -1.09005e-08
5419 5311 -9.47867e-09
5421 5311 -2.02152e-16
5757 5311 -2.1327e-08
5309 5312 -9.7e-06
5310 5312 -4.6e-06
5311 5312 -9.81043e-14
5312 5312 762
5413 5312 -1.31234e-08
5419 5312 -1.22034e-24
5421 5312 -5.72203e-17
5422 5312 -9.37563e-25
5757 5312 -1.28746e-16
5758 5312 -1.31234e-08
5859 5312 -2.09974e-09
5313 5313 422
5314 5313 -2.1327e-08
5316 5313 -1.09005e-08
5420 5313 -9.47867e-09
5757 5313 -2.1327e-08
5313 5314 -9e-06
5314 5314 422
5315 5314 -1.09005e-08
5316 5314 -2.32475e-16
5420 5314 -9.47867e-09
5757 5314 -2.1327e-08
5314 5315 -4.6e-06
5315 5315 762
5316 5315 -1.31234e-08
5414 5315 -1.27297e-08
5420 5315 -5.72203e-17
5757 5315 -1.28746e-16
5758 5315 -1.31234e-08
5859 5315 -2.09974e-09
5313 5316 -4.6e-06
5314 5316 -9.81043e-14
5315 5316 -1e-05
5316 5316 762
5413 5316 -1.27297e-08
5414 5316 -1.67056e-16
5420 5316 -5.72203e-17
5757 5316 -1.28746e-16
5758 5316 -1.31234e-08
5859 5316 -2.09974e-09
5317 5317 252
5318 5317 -1.8254e-08
5422 5317 -1.5873e-08
5757 5317 -3.57143e-08
5317 5318 -4.6e-06
5318 5318 422
5321 5318 -2.29858e-08
5422 5318 -1.73023e-16
5757 5318 -3.89303e-16
5758 5318 -2.36967e-08
5859 5318 -3.79147e-09
5319 5319 422
5320 5319 -2.1327e-08
5321 5319 -1.09005e-08
5421 5319 -9.47867e-09
5757 5319 -2.1327e-08
5319 5320 -9e-06
5320 5320 422
5321 5320 -2.32475e-16
5412 5320 -1.09005e-08
5419 5320 -9.47867e-09
5421 5320 -2.02152e-16
5757 5320 -2.1327e-08
5318 5321 -9.7e-06
5319 5321 -4.6e-06
5320 5321 -9.81043e-14
5321 5321 762
5412 5321 -1.31234e-08
5419 5321 -1.22034e-24
5421 5321 -5.72203e-17
5422 5321 -2.20253e-24
5757 5321 -1.28746e-16
5758 5321 -1.31234e-08
5859 5321 -2.09974e-09
5322 5322 422
5323 5322 -1.09005e-08
5422 5322 -9.47867e-09
5757 5322 -2.1327e-08
5322 5323 -4.6e-06
5323 5323 592
5326 5323 -1.63851e-08
5422 5323 -7.36518e-17
5757 5323 -1.65717e-16
5758 5323 -1.68919e-08
5859 5323 -2.7027e-09
5324 5324 422
5325 5324 -2.1327e-08
5326 5324 -1.09005e-08
5421 5324 -9.47867e-09
5757 5324 -2.1327e-08
5324 5325 -9e-06
5325 5325 422
5326 5325 -2.32475e-16
5411 5325 -1.09005e-08
5419 5325 -9.47867e-09
5421 5325 -2.02152e-16
5757 5325 -2.1327e-08
5323 5326 -9.7e-06
5324 5326 -4.6e-06
5325 5326 -9.81043e-14
5326 5326 762
5411 5326 -1.31234e-08
5419 5326 -1.22034e-24
5421 5326 -5.72203e-17
5422 5326 -9.37563e-25
5757 5326 -1.28746e-16
5758 5326 -1.31234e-08
5859 5326 -2.09974e-09
5327 5327 422
5328 5327 -2.1327e-08
5330 5327 -1.09005e-08
5420 5327 -9.47867e-09
5757 5327 -2.1327e-08
5327 5328 -9e-06
5328 5328 422
5329 5328 -1.09005e-08
5330 5328 -2.32475e-16
5420 5328 -9.47867e-09
5757 5328 -2.1327e-08
5328 5329 -4.6e-06
5329 5329 762
5330 5329 -1.31234e-08
5412 5329 -1.27297e-08
5420 5329 -5.72203e-17
5757 5329 -1.28746e-16
5758 5329 -1.31234e-08
5859 5329 -2.09974e-09
5327 5330 -4.6e-06
5328 5330 -9.81043e-14
5329 5330 -1e-05
5330 5330 762
5411 5330 -1.27297e-08
5412 5330 -1.67056e-16
5420 5330 -5.72203e-17
5757 5330 -1.28746e-16
5758 5330 -1.31234e-08
5859 5330 -2.09974e-09
5331 5331 252
5332 5331 -1.8254e-08
5422 5331 -1.5873e-08
5757 5331 -3.57143e-08
5331 5332 -4.6e-06
5332 5332 422
5335 5332 -2.29858e-08
5422 5332 -1.73023e-16
5757 5332 -3.89303e-16
5758 5332 -2.36967e-08
5859 5332 -3.79147e-09
5333 5333 422
5334 5333 -2.1327e-08
5410 5333 -1.09005e-08
5419 5333 -9.47867e-09
5757 5333 -2.1327e-08
5333 5334 -9e-06
5334 5334 422
5335 5334 -1.09005e-08
5410 5334 -2.32475e-16
5419 5334 -2.02152e-16
5421 5334 -9.47867e-09
5757 5334 -2.1327e-08
5332 5335 -9.7e-06
5334 5335 -4.6e-06
5335 5335 762
5410 5335 -1.31234e-08
5419 5335 -1.22034e-24
5421 5335 -5.72203e-17
5422 5335 -2.20253e-24
5757 5335 -1.28746e-16
5758 5335 -1.31234e-08
5859 5335 -2.09974e-09
5336 5336 422
5337 5336 -2.1327e-08
5339 5336 -1.09005e-08
5420 5336 -9.47867e-09
5757 5336 -2.1327e-08
5336 5337 -9e-06
5337 5337 422
5338 5337 -1.09005e-08
5339 5337 -2.32475e-16
5420 5337 -9.47867e-09
5757 5337 -2.1327e-08
5337 5338 -4.6e-06
5338 5338 762
5339 5338 -1.31234e-08
5410 5338 -1.27297e-08
5420 5338 -5.72203e-17
5757 5338 -1.28746e-16
5758 5338 -1.31234e-08
5859 5338 -2.09974e-09
5336 5339 -4.6e-06
5337 5339 -9.81043e-14
5338 5339 -1e-05
5339 5339 762
5409 5339 -1.27297e-08
5410 5339 -1.67056e-16
5420 5339 -5.72203e-17
5757 5339 -1.28746e-16
5758 5339 -1.31234e-08
5859 5339 -2.09974e-09
5340 5340 422
5341 5340 -1.09005e-08
5422 5340 -9.47867e-09
5757 5340 -2.1327e-08
5340 5341 -4.6e-06
5341 5341 592
5344 5341 -1.63851e-08
5422 5341 -7.36518e-17
5757 5341 -1.65717e-16
5758 5341 -1.68919e-08
5859 5341 -2.7027e-09
5342 5342 422
5343 5342 -2.1327e-08
5344 5342 -1.09005e-08
5421 5342 -9.47867e-09
5757 5342 -2.1327e-08
5342 5343 -9e-06
5343 5343 422
5344 5343 -2.32475e-16
5409 5343 -1.09005e-08
5419 5343 -9.47867e-09
5421 5343 -2.02152e-16
5757 5343 -2.1327e-08
5341 5344 -9.7e-06
5342 5344 -4.6e-06
5343 5344 -9.81043e-14
5344 5344 762
5409 5344 -1.31234e-08
5419 5344 -1.22034e-24
5421 5344 -5.72203e-17
5422 5344 -9.37563e-25
5757 5344 -1.28746e-16
5758 5344 -1.31234e-08
5859 5344 -2.09974e-09
5345 5345 252
5346 5345 -1.8254e-08
5422 5345 -1.5873e-08
5757 5345 -3.57143e-08
5345 5346 -4.6e-06
5346 5346 422
5349 5346 -2.29858e-08
5422 5346 -1.73023e-16
5757 5346 -3.89303e-16
5758 5346 -2.36967e-08
5859 5346 -3.79147e-09
5347 5347 422
5348 5347 -2.1327e-08
5408 5347 -1.09005e-08
5419 5347 -9.47867e-09
5757 5347 -2.1327e-08
5347 5348 -9e-06
5348 5348 422
5349 5348 -1.09005e-08
5408 5348 -2.32475e-16
5419 5348 -2.02152e-16
5421 5348 -9.47867e-09
5757 5348 -2.1327e-08
5346 5349 -9.7e-06
5348 5349 -4.6e-06
5349 5349 762
5408 5349 -1.31234e-08
5419 5349 -1.22034e-24
5421 5349 -5.72203e-17
5422 5349 -2.20253e-24
5757 5349 -1.28746e-16
5758 5349 -1.31234e-08
5859 5349 -2.09974e-09
5350 5350 422
5351 5350 -2.1327e-08
5353 5350 -1.09005e-08
5420 5350 -9.47867e-09
5757 5350 -2.1327e-08
5350 5351 -9e-06
5351 5351 422
5352 5351 -1.09005e-08
5353 5351 -2.32475e-16
5420 5351 -9.47867e-09
5757 5351 -2.1327e-08
5351 5352 -4.6e-06
5352 5352 762
5353 5352 -1.31234e-08
5408 5352 -1.27297e-08
5420 5352 -5.72203e-17
5757 5352 -1.28746e-16
5758 5352 -1.31234e-08
5859 5352 -2.09974e-09
5350 5353 -4.6e-06
5351 5353 -9.81043e-14
5352 5353 -1e-05
5353 5353 762
5407 5353 -1.27297e-08
5408 5353 -1.67056e-16
5420 5353 -5.72203e-17
5757 5353 -1.28746e-16
5758 5353 -1.31234e-08
5859 5353 -2.09974e-09
5354 5354 422
5355 5354 -1.09005e-08
5422 5354 -9.47867e-09
5757 5354 -2.1327e-08
5354 5355 -4.6e-06
5355 5355 592
5358 5355 -1.63851e-08
5422 5355 -7.36518e-17
5757 5355 -1.65717e-16
5758 5355 -1.68919e-08
5859 5355 -2.7027e-09
5356 5356 422
5357 5356 -2.1327e-08
5358 5356 -1.09005e-08
5421 5356 -9.47867e-09
5757 5356 -2.1327e-08
5356 5357 -9e-06
5357 5357 422
5358 5357 -2.32475e-16
5407 5357 -1.09005e-08
5419 5357 -9.47867e-09
5421 5357 -2.02152e-16
5757 5357 -2.1327e-08
5355 5358 -9.7e-06
5356 5358 -4.6e-06
5357 5358 -9.81043e-14
5358 5358 762
5407 5358 -1.31234e-08
5419 5358 -1.22034e-24
5421 5358 -5.72203e-17
5422 5358 -9.37563e-25
5757 5358 -1.28746e-16
5758 5358 -1.31234e-08
5859 5358 -2.09974e-09
5359 5359 252
5360 5359 -1.8254e-08
5422 5359 -1.5873e-08
5757 5359 -3.57143e-08
5359 5360 -4.6e-06
5360 5360 422
5363 5360 -2.29858e-08
5422 5360 -1.73023e-16
5757 5360 -3.89303e-16
5758 5360 -2.36967e-08
5859 5360 -3.79147e-09
5361 5361 422
5362 5361 -2.1327e-08
5406 5361 -1.09005e-08
5419 5361 -9.47867e-09
5757 5361 -2.1327e-08
5361 5362 -9e-06
5362 5362 422
5363 5362 -1.09005e-08
5406 5362 -2.32475e-16
5419 5362 -2.02152e-16
5421 5362 -9.47867e-09
5757 5362 -2.1327e-08
5360 5363 -9.7e-06
5362 5363 -4.6e-06
5363 5363 762
5406 5363 -1.31234e-08
5419 5363 -1.22034e-24
5421 5363 -5.72203e-17
5422 5363 -2.20253e-24
5757 5363 -1.28746e-16
5758 5363 -1.31234e-08
5859 5363 -2.09974e-09
5364 5364 422
5365 5364 -2.1327e-08
5367 5364 -1.09005e-08
5420 5364 -9.47867e-09
5757 5364 -2.1327e-08
5364 5365 -9e-06
5365 5365 422
5366 5365 -1.09005e-08
5367 5365 -2.32475e-16
5420 5365 -9.47867e-09
5757 5365 -2.1327e-08
5365 5366 -4.6e-06
5366 5366 762
5367 5366 -1.31234e-08
5406 5366 -1.27297e-08
5420 5366 -5.72203e-17
5757 5366 -1.28746e-16
5758 5366 -1.31234e-08
5859 5366 -2.09974e-09
5364 5367 -4.6e-06
5365 5367 -9.81043e-14
5366 5367 -1e-05
5367 5367 762
5405 5367 -1.27297e-08
5406 5367 -1.67056e-16
5420 5367 -5.72203e-17
5757 5367 -1.28746e-16
5758 5367 -1.31234e-08
5859 5367 -2.09974e-09
5368 5368 422
5369 5368 -1.09005e-08
5422 5368 -9.47867e-09
5757 5368 -2.1327e-08
5368 5369 -4.6e-06
5369 5369 592
5372 5369 -1.63851e-08
5422 5369 -7.36518e-17
5757 5369 -1.65717e-16
5758 5369 -1.68919e-08
5859 5369 -2.7027e-09
5370 5370 422
5371 5370 -2.1327e-08
5372 5370 -1.09005e-08
5421 5370 -9.47867e-09
5757 5370 -2.1327e-08
5370 5371 -9e-06
5371 5371 422
5372 5371 -2.32475e-16
5405 5371 -1.09005e-08
5419 5371 -9.47867e-09
5421 5371 -2.02152e-16
5757 5371 -2.1327e-08
5369 5372 -9.7e-06
5370 5372 -4.6e-06
5371 5372 -9.81043e-14
5372 5372 762
5405 5372 -1.31234e-08
5419 5372 -1.22034e-24
5421 5372 -5.72203e-17
5422 5372 -9.37563e-25
5757 5372 -1.28746e-16
5758 5372 -1.31234e-08
5859 5372 -2.09974e-09
5373 5373 252
5374 5373 -1.8254e-08
5422 5373 -1.5873e-08
5757 5373 -3.57143e-08
5373 5374 -4.6e-06
5374 5374 422
5377 5374 -2.29858e-08
5422 5374 -1.73023e-16
5757 5374 -3.89303e-16
5758 5374 -2.36967e-08
5859 5374 -3.79147e-09
5375 5375 422
5376 5375 -2.1327e-08
5404 5375 -1.09005e-08
5419 5375 -9.47867e-09
5757 5375 -2.1327e-08
5375 5376 -9e-06
5376 5376 422
5377 5376 -1.09005e-08
5404 5376 -2.32475e-16
5419 5376 -2.02152e-16
5421 5376 -9.47867e-09
5757 5376 -2.1327e-08
5374 5377 -9.7e-06
5376 5377 -4.6e-06
5377 5377 762
5404 5377 -1.31234e-08
5419 5377 -1.22034e-24
5421 5377 -5.72203e-17
5422 5377 -2.20253e-24
5757 5377 -1.28746e-16
5758 5377 -1.31234e-08
5859 5377 -2.09974e-09
5378 5378 422
5379 5378 -2.1327e-08
5381 5378 -1.09005e-08
5420 5378 -9.47867e-09
5757 5378 -2.1327e-08
5378 5379 -9e-06
5379 5379 422
5380 5379 -1.09005e-08
5381 5379 -2.32475e-16
5420 5379 -9.47867e-09
5757 5379 -2.1327e-08
5379 5380 -4.6e-06
5380 5380 762
5381 5380 -1.31234e-08
5404 5380 -1.27297e-08
5420 5380 -5.72203e-17
5757 5380 -1.28746e-16
5758 5380 -1.31234e-08
5859 5380 -2.09974e-09
5378 5381 -4.6e-06
5379 5381 -9.81043e-14
5380 5381 -1e-05
5381 5381 762
5403 5381 -1.27297e-08
5404 5381 -1.67056e-16
5420 5381 -5.72203e-17
5757 5381 -1.28746e-16
5758 5381 -1.31234e-08
5859 5381 -2.09974e-09
5382 5382 422
5383 5382 -1.09005e-08
5422 5382 -9.47867e-09
5757 5382 -2.1327e-08
5382 5383 -4.6e-06
5383 5383 592
5386 5383 -1.63851e-08
5422 5383 -7.36518e-17
5757 5383 -1.65717e-16
5758 5383 -1.68919e-08
5859 5383 -2.7027e-09
5384 5384 422
5385 5384 -2.1327e-08
5386 5384 -1.09005e-08
5421 5384 -9.47867e-09
5757 5384 -2.1327e-08
5384 5385 -9e-06
5385 5385 422
5386 5385 -2.32475e-16
5403 5385 -1.09005e-08
5419 5385 -9.47867e-09
5421 5385 -2.02152e-16
5757 5385 -2.1327e-08
5383 5386 -9.7e-06
5384 5386 -4.6e-06
5385 5386 -9.81043e-14
5386 5386 762
5403 5386 -1.31234e-08
5419 5386 -1.22034e-24
5421 5386 -5.72203e-17
5422 5386 -9.37563e-25
5757 5386 -1.28746e-16
5758 5386 -1.31234e-08
5859 5386 -2.09974e-09
5387 5387 252
5388 5387 -1.8254e-08
5422 5387 -1.5873e-08
5757 5387 -3.57143e-08
5387 5388 -4.6e-06
5388 5388 422
5391 5388 -2.29858e-08
5422 5388 -1.73023e-16
5757 5388 -3.89303e-16
5758 5388 -2.36967e-08
5859 5388 -3.79147e-09
5389 5389 422
5390 5389 -2.1327e-08
5391 5389 -1.09005e-08
5421 5389 -9.47867e-09
5757 5389 -2.1327e-08
5389 5390 -9e-06
5390 5390 422
5391 5390 -2.32475e-16
5402 5390 -1.09005e-08
5419 5390 -9.47867e-09
5421 5390 -2.02152e-16
5757 5390 -2.1327e-08
5388 5391 -9.7e-06
5389 5391 -4.6e-06
5390 5391 -9.81043e-14
5391 5391 762
5402 5391 -1.31234e-08
5419 5391 -1.22034e-24
5421 5391 -5.72203e-17
5422 5391 -2.20253e-24
5757 5391 -1.28746e-16
5758 5391 -1.31234e-08
5859 5391 -2.09974e-09
5392 5392 422
5393 5392 -2.1327e-08
5395 5392 -1.09005e-08
5420 5392 -9.47867e-09
5757 5392 -2.1327e-08
5392 5393 -9e-06
5393 5393 422
5394 5393 -1.09005e-08
5395 5393 -2.32475e-16
5420 5393 -9.47867e-09
5757 5393 -2.1327e-08
5393 5394 -4.6e-06
5394 5394 762
5395 5394 -1.31234e-08
5402 5394 -1.27297e-08
5420 5394 -5.72203e-17
5757 5394 -1.28746e-16
5758 5394 -1.31234e-08
5859 5394 -2.09974e-09
5392 5395 -4.6e-06
5393 5395 -9.81043e-14
5394 5395 -1e-05
5395 5395 762
5401 5395 -1.27297e-08
5402 5395 -1.67056e-16
5420 5395 -5.72203e-17
5757 5395 -1.28746e-16
5758 5395 -1.31234e-08
5859 5395 -2.09974e-09
5396 5396 422
5397 5396 -1.09005e-08
5422 5396 -9.47867e-09
5757 5396 -2.1327e-08
5396 5397 -4.6e-06
5397 5397 592
5400 5397 -1.63851e-08
5422 5397 -7.36518e-17
5757 5397 -1.65717e-16
5758 5397 -1.68919e-08
5859 5397 -2.7027e-09
5398 5398 422
5399 5398 -2.1327e-08
5400 5398 -1.09005e-08
5421 5398 -9.47867e-09
5757 5398 -2.1327e-08
5398 5399 -9e-06
5399 5399 422
5400 5399 -2.32475e-16
5401 5399 -1.09005e-08
5419 5399 -9.47867e-09
5421 5399 -2.02152e-16
5757 5399 -2.1327e-08
5397 5400 -9.7e-06
5398 5400 -4.6e-06
5399 5400 -9.81043e-14
5400 5400 762
5401 5400 -1.31234e-08
5419 5400 -1.22034e-24
5421 5400 -5.72203e-17
5422 5400 -9.37563e-25
5757 5400 -1.28746e-16
5758 5400 -1.31234e-08
5859 5400 -2.09974e-09
5395 5401 -9.7e-06
5399 5401 -4.6e-06
5400 5401 -1e-05
5401 5401 592
5402 5401 -2.73723e-24
5419 5401 -7.36518e-17
5420 5401 -9.37563e-25
5421 5401 -2.53733e-24
5422 5401 -1.58372e-32
5757 5401 -1.65717e-16
5758 5401 -1.68919e-08
5859 5401 -2.7027e-09
5390 5402 -4.6e-06
5391 5402 -1e-05
5394 5402 -9.7e-06
5395 5402 -1.27297e-13
5401 5402 -1.62044e-21
5402 5402 592
5419 5402 -7.36518e-17
5420 5402 -9.37563e-25
5421 5402 -2.53733e-24
5422 5402 -3.72049e-32
5757 5402 -1.65717e-16
5758 5402 -1.68919e-08
5859 5402 -2.7027e-09
5381 5403 -9.7e-06
5385 5403 -4.6e-06
5386 5403 -1e-05
5403 5403 592
5404 5403 -2.73723e-24
5419 5403 -7.36518e-17
5420 5403 -9.37563e-25
5421 5403 -2.53733e-24
5422 5403 -1.58372e-32
5757 5403 -1.65717e-16
5758 5403 -1.68919e-08
5859 5403 -2.7027e-09
5375 5404 -4.6e-06
5376 5404 -9.81043e-14
5377 5404 -1e-05
5380 5404 -9.7e-06
5381 5404 -1.27297e-13
5403 5404 -1.62044e-21
5404 5404 592
5419 5404 -7.36518e-17
5420 5404 -9.37563e-25
5421 5404 -2.53733e-24
5422 5404 -3.72049e-32
5757 5404 -1.65717e-16
5758 5404 -1.68919e-08
5859 5404 -2.7027e-09
5367 5405 -9.7e-06
5371 5405 -4.6e-06
5372 5405 -1e-05
5405 5405 592
5406 5405 -2.73723e-24
5419 5405 -7.36518e-17
5420 5405 -9.37563e-25
5421 5405 -2.53733e-24
5422 5405 -1.58372e-32
5757 5405 -1.65717e-16
5758 5405 -1.68919e-08
5859 5405 -2.7027e-09
5361 5406 -4.6e-06
5362 5406 -9.81043e-14
5363 5406 -1e-05
5366 5406 -9.7e-06
5367 5406 -1.27297e-13
5405 5406 -1.62044e-21
5406 5406 592
5419 5406 -7.36518e-17
5420 5406 -9.37563e-25
5421 5406 -2.53733e-24
5422 5406 -3.72049e-32
5757 5406 -1.65717e-16
5758 5406 -1.68919e-08
5859 5406 -2.7027e-09
5353 5407 -9.7e-06
5357 5407 -4.6e-06
5358 5407 -1e-05
5407 5407 592
5408 5407 -2.73723e-24
5419 5407 -7.36518e-17
5420 5407 -9.37563e-25
5421 5407 -2.53733e-24
5422 5407 -1.58372e-32
5757 5407 -1.65717e-16
5758 5407 -1.68919e-08
5859 5407 -2.7027e-09
5347 5408 -4.6e-06
5348 5408 -9.81043e-14
5349 5408 -1e-05
5352 5408 -9.7e-06
5353 5408 -1.27297e-13
5407 5408 -1.62044e-21
5408 5408 592
5419 5408 -7.36518e-17
5420 5408 -9.37563e-25
5421 5408 -2.53733e-24
5422 5408 -3.72049e-32
5757 5408 -1.65717e-16
5758 5408 -1.68919e-08
5859 5408 -2.7027e-09
5339 5409 -9.7e-06
5343 5409 -4.6e-06
5344 5409 -1e-05
5409 5409 592
5410 5409 -2.73723e-24
5419 5409 -7.36518e-17
5420 5409 -9.37563e-25
5421 5409 -2.53733e-24
5422 5409 -1.58372e-32
5757 5409 -1.65717e-16
5758 5409 -1.68919e-08
5859 5409 -2.7027e-09
5333 5410 -4.6e-06
5334 5410 -9.81043e-14
5335 5410 -1e-05
5338 5410 -9.7e-06
5339 5410 -1.27297e-13
5409 5410 -1.62044e-21
5410 5410 592
5419 5410 -7.36518e-17
5420 5410 -9.37563e-25
5421 5410 -2.53733e-24
5422 5410 -3.72049e-32
5757 5410 -1.65717e-16
5758 5410 -1.68919e-08
5859 5410 -2.7027e-09
5325 5411 -4.6e-06
5326 5411 -1e-05
5330 5411 -9.7e-06
5411 5411 592
5412 5411 -2.73723e-24
5419 5411 -7.36518e-17
5420 5411 -9.37563e-25
5421 5411 -2.53733e-24
5422 5411 -1.58372e-32
5757 5411 -1.65717e-16
5758 5411 -1.68919e-08
5859 5411 -2.7027e-09
5320 5412 -4.6e-06
5321 5412 -1e-05
5329 5412 -9.7e-06
5330 5412 -1.27297e-13
5411 5412 -1.62044e-21
5412 5412 592
5419 5412 -7.36518e-17
5420 5412 -9.37563e-25
5421 5412 -2.53733e-24
5422 5412 -3.72049e-32
5757 5412 -1.65717e-16
5758 5412 -1.68919e-08
5859 5412 -2.7027e-09
5311 5413 -4.6e-06
5312 5413 -1e-05
5316 5413 -9.7e-06
5413 5413 592
5414 5413 -2.73723e-24
5419 5413 -7.36518e-17
5420 5413 -9.37563e-25
5421 5413 -2.53733e-24
5422 5413 -1.58372e-32
5757 5413 -1.65717e-16
5758 5413 -1.68919e-08
5859 5413 -2.7027e-09
5306 5414 -4.6e-06
5307 5414 -1e-05
5315 5414 -9.7e-06
5316 5414 -1.27297e-13
5413 5414 -1.62044e-21
5414 5414 592
5419 5414 -7.36518e-17
5420 5414 -9.37563e-25
5421 5414 -2.53733e-24
5422 5414 -3.72049e-32
5757 5414 -1.65717e-16
5758 5414 -1.68919e-08
5859 5414 -2.7027e-09
5297 5415 -4.6e-06
5298 5415 -1e-05
5302 5415 -9.7e-06
5415 5415 592
5416 5415 -2.73723e-24
5419 5415 -7.36518e-17
5420 5415 -9.37563e-25
5421 5415 -2.53733e-24
5422 5415 -1.58372e-32
5757 5415 -1.65717e-16
5758 5415 -1.68919e-08
5859 5415 -2.7027e-09
5292 5416 -4.6e-06
5293 5416 -1e-05
5301 5416 -9.7e-06
5302 5416 -1.27297e-13
5415 5416 -1.62044e-21
5416 5416 592
5419 5416 -7.36518e-17
5420 5416 -9.37563e-25
5421 5416 -2.53733e-24
5422 5416 -3.72049e-32
5757 5416 -1.65717e-16
5758 5416 -1.68919e-08
5859 5416 -2.7027e-09
5283 5417 -4.6e-06
5284 5417 -1e-05
5288 5417 -9.7e-06
5417 5417 592
5418 5417 -2.73723e-24
5419 5417 -7.36518e-17
5420 5417 -9.37563e-25
5421 5417 -2.53733e-24
5422 5417 -1.58372e-32
5757 5417 -1.65717e-16
5758 5417 -1.68919e-08
5859 5417 -2.7027e-09
5278 5418 -4.6e-06
5279 5418 -1e-05
5287 5418 -9.7e-06
5288 5418 -1.27297e-13
5417 5418 -1.62044e-21
5418 5418 592
5419 5418 -7.36518e-17
5420 5418 -9.37563e-25
5421 5418 -2.53733e-24
5422 5418 -3.72049e-32
5757 5418 -1.65717e-16
5758 5418 -1.68919e-08
5859 5418 -2.7027e-09
5270 5419 -2.1e-05
5271 5419 -3.4585e-14
5274 5419 -2.42095e-13
5278 5419 -4e-06
5279 5419 -9.29898e-22
5283 5419 -4e-06
5284 5419 -9.29898e-22
5292 5419 -4e-06
5293 5419 -9.29898e-22
5297 5419 -4e-06
5298 5419 -9.29898e-22
5306 5419 -4e-06
5307 5419 -9.29898e-22
5311 5419 -4e-06
5312 5419 -9.29898e-22
5320 5419 -4e-06
5321 5419 -9.29898e-22
5325 5419 -4e-06
5326 5419 -9.29898e-22
5333 5419 -4e-06
5334 5419 -8.5308e-14
5335 5419 -9.29898e-22
5343 5419 -4e-06
5344 5419 -9.29898e-22
5347 5419 -4e-06
5348 5419 -8.5308e-14
5349 5419 -9.29898e-22
5357 5419 -4e-06
5358 5419 -9.29898e-22
5361 5419 -4e-06
5362 5419 -8.5308e-14
5363 5419 -9.29898e-22
5371 5419 -4e-06
5372 5419 -9.29898e-22
5375 5419 -4e-06
5376 5419 -8.5308e-14
5377 5419 -9.29898e-22
5385 5419 -4e-06
5386 5419 -9.29898e-22
5390 5419 -4e-06
5391 5419 -9.29898e-22
5399 5419 -4e-06
5400 5419 -9.29898e-22
5401 5419 -4.36019e-14
5402 5419 -4.36019e-14
5403 5419 -4.36019e-14
5404 5419 -4.36019e-14
5405 5419 -4.36019e-14
5406 5419 -4.36019e-14
5407 5419 -4.36019e-14
5408 5419 -4.36019e-14
5409 5419 -4.36019e-14
5410 5419 -4.36019e-14
5411 5419 -4.36019e-14
5412 5419 -4.36019e-14
5413 5419 -4.36019e-14
5414 5419 -4.36019e-14
5415 5419 -4.36019e-14
5416 5419 -4.36019e-14
5417 5419 -4.36019e-14
5418 5419 -4.36019e-14
5419 5419 28401
5420 5419 -1.58445e-09
5421 5419 -5.12479e-25
5422 5419 -0
5739 5419 -6.35827e-31
5740 5419 -6.35827e-31
5757 5419 -5.40666e-17
5758 5419 -4.66791e-25
5859 5419 -7.46866e-26
5271 5420 -2.1e-05
5274 5420 -2.42095e-13
5285 5420 -4e-06
5286 5420 -4e-06
5287 5420 -4.36019e-14
5288 5420 -4.36019e-14
5299 5420 -4e-06
5300 5420 -4e-06
5301 5420 -4.36019e-14
5302 5420 -4.36019e-14
5313 5420 -4e-06
5314 5420 -4e-06
5315 5420 -4.36019e-14
5316 5420 -4.36019e-14
5327 5420 -4e-06
5328 5420 -4e-06
5329 5420 -4.36019e-14
5330 5420 -4.36019e-14
5336 5420 -4e-06
5337 5420 -4e-06
5338 5420 -4.36019e-14
5339 5420 -4.36019e-14
5350 5420 -4e-06
5351 5420 -4e-06
5352 5420 -4.36019e-14
5353 5420 -4.36019e-14
5364 5420 -4e-06
5365 5420 -4e-06
5366 5420 -4.36019e-14
5367 5420 -4.36019e-14
5378 5420 -4e-06
5379 5420 -4e-06
5380 5420 -4.36019e-14
5381 5420 -4.36019e-14
5392 5420 -4e-06
5393 5420 -4e-06
5394 5420 -4.36019e-14
5395 5420 -4.36019e-14
5401 5420 -5.55037e-22
5402 5420 -5.55037e-22
5403 5420 -5.55037e-22
5404 5420 -5.55037e-22
5405 5420 -5.55037e-22
5406 5420 -5.55037e-22
5407 5420 -5.55037e-22
5408 5420 -5.55037e-22
5409 5420 -5.55037e-22
5410 5420 -5.55037e-22
5411 5420 -5.55037e-22
5412 5420 -5.55037e-22
5413 5420 -5.55037e-22
5414 5420 -5.55037e-22
5415 5420 -5.55037e-22
5416 5420 -5.55037e-22
5417 5420 -5.55037e-22
5418 5420 -5.55037e-22
5419 5420 -4.5e-05
5420 5420 28571
5421 5420 -8.07167e-34
5422 5420 0
5739 5420 -6.32044e-31
5740 5420 -6.32044e-31
5757 5420 -5.37449e-17
5758 5420 -3.60493e-25
5859 5420 -5.7679e-26
5266 5421 -2.1e-05
5269 5421 -2.42095e-13
5277 5421 -4e-06
5278 5421 -8.5308e-14
5279 5421 -4.36019e-14
5282 5421 -4e-06
5283 5421 -8.5308e-14
5284 5421 -4.36019e-14
5291 5421 -4e-06
5292 5421 -8.5308e-14
5293 5421 -4.36019e-14
5296 5421 -4e-06
5297 5421 -8.5308e-14
5298 5421 -4.36019e-14
5305 5421 -4e-06
5306 5421 -8.5308e-14
5307 5421 -4.36019e-14
5310 5421 -4e-06
5311 5421 -8.5308e-14
5312 5421 -4.36019e-14
5319 5421 -4e-06
5320 5421 -8.5308e-14
5321 5421 -4.36019e-14
5324 5421 -4e-06
5325 5421 -8.5308e-14
5326 5421 -4.36019e-14
5334 5421 -4e-06
5335 5421 -4.36019e-14
5342 5421 -4e-06
5343 5421 -8.5308e-14
5344 5421 -4.36019e-14
5348 5421 -4e-06
5349 5421 -4.36019e-14
5356 5421 -4e-06
5357 5421 -8.5308e-14
5358 5421 -4.36019e-14
5362 5421 -4e-06
5363 5421 -4.36019e-14
5370 5421 -4e-06
5371 5421 -8.5308e-14
5372 5421 -4.36019e-14
5376 5421 -4e-06
5377 5421 -4.36019e-14
5384 5421 -4e-06
5385 5421 -8.5308e-14
5386 5421 -4.36019e-14
5389 5421 -4e-06
5390 5421 -8.5308e-14
5391 5421 -4.36019e-14
5398 5421 -4e-06
5399 5421 -8.5308e-14
5400 5421 -4.36019e-14
5401 5421 -1.5021e-21
5402 5421 -1.5021e-21
5403 5421 -1.5021e-21
5404 5421 -1.5021e-21
5405 5421 -1.5021e-21
5406 5421 -1.5021e-21
5407 5421 -1.5021e-21
5408 5421 -1.5021e-21
5409 5421 -1.5021e-21
5410 5421 -1.5021e-21
5411 5421 -1.5021e-21
5412 5421 -1.5021e-21
5413 5421 -1.5021e-21
5414 5421 -1.5021e-21
5415 5421 -1.5021e-21
5416 5421 -1.5021e-21
5417 5421 -1.5021e-21
5418 5421 -1.5021e-21
5419 5421 -1.45549e-20
5420 5421 -2.30616e-29
5421 5421 28571
5422 5421 -1.57502e-09
5739 5421 0
5740 5421 0
5741 5421 -6.32044e-31
5746 5421 -6.32044e-31
5757 5421 -5.37449e-17
5758 5421 -3.60493e-25
5859 5421 -5.7679e-26
5265 5422 -2.1e-05
5266 5422 -3.4585e-14
5269 5422 -2.42095e-13
5275 5422 -4e-06
5276 5422 -7.30159e-14
5279 5422 -1.67833e-21
5280 5422 -4e-06
5281 5422 -4.36019e-14
5284 5422 -7.14423e-22
5289 5422 -4e-06
5290 5422 -7.30159e-14
5293 5422 -1.67833e-21
5294 5422 -4e-06
5295 5422 -4.36019e-14
5298 5422 -7.14423e-22
5303 5422 -4e-06
5304 5422 -7.30159e-14
5307 5422 -1.67833e-21
5308 5422 -4e-06
5309 5422 -4.36019e-14
5312 5422 -7.14423e-22
5317 5422 -4e-06
5318 5422 -7.30159e-14
5321 5422 -1.67833e-21
5322 5422 -4e-06
5323 5422 -4.36019e-14
5326 5422 -7.14423e-22
5331 5422 -4e-06
5332 5422 -7.30159e-14
5335 5422 -1.67833e-21
5340 5422 -4e-06
5341 5422 -4.36019e-14
5344 5422 -7.14423e-22
5345 5422 -4e-06
5346 5422 -7.30159e-14
5349 5422 -1.67833e-21
5354 5422 -4e-06
5355 5422 -4.36019e-14
5358 5422 -7.14423e-22
5359 5422 -4e-06
5360 5422 -7.30159e-14
5363 5422 -1.67833e-21
5368 5422 -4e-06
5369 5422 -4.36019e-14
5372 5422 -7.14423e-22
5373 5422 -4e-06
5374 5422 -7.30159e-14
5377 5422 -1.67833e-21
5382 5422 -4e-06
5383 5422 -4.36019e-14
5386 5422 -7.14423e-22
5387 5422 -4e-06
5388 5422 -7.30159e-14
5391 5422 -1.67833e-21
5396 5422 -4e-06
5397 5422 -4.36019e-14
5400 5422 -7.14423e-22
5401 5422 -9.37563e-30
5402 5422 -2.20253e-29
5403 5422 -9.37563e-30
5404 5422 -2.20253e-29
5405 5422 -9.37563e-30
5406 5422 -2.20253e-29
5407 5422 -9.37563e-30
5408 5422 -2.20253e-29
5409 5422 -9.37563e-30
5410 5422 -2.20253e-29
5411 5422 -9.37563e-30
5412 5422 -2.20253e-29
5413 5422 -9.37563e-30
5414 5422 -2.20253e-29
5415 5422 -9.37563e-30
5416 5422 -2.20253e-29
5417 5422 -9.37563e-30
5418 5422 -2.20253e-29
5419 5422 -3.78351e-44
5420 5422 0
5421 5422 -4.5e-05
5422 5422 28401
5739 5422 0
5740 5422 0
5741 5422 -6.35827e-31
5746 5422 -6.35827e-31
5757 5422 -7.23033e-17
5758 5422 -7.8169e-25
5859 5422 -1.2507e-25
5423 5423 3643.2
5424 5423 -1.6469e-09
5427 5423 -1.15283e-08
5580 5423 -5.76416e-09
5423 5424 -6e-06
5424 5424 3643.2
5427 5424 -1.15283e-08
5579 5424 -5.76416e-09
5580 5424 -9.49302e-18
5425 5425 170
5427 5425 -7.05881e-07
5741 5425 -7.05881e-07
5426 5426 170
5427 5426 -7.05881e-07
5746 5426 -7.05881e-07
5423 5427 -4.2e-05
5424 5427 -4.2e-05
5425 5427 -0.00012
5426 5427 -0.00012
5427 5427 1135.6
5579 5427 -2.13187e-16
5580 5427 -2.13187e-16
5741 5427 -7.45912e-14
5746 5427 -7.45912e-14
5428 5428 3643.2
5429 5428 -1.6469e-09
5432 5428 -1.15283e-08
5577 5428 -5.76416e-09
5428 5429 -6e-06
5429 5429 3643.2
5432 5429 -1.15283e-08
5577 5429 -9.49302e-18
5578 5429 -5.76416e-09
5430 5430 170
5432 5430 -7.05881e-07
5740 5430 -7.05881e-07
5431 5431 170
5432 5431 -7.05881e-07
5739 5431 -7.05881e-07
5428 5432 -4.2e-05
5429 5432 -4.2e-05
5430 5432 -0.00012
5431 5432 -0.00012
5432 5432 1135.6
5577 5432 -2.13187e-16
5578 5432 -2.13187e-16
5739 5432 -7.45912e-14
5740 5432 -7.45912e-14
5433 5433 252
5434 5433 -1.8254e-08
5580 5433 -1.5873e-08
5759 5433 -3.57143e-08
5433 5434 -4.6e-06
5434 5434 422
5437 5434 -2.29858e-08
5580 5434 -1.73023e-16
5759 5434 -3.89303e-16
5760 5434 -2.36967e-08
5859 5434 -3.79147e-09
5435 5435 422
5436 5435 -2.1327e-08
5437 5435 -1.09005e-08
5579 5435 -9.47867e-09
5759 5435 -2.1327e-08
5435 5436 -9e-06
5436 5436 422
5437 5436 -2.32475e-16
5576 5436 -1.09005e-08
5577 5436 -9.47867e-09
5579 5436 -2.02152e-16
5759 5436 -2.1327e-08
5434 5437 -9.7e-06
5435 5437 -4.6e-06
5436 5437 -9.81043e-14
5437 5437 762
5576 5437 -1.31234e-08
5577 5437 -1.22034e-24
5579 5437 -5.72203e-17
5580 5437 -2.20253e-24
5759 5437 -1.28746e-16
5760 5437 -1.31234e-08
5859 5437 -2.09974e-09
5438 5438 422
5439 5438 -1.09005e-08
5580 5438 -9.47867e-09
5759 5438 -2.1327e-08
5438 5439 -4.6e-06
5439 5439 592
5442 5439 -1.63851e-08
5580 5439 -7.36518e-17
5759 5439 -1.65717e-16
5760 5439 -1.68919e-08
5859 5439 -2.7027e-09
5440 5440 422
5441 5440 -2.1327e-08
5442 5440 -1.09005e-08
5579 5440 -9.47867e-09
5759 5440 -2.1327e-08
5440 5441 -9e-06
5441 5441 422
5442 5441 -2.32475e-16
5575 5441 -1.09005e-08
5577 5441 -9.47867e-09
5579 5441 -2.02152e-16
5759 5441 -2.1327e-08
5439 5442 -9.7e-06
5440 5442 -4.6e-06
5441 5442 -9.81043e-14
5442 5442 762
5575 5442 -1.31234e-08
5577 5442 -1.22034e-24
5579 5442 -5.72203e-17
5580 5442 -9.37563e-25
5759 5442 -1.28746e-16
5760 5442 -1.31234e-08
5859 5442 -2.09974e-09
5443 5443 422
5444 5443 -2.1327e-08
5446 5443 -1.09005e-08
5578 5443 -9.47867e-09
5759 5443 -2.1327e-08
5443 5444 -9e-06
5444 5444 422
5445 5444 -1.09005e-08
5446 5444 -2.32475e-16
5578 5444 -9.47867e-09
5759 5444 -2.1327e-08
5444 5445 -4.6e-06
5445 5445 762
5446 5445 -1.31234e-08
5576 5445 -1.27297e-08
5578 5445 -5.72203e-17
5759 5445 -1.28746e-16
5760 5445 -1.31234e-08
5859 5445 -2.09974e-09
5443 5446 -4.6e-06
5444 5446 -9.81043e-14
5445 5446 -1e-05
5446 5446 762
5575 5446 -1.27297e-08
5576 5446 -1.67056e-16
5578 5446 -5.72203e-17
5759 5446 -1.28746e-16
5760 5446 -1.31234e-08
5859 5446 -2.09974e-09
5447 5447 252
5448 5447 -1.8254e-08
5580 5447 -1.5873e-08
5759 5447 -3.57143e-08
5447 5448 -4.6e-06
5448 5448 422
5451 5448 -2.29858e-08
5580 5448 -1.73023e-16
5759 5448 -3.89303e-16
5760 5448 -2.36967e-08
5859 5448 -3.79147e-09
5449 5449 422
5450 5449 -2.1327e-08
5451 5449 -1.09005e-08
5579 5449 -9.47867e-09
5759 5449 -2.1327e-08
5449 5450 -9e-06
5450 5450 422
5451 5450 -2.32475e-16
5574 5450 -1.09005e-08
5577 5450 -9.47867e-09
5579 5450 -2.02152e-16
5759 5450 -2.1327e-08
5448 5451 -9.7e-06
5449 5451 -4.6e-06
5450 5451 -9.81043e-14
5451 5451 762
5574 5451 -1.31234e-08
5577 5451 -1.22034e-24
5579 5451 -5.72203e-17
5580 5451 -2.20253e-24
5759 5451 -1.28746e-16
5760 5451 -1.31234e-08
5859 5451 -2.09974e-09
5452 5452 422
5453 5452 -1.09005e-08
5580 5452 -9.47867e-09
5759 5452 -2.1327e-08
5452 5453 -4.6e-06
5453 5453 592
5456 5453 -1.63851e-08
5580 5453 -7.36518e-17
5759 5453 -1.65717e-16
5760 5453 -1.68919e-08
5859 5453 -2.7027e-09
5454 5454 422
5455 5454 -2.1327e-08
5456 5454 -1.09005e-08
5579 5454 -9.47867e-09
5759 5454 -2.1327e-08
5454 5455 -9e-06
5455 5455 422
5456 5455 -2.32475e-16
5573 5455 -1.09005e-08
5577 5455 -9.47867e-09
5579 5455 -2.02152e-16
5759 5455 -2.1327e-08
5453 5456 -9.7e-06
5454 5456 -4.6e-06
5455 5456 -9.81043e-14
5456 5456 762
5573 5456 -1.31234e-08
5577 5456 -1.22034e-24
5579 5456 -5.72203e-17
5580 5456 -9.37563e-25
5759 5456 -1.28746e-16
5760 5456 -1.31234e-08
5859 5456 -2.09974e-09
5457 5457 422
5458 5457 -2.1327e-08
5460 5457 -1.09005e-08
5578 5457 -9.47867e-09
5759 5457 -2.1327e-08
5457 5458 -9e-06
5458 5458 422
5459 5458 -1.09005e-08
5460 5458 -2.32475e-16
5578 5458 -9.47867e-09
5759 5458 -2.1327e-08
5458 5459 -4.6e-06
5459 5459 762
5460 5459 -1.31234e-08
5574 5459 -1.27297e-08
5578 5459 -5.72203e-17
5759 5459 -1.28746e-16
5760 5459 -1.31234e-08
5859 5459 -2.09974e-09
5457 5460 -4.6e-06
5458 5460 -9.81043e-14
5459 5460 -1e-05
5460 5460 762
5573 5460 -1.27297e-08
5574 5460 -1.67056e-16
5578 5460 -5.72203e-17
5759 5460 -1.28746e-16
5760 5460 -1.31234e-08
5859 5460 -2.09974e-09
5461 5461 252
5462 5461 -1.8254e-08
5580 5461 -1.5873e-08
5759 5461 -3.57143e-08
5461 5462 -4.6e-06
5462 5462 422
5465 5462 -2.29858e-08
5580 5462 -1.73023e-16
5759 5462 -3.89303e-16
5760 5462 -2.36967e-08
5859 5462 -3.79147e-09
5463 5463 422
5464 5463 -2.1327e-08
5465 5463 -1.09005e-08
5579 5463 -9.47867e-09
5759 5463 -2.1327e-08
5463 5464 -9e-06
5464 5464 422
5465 5464 -2.32475e-16
5572 5464 -1.09005e-08
5577 5464 -9.47867e-09
5579 5464 -2.02152e-16
5759 5464 -2.1327e-08
5462 5465 -9.7e-06
5463 5465 -4.6e-06
5464 5465 -9.81043e-14
5465 5465 762
5572 5465 -1.31234e-08
5577 5465 -1.22034e-24
5579 5465 -5.72203e-17
5580 5465 -2.20253e-24
5759 5465 -1.28746e-16
5760 5465 -1.31234e-08
5859 5465 -2.09974e-09
5466 5466 422
5467 5466 -1.09005e-08
5580 5466 -9.47867e-09
5759 5466 -2.1327e-08
5466 5467 -4.6e-06
5467 5467 592
5470 5467 -1.63851e-08
5580 5467 -7.36518e-17
5759 5467 -1.65717e-16
5760 5467 -1.68919e-08
5859 5467 -2.7027e-09
5468 5468 422
5469 5468 -2.1327e-08
5470 5468 -1.09005e-08
5579 5468 -9.47867e-09
5759 5468 -2.1327e-08
5468 5469 -9e-06
5469 5469 422
5470 5469 -2.32475e-16
5571 5469 -1.09005e-08
5577 5469 -9.47867e-09
5579 5469 -2.02152e-16
5759 5469 -2.1327e-08
5467 5470 -9.7e-06
5468 5470 -4.6e-06
5469 5470 -9.81043e-14
5470 5470 762
5571 5470 -1.31234e-08
5577 5470 -1.22034e-24
5579 5470 -5.72203e-17
5580 5470 -9.37563e-25
5759 5470 -1.28746e-16
5760 5470 -1.31234e-08
5859 5470 -2.09974e-09
5471 5471 422
5472 5471 -2.1327e-08
5474 5471 -1.09005e-08
5578 5471 -9.47867e-09
5759 5471 -2.1327e-08
5471 5472 -9e-06
5472 5472 422
5473 5472 -1.09005e-08
5474 5472 -2.32475e-16
5578 5472 -9.47867e-09
5759 5472 -2.1327e-08
5472 5473 -4.6e-06
5473 5473 762
5474 5473 -1.31234e-08
5572 5473 -1.27297e-08
5578 5473 -5.72203e-17
5759 5473 -1.28746e-16
5760 5473 -1.31234e-08
5859 5473 -2.09974e-09
5471 5474 -4.6e-06
5472 5474 -9.81043e-14
5473 5474 -1e-05
5474 5474 762
5571 5474 -1.27297e-08
5572 5474 -1.67056e-16
5578 5474 -5.72203e-17
5759 5474 -1.28746e-16
5760 5474 -1.31234e-08
5859 5474 -2.09974e-09
5475 5475 252
5476 5475 -1.8254e-08
5580 5475 -1.5873e-08
5759 5475 -3.57143e-08
5475 5476 -4.6e-06
5476 5476 422
5479 5476 -2.29858e-08
5580 5476 -1.73023e-16
5759 5476 -3.89303e-16
5760 5476 -2.36967e-08
5859 5476 -3.79147e-09
5477 5477 422
5478 5477 -2.1327e-08
5479 5477 -1.09005e-08
5579 5477 -9.47867e-09
5759 5477 -2.1327e-08
5477 5478 -9e-06
5478 5478 422
5479 5478 -2.32475e-16
5570 5478 -1.09005e-08
5577 5478 -9.47867e-09
5579 5478 -2.02152e-16
5759 5478 -2.1327e-08
5476 5479 -9.7e-06
5477 5479 -4.6e-06
5478 5479 -9.81043e-14
5479 5479 762
5570 5479 -1.31234e-08
5577 5479 -1.22034e-24
5579 5479 -5.72203e-17
5580 5479 -2.20253e-24
5759 5479 -1.28746e-16
5760 5479 -1.31234e-08
5859 5479 -2.09974e-09
5480 5480 422
5481 5480 -1.09005e-08
5580 5480 -9.47867e-09
5759 5480 -2.1327e-08
5480 5481 -4.6e-06
5481 5481 592
5484 5481 -1.63851e-08
5580 5481 -7.36518e-17
5759 5481 -1.65717e-16
5760 5481 -1.68919e-08
5859 5481 -2.7027e-09
5482 5482 422
5483 5482 -2.1327e-08
5484 5482 -1.09005e-08
5579 5482 -9.47867e-09
5759 5482 -2.1327e-08
5482 5483 -9e-06
5483 5483 422
5484 5483 -2.32475e-16
5569 5483 -1.09005e-08
5577 5483 -9.47867e-09
5579 5483 -2.02152e-16
5759 5483 -2.1327e-08
5481 5484 -9.7e-06
5482 5484 -4.6e-06
5483 5484 -9.81043e-14
5484 5484 762
5569 5484 -1.31234e-08
5577 5484 -1.22034e-24
5579 5484 -5.72203e-17
5580 5484 -9.37563e-25
5759 5484 -1.28746e-16
5760 5484 -1.31234e-08
5859 5484 -2.09974e-09
5485 5485 422
5486 5485 -2.1327e-08
5488 5485 -1.09005e-08
5578 5485 -9.47867e-09
5759 5485 -2.1327e-08
5485 5486 -9e-06
5486 5486 422
5487 5486 -1.09005e-08
5488 5486 -2.32475e-16
5578 5486 -9.47867e-09
5759 5486 -2.1327e-08
5486 5487 -4.6e-06
5487 5487 762
5488 5487 -1.31234e-08
5570 5487 -1.27297e-08
5578 5487 -5.72203e-17
5759 5487 -1.28746e-16
5760 5487 -1.31234e-08
5859 5487 -2.09974e-09
5485 5488 -4.6e-06
5486 5488 -9.81043e-14
5487 5488 -1e-05
5488 5488 762
5569 5488 -1.27297e-08
5570 5488 -1.67056e-16
5578 5488 -5.72203e-17
5759 5488 -1.28746e-16
5760 5488 -1.31234e-08
5859 5488 -2.09974e-09
5489 5489 252
5490 5489 -1.8254e-08
5580 5489 -1.5873e-08
5759 5489 -3.57143e-08
5489 5490 -4.6e-06
5490 5490 422
5493 5490 -2.29858e-08
5580 5490 -1.73023e-16
5759 5490 -3.89303e-16
5760 5490 -2.36967e-08
5859 5490 -3.79147e-09
5491 5491 422
5492 5491 -2.1327e-08
5568 5491 -1.09005e-08
5577 5491 -9.47867e-09
5759 5491 -2.1327e-08
5491 5492 -9e-06
5492 5492 422
5493 5492 -1.09005e-08
5568 5492 -2.32475e-16
5577 5492 -2.02152e-16
5579 5492 -9.47867e-09
5759 5492 -2.1327e-08
5490 5493 -9.7e-06
5492 5493 -4.6e-06
5493 5493 762
5568 5493 -1.31234e-08
5577 5493 -1.22034e-24
5579 5493 -5.72203e-17
5580 5493 -2.20253e-24
5759 5493 -1.28746e-16
5760 5493 -1.31234e-08
5859 5493 -2.09974e-09
5494 5494 422
5495 5494 -2.1327e-08
5497 5494 -1.09005e-08
5578 5494 -9.47867e-09
5759 5494 -2.1327e-08
5494 5495 -9e-06
5495 5495 422
5496 5495 -1.09005e-08
5497 5495 -2.32475e-16
5578 5495 -9.47867e-09
5759 5495 -2.1327e-08
5495 5496 -4.6e-06
5496 5496 762
5497 5496 -1.31234e-08
5568 5496 -1.27297e-08
5578 5496 -5.72203e-17
5759 5496 -1.28746e-16
5760 5496 -1.31234e-08
5859 5496 -2.09974e-09
5494 5497 -4.6e-06
5495 5497 -9.81043e-14
5496 5497 -1e-05
5497 5497 762
5567 5497 -1.27297e-08
5568 5497 -1.67056e-16
5578 5497 -5.72203e-17
5759 5497 -1.28746e-16
5760 5497 -1.31234e-08
5859 5497 -2.09974e-09
5498 5498 422
5499 5498 -1.09005e-08
5580 5498 -9.47867e-09
5759 5498 -2.1327e-08
5498 5499 -4.6e-06
5499 5499 592
5502 5499 -1.63851e-08
5580 5499 -7.36518e-17
5759 5499 -1.65717e-16
5760 5499 -1.68919e-08
5859 5499 -2.7027e-09
5500 5500 422
5501 5500 -2.1327e-08
5502 5500 -1.09005e-08
5579 5500 -9.47867e-09
5759 5500 -2.1327e-08
5500 5501 -9e-06
5501 5501 422
5502 5501 -2.32475e-16
5567 5501 -1.09005e-08
5577 5501 -9.47867e-09
5579 5501 -2.02152e-16
5759 5501 -2.1327e-08
5499 5502 -9.7e-06
5500 5502 -4.6e-06
5501 5502 -9.81043e-14
5502 5502 762
5567 5502 -1.31234e-08
5577 5502 -1.22034e-24
5579 5502 -5.72203e-17
5580 5502 -9.37563e-25
5759 5502 -1.28746e-16
5760 5502 -1.31234e-08
5859 5502 -2.09974e-09
5503 5503 252
5504 5503 -1.8254e-08
5580 5503 -1.5873e-08
5759 5503 -3.57143e-08
5503 5504 -4.6e-06
5504 5504 422
5507 5504 -2.29858e-08
5580 5504 -1.73023e-16
5759 5504 -3.89303e-16
5760 5504 -2.36967e-08
5859 5504 -3.79147e-09
5505 5505 422
5506 5505 -2.1327e-08
5566 5505 -1.09005e-08
5577 5505 -9.47867e-09
5759 5505 -2.1327e-08
5505 5506 -9e-06
5506 5506 422
5507 5506 -1.09005e-08
5566 5506 -2.32475e-16
5577 5506 -2.02152e-16
5579 5506 -9.47867e-09
5759 5506 -2.1327e-08
5504 5507 -9.7e-06
5506 5507 -4.6e-06
5507 5507 762
5566 5507 -1.31234e-08
5577 5507 -1.22034e-24
5579 5507 -5.72203e-17
5580 5507 -2.20253e-24
5759 5507 -1.28746e-16
5760 5507 -1.31234e-08
5859 5507 -2.09974e-09
5508 5508 422
5509 5508 -2.1327e-08
5511 5508 -1.09005e-08
5578 5508 -9.47867e-09
5759 5508 -2.1327e-08
5508 5509 -9e-06
5509 5509 422
5510 5509 -1.09005e-08
5511 5509 -2.32475e-16
5578 5509 -9.47867e-09
5759 5509 -2.1327e-08
5509 5510 -4.6e-06
5510 5510 762
5511 5510 -1.31234e-08
5566 5510 -1.27297e-08
5578 5510 -5.72203e-17
5759 5510 -1.28746e-16
5760 5510 -1.31234e-08
5859 5510 -2.09974e-09
5508 5511 -4.6e-06
5509 5511 -9.81043e-14
5510 5511 -1e-05
5511 5511 762
5565 5511 -1.27297e-08
5566 5511 -1.67056e-16
5578 5511 -5.72203e-17
5759 5511 -1.28746e-16
5760 5511 -1.31234e-08
5859 5511 -2.09974e-09
5512 5512 422
5513 5512 -1.09005e-08
5580 5512 -9.47867e-09
5759 5512 -2.1327e-08
5512 5513 -4.6e-06
5513 5513 592
5516 5513 -1.63851e-08
5580 5513 -7.36518e-17
5759 5513 -1.65717e-16
5760 5513 -1.68919e-08
5859 5513 -2.7027e-09
5514 5514 422
5515 5514 -2.1327e-08
5516 5514 -1.09005e-08
5579 5514 -9.47867e-09
5759 5514 -2.1327e-08
5514 5515 -9e-06
5515 5515 422
5516 5515 -2.32475e-16
5565 5515 -1.09005e-08
5577 5515 -9.47867e-09
5579 5515 -2.02152e-16
5759 5515 -2.1327e-08
5513 5516 -9.7e-06
5514 5516 -4.6e-06
5515 5516 -9.81043e-14
5516 5516 762
5565 5516 -1.31234e-08
5577 5516 -1.22034e-24
5579 5516 -5.72203e-17
5580 5516 -9.37563e-25
5759 5516 -1.28746e-16
5760 5516 -1.31234e-08
5859 5516 -2.09974e-09
5517 5517 252
5518 5517 -1.8254e-08
5580 5517 -1.5873e-08
5759 5517 -3.57143e-08
5517 5518 -4.6e-06
5518 5518 422
5521 5518 -2.29858e-08
5580 5518 -1.73023e-16
5759 5518 -3.89303e-16
5760 5518 -2.36967e-08
5859 5518 -3.79147e-09
5519 5519 422
5520 5519 -2.1327e-08
5564 5519 -1.09005e-08
5577 5519 -9.47867e-09
5759 5519 -2.1327e-08
5519 5520 -9e-06
5520 5520 422
5521 5520 -1.09005e-08
5564 5520 -2.32475e-16
5577 5520 -2.02152e-16
5579 5520 -9.47867e-09
5759 5520 -2.1327e-08
5518 5521 -9.7e-06
5520 5521 -4.6e-06
5521 5521 762
5564 5521 -1.31234e-08
5577 5521 -1.22034e-24
5579 5521 -5.72203e-17
5580 5521 -2.20253e-24
5759 5521 -1.28746e-16
5760 5521 -1.31234e-08
5859 5521 -2.09974e-09
5522 5522 422
5523 5522 -2.1327e-08
5525 5522 -1.09005e-08
5578 5522 -9.47867e-09
5759 5522 -2.1327e-08
5522 5523 -9e-06
5523 5523 422
5524 5523 -1.09005e-08
5525 5523 -2.32475e-16
5578 5523 -9.47867e-09
5759 5523 -2.1327e-08
5523 5524 -4.6e-06
5524 5524 762
5525 5524 -1.31234e-08
5564 5524 -1.27297e-08
5578 5524 -5.72203e-17
5759 5524 -1.28746e-16
5760 5524 -1.31234e-08
5859 5524 -2.09974e-09
5522 5525 -4.6e-06
5523 5525 -9.81043e-14
5524 5525 -1e-05
5525 5525 762
5563 5525 -1.27297e-08
5564 5525 -1.67056e-16
5578 5525 -5.72203e-17
5759 5525 -1.28746e-16
5760 5525 -1.31234e-08
5859 5525 -2.09974e-09
5526 5526 422
5527 5526 -1.09005e-08
5580 5526 -9.47867e-09
5759 5526 -2.1327e-08
5526 5527 -4.6e-06
5527 5527 592
5530 5527 -1.63851e-08
5580 5527 -7.36518e-17
5759 5527 -1.65717e-16
5760 5527 -1.68919e-08
5859 5527 -2.7027e-09
5528 5528 422
5529 5528 -2.1327e-08
5530 5528 -1.09005e-08
5579 5528 -9.47867e-09
5759 5528 -2.1327e-08
5528 5529 -9e-06
5529 5529 422
5530 5529 -2.32475e-16
5563 5529 -1.09005e-08
5577 5529 -9.47867e-09
5579 5529 -2.02152e-16
5759 5529 -2.1327e-08
5527 5530 -9.7e-06
5528 5530 -4.6e-06
5529 5530 -9.81043e-14
5530 5530 762
5563 5530 -1.31234e-08
5577 5530 -1.22034e-24
5579 5530 -5.72203e-17
5580 5530 -9.37563e-25
5759 5530 -1.28746e-16
5760 5530 -1.31234e-08
5859 5530 -2.09974e-09
5531 5531 252
5532 5531 -1.8254e-08
5580 5531 -1.5873e-08
5759 5531 -3.57143e-08
5531 5532 -4.6e-06
5532 5532 422
5535 5532 -2.29858e-08
5580 5532 -1.73023e-16
5759 5532 -3.89303e-16
5760 5532 -2.36967e-08
5859 5532 -3.79147e-09
5533 5533 422
5534 5533 -2.1327e-08
5562 5533 -1.09005e-08
5577 5533 -9.47867e-09
5759 5533 -2.1327e-08
5533 5534 -9e-06
5534 5534 422
5535 5534 -1.09005e-08
5562 5534 -2.32475e-16
5577 5534 -2.02152e-16
5579 5534 -9.47867e-09
5759 5534 -2.1327e-08
5532 5535 -9.7e-06
5534 5535 -4.6e-06
5535 5535 762
5562 5535 -1.31234e-08
5577 5535 -1.22034e-24
5579 5535 -5.72203e-17
5580 5535 -2.20253e-24
5759 5535 -1.28746e-16
5760 5535 -1.31234e-08
5859 5535 -2.09974e-09
5536 5536 422
5537 5536 -2.1327e-08
5539 5536 -1.09005e-08
5578 5536 -9.47867e-09
5759 5536 -2.1327e-08
5536 5537 -9e-06
5537 5537 422
5538 5537 -1.09005e-08
5539 5537 -2.32475e-16
5578 5537 -9.47867e-09
5759 5537 -2.1327e-08
5537 5538 -4.6e-06
5538 5538 762
5539 5538 -1.31234e-08
5562 5538 -1.27297e-08
5578 5538 -5.72203e-17
5759 5538 -1.28746e-16
5760 5538 -1.31234e-08
5859 5538 -2.09974e-09
5536 5539 -4.6e-06
5537 5539 -9.81043e-14
5538 5539 -1e-05
5539 5539 762
5561 5539 -1.27297e-08
5562 5539 -1.67056e-16
5578 5539 -5.72203e-17
5759 5539 -1.28746e-16
5760 5539 -1.31234e-08
5859 5539 -2.09974e-09
5540 5540 422
5541 5540 -1.09005e-08
5580 5540 -9.47867e-09
5759 5540 -2.1327e-08
5540 5541 -4.6e-06
5541 5541 592
5544 5541 -1.63851e-08
5580 5541 -7.36518e-17
5759 5541 -1.65717e-16
5760 5541 -1.68919e-08
5859 5541 -2.7027e-09
5542 5542 422
5543 5542 -2.1327e-08
5544 5542 -1.09005e-08
5579 5542 -9.47867e-09
5759 5542 -2.1327e-08
5542 5543 -9e-06
5543 5543 422
5544 5543 -2.32475e-16
5561 5543 -1.09005e-08
5577 5543 -9.47867e-09
5579 5543 -2.02152e-16
5759 5543 -2.1327e-08
5541 5544 -9.7e-06
5542 5544 -4.6e-06
5543 5544 -9.81043e-14
5544 5544 762
5561 5544 -1.31234e-08
5577 5544 -1.22034e-24
5579 5544 -5.72203e-17
5580 5544 -9.37563e-25
5759 5544 -1.28746e-16
5760 5544 -1.31234e-08
5859 5544 -2.09974e-09
5545 5545 252
5546 5545 -1.8254e-08
5580 5545 -1.5873e-08
5759 5545 -3.57143e-08
5545 5546 -4.6e-06
5546 5546 422
5549 5546 -2.29858e-08
5580 5546 -1.73023e-16
5759 5546 -3.89303e-16
5760 5546 -2.36967e-08
5859 5546 -3.79147e-09
5547 5547 422
5548 5547 -2.1327e-08
5549 5547 -1.09005e-08
5579 5547 -9.47867e-09
5759 5547 -2.1327e-08
5547 5548 -9e-06
5548 5548 422
5549 5548 -2.32475e-16
5560 5548 -1.09005e-08
5577 5548 -9.47867e-09
5579 5548 -2.02152e-16
5759 5548 -2.1327e-08
5546 5549 -9.7e-06
5547 5549 -4.6e-06
5548 5549 -9.81043e-14
5549 5549 762
5560 5549 -1.31234e-08
5577 5549 -1.22034e-24
5579 5549 -5.72203e-17
5580 5549 -2.20253e-24
5759 5549 -1.28746e-16
5760 5549 -1.31234e-08
5859 5549 -2.09974e-09
5550 5550 422
5551 5550 -2.1327e-08
5553 5550 -1.09005e-08
5578 5550 -9.47867e-09
5759 5550 -2.1327e-08
5550 5551 -9e-06
5551 5551 422
5552 5551 -1.09005e-08
5553 5551 -2.32475e-16
5578 5551 -9.47867e-09
5759 5551 -2.1327e-08
5551 5552 -4.6e-06
5552 5552 762
5553 5552 -1.31234e-08
5560 5552 -1.27297e-08
5578 5552 -5.72203e-17
5759 5552 -1.28746e-16
5760 5552 -1.31234e-08
5859 5552 -2.09974e-09
5550 5553 -4.6e-06
5551 5553 -9.81043e-14
5552 5553 -1e-05
5553 5553 762
5559 5553 -1.27297e-08
5560 5553 -1.67056e-16
5578 5553 -5.72203e-17
5759 5553 -1.28746e-16
5760 5553 -1.31234e-08
5859 5553 -2.09974e-09
5554 5554 422
5555 5554 -1.09005e-08
5580 5554 -9.47867e-09
5759 5554 -2.1327e-08
5554 5555 -4.6e-06
5555 5555 592
5558 5555 -1.63851e-08
5580 5555 -7.36518e-17
5759 5555 -1.65717e-16
5760 5555 -1.68919e-08
5859 5555 -2.7027e-09
5556 5556 422
5557 5556 -2.1327e-08
5558 5556 -1.09005e-08
5579 5556 -9.47867e-09
5759 5556 -2.1327e-08
5556 5557 -9e-06
5557 5557 422
5558 5557 -2.32475e-16
5559 5557 -1.09005e-08
5577 5557 -9.47867e-09
5579 5557 -2.02152e-16
5759 5557 -2.1327e-08
5555 5558 -9.7e-06
5556 5558 -4.6e-06
5557 5558 -9.81043e-14
5558 5558 762
5559 5558 -1.31234e-08
5577 5558 -1.22034e-24
5579 5558 -5.72203e-17
5580 5558 -9.37563e-25
5759 5558 -1.28746e-16
5760 5558 -1.31234e-08
5859 5558 -2.09974e-09
5553 5559 -9.7e-06
5557 5559 -4.6e-06
5558 5559 -1e-05
5559 5559 592
5560 5559 -2.73723e-24
5577 5559 -7.36518e-17
5578 5559 -9.37563e-25
5579 5559 -2.53733e-24
5580 5559 -1.58372e-32
5759 5559 -1.65717e-16
5760 5559 -1.68919e-08
5859 5559 -2.7027e-09
5548 5560 -4.6e-06
5549 5560 -1e-05
5552 5560 -9.7e-06
5553 5560 -1.27297e-13
5559 5560 -1.62044e-21
5560 5560 592
5577 5560 -7.36518e-17
5578 5560 -9.37563e-25
5579 5560 -2.53733e-24
5580 5560 -3.72049e-32
5759 5560 -1.65717e-16
5760 5560 -1.68919e-08
5859 5560 -2.7027e-09
5539 5561 -9.7e-06
5543 5561 -4.6e-06
5544 5561 -1e-05
5561 5561 592
5562 5561 -2.73723e-24
5577 5561 -7.36518e-17
5578 5561 -9.37563e-25
5579 5561 -2.53733e-24
5580 5561 -1.58372e-32
5759 5561 -1.65717e-16
5760 5561 -1.68919e-08
5859 5561 -2.7027e-09
5533 5562 -4.6e-06
5534 5562 -9.81043e-14
5535 5562 -1e-05
5538 5562 -9.7e-06
5539 5562 -1.27297e-13
5561 5562 -1.62044e-21
5562 5562 592
5577 5562 -7.36518e-17
5578 5562 -9.37563e-25
5579 5562 -2.53733e-24
5580 5562 -3.72049e-32
5759 5562 -1.65717e-16
5760 5562 -1.68919e-08
5859 5562 -2.7027e-09
5525 5563 -9.7e-06
5529 5563 -4.6e-06
5530 5563 -1e-05
5563 5563 592
5564 5563 -2.73723e-24
5577 5563 -7.36518e-17
5578 5563 -9.37563e-25
5579 5563 -2.53733e-24
5580 5563 -1.58372e-32
5759 5563 -1.65717e-16
5760 5563 -1.68919e-08
5859 5563 -2.7027e-09
5519 5564 -4.6e-06
5520 5564 -9.81043e-14
5521 5564 -1e-05
5524 5564 -9.7e-06
5525 5564 -1.27297e-13
5563 5564 -1.62044e-21
5564 5564 592
5577 5564 -7.36518e-17
5578 5564 -9.37563e-25
5579 5564 -2.53733e-24
5580 5564 -3.72049e-32
5759 5564 -1.65717e-16
5760 5564 -1.68919e-08
5859 5564 -2.7027e-09
5511 5565 -9.7e-06
5515 5565 -4.6e-06
5516 5565 -1e-05
5565 5565 592
5566 5565 -2.73723e-24
5577 5565 -7.36518e-17
5578 5565 -9.37563e-25
5579 5565 -2.53733e-24
5580 5565 -1.58372e-32
5759 5565 -1.65717e-16
5760 5565 -1.68919e-08
5859 5565 -2.7027e-09
5505 5566 -4.6e-06
5506 5566 -9.81043e-14
5507 5566 -1e-05
5510 5566 -9.7e-06
5511 5566 -1.27297e-13
5565 5566 -1.62044e-21
5566 5566 592
5577 5566 -7.36518e-17
5578 5566 -9.37563e-25
5579 5566 -2.53733e-24
5580 5566 -3.72049e-32
5759 5566 -1.65717e-16
5760 5566 -1.68919e-08
5859 5566 -2.7027e-09
5497 5567 -9.7e-06
5501 5567 -4.6e-06
5502 5567 -1e-05
5567 5567 592
5568 5567 -2.73723e-24
5577 5567 -7.36518e-17
5578 5567 -9.37563e-25
5579 5567 -2.53733e-24
5580 5567 -1.58372e-32
5759 5567 -1.65717e-16
5760 5567 -1.68919e-08
5859 5567 -2.7027e-09
5491 5568 -4.6e-06
5492 5568 -9.81043e-14
5493 5568 -1e-05
5496 5568 -9.7e-06
5497 5568 -1.27297e-13
5567 5568 -1.62044e-21
5568 5568 592
5577 5568 -7.36518e-17
5578 5568 -9.37563e-25
5579 5568 -2.53733e-24
5580 5568 -3.72049e-32
5759 5568 -1.65717e-16
5760 5568 -1.68919e-08
5859 5568 -2.7027e-09
5483 5569 -4.6e-06
5484 5569 -1e-05
5488 5569 -9.7e-06
5569 5569 592
5570 5569 -2.73723e-24
5577 5569 -7.36518e-17
5578 5569 -9.37563e-25
5579 5569 -2.53733e-24
5580 5569 -1.58372e-32
5759 5569 -1.65717e-16
5760 5569 -1.68919e-08
5859 5569 -2.7027e-09
5478 5570 -4.6e-06
5479 5570 -1e-05
5487 5570 -9.7e-06
5488 5570 -1.27297e-13
5569 5570 -1.62044e-21
5570 5570 592
5577 5570 -7.36518e-17
5578 5570 -9.37563e-25
5579 5570 -2.53733e-24
5580 5570 -3.72049e-32
5759 5570 -1.65717e-16
5760 5570 -1.68919e-08
5859 5570 -2.7027e-09
5469 5571 -4.6e-06
5470 5571 -1e-05
5474 5571 -9.7e-06
5571 5571 592
5572 5571 -2.73723e-24
5577 5571 -7.36518e-17
5578 5571 -9.37563e-25
5579 5571 -2.53733e-24
5580 5571 -1.58372e-32
5759 5571 -1.65717e-16
5760 5571 -1.68919e-08
5859 5571 -2.7027e-09
5464 5572 -4.6e-06
5465 5572 -1e-05
5473 5572 -9.7e-06
5474 5572 -1.27297e-13
5571 5572 -1.62044e-21
5572 5572 592
5577 5572 -7.36518e-17
5578 5572 -9.37563e-25
5579 5572 -2.53733e-24
5580 5572 -3.72049e-32
5759 5572 -1.65717e-16
5760 5572 -1.68919e-08
5859 5572 -2.7027e-09
5455 5573 -4.6e-06
5456 5573 -1e-05
5460 5573 -9.7e-06
5573 5573 592
5574 5573 -2.73723e-24
5577 5573 -7.36518e-17
5578 5573 -9.37563e-25
5579 5573 -2.53733e-24
5580 5573 -1.58372e-32
5759 5573 -1.65717e-16
5760 5573 -1.68919e-08
5859 5573 -2.7027e-09
5450 5574 -4.6e-06
5451 5574 -1e-05
5459 5574 -9.7e-06
5460 5574 -1.27297e-13
5573 5574 -1.62044e-21
5574 5574 592
5577 5574 -7.36518e-17
5578 5574 -9.37563e-25
5579 5574 -2.53733e-24
5580 5574 -3.72049e-32
5759 5574 -1.65717e-16
5760 5574 -1.68919e-08
5859 5574 -2.7027e-09
5441 5575 -4.6e-06
5442 5575 -1e-05
5446 5575 -9.7e-06
5575 5575 592
5576 5575 -2.73723e-24
5577 5575 -7.36518e-17
5578 5575 -9.37563e-25
5579 5575 -2.53733e-24
5580 5575 -1.58372e-32
5759 5575 -1.65717e-16
5760 5575 -1.68919e-08
5859 5575 -2.7027e-09
5436 5576 -4.6e-06
5437 5576 -1e-05
5445 5576 -9.7e-06
5446 5576 -1.27297e-13
5575 5576 -1.62044e-21
5576 5576 592
5577 5576 -7.36518e-17
5578 5576 -9.37563e-25
5579 5576 -2.53733e-24
5580 5576 -3.72049e-32
5759 5576 -1.65717e-16
5760 5576 -1.68919e-08
5859 5576 -2.7027e-09
5428 5577 -2.1e-05
5429 5577 -3.4585e-14
5432 5577 -2.42095e-13
5436 5577 -4e-06
5437 5577 -9.29898e-22
5441 5577 -4e-06
5442 5577 -9.29898e-22
5450 5577 -4e-06
5451 5577 -9.29898e-22
5455 5577 -4e-06
5456 5577 -9.29898e-22
5464 5577 -4e-06
5465 5577 -9.29898e-22
5469 5577 -4e-06
5470 5577 -9.29898e-22
5478 5577 -4e-06
5479 5577 -9.29898e-22
5483 5577 -4e-06
5484 5577 -9.29898e-22
5491 5577 -4e-06
5492 5577 -8.5308e-14
5493 5577 -9.29898e-22
5501 5577 -4e-06
5502 5577 -9.29898e-22
5505 5577 -4e-06
5506 5577 -8.5308e-14
5507 5577 -9.29898e-22
5515 5577 -4e-06
5516 5577 -9.29898e-22
5519 5577 -4e-06
5520 5577 -8.5308e-14
5521 5577 -9.29898e-22
5529 5577 -4e-06
5530 5577 -9.29898e-22
5533 5577 -4e-06
5534 5577 -8.5308e-14
5535 5577 -9.29898e-22
5543 5577 -4e-06
5544 5577 -9.29898e-22
5548 5577 -4e-06
5549 5577 -9.29898e-22
5557 5577 -4e-06
5558 5577 -9.29898e-22
5559 5577 -4.36019e-14
5560 5577 -4.36019e-14
5561 5577 -4.36019e-14
5562 5577 -4.36019e-14
5563 5577 -4.36019e-14
5564 5577 -4.36019e-14
5565 5577 -4.36019e-14
5566 5577 -4.36019e-14
5567 5577 -4.36019e-14
5568 5577 -4.36019e-14
5569 5577 -4.36019e-14
5570 5577 -4.36019e-14
5571 5577 -4.36019e-14
5572 5577 -4.36019e-14
5573 5577 -4.36019e-14
5574 5577 -4.36019e-14
5575 5577 -4.36019e-14
5576 5577 -4.36019e-14
5577 5577 28401
5578 5577 -1.58445e-09
5579 5577 -5.12479e-25
5580 5577 -0
5739 5577 -6.35827e-31
5740 5577 -6.35827e-31
5759 5577 -5.40666e-17
5760 5577 -4.66791e-25
5859 5577 -7.46866e-26
5429 5578 -2.1e-05
5432 5578 -2.42095e-13
5443 5578 -4e-06
5444 5578 -4e-06
5445 5578 -4.36019e-14
5446 5578 -4.36019e-14
5457 5578 -4e-06
5458 5578 -4e-06
5459 5578 -4.36019e-14
5460 5578 -4.36019e-14
5471 5578 -4e-06
5472 5578 -4e-06
5473 5578 -4.36019e-14
5474 5578 -4.36019e-14
5485 5578 -4e-06
5486 5578 -4e-06
5487 5578 -4.36019e-14
5488 5578 -4.36019e-14
5494 5578 -4e-06
5495 5578 -4e-06
5496 5578 -4.36019e-14
5497 5578 -4.36019e-14
5508 5578 -4e-06
5509 5578 -4e-06
5510 5578 -4.36019e-14
5511 5578 -4.36019e-14
5522 5578 -4e-06
5523 5578 -4e-06
5524 5578 -4.36019e-14
5525 5578 -4.36019e-14
5536 5578 -4e-06
5537 5578 -4e-06
5538 5578 -4.36019e-14
5539 5578 -4.36019e-14
5550 5578 -4e-06
5551 5578 -4e-06
5552 5578 -4.36019e-14
5553 5578 -4.36019e-14
5559 5578 -5.55037e-22
5560 5578 -5.55037e-22
5561 5578 -5.55037e-22
5562 5578 -5.55037e-22
5563 5578 -5.55037e-22
5564 5578 -5.55037e-22
5565 5578 -5.55037e-22
5566 5578 -5.55037e-22
5567 5578 -5.55037e-22
5568 5578 -5.55037e-22
5569 5578 -5.55037e-22
5570 5578 -5.55037e-22
5571 5578 -5.55037e-22
5572 5578 -5.55037e-22
5573 5578 -5.55037e-22
5574 5578 -5.55037e-22
5575 5578 -5.55037e-22
5576 5578 -5.55037e-22
5577 5578 -4.5e-05
5578 5578 28571
5579 5578 -8.07167e-34
5580 5578 0
5739 5578 -6.32044e-31
5740 5578 -6.32044e-31
5759 5578 -5.37449e-17
5760 5578 -3.60493e-25
5859 5578 -5.7679e-26
5424 5579 -2.1e-05
5427 5579 -2.42095e-13
5435 5579 -4e-06
5436 5579 -8.5308e-14
5437 5579 -4.36019e-14
5440 5579 -4e-06
5441 5579 -8.5308e-14
5442 5579 -4.36019e-14
5449 5579 -4e-06
5450 5579 -8.5308e-14
5451 5579 -4.36019e-14
5454 5579 -4e-06
5455 5579 -8.5308e-14
5456 5579 -4.36019e-14
5463 5579 -4e-06
5464 5579 -8.5308e-14
5465 5579 -4.36019e-14
5468 5579 -4e-06
5469 5579 -8.5308e-14
5470 5579 -4.36019e-14
5477 5579 -4e-06
5478 5579 -8.5308e-14
5479 5579 -4.36019e-14
5482 5579 -4e-06
5483 5579 -8.5308e-14
5484 5579 -4.36019e-14
5492 5579 -4e-06
5493 5579 -4.36019e-14
5500 5579 -4e-06
5501 5579 -8.5308e-14
5502 5579 -4.36019e-14
5506 5579 -4e-06
5507 5579 -4.36019e-14
5514 5579 -4e-06
5515 5579 -8.5308e-14
5516 5579 -4.36019e-14
5520 5579 -4e-06
5521 5579 -4.36019e-14
5528 5579 -4e-06
5529 5579 -8.5308e-14
5530 5579 -4.36019e-14
5534 5579 -4e-06
5535 5579 -4.36019e-14
5542 5579 -4e-06
5543 5579 -8.5308e-14
5544 5579 -4.36019e-14
5547 5579 -4e-06
5548 5579 -8.5308e-14
5549 5579 -4.36019e-14
5556 5579 -4e-06
5557 5579 -8.5308e-14
5558 5579 -4.36019e-14
5559 5579 -1.5021e-21
5560 5579 -1.5021e-21
5561 5579 -1.5021e-21
5562 5579 -1.5021e-21
5563 5579 -1.5021e-21
5564 5579 -1.5021e-21
5565 5579 -1.5021e-21
5566 5579 -1.5021e-21
5567 5579 -1.5021e-21
5568 5579 -1.5021e-21
5569 5579 -1.5021e-21
5570 5579 -1.5021e-21
5571 5579 -1.5021e-21
5572 5579 -1.5021e-21
5573 5579 -1.5021e-21
5574 5579 -1.5021e-21
5575 5579 -1.5021e-21
5576 5579 -1.5021e-21
5577 5579 -1.45549e-20
5578 5579 -2.30616e-29
5579 5579 28571
5580 5579 -1.57502e-09
5739 5579 0
5740 5579 0
5741 5579 -6.32044e-31
5746 5579 -6.32044e-31
5759 5579 -5.37449e-17
5760 5579 -3.60493e-25
5859 5579 -5.7679e-26
5423 5580 -2.1e-05
5424 5580 -3.4585e-14
5427 5580 -2.42095e-13
5433 5580 -4e-06
5434 5580 -7.30159e-14
5437 5580 -1.67833e-21
5438 5580 -4e-06
5439 5580 -4.36019e-14
5442 5580 -7.14423e-22
5447 5580 -4e-06
5448 5580 -7.30159e-14
5451 5580 -1.67833e-21
5452 5580 -4e-06
5453 5580 -4.36019e-14
5456 5580 -7.14423e-22
5461 5580 -4e-06
5462 5580 -7.30159e-14
5465 5580 -1.67833e-21
5466 5580 -4e-06
5467 5580 -4.36019e-14
5470 5580 -7.14423e-22
5475 5580 -4e-06
5476 5580 -7.30159e-14
5479 5580 -1.67833e-21
5480 5580 -4e-06
5481 5580 -4.36019e-14
5484 5580 -7.14423e-22
5489 5580 -4e-06
5490 5580 -7.30159e-14
5493 5580 -1.67833e-21
5498 5580 -4e-06
5499 5580 -4.36019e-14
5502 5580 -7.14423e-22
5503 5580 -4e-06
5504 5580 -7.30159e-14
5507 5580 -1.67833e-21
5512 5580 -4e-06
5513 5580 -4.36019e-14
5516 5580 -7.14423e-22
5517 5580 -4e-06
5518 5580 -7.30159e-14
5521 5580 -1.67833e-21
5526 5580 -4e-06
5527 5580 -4.36019e-14
5530 5580 -7.14423e-22
5531 5580 -4e-06
5532 5580 -7.30159e-14
5535 5580 -1.67833e-21
5540 5580 -4e-06
5541 5580 -4.36019e-14
5544 5580 -7.14423e-22
5545 5580 -4e-06
5546 5580 -7.30159e-14
5549 5580 -1.67833e-21
5554 5580 -4e-06
5555 5580 -4.36019e-14
5558 5580 -7.14423e-22
5559 5580 -9.37563e-30
5560 5580 -2.20253e-29
5561 5580 -9.37563e-30
5562 5580 -2.20253e-29
5563 5580 -9.37563e-30
5564 5580 -2.20253e-29
5565 5580 -9.37563e-30
5566 5580 -2.20253e-29
5567 5580 -9.37563e-30
5568 5580 -2.20253e-29
5569 5580 -9.37563e-30
5570 5580 -2.20253e-29
5571 5580 -9.37563e-30
5572 5580 -2.20253e-29
5573 5580 -9.37563e-30
5574 5580 -2.20253e-29
5575 5580 -9.37563e-30
5576 5580 -2.20253e-29
5577 5580 -3.78351e-44
5578 5580 0
5579 5580 -4.5e-05
5580 5580 28401
5739 5580 0
5740 5580 0
5741 5580 -6.35827e-31
5746 5580 -6.35827e-31
5759 5580 -7.23033e-17
5760 5580 -7.8169e-25
5859 5580 -1.2507e-25
5581 5581 3643.2
5582 5581 -1.6469e-09
5585 5581 -1.15283e-08
5738 5581 -5.76416e-09
5581 5582 -6e-06
5582 5582 3643.2
5585 5582 -1.15283e-08
5737 5582 -5.76416e-09
5738 5582 -9.49302e-18
5583 5583 170
5585 5583 -7.05881e-07
5741 5583 -7.05881e-07
5584 5584 170
5585 5584 -7.05881e-07
5746 5584 -7.05881e-07
5581 5585 -4.2e-05
5582 5585 -4.2e-05
5583 5585 -0.00012
5584 5585 -0.00012
5585 5585 1135.6
5737 5585 -2.13187e-16
5738 5585 -2.13187e-16
5741 5585 -7.45912e-14
5746 5585 -7.45912e-14
5586 5586 3643.2
5587 5586 -1.6469e-09
5590 5586 -1.15283e-08
5735 5586 -5.76416e-09
5586 5587 -6e-06
5587 5587 3643.2
5590 5587 -1.15283e-08
5735 5587 -9.49302e-18
5736 5587 -5.76416e-09
5588 5588 170
5590 5588 -7.05881e-07
5740 5588 -7.05881e-07
5589 5589 170
5590 5589 -7.05881e-07
5739 5589 -7.05881e-07
5586 5590 -4.2e-05
5587 5590 -4.2e-05
5588 5590 -0.00012
5589 5590 -0.00012
5590 5590 1135.6
5735 5590 -2.13187e-16
5736 5590 -2.13187e-16
5739 5590 -7.45912e-14
5740 5590 -7.45912e-14
5591 5591 252
5592 5591 -1.8254e-08
5738 5591 -1.5873e-08
5761 5591 -3.57143e-08
5591 5592 -4.6e-06
5592 5592 422
5595 5592 -2.29858e-08
5738 5592 -1.73023e-16
5761 5592 -3.89303e-16
5762 5592 -2.36967e-08
5859 5592 -3.79147e-09
5593 5593 422
5594 5593 -2.1327e-08
5595 5593 -1.09005e-08
5737 5593 -9.47867e-09
5761 5593 -2.1327e-08
5593 5594 -9e-06
5594 5594 422
5595 5594 -2.32475e-16
5734 5594 -1.09005e-08
5735 5594 -9.47867e-09
5737 5594 -2.02152e-16
5761 5594 -2.1327e-08
5592 5595 -9.7e-06
5593 5595 -4.6e-06
5594 5595 -9.81043e-14
5595 5595 762
5734 5595 -1.31234e-08
5735 5595 -1.22034e-24
5737 5595 -5.72203e-17
5738 5595 -2.20253e-24
5761 5595 -1.28746e-16
5762 5595 -1.31234e-08
5859 5595 -2.09974e-09
5596 5596 422
5597 5596 -1.09005e-08
5738 5596 -9.47867e-09
5761 5596 -2.1327e-08
5596 5597 -4.6e-06
5597 5597 592
5600 5597 -1.63851e-08
5738 5597 -7.36518e-17
5761 5597 -1.65717e-16
5762 5597 -1.68919e-08
5859 5597 -2.7027e-09
5598 5598 422
5599 5598 -2.1327e-08
5600 5598 -1.09005e-08
5737 5598 -9.47867e-09
5761 5598 -2.1327e-08
5598 5599 -9e-06
5599 5599 422
5600 5599 -2.32475e-16
5733 5599 -1.09005e-08
5735 5599 -9.47867e-09
5737 5599 -2.02152e-16
5761 5599 -2.1327e-08
5597 5600 -9.7e-06
5598 5600 -4.6e-06
5599 5600 -9.81043e-14
5600 5600 762
5733 5600 -1.31234e-08
5735 5600 -1.22034e-24
5737 5600 -5.72203e-17
5738 5600 -9.37563e-25
5761 5600 -1.28746e-16
5762 5600 -1.31234e-08
5859 5600 -2.09974e-09
5601 5601 422
5602 5601 -2.1327e-08
5604 5601 -1.09005e-08
5736 5601 -9.47867e-09
5761 5601 -2.1327e-08
5601 5602 -9e-06
5602 5602 422
5603 5602 -1.09005e-08
5604 5602 -2.32475e-16
5736 5602 -9.47867e-09
5761 5602 -2.1327e-08
5602 5603 -4.6e-06
5603 5603 762
5604 5603 -1.31234e-08
5734 5603 -1.27297e-08
5736 5603 -5.72203e-17
5761 5603 -1.28746e-16
5762 5603 -1.31234e-08
5859 5603 -2.09974e-09
5601 5604 -4.6e-06
5602 5604 -9.81043e-14
5603 5604 -1e-05
5604 5604 762
5733 5604 -1.27297e-08
5734 5604 -1.67056e-16
5736 5604 -5.72203e-17
5761 5604 -1.28746e-16
5762 5604 -1.31234e-08
5859 5604 -2.09974e-09
5605 5605 252
5606 5605 -1.8254e-08
5738 5605 -1.5873e-08
5761 5605 -3.57143e-08
5605 5606 -4.6e-06
5606 5606 422
5609 5606 -2.29858e-08
5738 5606 -1.73023e-16
5761 5606 -3.89303e-16
5762 5606 -2.36967e-08
5859 5606 -3.79147e-09
5607 5607 422
5608 5607 -2.1327e-08
5609 5607 -1.09005e-08
5737 5607 -9.47867e-09
5761 5607 -2.1327e-08
5607 5608 -9e-06
5608 5608 422
5609 5608 -2.32475e-16
5732 5608 -1.09005e-08
5735 5608 -9.47867e-09
5737 5608 -2.02152e-16
5761 5608 -2.1327e-08
5606 5609 -9.7e-06
5607 5609 -4.6e-06
5608 5609 -9.81043e-14
5609 5609 762
5732 5609 -1.31234e-08
5735 5609 -1.22034e-24
5737 5609 -5.72203e-17
5738 5609 -2.20253e-24
5761 5609 -1.28746e-16
5762 5609 -1.31234e-08
5859 5609 -2.09974e-09
5610 5610 422
5611 5610 -1.09005e-08
5738 5610 -9.47867e-09
5761 5610 -2.1327e-08
5610 5611 -4.6e-06
5611 5611 592
5614 5611 -1.63851e-08
5738 5611 -7.36518e-17
5761 5611 -1.65717e-16
5762 5611 -1.68919e-08
5859 5611 -2.7027e-09
5612 5612 422
5613 5612 -2.1327e-08
5614 5612 -1.09005e-08
5737 5612 -9.47867e-09
5761 5612 -2.1327e-08
5612 5613 -9e-06
5613 5613 422
5614 5613 -2.32475e-16
5731 5613 -1.09005e-08
5735 5613 -9.47867e-09
5737 5613 -2.02152e-16
5761 5613 -2.1327e-08
5611 5614 -9.7e-06
5612 5614 -4.6e-06
5613 5614 -9.81043e-14
5614 5614 762
5731 5614 -1.31234e-08
5735 5614 -1.22034e-24
5737 5614 -5.72203e-17
5738 5614 -9.37563e-25
5761 5614 -1.28746e-16
5762 5614 -1.31234e-08
5859 5614 -2.09974e-09
5615 5615 422
5616 5615 -2.1327e-08
5618 5615 -1.09005e-08
5736 5615 -9.47867e-09
5761 5615 -2.1327e-08
5615 5616 -9e-06
5616 5616 422
5617 5616 -1.09005e-08
5618 5616 -2.32475e-16
5736 5616 -9.47867e-09
5761 5616 -2.1327e-08
5616 5617 -4.6e-06
5617 5617 762
5618 5617 -1.31234e-08
5732 5617 -1.27297e-08
5736 5617 -5.72203e-17
5761 5617 -1.28746e-16
5762 5617 -1.31234e-08
5859 5617 -2.09974e-09
5615 5618 -4.6e-06
5616 5618 -9.81043e-14
5617 5618 -1e-05
5618 5618 762
5731 5618 -1.27297e-08
5732 5618 -1.67056e-16
5736 5618 -5.72203e-17
5761 5618 -1.28746e-16
5762 5618 -1.31234e-08
5859 5618 -2.09974e-09
5619 5619 252
5620 5619 -1.8254e-08
5738 5619 -1.5873e-08
5761 5619 -3.57143e-08
5619 5620 -4.6e-06
5620 5620 422
5623 5620 -2.29858e-08
5738 5620 -1.73023e-16
5761 5620 -3.89303e-16
5762 5620 -2.36967e-08
5859 5620 -3.79147e-09
5621 5621 422
5622 5621 -2.1327e-08
5623 5621 -1.09005e-08
5737 5621 -9.47867e-09
5761 5621 -2.1327e-08
5621 5622 -9e-06
5622 5622 422
5623 5622 -2.32475e-16
5730 5622 -1.09005e-08
5735 5622 -9.47867e-09
5737 5622 -2.02152e-16
5761 5622 -2.1327e-08
5620 5623 -9.7e-06
5621 5623 -4.6e-06
5622 5623 -9.81043e-14
5623 5623 762
5730 5623 -1.31234e-08
5735 5623 -1.22034e-24
5737 5623 -5.72203e-17
5738 5623 -2.20253e-24
5761 5623 -1.28746e-16
5762 5623 -1.31234e-08
5859 5623 -2.09974e-09
5624 5624 422
5625 5624 -1.09005e-08
5738 5624 -9.47867e-09
5761 5624 -2.1327e-08
5624 5625 -4.6e-06
5625 5625 592
5628 5625 -1.63851e-08
5738 5625 -7.36518e-17
5761 5625 -1.65717e-16
5762 5625 -1.68919e-08
5859 5625 -2.7027e-09
5626 5626 422
5627 5626 -2.1327e-08
5628 5626 -1.09005e-08
5737 5626 -9.47867e-09
5761 5626 -2.1327e-08
5626 5627 -9e-06
5627 5627 422
5628 5627 -2.32475e-16
5729 5627 -1.09005e-08
5735 5627 -9.47867e-09
5737 5627 -2.02152e-16
5761 5627 -2.1327e-08
5625 5628 -9.7e-06
5626 5628 -4.6e-06
5627 5628 -9.81043e-14
5628 5628 762
5729 5628 -1.31234e-08
5735 5628 -1.22034e-24
5737 5628 -5.72203e-17
5738 5628 -9.37563e-25
5761 5628 -1.28746e-16
5762 5628 -1.31234e-08
5859 5628 -2.09974e-09
5629 5629 422
5630 5629 -2.1327e-08
5632 5629 -1.09005e-08
5736 5629 -9.47867e-09
5761 5629 -2.1327e-08
5629 5630 -9e-06
5630 5630 422
5631 5630 -1.09005e-08
5632 5630 -2.32475e-16
5736 5630 -9.47867e-09
5761 5630 -2.1327e-08
5630 5631 -4.6e-06
5631 5631 762
5632 5631 -1.31234e-08
5730 5631 -1.27297e-08
5736 5631 -5.72203e-17
5761 5631 -1.28746e-16
5762 5631 -1.31234e-08
5859 5631 -2.09974e-09
5629 5632 -4.6e-06
5630 5632 -9.81043e-14
5631 5632 -1e-05
5632 5632 762
5729 5632 -1.27297e-08
5730 5632 -1.67056e-16
5736 5632 -5.72203e-17
5761 5632 -1.28746e-16
5762 5632 -1.31234e-08
5859 5632 -2.09974e-09
5633 5633 252
5634 5633 -1.8254e-08
5738 5633 -1.5873e-08
5761 5633 -3.57143e-08
5633 5634 -4.6e-06
5634 5634 422
5637 5634 -2.29858e-08
5738 5634 -1.73023e-16
5761 5634 -3.89303e-16
5762 5634 -2.36967e-08
5859 5634 -3.79147e-09
5635 5635 422
5636 5635 -2.1327e-08
5637 5635 -1.09005e-08
5737 5635 -9.47867e-09
5761 5635 -2.1327e-08
5635 5636 -9e-06
5636 5636 422
5637 5636 -2.32475e-16
5728 5636 -1.09005e-08
5735 5636 -9.47867e-09
5737 5636 -2.02152e-16
5761 5636 -2.1327e-08
5634 5637 -9.7e-06
5635 5637 -4.6e-06
5636 5637 -9.81043e-14
5637 5637 762
5728 5637 -1.31234e-08
5735 5637 -1.22034e-24
5737 5637 -5.72203e-17
5738 5637 -2.20253e-24
5761 5637 -1.28746e-16
5762 5637 -1.31234e-08
5859 5637 -2.09974e-09
5638 5638 422
5639 5638 -1.09005e-08
5738 5638 -9.47867e-09
5761 5638 -2.1327e-08
5638 5639 -4.6e-06
5639 5639 592
5642 5639 -1.63851e-08
5738 5639 -7.36518e-17
5761 5639 -1.65717e-16
5762 5639 -1.68919e-08
5859 5639 -2.7027e-09
5640 5640 422
5641 5640 -2.1327e-08
5642 5640 -1.09005e-08
5737 5640 -9.47867e-09
5761 5640 -2.1327e-08
5640 5641 -9e-06
5641 5641 422
5642 5641 -2.32475e-16
5727 5641 -1.09005e-08
5735 5641 -9.47867e-09
5737 5641 -2.02152e-16
5761 5641 -2.1327e-08
5639 5642 -9.7e-06
5640 5642 -4.6e-06
5641 5642 -9.81043e-14
5642 5642 762
5727 5642 -1.31234e-08
5735 5642 -1.22034e-24
5737 5642 -5.72203e-17
5738 5642 -9.37563e-25
5761 5642 -1.28746e-16
5762 5642 -1.31234e-08
5859 5642 -2.09974e-09
5643 5643 422
5644 5643 -2.1327e-08
5646 5643 -1.09005e-08
5736 5643 -9.47867e-09
5761 5643 -2.1327e-08
5643 5644 -9e-06
5644 5644 422
5645 5644 -1.09005e-08
5646 5644 -2.32475e-16
5736 5644 -9.47867e-09
5761 5644 -2.1327e-08
5644 5645 -4.6e-06
5645 5645 762
5646 5645 -1.31234e-08
5728 5645 -1.27297e-08
5736 5645 -5.72203e-17
5761 5645 -1.28746e-16
5762 5645 -1.31234e-08
5859 5645 -2.09974e-09
5643 5646 -4.6e-06
5644 5646 -9.81043e-14
5645 5646 -1e-05
5646 5646 762
5727 5646 -1.27297e-08
5728 5646 -1.67056e-16
5736 5646 -5.72203e-17
5761 5646 -1.28746e-16
5762 5646 -1.31234e-08
5859 5646 -2.09974e-09
5647 5647 252
5648 5647 -1.8254e-08
5738 5647 -1.5873e-08
5761 5647 -3.57143e-08
5647 5648 -4.6e-06
5648 5648 422
5651 5648 -2.29858e-08
5738 5648 -1.73023e-16
5761 5648 -3.89303e-16
5762 5648 -2.36967e-08
5859 5648 -3.79147e-09
5649 5649 422
5650 5649 -2.1327e-08
5726 5649 -1.09005e-08
5735 5649 -9.47867e-09
5761 5649 -2.1327e-08
5649 5650 -9e-06
5650 5650 422
5651 5650 -1.09005e-08
5726 5650 -2.32475e-16
5735 5650 -2.02152e-16
5737 5650 -9.47867e-09
5761 5650 -2.1327e-08
5648 5651 -9.7e-06
5650 5651 -4.6e-06
5651 5651 762
5726 5651 -1.31234e-08
5735 5651 -1.22034e-24
5737 5651 -5.72203e-17
5738 5651 -2.20253e-24
5761 5651 -1.28746e-16
5762 5651 -1.31234e-08
5859 5651 -2.09974e-09
5652 5652 422
5653 5652 -2.1327e-08
5655 5652 -1.09005e-08
5736 5652 -9.47867e-09
5761 5652 -2.1327e-08
5652 5653 -9e-06
5653 5653 422
5654 5653 -1.09005e-08
5655 5653 -2.32475e-16
5736 5653 -9.47867e-09
5761 5653 -2.1327e-08
5653 5654 -4.6e-06
5654 5654 762
5655 5654 -1.31234e-08
5726 5654 -1.27297e-08
5736 5654 -5.72203e-17
5761 5654 -1.28746e-16
5762 5654 -1.31234e-08
5859 5654 -2.09974e-09
5652 5655 -4.6e-06
5653 5655 -9.81043e-14
5654 5655 -1e-05
5655 5655 762
5725 5655 -1.27297e-08
5726 5655 -1.67056e-16
5736 5655 -5.72203e-17
5761 5655 -1.28746e-16
5762 5655 -1.31234e-08
5859 5655 -2.09974e-09
5656 5656 422
5657 5656 -1.09005e-08
5738 5656 -9.47867e-09
5761 5656 -2.1327e-08
5656 5657 -4.6e-06
5657 5657 592
5660 5657 -1.63851e-08
5738 5657 -7.36518e-17
5761 5657 -1.65717e-16
5762 5657 -1.68919e-08
5859 5657 -2.7027e-09
5658 5658 422
5659 5658 -2.1327e-08
5660 5658 -1.09005e-08
5737 5658 -9.47867e-09
5761 5658 -2.1327e-08
5658 5659 -9e-06
5659 5659 422
5660 5659 -2.32475e-16
5725 5659 -1.09005e-08
5735 5659 -9.47867e-09
5737 5659 -2.02152e-16
5761 5659 -2.1327e-08
5657 5660 -9.7e-06
5658 5660 -4.6e-06
5659 5660 -9.81043e-14
5660 5660 762
5725 5660 -1.31234e-08
5735 5660 -1.22034e-24
5737 5660 -5.72203e-17
5738 5660 -9.37563e-25
5761 5660 -1.28746e-16
5762 5660 -1.31234e-08
5859 5660 -2.09974e-09
5661 5661 252
5662 5661 -1.8254e-08
5738 5661 -1.5873e-08
5761 5661 -3.57143e-08
5661 5662 -4.6e-06
5662 5662 422
5665 5662 -2.29858e-08
5738 5662 -1.73023e-16
5761 5662 -3.89303e-16
5762 5662 -2.36967e-08
5859 5662 -3.79147e-09
5663 5663 422
5664 5663 -2.1327e-08
5724 5663 -1.09005e-08
5735 5663 -9.47867e-09
5761 5663 -2.1327e-08
5663 5664 -9e-06
5664 5664 422
5665 5664 -1.09005e-08
5724 5664 -2.32475e-16
5735 5664 -2.02152e-16
5737 5664 -9.47867e-09
5761 5664 -2.1327e-08
5662 5665 -9.7e-06
5664 5665 -4.6e-06
5665 5665 762
5724 5665 -1.31234e-08
5735 5665 -1.22034e-24
5737 5665 -5.72203e-17
5738 5665 -2.20253e-24
5761 5665 -1.28746e-16
5762 5665 -1.31234e-08
5859 5665 -2.09974e-09
5666 5666 422
5667 5666 -2.1327e-08
5669 5666 -1.09005e-08
5736 5666 -9.47867e-09
5761 5666 -2.1327e-08
5666 5667 -9e-06
5667 5667 422
5668 5667 -1.09005e-08
5669 5667 -2.32475e-16
5736 5667 -9.47867e-09
5761 5667 -2.1327e-08
5667 5668 -4.6e-06
5668 5668 762
5669 5668 -1.31234e-08
5724 5668 -1.27297e-08
5736 5668 -5.72203e-17
5761 5668 -1.28746e-16
5762 5668 -1.31234e-08
5859 5668 -2.09974e-09
5666 5669 -4.6e-06
5667 5669 -9.81043e-14
5668 5669 -1e-05
5669 5669 762
5723 5669 -1.27297e-08
5724 5669 -1.67056e-16
5736 5669 -5.72203e-17
5761 5669 -1.28746e-16
5762 5669 -1.31234e-08
5859 5669 -2.09974e-09
5670 5670 422
5671 5670 -1.09005e-08
5738 5670 -9.47867e-09
5761 5670 -2.1327e-08
5670 5671 -4.6e-06
5671 5671 592
5674 5671 -1.63851e-08
5738 5671 -7.36518e-17
5761 5671 -1.65717e-16
5762 5671 -1.68919e-08
5859 5671 -2.7027e-09
5672 5672 422
5673 5672 -2.1327e-08
5674 5672 -1.09005e-08
5737 5672 -9.47867e-09
5761 5672 -2.1327e-08
5672 5673 -9e-06
5673 5673 422
5674 5673 -2.32475e-16
5723 5673 -1.09005e-08
5735 5673 -9.47867e-09
5737 5673 -2.02152e-16
5761 5673 -2.1327e-08
5671 5674 -9.7e-06
5672 5674 -4.6e-06
5673 5674 -9.81043e-14
5674 5674 762
5723 5674 -1.31234e-08
5735 5674 -1.22034e-24
5737 5674 -5.72203e-17
5738 5674 -9.37563e-25
5761 5674 -1.28746e-16
5762 5674 -1.31234e-08
5859 5674 -2.09974e-09
5675 5675 252
5676 5675 -1.8254e-08
5738 5675 -1.5873e-08
5761 5675 -3.57143e-08
5675 5676 -4.6e-06
5676 5676 422
5679 5676 -2.29858e-08
5738 5676 -1.73023e-16
5761 5676 -3.89303e-16
5762 5676 -2.36967e-08
5859 5676 -3.79147e-09
5677 5677 422
5678 5677 -2.1327e-08
5722 5677 -1.09005e-08
5735 5677 -9.47867e-09
5761 5677 -2.1327e-08
5677 5678 -9e-06
5678 5678 422
5679 5678 -1.09005e-08
5722 5678 -2.32475e-16
5735 5678 -2.02152e-16
5737 5678 -9.47867e-09
5761 5678 -2.1327e-08
5676 5679 -9.7e-06
5678 5679 -4.6e-06
5679 5679 762
5722 5679 -1.31234e-08
5735 5679 -1.22034e-24
5737 5679 -5.72203e-17
5738 5679 -2.20253e-24
5761 5679 -1.28746e-16
5762 5679 -1.31234e-08
5859 5679 -2.09974e-09
5680 5680 422
5681 5680 -2.1327e-08
5683 5680 -1.09005e-08
5736 5680 -9.47867e-09
5761 5680 -2.1327e-08
5680 5681 -9e-06
5681 5681 422
5682 5681 -1.09005e-08
5683 5681 -2.32475e-16
5736 5681 -9.47867e-09
5761 5681 -2.1327e-08
5681 5682 -4.6e-06
5682 5682 762
5683 5682 -1.31234e-08
5722 5682 -1.27297e-08
5736 5682 -5.72203e-17
5761 5682 -1.28746e-16
5762 5682 -1.31234e-08
5859 5682 -2.09974e-09
5680 5683 -4.6e-06
5681 5683 -9.81043e-14
5682 5683 -1e-05
5683 5683 762
5721 5683 -1.27297e-08
5722 5683 -1.67056e-16
5736 5683 -5.72203e-17
5761 5683 -1.28746e-16
5762 5683 -1.31234e-08
5859 5683 -2.09974e-09
5684 5684 422
5685 5684 -1.09005e-08
5738 5684 -9.47867e-09
5761 5684 -2.1327e-08
5684 5685 -4.6e-06
5685 5685 592
5688 5685 -1.63851e-08
5738 5685 -7.36518e-17
5761 5685 -1.65717e-16
5762 5685 -1.68919e-08
5859 5685 -2.7027e-09
5686 5686 422
5687 5686 -2.1327e-08
5688 5686 -1.09005e-08
5737 5686 -9.47867e-09
5761 5686 -2.1327e-08
5686 5687 -9e-06
5687 5687 422
5688 5687 -2.32475e-16
5721 5687 -1.09005e-08
5735 5687 -9.47867e-09
5737 5687 -2.02152e-16
5761 5687 -2.1327e-08
5685 5688 -9.7e-06
5686 5688 -4.6e-06
5687 5688 -9.81043e-14
5688 5688 762
5721 5688 -1.31234e-08
5735 5688 -1.22034e-24
5737 5688 -5.72203e-17
5738 5688 -9.37563e-25
5761 5688 -1.28746e-16
5762 5688 -1.31234e-08
5859 5688 -2.09974e-09
5689 5689 252
5690 5689 -1.8254e-08
5738 5689 -1.5873e-08
5761 5689 -3.57143e-08
5689 5690 -4.6e-06
5690 5690 422
5693 5690 -2.29858e-08
5738 5690 -1.73023e-16
5761 5690 -3.89303e-16
5762 5690 -2.36967e-08
5859 5690 -3.79147e-09
5691 5691 422
5692 5691 -2.1327e-08
5720 5691 -1.09005e-08
5735 5691 -9.47867e-09
5761 5691 -2.1327e-08
5691 5692 -9e-06
5692 5692 422
5693 5692 -1.09005e-08
5720 5692 -2.32475e-16
5735 5692 -2.02152e-16
5737 5692 -9.47867e-09
5761 5692 -2.1327e-08
5690 5693 -9.7e-06
5692 5693 -4.6e-06
5693 5693 762
5720 5693 -1.31234e-08
5735 5693 -1.22034e-24
5737 5693 -5.72203e-17
5738 5693 -2.20253e-24
5761 5693 -1.28746e-16
5762 5693 -1.31234e-08
5859 5693 -2.09974e-09
5694 5694 422
5695 5694 -2.1327e-08
5697 5694 -1.09005e-08
5736 5694 -9.47867e-09
5761 5694 -2.1327e-08
5694 5695 -9e-06
5695 5695 422
5696 5695 -1.09005e-08
5697 5695 -2.32475e-16
5736 5695 -9.47867e-09
5761 5695 -2.1327e-08
5695 5696 -4.6e-06
5696 5696 762
5697 5696 -1.31234e-08
5720 5696 -1.27297e-08
5736 5696 -5.72203e-17
5761 5696 -1.28746e-16
5762 5696 -1.31234e-08
5859 5696 -2.09974e-09
5694 5697 -4.6e-06
5695 5697 -9.81043e-14
5696 5697 -1e-05
5697 5697 762
5719 5697 -1.27297e-08
5720 5697 -1.67056e-16
5736 5697 -5.72203e-17
5761 5697 -1.28746e-16
5762 5697 -1.31234e-08
5859 5697 -2.09974e-09
5698 5698 422
5699 5698 -1.09005e-08
5738 5698 -9.47867e-09
5761 5698 -2.1327e-08
5698 5699 -4.6e-06
5699 5699 592
5702 5699 -1.63851e-08
5738 5699 -7.36518e-17
5761 5699 -1.65717e-16
5762 5699 -1.68919e-08
5859 5699 -2.7027e-09
5700 5700 422
5701 5700 -2.1327e-08
5702 5700 -1.09005e-08
5737 5700 -9.47867e-09
5761 5700 -2.1327e-08
5700 5701 -9e-06
5701 5701 422
5702 5701 -2.32475e-16
5719 5701 -1.09005e-08
5735 5701 -9.47867e-09
5737 5701 -2.02152e-16
5761 5701 -2.1327e-08
5699 5702 -9.7e-06
5700 5702 -4.6e-06
5701 5702 -9.81043e-14
5702 5702 762
5719 5702 -1.31234e-08
5735 5702 -1.22034e-24
5737 5702 -5.72203e-17
5738 5702 -9.37563e-25
5761 5702 -1.28746e-16
5762 5702 -1.31234e-08
5859 5702 -2.09974e-09
5703 5703 252
5704 5703 -1.8254e-08
5738 5703 -1.5873e-08
5761 5703 -3.57143e-08
5703 5704 -4.6e-06
5704 5704 422
5707 5704 -2.29858e-08
5738 5704 -1.73023e-16
5761 5704 -3.89303e-16
5762 5704 -2.36967e-08
5859 5704 -3.79147e-09
5705 5705 422
5706 5705 -2.1327e-08
5707 5705 -1.09005e-08
5737 5705 -9.47867e-09
5761 5705 -2.1327e-08
5705 5706 -9e-06
5706 5706 422
5707 5706 -2.32475e-16
5718 5706 -1.09005e-08
5735 5706 -9.47867e-09
5737 5706 -2.02152e-16
5761 5706 -2.1327e-08
5704 5707 -9.7e-06
5705 5707 -4.6e-06
5706 5707 -9.81043e-14
5707 5707 762
5718 5707 -1.31234e-08
5735 5707 -1.22034e-24
5737 5707 -5.72203e-17
5738 5707 -2.20253e-24
5761 5707 -1.28746e-16
5762 5707 -1.31234e-08
5859 5707 -2.09974e-09
5708 5708 422
5709 5708 -2.1327e-08
5711 5708 -1.09005e-08
5736 5708 -9.47867e-09
5761 5708 -2.1327e-08
5708 5709 -9e-06
5709 5709 422
5710 5709 -1.09005e-08
5711 5709 -2.32475e-16
5736 5709 -9.47867e-09
5761 5709 -2.1327e-08
5709 5710 -4.6e-06
5710 5710 762
5711 5710 -1.31234e-08
5718 5710 -1.27297e-08
5736 5710 -5.72203e-17
5761 5710 -1.28746e-16
5762 5710 -1.31234e-08
5859 5710 -2.09974e-09
5708 5711 -4.6e-06
5709 5711 -9.81043e-14
5710 5711 -1e-05
5711 5711 762
5717 5711 -1.27297e-08
5718 5711 -1.67056e-16
5736 5711 -5.72203e-17
5761 5711 -1.28746e-16
5762 5711 -1.31234e-08
5859 5711 -2.09974e-09
5712 5712 422
5713 5712 -1.09005e-08
5738 5712 -9.47867e-09
5761 5712 -2.1327e-08
5712 5713 -4.6e-06
5713 5713 592
5716 5713 -1.63851e-08
5738 5713 -7.36518e-17
5761 5713 -1.65717e-16
5762 5713 -1.68919e-08
5859 5713 -2.7027e-09
5714 5714 422
5715 5714 -2.1327e-08
5716 5714 -1.09005e-08
5737 5714 -9.47867e-09
5761 5714 -2.1327e-08
5714 5715 -9e-06
5715 5715 422
5716 5715 -2.32475e-16
5717 5715 -1.09005e-08
5735 5715 -9.47867e-09
5737 5715 -2.02152e-16
5761 5715 -2.1327e-08
5713 5716 -9.7e-06
5714 5716 -4.6e-06
5715 5716 -9.81043e-14
5716 5716 762
5717 5716 -1.31234e-08
5735 5716 -1.22034e-24
5737 5716 -5.72203e-17
5738 5716 -9.37563e-25
5761 5716 -1.28746e-16
5762 5716 -1.31234e-08
5859 5716 -2.09974e-09
5711 5717 -9.7e-06
5715 5717 -4.6e-06
5716 5717 -1e-05
5717 5717 592
5718 5717 -2.73723e-24
5735 5717 -7.36518e-17
5736 5717 -9.37563e-25
5737 5717 -2.53733e-24
5738 5717 -1.58372e-32
5761 5717 -1.65717e-16
5762 5717 -1.68919e-08
5859 5717 -2.7027e-09
5706 5718 -4.6e-06
5707 5718 -1e-05
5710 5718 -9.7e-06
5711 5718 -1.27297e-13
5717 5718 -1.62044e-21
5718 5718 592
5735 5718 -7.36518e-17
5736 5718 -9.37563e-25
5737 5718 -2.53733e-24
5738 5718 -3.72049e-32
5761 5718 -1.65717e-16
5762 5718 -1.68919e-08
5859 5718 -2.7027e-09
5697 5719 -9.7e-06
5701 5719 -4.6e-06
5702 5719 -1e-05
5719 5719 592
5720 5719 -2.73723e-24
5735 5719 -7.36518e-17
5736 5719 -9.37563e-25
5737 5719 -2.53733e-24
5738 5719 -1.58372e-32
5761 5719 -1.65717e-16
5762 5719 -1.68919e-08
5859 5719 -2.7027e-09
5691 5720 -4.6e-06
5692 5720 -9.81043e-14
5693 5720 -1e-05
5696 5720 -9.7e-06
5697 5720 -1.27297e-13
5719 5720 -1.62044e-21
5720 5720 592
5735 5720 -7.36518e-17
5736 5720 -9.37563e-25
5737 5720 -2.53733e-24
5738 5720 -3.72049e-32
5761 5720 -1.65717e-16
5762 5720 -1.68919e-08
5859 5720 -2.7027e-09
5683 5721 -9.7e-06
5687 5721 -4.6e-06
5688 5721 -1e-05
5721 5721 592
5722 5721 -2.73723e-24
5735 5721 -7.36518e-17
5736 5721 -9.37563e-25
5737 5721 -2.53733e-24
5738 5721 -1.58372e-32
5761 5721 -1.65717e-16
5762 5721 -1.68919e-08
5859 5721 -2.7027e-09
5677 5722 -4.6e-06
5678 5722 -9.81043e-14
5679 5722 -1e-05
5682 5722 -9.7e-06
5683 5722 -1.27297e-13
5721 5722 -1.62044e-21
5722 5722 592
5735 5722 -7.36518e-17
5736 5722 -9.37563e-25
5737 5722 -2.53733e-24
5738 5722 -3.72049e-32
5761 5722 -1.65717e-16
5762 5722 -1.68919e-08
5859 5722 -2.7027e-09
5669 5723 -9.7e-06
5673 5723 -4.6e-06
5674 5723 -1e-05
5723 5723 592
5724 5723 -2.73723e-24
5735 5723 -7.36518e-17
5736 5723 -9.37563e-25
5737 5723 -2.53733e-24
5738 5723 -1.58372e-32
5761 5723 -1.65717e-16
5762 5723 -1.68919e-08
5859 5723 -2.7027e-09
5663 5724 -4.6e-06
5664 5724 -9.81043e-14
5665 5724 -1e-05
5668 5724 -9.7e-06
5669 5724 -1.27297e-13
5723 5724 -1.62044e-21
5724 5724 592
5735 5724 -7.36518e-17
5736 5724 -9.37563e-25
5737 5724 -2.53733e-24
5738 5724 -3.72049e-32
5761 5724 -1.65717e-16
5762 5724 -1.68919e-08
5859 5724 -2.7027e-09
5655 5725 -9.7e-06
5659 5725 -4.6e-06
5660 5725 -1e-05
5725 5725 592
5726 5725 -2.73723e-24
5735 5725 -7.36518e-17
5736 5725 -9.37563e-25
5737 5725 -2.53733e-24
5738 5725 -1.58372e-32
5761 5725 -1.65717e-16
5762 5725 -1.68919e-08
5859 5725 -2.7027e-09
5649 5726 -4.6e-06
5650 5726 -9.81043e-14
5651 5726 -1e-05
5654 5726 -9.7e-06
5655 5726 -1.27297e-13
5725 5726 -1.62044e-21
5726 5726 592
5735 5726 -7.36518e-17
5736 5726 -9.37563e-25
5737 5726 -2.53733e-24
5738 5726 -3.72049e-32
5761 5726 -1.65717e-16
5762 5726 -1.68919e-08
5859 5726 -2.7027e-09
5641 5727 -4.6e-06
5642 5727 -1e-05
5646 5727 -9.7e-06
5727 5727 592
5728 5727 -2.73723e-24
5735 5727 -7.36518e-17
5736 5727 -9.37563e-25
5737 5727 -2.53733e-24
5738 5727 -1.58372e-32
5761 5727 -1.65717e-16
5762 5727 -1.68919e-08
5859 5727 -2.7027e-09
5636 5728 -4.6e-06
5637 5728 -1e-05
5645 5728 -9.7e-06
5646 5728 -1.27297e-13
5727 5728 -1.62044e-21
5728 5728 592
5735 5728 -7.36518e-17
5736 5728 -9.37563e-25
5737 5728 -2.53733e-24
5738 5728 -3.72049e-32
5761 5728 -1.65717e-16
5762 5728 -1.68919e-08
5859 5728 -2.7027e-09
5627 5729 -4.6e-06
5628 5729 -1e-05
5632 5729 -9.7e-06
5729 5729 592
5730 5729 -2.73723e-24
5735 5729 -7.36518e-17
5736 5729 -9.37563e-25
5737 5729 -2.53733e-24
5738 5729 -1.58372e-32
5761 5729 -1.65717e-16
5762 5729 -1.68919e-08
5859 5729 -2.7027e-09
5622 5730 -4.6e-06
5623 5730 -1e-05
5631 5730 -9.7e-06
5632 5730 -1.27297e-13
5729 5730 -1.62044e-21
5730 5730 592
5735 5730 -7.36518e-17
5736 5730 -9.37563e-25
5737 5730 -2.53733e-24
5738 5730 -3.72049e-32
5761 5730 -1.65717e-16
5762 5730 -1.68919e-08
5859 5730 -2.7027e-09
5613 5731 -4.6e-06
5614 5731 -1e-05
5618 5731 -9.7e-06
5731 5731 592
5732 5731 -2.73723e-24
5735 5731 -7.36518e-17
5736 5731 -9.37563e-25
5737 5731 -2.53733e-24
5738 5731 -1.58372e-32
5761 5731 -1.65717e-16
5762 5731 -1.68919e-08
5859 5731 -2.7027e-09
5608 5732 -4.6e-06
5609 5732 -1e-05
5617 5732 -9.7e-06
5618 5732 -1.27297e-13
5731 5732 -1.62044e-21
5732 5732 592
5735 5732 -7.36518e-17
5736 5732 -9.37563e-25
5737 5732 -2.53733e-24
5738 5732 -3.72049e-32
5761 5732 -1.65717e-16
5762 5732 -1.68919e-08
5859 5732 -2.7027e-09
5599 5733 -4.6e-06
5600 5733 -1e-05
5604 5733 -9.7e-06
5733 5733 592
5734 5733 -2.73723e-24
5735 5733 -7.36518e-17
5736 5733 -9.37563e-25
5737 5733 -2.53733e-24
5738 5733 -1.58372e-32
5761 5733 -1.65717e-16
5762 5733 -1.68919e-08
5859 5733 -2.7027e-09
5594 5734 -4.6e-06
5595 5734 -1e-05
5603 5734 -9.7e-06
5604 5734 -1.27297e-13
5733 5734 -1.62044e-21
5734 5734 592
5735 5734 -7.36518e-17
5736 5734 -9.37563e-25
5737 5734 -2.53733e-24
5738 5734 -3.72049e-32
5761 5734 -1.65717e-16
5762 5734 -1.68919e-08
5859 5734 -2.7027e-09
5586 5735 -2.1e-05
5587 5735 -3.4585e-14
5590 5735 -2.42095e-13
5594 5735 -4e-06
5595 5735 -9.29898e-22
5599 5735 -4e-06
5600 5735 -9.29898e-22
5608 5735 -4e-06
5609 5735 -9.29898e-22
5613 5735 -4e-06
5614 5735 -9.29898e-22
5622 5735 -4e-06
5623 5735 -9.29898e-22
5627 5735 -4e-06
5628 5735 -9.29898e-22
5636 5735 -4e-06
5637 5735 -9.29898e-22
5641 5735 -4e-06
5642 5735 -9.29898e-22
5649 5735 -4e-06
5650 5735 -8.5308e-14
5651 5735 -9.29898e-22
5659 5735 -4e-06
5660 5735 -9.29898e-22
5663 5735 -4e-06
5664 5735 -8.5308e-14
5665 5735 -9.29898e-22
5673 5735 -4e-06
5674 5735 -9.29898e-22
5677 5735 -4e-06
5678 5735 -8.5308e-14
5679 5735 -9.29898e-22
5687 5735 -4e-06
5688 5735 -9.29898e-22
5691 5735 -4e-06
5692 5735 -8.5308e-14
5693 5735 -9.29898e-22
5701 5735 -4e-06
5702 5735 -9.29898e-22
5706 5735 -4e-06
5707 5735 -9.29898e-22
5715 5735 -4e-06
5716 5735 -9.29898e-22
5717 5735 -4.36019e-14
5718 5735 -4.36019e-14
5719 5735 -4.36019e-14
5720 5735 -4.36019e-14
5721 5735 -4.36019e-14
5722 5735 -4.36019e-14
5723 5735 -4.36019e-14
5724 5735 -4.36019e-14
5725 5735 -4.36019e-14
5726 5735 -4.36019e-14
5727 5735 -4.36019e-14
5728 5735 -4.36019e-14
5729 5735 -4.36019e-14
5730 5735 -4.36019e-14
5731 5735 -4.36019e-14
5732 5735 -4.36019e-14
5733 5735 -4.36019e-14
5734 5735 -4.36019e-14
5735 5735 28401
5736 5735 -1.58445e-09
5737 5735 -5.12479e-25
5738 5735 -0
5739 5735 -6.35827e-31
5740 5735 -6.35827e-31
5761 5735 -5.40666e-17
5762 5735 -4.66791e-25
5859 5735 -7.46866e-26
5587 5736 -2.1e-05
5590 5736 -2.42095e-13
5601 5736 -4e-06
5602 5736 -4e-06
5603 5736 -4.36019e-14
5604 5736 -4.36019e-14
5615 5736 -4e-06
5616 5736 -4e-06
5617 5736 -4.36019e-14
5618 5736 -4.36019e-14
5629 5736 -4e-06
5630 5736 -4e-06
5631 5736 -4.36019e-14
5632 5736 -4.36019e-14
5643 5736 -4e-06
5644 5736 -4e-06
5645 5736 -4.36019e-14
5646 5736 -4.36019e-14
5652 5736 -4e-06
5653 5736 -4e-06
5654 5736 -4.36019e-14
5655 5736 -4.36019e-14
5666 5736 -4e-06
5667 5736 -4e-06
5668 5736 -4.36019e-14
5669 5736 -4.36019e-14
5680 5736 -4e-06
5681 5736 -4e-06
5682 5736 -4.36019e-14
5683 5736 -4.36019e-14
5694 5736 -4e-06
5695 5736 -4e-06
5696 5736 -4.36019e-14
5697 5736 -4.36019e-14
5708 5736 -4e-06
5709 5736 -4e-06
5710 5736 -4.36019e-14
5711 5736 -4.36019e-14
5717 5736 -5.55037e-22
5718 5736 -5.55037e-22
5719 5736 -5.55037e-22
5720 5736 -5.55037e-22
5721 5736 -5.55037e-22
5722 5736 -5.55037e-22
5723 5736 -5.55037e-22
5724 5736 -5.55037e-22
5725 5736 -5.55037e-22
5726 5736 -5.55037e-22
5727 5736 -5.55037e-22
5728 5736 -5.55037e-22
5729 5736 -5.55037e-22
5730 5736 -5.55037e-22
5731 5736 -5.55037e-22
5732 5736 -5.55037e-22
5733 5736 -5.55037e-22
5734 5736 -5.55037e-22
5735 5736 -4.5e-05
5736 5736 28571
5737 5736 -8.07167e-34
5738 5736 0
5739 5736 -6.32044e-31
5740 5736 -6.32044e-31
5761 5736 -5.37449e-17
5762 5736 -3.60493e-25
5859 5736 -5.7679e-26
5582 5737 -2.1e-05
5585 5737 -2.42095e-13
5593 5737 -4e-06
5594 5737 -8.5308e-14
5595 5737 -4.36019e-14
5598 5737 -4e-06
5599 5737 -8.5308e-14
5600 5737 -4.36019e-14
5607 5737 -4e-06
5608 5737 -8.5308e-14
5609 5737 -4.36019e-14
5612 5737 -4e-06
5613 5737 -8.5308e-14
5614 5737 -4.36019e-14
5621 5737 -4e-06
5622 5737 -8.5308e-14
5623 5737 -4.36019e-14
5626 5737 -4e-06
5627 5737 -8.5308e-14
5628 5737 -4.36019e-14
5635 5737 -4e-06
5636 5737 -8.5308e-14
5637 5737 -4.36019e-14
5640 5737 -4e-06
5641 5737 -8.5308e-14
5642 5737 -4.36019e-14
5650 5737 -4e-06
5651 5737 -4.36019e-14
5658 5737 -4e-06
5659 5737 -8.5308e-14
5660 5737 -4.36019e-14
5664 5737 -4e-06
5665 5737 -4.36019e-14
5672 5737 -4e-06
5673 5737 -8.5308e-14
5674 5737 -4.36019e-14
5678 5737 -4e-06
5679 5737 -4.36019e-14
5686 5737 -4e-06
5687 5737 -8.5308e-14
5688 5737 -4.36019e-14
5692 5737 -4e-06
5693 5737 -4.36019e-14
5700 5737 -4e-06
5701 5737 -8.5308e-14
5702 5737 -4.36019e-14
5705 5737 -4e-06
5706 5737 -8.5308e-14
5707 5737 -4.36019e-14
5714 5737 -4e-06
5715 5737 -8.5308e-14
5716 5737 -4.36019e-14
5717 5737 -1.5021e-21
5718 5737 -1.5021e-21
5719 5737 -1.5021e-21
5720 5737 -1.5021e-21
5721 5737 -1.5021e-21
5722 5737 -1.5021e-21
5723 5737 -1.5021e-21
5724 5737 -1.5021e-21
5725 5737 -1.5021e-21
5726 5737 -1.5021e-21
5727 5737 -1.5021e-21
5728 5737 -1.5021e-21
5729 5737 -1.5021e-21
5730 5737 -1.5021e-21
5731 5737 -1.5021e-21
5732 5737 -1.5021e-21
5733 5737 -1.5021e-21
5734 5737 -1.5021e-21
5735 5737 -1.45549e-20
5736 5737 -2.30616e-29
5737 5737 28571
5738 5737 -1.57502e-09
5739 5737 0
5740 5737 0
5741 5737 -6.32044e-31
5746 5737 -6.32044e-31
5761 5737 -5.37449e-17
5762 5737 -3.60493e-25
5859 5737 -5.7679e-26
5581 5738 -2.1e-05
5582 5738 -3.4585e-14
5585 5738 -2.42095e-13
5591 5738 -4e-06
5592 5738 -7.30159e-14
5595 5738 -1.67833e-21
5596 5738 -4e-06
5597 5738 -4.36019e-14
5600 5738 -7.14423e-22
5605 5738 -4e-06
5606 5738 -7.30159e-14
5609 5738 -1.67833e-21
5610 5738 -4e-06
5611 5738 -4.36019e-14
5614 5738 -7.14423e-22
5619 5738 -4e-06
5620 5738 -7.30159e-14
5623 5738 -1.67833e-21
5624 5738 -4e-06
5625 5738 -4.36019e-14
5628 5738 -7.14423e-22
5633 5738 -4e-06
5634 5738 -7.30159e-14
5637 5738 -1.67833e-21
5638 5738 -4e-06
5639 5738 -4.36019e-14
5642 5738 -7.14423e-22
5647 5738 -4e-06
5648 5738 -7.30159e-14
5651 5738 -1.67833e-21
5656 5738 -4e-06
5657 5738 -4.36019e-14
5660 5738 -7.14423e-22
5661 5738 -4e-06
5662 5738 -7.30159e-14
5665 5738 -1.67833e-21
5670 5738 -4e-06
5671 5738 -4.36019e-14
5674 5738 -7.14423e-22
5675 5738 -4e-06
5676 5738 -7.30159e-14
5679 5738 -1.67833e-21
5684 5738 -4e-06
5685 5738 -4.36019e-14
5688 5738 -7.14423e-22
5689 5738 -4e-06
5690 5738 -7.30159e-14
5693 5738 -1.67833e-21
5698 5738 -4e-06
5699 5738 -4.36019e-14
5702 5738 -7.14423e-22
5703 5738 -4e-06
5704 5738 -7.30159e-14
5707 5738 -1.67833e-21
5712 5738 -4e-06
5713 5738 -4.36019e-14
5716 5738 -7.14423e-22
5717 5738 -9.37563e-30
5718 5738 -2.20253e-29
5719 5738 -9.37563e-30
5720 5738 -2.20253e-29
5721 5738 -9.37563e-30
5722 5738 -2.20253e-29
5723 5738 -9.37563e-30
5724 5738 -2.20253e-29
5725 5738 -9.37563e-30
5726 5738 -2.20253e-29
5727 5738 -9.37563e-30
5728 5738 -2.20253e-29
5729 5738 -9.37563e-30
5730 5738 -2.20253e-29
5731 5738 -9.37563e-30
5732 5738 -2.20253e-29
5733 5738 -9.37563e-30
5734 5738 -2.20253e-29
5735 5738 -3.78351e-44
5736 5738 0
5737 5738 -4.5e-05
5738 5738 28401
5739 5738 0
5740 5738 0
5741 5738 -6.35827e-31
5746 5738 -6.35827e-31
5761 5738 -7.23033e-17
5762 5738 -7.8169e-25
5859 5738 -1.2507e-25
5739 5739 1
5740 5740 1
5741 5741 1
4483 5742 -0.00012
4484 5742 -8.47058e-11
4629 5742 -1.80581e-26
4630 5742 -1.80581e-26
4631 5742 0
4632 5742 0
4641 5742 -0.00012
4642 5742 -8.47058e-11
4787 5742 -1.80581e-26
4788 5742 -1.80581e-26
4789 5742 0
4790 5742 0
4799 5742 -0.00012
4800 5742 -8.47058e-11
4945 5742 -1.80581e-26
4946 5742 -1.80581e-26
4947 5742 0
4948 5742 0
4957 5742 -0.00012
4958 5742 -8.47058e-11
5103 5742 -1.80581e-26
5104 5742 -1.80581e-26
5105 5742 0
5106 5742 0
5115 5742 -0.00012
5116 5742 -8.47058e-11
5261 5742 -1.80581e-26
5262 5742 -1.80581e-26
5263 5742 0
5264 5742 0
5273 5742 -0.00012
5274 5742 -8.47058e-11
5419 5742 -1.80581e-26
5420 5742 -1.80581e-26
5421 5742 0
5422 5742 0
5431 5742 -0.00012
5432 5742 -8.47058e-11
5577 5742 -1.80581e-26
5578 5742 -1.80581e-26
5579 5742 0
5580 5742 0
5589 5742 -0.00012
5590 5742 -8.47058e-11
5735 5742 -1.80581e-26
5736 5742 -1.80581e-26
5737 5742 0
5738 5742 0
5739 5742 3830.4
5740 5742 -5.05464e-23
5741 5742 0
5742 5742 1
5746 5742 0
5747 5742 -1.9478e-42
5748 5742 0
5749 5742 -1.9478e-42
5750 5742 0
5751 5742 -1.9478e-42
5752 5742 0
5753 5742 -1.9478e-42
5754 5742 0
5755 5742 -1.9478e-42
5756 5742 0
5757 5742 -1.9478e-42
5758 5742 0
5759 5742 -1.9478e-42
5760 5742 0
5761 5742 -1.9478e-42
5762 5742 0
5859 5742 0
4482 5743 -0.00012
4484 5743 -8.47058e-11
4629 5743 -1.80581e-26
4630 5743 -1.80581e-26
4631 5743 0
4632 5743 0
4640 5743 -0.00012
4642 5743 -8.47058e-11
4787 5743 -1.80581e-26
4788 5743 -1.80581e-26
4789 5743 0
4790 5743 0
4798 5743 -0.00012
4800 5743 -8.47058e-11
4945 5743 -1.80581e-26
4946 5743 -1.80581e-26
4947 5743 0
4948 5743 0
4956 5743 -0.00012
4958 5743 -8.47058e-11
5103 5743 -1.80581e-26
5104 5743 -1.80581e-26
5105 5743 0
5106 5743 0
5114 5743 -0.00012
5116 5743 -8.47058e-11
5261 5743 -1.80581e-26
5262 5743 -1.80581e-26
5263 5743 0
5264 5743 0
5272 5743 -0.00012
5274 5743 -8.47058e-11
5419 5743 -1.80581e-26
5420 5743 -1.80581e-26
5421 5743 0
5422 5743 0
5430 5743 -0.00012
5432 5743 -8.47058e-11
5577 5743 -1.80581e-26
5578 5743 -1.80581e-26
5579 5743 0
5580 5743 0
5588 5743 -0.00012
5590 5743 -8.47058e-11
5735 5743 -1.80581e-26
5736 5743 -1.80581e-26
5737 5743 0
5738 5743 0
5739 5743 -5.05464e-23
5740 5743 1881.6
5741 5743 0
5743 5743 1
5746 5743 0
5747 5743 -1.9478e-42
5748 5743 0
5749 5743 -1.9478e-42
5750 5743 0
5751 5743 -1.9478e-42
5752 5743 0
5753 5743 -1.9478e-42
5754 5743 0
5755 5743 -1.9478e-42
5756 5743 0
5757 5743 -1.9478e-42
5758 5743 0
5759 5743 -1.9478e-42
5760 5743 0
5761 5743 -1.9478e-42
5762 5743 0
5859 5743 0
4478 5744 -0.00012
4479 5744 -8.47058e-11
4631 5744 -1.80581e-26
4632 5744 -1.80581e-26
4636 5744 -0.00012
4637 5744 -8.47058e-11
4789 5744 -1.80581e-26
4790 5744 -1.80581e-26
4794 5744 -0.00012
4795 5744 -8.47058e-11
4947 5744 -1.80581e-26
4948 5744 -1.80581e-26
4952 5744 -0.00012
4953 5744 -8.47058e-11
5105 5744 -1.80581e-26
5106 5744 -1.80581e-26
5110 5744 -0.00012
5111 5744 -8.47058e-11
5263 5744 -1.80581e-26
5264 5744 -1.80581e-26
5268 5744 -0.00012
5269 5744 -8.47058e-11
5421 5744 -1.80581e-26
5422 5744 -1.80581e-26
5426 5744 -0.00012
5427 5744 -8.47058e-11
5579 5744 -1.80581e-26
5580 5744 -1.80581e-26
5584 5744 -0.00012
5585 5744 -8.47058e-11
5737 5744 -1.80581e-26
5738 5744 -1.80581e-26
5739 5744 0
5740 5744 0
5741 5744 -5.05464e-23
5744 5744 1
5746 5744 3830.4
5747 5744 -2.27711e-42
5748 5744 0
5749 5744 -2.27711e-42
5750 5744 0
5751 5744 -2.27711e-42
5752 5744 0
5753 5744 -2.27711e-42
5754 5744 0
5755 5744 -2.27711e-42
5756 5744 0
5757 5744 -2.27711e-42
5758 5744 0
5759 5744 -2.27711e-42
5760 5744 0
5761 5744 -2.27711e-42
5762 5744 0
5859 5744 0
4477 5745 -0.00012
4479 5745 -8.47058e-11
4631 5745 -1.80581e-26
4632 5745 -1.80581e-26
4635 5745 -0.00012
4637 5745 -8.47058e-11
4789 5745 -1.80581e-26
4790 5745 -1.80581e-26
4793 5745 -0.00012
4795 5745 -8.47058e-11
4947 5745 -1.80581e-26
4948 5745 -1.80581e-26
4951 5745 -0.00012
4953 5745 -8.47058e-11
5105 5745 -1.80581e-26
5106 5745 -1.80581e-26
5109 5745 -0.00012
5111 5745 -8.47058e-11
5263 5745 -1.80581e-26
5264 5745 -1.80581e-26
5267 5745 -0.00012
5269 5745 -8.47058e-11
5421 5745 -1.80581e-26
5422 5745 -1.80581e-26
5425 5745 -0.00012
5427 5745 -8.47058e-11
5579 5745 -1.80581e-26
5580 5745 -1.80581e-26
5583 5745 -0.00012
5585 5745 -8.47058e-11
5737 5745 -1.80581e-26
5738 5745 -1.80581e-26
5739 5745 0
5740 5745 0
5741 5745 1881.6
5745 5745 1
5746 5745 -5.05464e-23
5747 5745 -2.27711e-42
5748 5745 0
5749 5745 -2.27711e-42
5750 5745 0
5751 5745 -2.27711e-42
5752 5745 0
5753 5745 -2.27711e-42
5754 5745 0
5755 5745 -2.27711e-42
5756 5745 0
5757 5745 -2.27711e-42
5758 5745 0
5759 5745 -2.27711e-42
5760 5745 0
5761 5745 -2.27711e-42
5762 5745 0
5859 5745 0
5746 5746 1
3221 5747 -9e-06
3222 5747 -1.64286e-13
3223 5747 -9e-06
3224 5747 -9e-06
3225 5747 -9.81043e-14
3226 5747 -9e-06
3227 5747 -9e-06
3228 5747 -9.81043e-14
3229 5747 -9.81043e-14
3230 5747 -9e-06
3231 5747 -9.81043e-14
3232 5747 -9e-06
3233 5747 -9e-06
3234 5747 -9.81043e-14
3235 5747 -9e-06
3236 5747 -1.64286e-13
3237 5747 -9e-06
3238 5747 -9e-06
3239 5747 -9.81043e-14
3240 5747 -9e-06
3241 5747 -9e-06
3242 5747 -9.81043e-14
3243 5747 -9.81043e-14
3244 5747 -9e-06
3245 5747 -9.81043e-14
3246 5747 -9e-06
3247 5747 -9e-06
3248 5747 -9.81043e-14
3249 5747 -9e-06
3250 5747 -1.64286e-13
3251 5747 -9e-06
3252 5747 -9e-06
3253 5747 -9.81043e-14
3254 5747 -9e-06
3255 5747 -9e-06
3256 5747 -9.81043e-14
3257 5747 -9.81043e-14
3258 5747 -9e-06
3259 5747 -9.81043e-14
3260 5747 -9e-06
3261 5747 -9e-06
3262 5747 -9.81043e-14
3263 5747 -9e-06
3264 5747 -1.64286e-13
3265 5747 -9e-06
3266 5747 -9e-06
3267 5747 -9.81043e-14
3268 5747 -9e-06
3269 5747 -9e-06
3270 5747 -9.81043e-14
3271 5747 -9.81043e-14
3272 5747 -9e-06
3273 5747 -9.81043e-14
3274 5747 -9e-06
3275 5747 -9e-06
3276 5747 -9.81043e-14
3277 5747 -9e-06
3278 5747 -1.64286e-13
3279 5747 -9e-06
3280 5747 -9e-06
3281 5747 -9.81043e-14
3282 5747 -9e-06
3283 5747 -9e-06
3284 5747 -9.81043e-14
3285 5747 -9.81043e-14
3286 5747 -9e-06
3287 5747 -9.81043e-14
3288 5747 -9e-06
3289 5747 -9e-06
3290 5747 -9.81043e-14
3291 5747 -9e-06
3292 5747 -1.64286e-13
3293 5747 -9e-06
3294 5747 -9e-06
3295 5747 -9.81043e-14
3296 5747 -9e-06
3297 5747 -9e-06
3298 5747 -9.81043e-14
3299 5747 -9.81043e-14
3300 5747 -9e-06
3301 5747 -9.81043e-14
3302 5747 -9e-06
3303 5747 -9e-06
3304 5747 -9.81043e-14
3305 5747 -9e-06
3306 5747 -1.64286e-13
3307 5747 -9e-06
3308 5747 -9e-06
3309 5747 -9.81043e-14
3310 5747 -9e-06
3311 5747 -9e-06
3312 5747 -9.81043e-14
3313 5747 -9.81043e-14
3314 5747 -9e-06
3315 5747 -9.81043e-14
3316 5747 -9e-06
3317 5747 -9e-06
3318 5747 -9.81043e-14
3319 5747 -9e-06
3320 5747 -1.64286e-13
3321 5747 -9e-06
3322 5747 -9e-06
3323 5747 -9.81043e-14
3324 5747 -9e-06
3325 5747 -9e-06
3326 5747 -9.81043e-14
3327 5747 -9.81043e-14
3328 5747 -9e-06
3329 5747 -9.81043e-14
3330 5747 -9e-06
3331 5747 -9e-06
3332 5747 -9.81043e-14
3333 5747 -9e-06
3334 5747 -1.64286e-13
3335 5747 -9e-06
3336 5747 -9e-06
3337 5747 -9.81043e-14
3338 5747 -9e-06
3339 5747 -9e-06
3340 5747 -9.81043e-14
3341 5747 -9.81043e-14
3342 5747 -9e-06
3343 5747 -9.81043e-14
3344 5747 -9e-06
3345 5747 -9e-06
3346 5747 -9.81043e-14
3347 5747 -9.81043e-14
3348 5747 -9.81043e-14
3349 5747 -9.81043e-14
3350 5747 -9.81043e-14
3351 5747 -9.81043e-14
3352 5747 -9.81043e-14
3353 5747 -9.81043e-14
3354 5747 -9.81043e-14
3355 5747 -9.81043e-14
3356 5747 -9.81043e-14
3357 5747 -9.81043e-14
3358 5747 -9.81043e-14
3359 5747 -9.81043e-14
3360 5747 -9.81043e-14
3361 5747 -9.81043e-14
3362 5747 -9.81043e-14
3363 5747 -9.81043e-14
3364 5747 -9.81043e-14
3365 5747 -1.53555e-12
3366 5747 -1.53555e-12
3367 5747 -1.53555e-12
3368 5747 -2.05349e-12
4485 5747 -9e-06
4486 5747 -1.64286e-13
4487 5747 -9e-06
4488 5747 -9e-06
4489 5747 -9.81043e-14
4490 5747 -9e-06
4491 5747 -9.81043e-14
4492 5747 -9e-06
4493 5747 -9e-06
4494 5747 -9.81043e-14
4495 5747 -9e-06
4496 5747 -9e-06
4497 5747 -9.81043e-14
4498 5747 -9.81043e-14
4499 5747 -9e-06
4500 5747 -1.64286e-13
4501 5747 -9e-06
4502 5747 -9e-06
4503 5747 -9.81043e-14
4504 5747 -9e-06
4505 5747 -9.81043e-14
4506 5747 -9e-06
4507 5747 -9e-06
4508 5747 -9.81043e-14
4509 5747 -9e-06
4510 5747 -9e-06
4511 5747 -9.81043e-14
4512 5747 -9.81043e-14
4513 5747 -9e-06
4514 5747 -1.64286e-13
4515 5747 -9e-06
4516 5747 -9e-06
4517 5747 -9.81043e-14
4518 5747 -9e-06
4519 5747 -9.81043e-14
4520 5747 -9e-06
4521 5747 -9e-06
4522 5747 -9.81043e-14
4523 5747 -9e-06
4524 5747 -9e-06
4525 5747 -9.81043e-14
4526 5747 -9.81043e-14
4527 5747 -9e-06
4528 5747 -1.64286e-13
4529 5747 -9e-06
4530 5747 -9e-06
4531 5747 -9.81043e-14
4532 5747 -9e-06
4533 5747 -9.81043e-14
4534 5747 -9e-06
4535 5747 -9e-06
4536 5747 -9.81043e-14
4537 5747 -9e-06
4538 5747 -9e-06
4539 5747 -9.81043e-14
4540 5747 -9.81043e-14
4541 5747 -9e-06
4542 5747 -1.64286e-13
4543 5747 -9e-06
4544 5747 -9e-06
4545 5747 -9.81043e-14
4546 5747 -9e-06
4547 5747 -9e-06
4548 5747 -9.81043e-14
4549 5747 -9.81043e-14
4550 5747 -9e-06
4551 5747 -9.81043e-14
4552 5747 -9e-06
4553 5747 -9e-06
4554 5747 -9.81043e-14
4555 5747 -9e-06
4556 5747 -1.64286e-13
4557 5747 -9e-06
4558 5747 -9e-06
4559 5747 -9.81043e-14
4560 5747 -9e-06
4561 5747 -9e-06
4562 5747 -9.81043e-14
4563 5747 -9.81043e-14
4564 5747 -9e-06
4565 5747 -9.81043e-14
4566 5747 -9e-06
4567 5747 -9e-06
4568 5747 -9.81043e-14
4569 5747 -9e-06
4570 5747 -1.64286e-13
4571 5747 -9e-06
4572 5747 -9e-06
4573 5747 -9.81043e-14
4574 5747 -9e-06
4575 5747 -9e-06
4576 5747 -9.81043e-14
4577 5747 -9.81043e-14
4578 5747 -9e-06
4579 5747 -9.81043e-14
4580 5747 -9e-06
4581 5747 -9e-06
4582 5747 -9.81043e-14
4583 5747 -9e-06
4584 5747 -1.64286e-13
4585 5747 -9e-06
4586 5747 -9e-06
4587 5747 -9.81043e-14
4588 5747 -9e-06
4589 5747 -9e-06
4590 5747 -9.81043e-14
4591 5747 -9.81043e-14
4592 5747 -9e-06
4593 5747 -9.81043e-14
4594 5747 -9e-06
4595 5747 -9e-06
4596 5747 -9.81043e-14
4597 5747 -9e-06
4598 5747 -1.64286e-13
4599 5747 -9e-06
4600 5747 -9e-06
4601 5747 -9.81043e-14
4602 5747 -9e-06
4603 5747 -9e-06
4604 5747 -9.81043e-14
4605 5747 -9.81043e-14
4606 5747 -9e-06
4607 5747 -9.81043e-14
4608 5747 -9e-06
4609 5747 -9e-06
4610 5747 -9.81043e-14
4611 5747 -9.81043e-14
4612 5747 -9.81043e-14
4613 5747 -9.81043e-14
4614 5747 -9.81043e-14
4615 5747 -9.81043e-14
4616 5747 -9.81043e-14
4617 5747 -9.81043e-14
4618 5747 -9.81043e-14
4619 5747 -9.81043e-14
4620 5747 -9.81043e-14
4621 5747 -9.81043e-14
4622 5747 -9.81043e-14
4623 5747 -9.81043e-14
4624 5747 -9.81043e-14
4625 5747 -9.81043e-14
4626 5747 -9.81043e-14
4627 5747 -9.81043e-14
4628 5747 -9.81043e-14
4629 5747 -1.53555e-12
4630 5747 -1.53555e-12
4631 5747 -1.53555e-12
4632 5747 -2.05349e-12
5739 5747 -1.9478e-42
5740 5747 -1.9478e-42
5741 5747 -2.27711e-42
5746 5747 -2.27711e-42
5747 5747 12410
5748 5747 -1.53102e-08
5763 5747 -0
5764 5747 -0
5765 5747 -0
5770 5747 -0
5859 5747 -1.2087e-09
3222 5748 -1e-05
3225 5748 -1e-05
3228 5748 -1e-05
3229 5748 -1e-05
3231 5748 -1e-05
3234 5748 -1e-05
3236 5748 -1e-05
3239 5748 -1e-05
3242 5748 -1e-05
3243 5748 -1e-05
3245 5748 -1e-05
3248 5748 -1e-05
3250 5748 -1e-05
3253 5748 -1e-05
3256 5748 -1e-05
3257 5748 -1e-05
3259 5748 -1e-05
3262 5748 -1e-05
3264 5748 -1e-05
3267 5748 -1e-05
3270 5748 -1e-05
3271 5748 -1e-05
3273 5748 -1e-05
3276 5748 -1e-05
3278 5748 -1e-05
3281 5748 -1e-05
3284 5748 -1e-05
3285 5748 -1e-05
3287 5748 -1e-05
3290 5748 -1e-05
3292 5748 -1e-05
3295 5748 -1e-05
3298 5748 -1e-05
3299 5748 -1e-05
3301 5748 -1e-05
3304 5748 -1e-05
3306 5748 -1e-05
3309 5748 -1e-05
3312 5748 -1e-05
3313 5748 -1e-05
3315 5748 -1e-05
3318 5748 -1e-05
3320 5748 -1e-05
3323 5748 -1e-05
3326 5748 -1e-05
3327 5748 -1e-05
3329 5748 -1e-05
3332 5748 -1e-05
3334 5748 -1e-05
3337 5748 -1e-05
3340 5748 -1e-05
3341 5748 -1e-05
3343 5748 -1e-05
3346 5748 -1e-05
3347 5748 -1e-05
3348 5748 -1e-05
3349 5748 -1e-05
3350 5748 -1e-05
3351 5748 -1e-05
3352 5748 -1e-05
3353 5748 -1e-05
3354 5748 -1e-05
3355 5748 -1e-05
3356 5748 -1e-05
3357 5748 -1e-05
3358 5748 -1e-05
3359 5748 -1e-05
3360 5748 -1e-05
3361 5748 -1e-05
3362 5748 -1e-05
3363 5748 -1e-05
3364 5748 -1e-05
3365 5748 -1.32573e-20
3366 5748 -1.02997e-20
3367 5748 -1.02997e-20
3368 5748 -2.22008e-20
4486 5748 -1e-05
4489 5748 -1e-05
4491 5748 -1e-05
4494 5748 -1e-05
4497 5748 -1e-05
4498 5748 -1e-05
4500 5748 -1e-05
4503 5748 -1e-05
4505 5748 -1e-05
4508 5748 -1e-05
4511 5748 -1e-05
4512 5748 -1e-05
4514 5748 -1e-05
4517 5748 -1e-05
4519 5748 -1e-05
4522 5748 -1e-05
4525 5748 -1e-05
4526 5748 -1e-05
4528 5748 -1e-05
4531 5748 -1e-05
4533 5748 -1e-05
4536 5748 -1e-05
4539 5748 -1e-05
4540 5748 -1e-05
4542 5748 -1e-05
4545 5748 -1e-05
4548 5748 -1e-05
4549 5748 -1e-05
4551 5748 -1e-05
4554 5748 -1e-05
4556 5748 -1e-05
4559 5748 -1e-05
4562 5748 -1e-05
4563 5748 -1e-05
4565 5748 -1e-05
4568 5748 -1e-05
4570 5748 -1e-05
4573 5748 -1e-05
4576 5748 -1e-05
4577 5748 -1e-05
4579 5748 -1e-05
4582 5748 -1e-05
4584 5748 -1e-05
4587 5748 -1e-05
4590 5748 -1e-05
4591 5748 -1e-05
4593 5748 -1e-05
4596 5748 -1e-05
4598 5748 -1e-05
4601 5748 -1e-05
4604 5748 -1e-05
4605 5748 -1e-05
4607 5748 -1e-05
4610 5748 -1e-05
4611 5748 -1e-05
4612 5748 -1e-05
4613 5748 -1e-05
4614 5748 -1e-05
4615 5748 -1e-05
4616 5748 -1e-05
4617 5748 -1e-05
4618 5748 -1e-05
4619 5748 -1e-05
4620 5748 -1e-05
4621 5748 -1e-05
4622 5748 -1e-05
4623 5748 -1e-05
4624 5748 -1e-05
4625 5748 -1e-05
4626 5748 -1e-05
4627 5748 -1e-05
4628 5748 -1e-05
4629 5748 -1.32573e-20
4630 5748 -1.02997e-20
4631 5748 -1.02997e-20
4632 5748 -2.22008e-20
5739 5748 0
5740 5748 0
5741 5748 0
5746 5748 0
5747 5748 -0.00019
5748 5748 12580
5763 5748 0
5764 5748 0
5765 5748 0
5770 5748 0
5859 5748 -1.19237e-09
3379 5749 -9e-06
3380 5749 -1.64286e-13
3381 5749 -9e-06
3382 5749 -9e-06
3383 5749 -9.81043e-14
3384 5749 -9e-06
3385 5749 -9e-06
3386 5749 -9.81043e-14
3387 5749 -9.81043e-14
3388 5749 -9e-06
3389 5749 -9.81043e-14
3390 5749 -9e-06
3391 5749 -9e-06
3392 5749 -9.81043e-14
3393 5749 -9e-06
3394 5749 -1.64286e-13
3395 5749 -9e-06
3396 5749 -9e-06
3397 5749 -9.81043e-14
3398 5749 -9e-06
3399 5749 -9e-06
3400 5749 -9.81043e-14
3401 5749 -9.81043e-14
3402 5749 -9e-06
3403 5749 -9.81043e-14
3404 5749 -9e-06
3405 5749 -9e-06
3406 5749 -9.81043e-14
3407 5749 -9e-06
3408 5749 -1.64286e-13
3409 5749 -9e-06
3410 5749 -9e-06
3411 5749 -9.81043e-14
3412 5749 -9e-06
3413 5749 -9e-06
3414 5749 -9.81043e-14
3415 5749 -9.81043e-14
3416 5749 -9e-06
3417 5749 -9.81043e-14
3418 5749 -9e-06
3419 5749 -9e-06
3420 5749 -9.81043e-14
3421 5749 -9e-06
3422 5749 -1.64286e-13
3423 5749 -9e-06
3424 5749 -9e-06
3425 5749 -9.81043e-14
3426 5749 -9e-06
3427 5749 -9e-06
3428 5749 -9.81043e-14
3429 5749 -9.81043e-14
3430 5749 -9e-06
3431 5749 -9.81043e-14
3432 5749 -9e-06
3433 5749 -9e-06
3434 5749 -9.81043e-14
3435 5749 -9e-06
3436 5749 -1.64286e-13
3437 5749 -9e-06
3438 5749 -9e-06
3439 5749 -9.81043e-14
3440 5749 -9e-06
3441 5749 -9e-06
3442 5749 -9.81043e-14
3443 5749 -9.81043e-14
3444 5749 -9e-06
3445 5749 -9.81043e-14
3446 5749 -9e-06
3447 5749 -9e-06
3448 5749 -9.81043e-14
3449 5749 -9e-06
3450 5749 -1.64286e-13
3451 5749 -9e-06
3452 5749 -9e-06
3453 5749 -9.81043e-14
3454 5749 -9e-06
3455 5749 -9e-06
3456 5749 -9.81043e-14
3457 5749 -9.81043e-14
3458 5749 -9e-06
3459 5749 -9.81043e-14
3460 5749 -9e-06
3461 5749 -9e-06
3462 5749 -9.81043e-14
3463 5749 -9e-06
3464 5749 -1.64286e-13
3465 5749 -9e-06
3466 5749 -9e-06
3467 5749 -9.81043e-14
3468 5749 -9e-06
3469 5749 -9e-06
3470 5749 -9.81043e-14
3471 5749 -9.81043e-14
3472 5749 -9e-06
3473 5749 -9.81043e-14
3474 5749 -9e-06
3475 5749 -9e-06
3476 5749 -9.81043e-14
3477 5749 -9e-06
3478 5749 -1.64286e-13
3479 5749 -9e-06
3480 5749 -9e-06
3481 5749 -9.81043e-14
3482 5749 -9e-06
3483 5749 -9e-06
3484 5749 -9.81043e-14
3485 5749 -9.81043e-14
3486 5749 -9e-06
3487 5749 -9.81043e-14
3488 5749 -9e-06
3489 5749 -9e-06
3490 5749 -9.81043e-14
3491 5749 -9e-06
3492 5749 -1.64286e-13
3493 5749 -9e-06
3494 5749 -9e-06
3495 5749 -9.81043e-14
3496 5749 -9e-06
3497 5749 -9e-06
3498 5749 -9.81043e-14
3499 5749 -9.81043e-14
3500 5749 -9e-06
3501 5749 -9.81043e-14
3502 5749 -9e-06
3503 5749 -9e-06
3504 5749 -9.81043e-14
3505 5749 -9.81043e-14
3506 5749 -9.81043e-14
3507 5749 -9.81043e-14
3508 5749 -9.81043e-14
3509 5749 -9.81043e-14
3510 5749 -9.81043e-14
3511 5749 -9.81043e-14
3512 5749 -9.81043e-14
3513 5749 -9.81043e-14
3514 5749 -9.81043e-14
3515 5749 -9.81043e-14
3516 5749 -9.81043e-14
3517 5749 -9.81043e-14
3518 5749 -9.81043e-14
3519 5749 -9.81043e-14
3520 5749 -9.81043e-14
3521 5749 -9.81043e-14
3522 5749 -9.81043e-14
3523 5749 -1.53555e-12
3524 5749 -1.53555e-12
3525 5749 -1.53555e-12
3526 5749 -2.05349e-12
4643 5749 -9e-06
4644 5749 -1.64286e-13
4645 5749 -9e-06
4646 5749 -9e-06
4647 5749 -9.81043e-14
4648 5749 -9e-06
4649 5749 -9.81043e-14
4650 5749 -9e-06
4651 5749 -9e-06
4652 5749 -9.81043e-14
4653 5749 -9e-06
4654 5749 -9e-06
4655 5749 -9.81043e-14
4656 5749 -9.81043e-14
4657 5749 -9e-06
4658 5749 -1.64286e-13
4659 5749 -9e-06
4660 5749 -9e-06
4661 5749 -9.81043e-14
4662 5749 -9e-06
4663 5749 -9.81043e-14
4664 5749 -9e-06
4665 5749 -9e-06
4666 5749 -9.81043e-14
4667 5749 -9e-06
4668 5749 -9e-06
4669 5749 -9.81043e-14
4670 5749 -9.81043e-14
4671 5749 -9e-06
4672 5749 -1.64286e-13
4673 5749 -9e-06
4674 5749 -9e-06
4675 5749 -9.81043e-14
4676 5749 -9e-06
4677 5749 -9.81043e-14
4678 5749 -9e-06
4679 5749 -9e-06
4680 5749 -9.81043e-14
4681 5749 -9e-06
4682 5749 -9e-06
4683 5749 -9.81043e-14
4684 5749 -9.81043e-14
4685 5749 -9e-06
4686 5749 -1.64286e-13
4687 5749 -9e-06
4688 5749 -9e-06
4689 5749 -9.81043e-14
4690 5749 -9e-06
4691 5749 -9.81043e-14
4692 5749 -9e-06
4693 5749 -9e-06
4694 5749 -9.81043e-14
4695 5749 -9e-06
4696 5749 -9e-06
4697 5749 -9.81043e-14
4698 5749 -9.81043e-14
4699 5749 -9e-06
4700 5749 -1.64286e-13
4701 5749 -9e-06
4702 5749 -9e-06
4703 5749 -9.81043e-14
4704 5749 -9e-06
4705 5749 -9e-06
4706 5749 -9.81043e-14
4707 5749 -9.81043e-14
4708 5749 -9e-06
4709 5749 -9.81043e-14
4710 5749 -9e-06
4711 5749 -9e-06
4712 5749 -9.81043e-14
4713 5749 -9e-06
4714 5749 -1.64286e-13
4715 5749 -9e-06
4716 5749 -9e-06
4717 5749 -9.81043e-14
4718 5749 -9e-06
4719 5749 -9e-06
4720 5749 -9.81043e-14
4721 5749 -9.81043e-14
4722 5749 -9e-06
4723 5749 -9.81043e-14
4724 5749 -9e-06
4725 5749 -9e-06
4726 5749 -9.81043e-14
4727 5749 -9e-06
4728 5749 -1.64286e-13
4729 5749 -9e-06
4730 5749 -9e-06
4731 5749 -9.81043e-14
4732 5749 -9e-06
4733 5749 -9e-06
4734 5749 -9.81043e-14
4735 5749 -9.81043e-14
4736 5749 -9e-06
4737 5749 -9.81043e-14
4738 5749 -9e-06
4739 5749 -9e-06
4740 5749 -9.81043e-14
4741 5749 -9e-06
4742 5749 -1.64286e-13
4743 5749 -9e-06
4744 5749 -9e-06
4745 5749 -9.81043e-14
4746 5749 -9e-06
4747 5749 -9e-06
4748 5749 -9.81043e-14
4749 5749 -9.81043e-14
4750 5749 -9e-06
4751 5749 -9.81043e-14
4752 5749 -9e-06
4753 5749 -9e-06
4754 5749 -9.81043e-14
4755 5749 -9e-06
4756 5749 -1.64286e-13
4757 5749 -9e-06
4758 5749 -9e-06
4759 5749 -9.81043e-14
4760 5749 -9e-06
4761 5749 -9e-06
4762 5749 -9.81043e-14
4763 5749 -9.81043e-14
4764 5749 -9e-06
4765 5749 -9.81043e-14
4766 5749 -9e-06
4767 5749 -9e-06
4768 5749 -9.81043e-14
4769 5749 -9.81043e-14
4770 5749 -9.81043e-14
4771 5749 -9.81043e-14
4772 5749 -9.81043e-14
4773 5749 -9.81043e-14
4774 5749 -9.81043e-14
4775 5749 -9.81043e-14
4776 5749 -9.81043e-14
4777 5749 -9.81043e-14
4778 5749 -9.81043e-14
4779 5749 -9.81043e-14
4780 5749 -9.81043e-14
4781 5749 -9.81043e-14
4782 5749 -9.81043e-14
4783 5749 -9.81043e-14
4784 5749 -9.81043e-14
4785 5749 -9.81043e-14
4786 5749 -9.81043e-14
4787 5749 -1.53555e-12
4788 5749 -1.53555e-12
4789 5749 -1.53555e-12
4790 5749 -2.05349e-12
5739 5749 -1.9478e-42
5740 5749 -1.9478e-42
5741 5749 -2.27711e-42
5746 5749 -2.27711e-42
5749 5749 12410
5750 5749 -1.53102e-08
5763 5749 -0
5764 5749 -0
5765 5749 -0
5770 5749 -0
5859 5749 -1.2087e-09
3380 5750 -1e-05
3383 5750 -1e-05
3386 5750 -1e-05
3387 5750 -1e-05
3389 5750 -1e-05
3392 5750 -1e-05
3394 5750 -1e-05
3397 5750 -1e-05
3400 5750 -1e-05
3401 5750 -1e-05
3403 5750 -1e-05
3406 5750 -1e-05
3408 5750 -1e-05
3411 5750 -1e-05
3414 5750 -1e-05
3415 5750 -1e-05
3417 5750 -1e-05
3420 5750 -1e-05
3422 5750 -1e-05
3425 5750 -1e-05
3428 5750 -1e-05
3429 5750 -1e-05
3431 5750 -1e-05
3434 5750 -1e-05
3436 5750 -1e-05
3439 5750 -1e-05
3442 5750 -1e-05
3443 5750 -1e-05
3445 5750 -1e-05
3448 5750 -1e-05
3450 5750 -1e-05
3453 5750 -1e-05
3456 5750 -1e-05
3457 5750 -1e-05
3459 5750 -1e-05
3462 5750 -1e-05
3464 5750 -1e-05
3467 5750 -1e-05
3470 5750 -1e-05
3471 5750 -1e-05
3473 5750 -1e-05
3476 5750 -1e-05
3478 5750 -1e-05
3481 5750 -1e-05
3484 5750 -1e-05
3485 5750 -1e-05
3487 5750 -1e-05
3490 5750 -1e-05
3492 5750 -1e-05
3495 5750 -1e-05
3498 5750 -1e-05
3499 5750 -1e-05
3501 5750 -1e-05
3504 5750 -1e-05
3505 5750 -1e-05
3506 5750 -1e-05
3507 5750 -1e-05
3508 5750 -1e-05
3509 5750 -1e-05
3510 5750 -1e-05
3511 5750 -1e-05
3512 5750 -1e-05
3513 5750 -1e-05
3514 5750 -1e-05
3515 5750 -1e-05
3516 5750 -1e-05
3517 5750 -1e-05
3518 5750 -1e-05
3519 5750 -1e-05
3520 5750 -1e-05
3521 5750 -1e-05
3522 5750 -1e-05
3523 5750 -1.32573e-20
3524 5750 -1.02997e-20
3525 5750 -1.02997e-20
3526 5750 -2.22008e-20
4644 5750 -1e-05
4647 5750 -1e-05
4649 5750 -1e-05
4652 5750 -1e-05
4655 5750 -1e-05
4656 5750 -1e-05
4658 5750 -1e-05
4661 5750 -1e-05
4663 5750 -1e-05
4666 5750 -1e-05
4669 5750 -1e-05
4670 5750 -1e-05
4672 5750 -1e-05
4675 5750 -1e-05
4677 5750 -1e-05
4680 5750 -1e-05
4683 5750 -1e-05
4684 5750 -1e-05
4686 5750 -1e-05
4689 5750 -1e-05
4691 5750 -1e-05
4694 5750 -1e-05
4697 5750 -1e-05
4698 5750 -1e-05
4700 5750 -1e-05
4703 5750 -1e-05
4706 5750 -1e-05
4707 5750 -1e-05
4709 5750 -1e-05
4712 5750 -1e-05
4714 5750 -1e-05
4717 5750 -1e-05
4720 5750 -1e-05
4721 5750 -1e-05
4723 5750 -1e-05
4726 5750 -1e-05
4728 5750 -1e-05
4731 5750 -1e-05
4734 5750 -1e-05
4735 5750 -1e-05
4737 5750 -1e-05
4740 5750 -1e-05
4742 5750 -1e-05
4745 5750 -1e-05
4748 5750 -1e-05
4749 5750 -1e-05
4751 5750 -1e-05
4754 5750 -1e-05
4756 5750 -1e-05
4759 5750 -1e-05
4762 5750 -1e-05
4763 5750 -1e-05
4765 5750 -1e-05
4768 5750 -1e-05
4769 5750 -1e-05
4770 5750 -1e-05
4771 5750 -1e-05
4772 5750 -1e-05
4773 5750 -1e-05
4774 5750 -1e-05
4775 5750 -1e-05
4776 5750 -1e-05
4777 5750 -1e-05
4778 5750 -1e-05
4779 5750 -1e-05
4780 5750 -1e-05
4781 5750 -1e-05
4782 5750 -1e-05
4783 5750 -1e-05
4784 5750 -1e-05
4785 5750 -1e-05
4786 5750 -1e-05
4787 5750 -1.32573e-20
4788 5750 -1.02997e-20
4789 5750 -1.02997e-20
4790 5750 -2.22008e-20
5739 5750 0
5740 5750 0
5741 5750 0
5746 5750 0
5749 5750 -0.00019
5750 5750 12580
5763 5750 0
5764 5750 0
5765 5750 0
5770 5750 0
5859 5750 -1.19237e-09
3537 5751 -9e-06
3538 5751 -1.64286e-13
3539 5751 -9e-06
3540 5751 -9e-06
3541 5751 -9.81043e-14
3542 5751 -9e-06
3543 5751 -9e-06
3544 5751 -9.81043e-14
3545 5751 -9.81043e-14
3546 5751 -9e-06
3547 5751 -9.81043e-14
3548 5751 -9e-06
3549 5751 -9e-06
3550 5751 -9.81043e-14
3551 5751 -9e-06
3552 5751 -1.64286e-13
3553 5751 -9e-06
3554 5751 -9e-06
3555 5751 -9.81043e-14
3556 5751 -9e-06
3557 5751 -9e-06
3558 5751 -9.81043e-14
3559 5751 -9.81043e-14
3560 5751 -9e-06
3561 5751 -9.81043e-14
3562 5751 -9e-06
3563 5751 -9e-06
3564 5751 -9.81043e-14
3565 5751 -9e-06
3566 5751 -1.64286e-13
3567 5751 -9e-06
3568 5751 -9e-06
3569 5751 -9.81043e-14
3570 5751 -9e-06
3571 5751 -9e-06
3572 5751 -9.81043e-14
3573 5751 -9.81043e-14
3574 5751 -9e-06
3575 5751 -9.81043e-14
3576 5751 -9e-06
3577 5751 -9e-06
3578 5751 -9.81043e-14
3579 5751 -9e-06
3580 5751 -1.64286e-13
3581 5751 -9e-06
3582 5751 -9e-06
3583 5751 -9.81043e-14
3584 5751 -9e-06
3585 5751 -9e-06
3586 5751 -9.81043e-14
3587 5751 -9.81043e-14
3588 5751 -9e-06
3589 5751 -9.81043e-14
3590 5751 -9e-06
3591 5751 -9e-06
3592 5751 -9.81043e-14
3593 5751 -9e-06
3594 5751 -1.64286e-13
3595 5751 -9e-06
3596 5751 -9e-06
3597 5751 -9.81043e-14
3598 5751 -9e-06
3599 5751 -9e-06
3600 5751 -9.81043e-14
3601 5751 -9.81043e-14
3602 5751 -9e-06
3603 5751 -9.81043e-14
3604 5751 -9e-06
3605 5751 -9e-06
3606 5751 -9.81043e-14
3607 5751 -9e-06
3608 5751 -1.64286e-13
3609 5751 -9e-06
3610 5751 -9e-06
3611 5751 -9.81043e-14
3612 5751 -9e-06
3613 5751 -9e-06
3614 5751 -9.81043e-14
3615 5751 -9.81043e-14
3616 5751 -9e-06
3617 5751 -9.81043e-14
3618 5751 -9e-06
3619 5751 -9e-06
3620 5751 -9.81043e-14
3621 5751 -9e-06
3622 5751 -1.64286e-13
3623 5751 -9e-06
3624 5751 -9e-06
3625 5751 -9.81043e-14
3626 5751 -9e-06
3627 5751 -9e-06
3628 5751 -9.81043e-14
3629 5751 -9.81043e-14
3630 5751 -9e-06
3631 5751 -9.81043e-14
3632 5751 -9e-06
3633 5751 -9e-06
3634 5751 -9.81043e-14
3635 5751 -9e-06
3636 5751 -1.64286e-13
3637 5751 -9e-06
3638 5751 -9e-06
3639 5751 -9.81043e-14
3640 5751 -9e-06
3641 5751 -9e-06
3642 5751 -9.81043e-14
3643 5751 -9.81043e-14
3644 5751 -9e-06
3645 5751 -9.81043e-14
3646 5751 -9e-06
3647 5751 -9e-06
3648 5751 -9.81043e-14
3649 5751 -9e-06
3650 5751 -1.64286e-13
3651 5751 -9e-06
3652 5751 -9e-06
3653 5751 -9.81043e-14
3654 5751 -9e-06
3655 5751 -9e-06
3656 5751 -9.81043e-14
3657 5751 -9.81043e-14
3658 5751 -9e-06
3659 5751 -9.81043e-14
3660 5751 -9e-06
3661 5751 -9e-06
3662 5751 -9.81043e-14
3663 5751 -9.81043e-14
3664 5751 -9.81043e-14
3665 5751 -9.81043e-14
3666 5751 -9.81043e-14
3667 5751 -9.81043e-14
3668 5751 -9.81043e-14
3669 5751 -9.81043e-14
3670 5751 -9.81043e-14
3671 5751 -9.81043e-14
3672 5751 -9.81043e-14
3673 5751 -9.81043e-14
3674 5751 -9.81043e-14
3675 5751 -9.81043e-14
3676 5751 -9.81043e-14
3677 5751 -9.81043e-14
3678 5751 -9.81043e-14
3679 5751 -9.81043e-14
3680 5751 -9.81043e-14
3681 5751 -1.53555e-12
3682 5751 -1.53555e-12
3683 5751 -1.53555e-12
3684 5751 -2.05349e-12
4801 5751 -9e-06
4802 5751 -1.64286e-13
4803 5751 -9e-06
4804 5751 -9e-06
4805 5751 -9.81043e-14
4806 5751 -9e-06
4807 5751 -9.81043e-14
4808 5751 -9e-06
4809 5751 -9e-06
4810 5751 -9.81043e-14
4811 5751 -9e-06
4812 5751 -9e-06
4813 5751 -9.81043e-14
4814 5751 -9.81043e-14
4815 5751 -9e-06
4816 5751 -1.64286e-13
4817 5751 -9e-06
4818 5751 -9e-06
4819 5751 -9.81043e-14
4820 5751 -9e-06
4821 5751 -9.81043e-14
4822 5751 -9e-06
4823 5751 -9e-06
4824 5751 -9.81043e-14
4825 5751 -9e-06
4826 5751 -9e-06
4827 5751 -9.81043e-14
4828 5751 -9.81043e-14
4829 5751 -9e-06
4830 5751 -1.64286e-13
4831 5751 -9e-06
4832 5751 -9e-06
4833 5751 -9.81043e-14
4834 5751 -9e-06
4835 5751 -9.81043e-14
4836 5751 -9e-06
4837 5751 -9e-06
4838 5751 -9.81043e-14
4839 5751 -9e-06
4840 5751 -9e-06
4841 5751 -9.81043e-14
4842 5751 -9.81043e-14
4843 5751 -9e-06
4844 5751 -1.64286e-13
4845 5751 -9e-06
4846 5751 -9e-06
4847 5751 -9.81043e-14
4848 5751 -9e-06
4849 5751 -9.81043e-14
4850 5751 -9e-06
4851 5751 -9e-06
4852 5751 -9.81043e-14
4853 5751 -9e-06
4854 5751 -9e-06
4855 5751 -9.81043e-14
4856 5751 -9.81043e-14
4857 5751 -9e-06
4858 5751 -1.64286e-13
4859 5751 -9e-06
4860 5751 -9e-06
4861 5751 -9.81043e-14
4862 5751 -9e-06
4863 5751 -9e-06
4864 5751 -9.81043e-14
4865 5751 -9.81043e-14
4866 5751 -9e-06
4867 5751 -9.81043e-14
4868 5751 -9e-06
4869 5751 -9e-06
4870 5751 -9.81043e-14
4871 5751 -9e-06
4872 5751 -1.64286e-13
4873 5751 -9e-06
4874 5751 -9e-06
4875 5751 -9.81043e-14
4876 5751 -9e-06
4877 5751 -9e-06
4878 5751 -9.81043e-14
4879 5751 -9.81043e-14
4880 5751 -9e-06
4881 5751 -9.81043e-14
4882 5751 -9e-06
4883 5751 -9e-06
4884 5751 -9.81043e-14
4885 5751 -9e-06
4886 5751 -1.64286e-13
4887 5751 -9e-06
4888 5751 -9e-06
4889 5751 -9.81043e-14
4890 5751 -9e-06
4891 5751 -9e-06
4892 5751 -9.81043e-14
4893 5751 -9.81043e-14
4894 5751 -9e-06
4895 5751 -9.81043e-14
4896 5751 -9e-06
4897 5751 -9e-06
4898 5751 -9.81043e-14
4899 5751 -9e-06
4900 5751 -1.64286e-13
4901 5751 -9e-06
4902 5751 -9e-06
4903 5751 -9.81043e-14
4904 5751 -9e-06
4905 5751 -9e-06
4906 5751 -9.81043e-14
4907 5751 -9.81043e-14
4908 5751 -9e-06
4909 5751 -9.81043e-14
4910 5751 -9e-06
4911 5751 -9e-06
4912 5751 -9.81043e-14
4913 5751 -9e-06
4914 5751 -1.64286e-13
4915 5751 -9e-06
4916 5751 -9e-06
4917 5751 -9.81043e-14
4918 5751 -9e-06
4919 5751 -9e-06
4920 5751 -9.81043e-14
4921 5751 -9.81043e-14
4922 5751 -9e-06
4923 5751 -9.81043e-14
4924 5751 -9e-06
4925 5751 -9e-06
4926 5751 -9.81043e-14
4927 5751 -9.81043e-14
4928 5751 -9.81043e-14
4929 5751 -9.81043e-14
4930 5751 -9.81043e-14
4931 5751 -9.81043e-14
4932 5751 -9.81043e-14
4933 5751 -9.81043e-14
4934 5751 -9.81043e-14
4935 5751 -9.81043e-14
4936 5751 -9.81043e-14
4937 5751 -9.81043e-14
4938 5751 -9.81043e-14
4939 5751 -9.81043e-14
4940 5751 -9.81043e-14
4941 5751 -9.81043e-14
4942 5751 -9.81043e-14
4943 5751 -9.81043e-14
4944 5751 -9.81043e-14
4945 5751 -1.53555e-12
4946 5751 -1.53555e-12
4947 5751 -1.53555e-12
4948 5751 -2.05349e-12
5739 5751 -1.9478e-42
5740 5751 -1.9478e-42
5741 5751 -2.27711e-42
5746 5751 -2.27711e-42
5751 5751 12410
5752 5751 -1.53102e-08
5763 5751 -0
5764 5751 -0
5765 5751 -0
5770 5751 -0
5859 5751 -1.2087e-09
3538 5752 -1e-05
3541 5752 -1e-05
3544 5752 -1e-05
3545 5752 -1e-05
3547 5752 -1e-05
3550 5752 -1e-05
3552 5752 -1e-05
3555 5752 -1e-05
3558 5752 -1e-05
3559 5752 -1e-05
3561 5752 -1e-05
3564 5752 -1e-05
3566 5752 -1e-05
3569 5752 -1e-05
3572 5752 -1e-05
3573 5752 -1e-05
3575 5752 -1e-05
3578 5752 -1e-05
3580 5752 -1e-05
3583 5752 -1e-05
3586 5752 -1e-05
3587 5752 -1e-05
3589 5752 -1e-05
3592 5752 -1e-05
3594 5752 -1e-05
3597 5752 -1e-05
3600 5752 -1e-05
3601 5752 -1e-05
3603 5752 -1e-05
3606 5752 -1e-05
3608 5752 -1e-05
3611 5752 -1e-05
3614 5752 -1e-05
3615 5752 -1e-05
3617 5752 -1e-05
3620 5752 -1e-05
3622 5752 -1e-05
3625 5752 -1e-05
3628 5752 -1e-05
3629 5752 -1e-05
3631 5752 -1e-05
3634 5752 -1e-05
3636 5752 -1e-05
3639 5752 -1e-05
3642 5752 -1e-05
3643 5752 -1e-05
3645 5752 -1e-05
3648 5752 -1e-05
3650 5752 -1e-05
3653 5752 -1e-05
3656 5752 -1e-05
3657 5752 -1e-05
3659 5752 -1e-05
3662 5752 -1e-05
3663 5752 -1e-05
3664 5752 -1e-05
3665 5752 -1e-05
3666 5752 -1e-05
3667 5752 -1e-05
3668 5752 -1e-05
3669 5752 -1e-05
3670 5752 -1e-05
3671 5752 -1e-05
3672 5752 -1e-05
3673 5752 -1e-05
3674 5752 -1e-05
3675 5752 -1e-05
3676 5752 -1e-05
3677 5752 -1e-05
3678 5752 -1e-05
3679 5752 -1e-05
3680 5752 -1e-05
3681 5752 -1.32573e-20
3682 5752 -1.02997e-20
3683 5752 -1.02997e-20
3684 5752 -2.22008e-20
4802 5752 -1e-05
4805 5752 -1e-05
4807 5752 -1e-05
4810 5752 -1e-05
4813 5752 -1e-05
4814 5752 -1e-05
4816 5752 -1e-05
4819 5752 -1e-05
4821 5752 -1e-05
4824 5752 -1e-05
4827 5752 -1e-05
4828 5752 -1e-05
4830 5752 -1e-05
4833 5752 -1e-05
4835 5752 -1e-05
4838 5752 -1e-05
4841 5752 -1e-05
4842 5752 -1e-05
4844 5752 -1e-05
4847 5752 -1e-05
4849 5752 -1e-05
4852 5752 -1e-05
4855 5752 -1e-05
4856 5752 -1e-05
4858 5752 -1e-05
4861 5752 -1e-05
4864 5752 -1e-05
4865 5752 -1e-05
4867 5752 -1e-05
4870 5752 -1e-05
4872 5752 -1e-05
4875 5752 -1e-05
4878 5752 -1e-05
4879 5752 -1e-05
4881 5752 -1e-05
4884 5752 -1e-05
4886 5752 -1e-05
4889 5752 -1e-05
4892 5752 -1e-05
4893 5752 -1e-05
4895 5752 -1e-05
4898 5752 -1e-05
4900 5752 -1e-05
4903 5752 -1e-05
4906 5752 -1e-05
4907 5752 -1e-05
4909 5752 -1e-05
4912 5752 -1e-05
4914 5752 -1e-05
4917 5752 -1e-05
4920 5752 -1e-05
4921 5752 -1e-05
4923 5752 -1e-05
4926 5752 -1e-05
4927 5752 -1e-05
4928 5752 -1e-05
4929 5752 -1e-05
4930 5752 -1e-05
4931 5752 -1e-05
4932 5752 -1e-05
4933 5752 -1e-05
4934 5752 -1e-05
4935 5752 -1e-05
4936 5752 -1e-05
4937 5752 -1e-05
4938 5752 -1e-05
4939 5752 -1e-05
4940 5752 -1e-05
4941 5752 -1e-05
4942 5752 -1e-05
4943 5752 -1e-05
4944 5752 -1e-05
4945 5752 -1.32573e-20
4946 5752 -1.02997e-20
4947 5752 -1.02997e-20
4948 5752 -2.22008e-20
5739 5752 0
5740 5752 0
5741 5752 0
5746 5752 0
5751 5752 -0.00019
5752 5752 12580
5763 5752 0
5764 5752 0
5765 5752 0
5770 5752 0
5859 5752 -1.19237e-09
3695 5753 -9e-06
3696 5753 -1.64286e-13
3697 5753 -9e-06
3698 5753 -9e-06
3699 5753 -9.81043e-14
3700 5753 -9e-06
3701 5753 -9e-06
3702 5753 -9.81043e-14
3703 5753 -9.81043e-14
3704 5753 -9e-06
3705 5753 -9.81043e-14
3706 5753 -9e-06
3707 5753 -9e-06
3708 5753 -9.81043e-14
3709 5753 -9e-06
3710 5753 -1.64286e-13
3711 5753 -9e-06
3712 5753 -9e-06
3713 5753 -9.81043e-14
3714 5753 -9e-06
3715 5753 -9e-06
3716 5753 -9.81043e-14
3717 5753 -9.81043e-14
3718 5753 -9e-06
3719 5753 -9.81043e-14
3720 5753 -9e-06
3721 5753 -9e-06
3722 5753 -9.81043e-14
3723 5753 -9e-06
3724 5753 -1.64286e-13
3725 5753 -9e-06
3726 5753 -9e-06
3727 5753 -9.81043e-14
3728 5753 -9e-06
3729 5753 -9e-06
3730 5753 -9.81043e-14
3731 5753 -9.81043e-14
3732 5753 -9e-06
3733 5753 -9.81043e-14
3734 5753 -9e-06
3735 5753 -9e-06
3736 5753 -9.81043e-14
3737 5753 -9e-06
3738 5753 -1.64286e-13
3739 5753 -9e-06
3740 5753 -9e-06
3741 5753 -9.81043e-14
3742 5753 -9e-06
3743 5753 -9e-06
3744 5753 -9.81043e-14
3745 5753 -9.81043e-14
3746 5753 -9e-06
3747 5753 -9.81043e-14
3748 5753 -9e-06
3749 5753 -9e-06
3750 5753 -9.81043e-14
3751 5753 -9e-06
3752 5753 -1.64286e-13
3753 5753 -9e-06
3754 5753 -9e-06
3755 5753 -9.81043e-14
3756 5753 -9e-06
3757 5753 -9e-06
3758 5753 -9.81043e-14
3759 5753 -9.81043e-14
3760 5753 -9e-06
3761 5753 -9.81043e-14
3762 5753 -9e-06
3763 5753 -9e-06
3764 5753 -9.81043e-14
3765 5753 -9e-06
3766 5753 -1.64286e-13
3767 5753 -9e-06
3768 5753 -9e-06
3769 5753 -9.81043e-14
3770 5753 -9e-06
3771 5753 -9e-06
3772 5753 -9.81043e-14
3773 5753 -9.81043e-14
3774 5753 -9e-06
3775 5753 -9.81043e-14
3776 5753 -9e-06
3777 5753 -9e-06
3778 5753 -9.81043e-14
3779 5753 -9e-06
3780 5753 -1.64286e-13
3781 5753 -9e-06
3782 5753 -9e-06
3783 5753 -9.81043e-14
3784 5753 -9e-06
3785 5753 -9e-06
3786 5753 -9.81043e-14
3787 5753 -9.81043e-14
3788 5753 -9e-06
3789 5753 -9.81043e-14
3790 5753 -9e-06
3791 5753 -9e-06
3792 5753 -9.81043e-14
3793 5753 -9e-06
3794 5753 -1.64286e-13
3795 5753 -9e-06
3796 5753 -9e-06
3797 5753 -9.81043e-14
3798 5753 -9e-06
3799 5753 -9e-06
3800 5753 -9.81043e-14
3801 5753 -9.81043e-14
3802 5753 -9e-06
3803 5753 -9.81043e-14
3804 5753 -9e-06
3805 5753 -9e-06
3806 5753 -9.81043e-14
3807 5753 -9e-06
3808 5753 -1.64286e-13
3809 5753 -9e-06
3810 5753 -9e-06
3811 5753 -9.81043e-14
3812 5753 -9e-06
3813 5753 -9e-06
3814 5753 -9.81043e-14
3815 5753 -9.81043e-14
3816 5753 -9e-06
3817 5753 -9.81043e-14
3818 5753 -9e-06
3819 5753 -9e-06
3820 5753 -9.81043e-14
3821 5753 -9.81043e-14
3822 5753 -9.81043e-14
3823 5753 -9.81043e-14
3824 5753 -9.81043e-14
3825 5753 -9.81043e-14
3826 5753 -9.81043e-14
3827 5753 -9.81043e-14
3828 5753 -9.81043e-14
3829 5753 -9.81043e-14
3830 5753 -9.81043e-14
3831 5753 -9.81043e-14
3832 5753 -9.81043e-14
3833 5753 -9.81043e-14
3834 5753 -9.81043e-14
3835 5753 -9.81043e-14
3836 5753 -9.81043e-14
3837 5753 -9.81043e-14
3838 5753 -9.81043e-14
3839 5753 -1.53555e-12
3840 5753 -1.53555e-12
3841 5753 -1.53555e-12
3842 5753 -2.05349e-12
4959 5753 -9e-06
4960 5753 -1.64286e-13
4961 5753 -9e-06
4962 5753 -9e-06
4963 5753 -9.81043e-14
4964 5753 -9e-06
4965 5753 -9.81043e-14
4966 5753 -9e-06
4967 5753 -9e-06
4968 5753 -9.81043e-14
4969 5753 -9e-06
4970 5753 -9e-06
4971 5753 -9.81043e-14
4972 5753 -9.81043e-14
4973 5753 -9e-06
4974 5753 -1.64286e-13
4975 5753 -9e-06
4976 5753 -9e-06
4977 5753 -9.81043e-14
4978 5753 -9e-06
4979 5753 -9.81043e-14
4980 5753 -9e-06
4981 5753 -9e-06
4982 5753 -9.81043e-14
4983 5753 -9e-06
4984 5753 -9e-06
4985 5753 -9.81043e-14
4986 5753 -9.81043e-14
4987 5753 -9e-06
4988 5753 -1.64286e-13
4989 5753 -9e-06
4990 5753 -9e-06
4991 5753 -9.81043e-14
4992 5753 -9e-06
4993 5753 -9.81043e-14
4994 5753 -9e-06
4995 5753 -9e-06
4996 5753 -9.81043e-14
4997 5753 -9e-06
4998 5753 -9e-06
4999 5753 -9.81043e-14
5000 5753 -9.81043e-14
5001 5753 -9e-06
5002 5753 -1.64286e-13
5003 5753 -9e-06
5004 5753 -9e-06
5005 5753 -9.81043e-14
5006 5753 -9e-06
5007 5753 -9.81043e-14
5008 5753 -9e-06
5009 5753 -9e-06
5010 5753 -9.81043e-14
5011 5753 -9e-06
5012 5753 -9e-06
5013 5753 -9.81043e-14
5014 5753 -9.81043e-14
5015 5753 -9e-06
5016 5753 -1.64286e-13
5017 5753 -9e-06
5018 5753 -9e-06
5019 5753 -9.81043e-14
5020 5753 -9e-06
5021 5753 -9e-06
5022 5753 -9.81043e-14
5023 5753 -9.81043e-14
5024 5753 -9e-06
5025 5753 -9.81043e-14
5026 5753 -9e-06
5027 5753 -9e-06
5028 5753 -9.81043e-14
5029 5753 -9e-06
5030 5753 -1.64286e-13
5031 5753 -9e-06
5032 5753 -9e-06
5033 5753 -9.81043e-14
5034 5753 -9e-06
5035 5753 -9e-06
5036 5753 -9.81043e-14
5037 5753 -9.81043e-14
5038 5753 -9e-06
5039 5753 -9.81043e-14
5040 5753 -9e-06
5041 5753 -9e-06
5042 5753 -9.81043e-14
5043 5753 -9e-06
5044 5753 -1.64286e-13
5045 5753 -9e-06
5046 5753 -9e-06
5047 5753 -9.81043e-14
5048 5753 -9e-06
5049 5753 -9e-06
5050 5753 -9.81043e-14
5051 5753 -9.81043e-14
5052 5753 -9e-06
5053 5753 -9.81043e-14
5054 5753 -9e-06
5055 5753 -9e-06
5056 5753 -9.81043e-14
5057 5753 -9e-06
5058 5753 -1.64286e-13
5059 5753 -9e-06
5060 5753 -9e-06
5061 5753 -9.81043e-14
5062 5753 -9e-06
5063 5753 -9e-06
5064 5753 -9.81043e-14
5065 5753 -9.81043e-14
5066 5753 -9e-06
5067 5753 -9.81043e-14
5068 5753 -9e-06
5069 5753 -9e-06
5070 5753 -9.81043e-14
5071 5753 -9e-06
5072 5753 -1.64286e-13
5073 5753 -9e-06
5074 5753 -9e-06
5075 5753 -9.81043e-14
5076 5753 -9e-06
5077 5753 -9e-06
5078 5753 -9.81043e-14
5079 5753 -9.81043e-14
5080 5753 -9e-06
5081 5753 -9.81043e-14
5082 5753 -9e-06
5083 5753 -9e-06
5084 5753 -9.81043e-14
5085 5753 -9.81043e-14
5086 5753 -9.81043e-14
5087 5753 -9.81043e-14
5088 5753 -9.81043e-14
5089 5753 -9.81043e-14
5090 5753 -9.81043e-14
5091 5753 -9.81043e-14
5092 5753 -9.81043e-14
5093 5753 -9.81043e-14
5094 5753 -9.81043e-14
5095 5753 -9.81043e-14
5096 5753 -9.81043e-14
5097 5753 -9.81043e-14
5098 5753 -9.81043e-14
5099 5753 -9.81043e-14
5100 5753 -9.81043e-14
5101 5753 -9.81043e-14
5102 5753 -9.81043e-14
5103 5753 -1.53555e-12
5104 5753 -1.53555e-12
5105 5753 -1.53555e-12
5106 5753 -2.05349e-12
5739 5753 -1.9478e-42
5740 5753 -1.9478e-42
5741 5753 -2.27711e-42
5746 5753 -2.27711e-42
5753 5753 12410
5754 5753 -1.53102e-08
5763 5753 -0
5764 5753 -0
5765 5753 -0
5770 5753 -0
5859 5753 -1.2087e-09
3696 5754 -1e-05
3699 5754 -1e-05
3702 5754 -1e-05
3703 5754 -1e-05
3705 5754 -1e-05
3708 5754 -1e-05
3710 5754 -1e-05
3713 5754 -1e-05
3716 5754 -1e-05
3717 5754 -1e-05
3719 5754 -1e-05
3722 5754 -1e-05
3724 5754 -1e-05
3727 5754 -1e-05
3730 5754 -1e-05
3731 5754 -1e-05
3733 5754 -1e-05
3736 5754 -1e-05
3738 5754 -1e-05
3741 5754 -1e-05
3744 5754 -1e-05
3745 5754 -1e-05
3747 5754 -1e-05
3750 5754 -1e-05
3752 5754 -1e-05
3755 5754 -1e-05
3758 5754 -1e-05
3759 5754 -1e-05
3761 5754 -1e-05
3764 5754 -1e-05
3766 5754 -1e-05
3769 5754 -1e-05
3772 5754 -1e-05
3773 5754 -1e-05
3775 5754 -1e-05
3778 5754 -1e-05
3780 5754 -1e-05
3783 5754 -1e-05
3786 5754 -1e-05
3787 5754 -1e-05
3789 5754 -1e-05
3792 5754 -1e-05
3794 5754 -1e-05
3797 5754 -1e-05
3800 5754 -1e-05
3801 5754 -1e-05
3803 5754 -1e-05
3806 5754 -1e-05
3808 5754 -1e-05
3811 5754 -1e-05
3814 5754 -1e-05
3815 5754 -1e-05
3817 5754 -1e-05
3820 5754 -1e-05
3821 5754 -1e-05
3822 5754 -1e-05
3823 5754 -1e-05
3824 5754 -1e-05
3825 5754 -1e-05
3826 5754 -1e-05
3827 5754 -1e-05
3828 5754 -1e-05
3829 5754 -1e-05
3830 5754 -1e-05
3831 5754 -1e-05
3832 5754 -1e-05
3833 5754 -1e-05
3834 5754 -1e-05
3835 5754 -1e-05
3836 5754 -1e-05
3837 5754 -1e-05
3838 5754 -1e-05
3839 5754 -1.32573e-20
3840 5754 -1.02997e-20
3841 5754 -1.02997e-20
3842 5754 -2.22008e-20
4960 5754 -1e-05
4963 5754 -1e-05
4965 5754 -1e-05
4968 5754 -1e-05
4971 5754 -1e-05
4972 5754 -1e-05
4974 5754 -1e-05
4977 5754 -1e-05
4979 5754 -1e-05
4982 5754 -1e-05
4985 5754 -1e-05
4986 5754 -1e-05
4988 5754 -1e-05
4991 5754 -1e-05
4993 5754 -1e-05
4996 5754 -1e-05
4999 5754 -1e-05
5000 5754 -1e-05
5002 5754 -1e-05
5005 5754 -1e-05
5007 5754 -1e-05
5010 5754 -1e-05
5013 5754 -1e-05
5014 5754 -1e-05
5016 5754 -1e-05
5019 5754 -1e-05
5022 5754 -1e-05
5023 5754 -1e-05
5025 5754 -1e-05
5028 5754 -1e-05
5030 5754 -1e-05
5033 5754 -1e-05
5036 5754 -1e-05
5037 5754 -1e-05
5039 5754 -1e-05
5042 5754 -1e-05
5044 5754 -1e-05
5047 5754 -1e-05
5050 5754 -1e-05
5051 5754 -1e-05
5053 5754 -1e-05
5056 5754 -1e-05
5058 5754 -1e-05
5061 5754 -1e-05
5064 5754 -1e-05
5065 5754 -1e-05
5067 5754 -1e-05
5070 5754 -1e-05
5072 5754 -1e-05
5075 5754 -1e-05
5078 5754 -1e-05
5079 5754 -1e-05
5081 5754 -1e-05
5084 5754 -1e-05
5085 5754 -1e-05
5086 5754 -1e-05
5087 5754 -1e-05
5088 5754 -1e-05
5089 5754 -1e-05
5090 5754 -1e-05
5091 5754 -1e-05
5092 5754 -1e-05
5093 5754 -1e-05
5094 5754 -1e-05
5095 5754 -1e-05
5096 5754 -1e-05
5097 5754 -1e-05
5098 5754 -1e-05
5099 5754 -1e-05
5100 5754 -1e-05
5101 5754 -1e-05
5102 5754 -1e-05
5103 5754 -1.32573e-20
5104 5754 -1.02997e-20
5105 5754 -1.02997e-20
5106 5754 -2.22008e-20
5739 5754 0
5740 5754 0
5741 5754 0
5746 5754 0
5753 5754 -0.00019
5754 5754 12580
5763 5754 0
5764 5754 0
5765 5754 0
5770 5754 0
5859 5754 -1.19237e-09
3853 5755 -9e-06
3854 5755 -1.64286e-13
3855 5755 -9e-06
3856 5755 -9e-06
3857 5755 -9.81043e-14
3858 5755 -9e-06
3859 5755 -9e-06
3860 5755 -9.81043e-14
3861 5755 -9.81043e-14
3862 5755 -9e-06
3863 5755 -9.81043e-14
3864 5755 -9e-06
3865 5755 -9e-06
3866 5755 -9.81043e-14
3867 5755 -9e-06
3868 5755 -1.64286e-13
3869 5755 -9e-06
3870 5755 -9e-06
3871 5755 -9.81043e-14
3872 5755 -9e-06
3873 5755 -9e-06
3874 5755 -9.81043e-14
3875 5755 -9.81043e-14
3876 5755 -9e-06
3877 5755 -9.81043e-14
3878 5755 -9e-06
3879 5755 -9e-06
3880 5755 -9.81043e-14
3881 5755 -9e-06
3882 5755 -1.64286e-13
3883 5755 -9e-06
3884 5755 -9e-06
3885 5755 -9.81043e-14
3886 5755 -9e-06
3887 5755 -9e-06
3888 5755 -9.81043e-14
3889 5755 -9.81043e-14
3890 5755 -9e-06
3891 5755 -9.81043e-14
3892 5755 -9e-06
3893 5755 -9e-06
3894 5755 -9.81043e-14
3895 5755 -9e-06
3896 5755 -1.64286e-13
3897 5755 -9e-06
3898 5755 -9e-06
3899 5755 -9.81043e-14
3900 5755 -9e-06
3901 5755 -9e-06
3902 5755 -9.81043e-14
3903 5755 -9.81043e-14
3904 5755 -9e-06
3905 5755 -9.81043e-14
3906 5755 -9e-06
3907 5755 -9e-06
3908 5755 -9.81043e-14
3909 5755 -9e-06
3910 5755 -1.64286e-13
3911 5755 -9e-06
3912 5755 -9e-06
3913 5755 -9.81043e-14
3914 5755 -9e-06
3915 5755 -9e-06
3916 5755 -9.81043e-14
3917 5755 -9.81043e-14
3918 5755 -9e-06
3919 5755 -9.81043e-14
3920 5755 -9e-06
3921 5755 -9e-06
3922 5755 -9.81043e-14
3923 5755 -9e-06
3924 5755 -1.64286e-13
3925 5755 -9e-06
3926 5755 -9e-06
3927 5755 -9.81043e-14
3928 5755 -9e-06
3929 5755 -9e-06
3930 5755 -9.81043e-14
3931 5755 -9.81043e-14
3932 5755 -9e-06
3933 5755 -9.81043e-14
3934 5755 -9e-06
3935 5755 -9e-06
3936 5755 -9.81043e-14
3937 5755 -9e-06
3938 5755 -1.64286e-13
3939 5755 -9e-06
3940 5755 -9e-06
3941 5755 -9.81043e-14
3942 5755 -9e-06
3943 5755 -9e-06
3944 5755 -9.81043e-14
3945 5755 -9.81043e-14
3946 5755 -9e-06
3947 5755 -9.81043e-14
3948 5755 -9e-06
3949 5755 -9e-06
3950 5755 -9.81043e-14
3951 5755 -9e-06
3952 5755 -1.64286e-13
3953 5755 -9e-06
3954 5755 -9e-06
3955 5755 -9.81043e-14
3956 5755 -9e-06
3957 5755 -9e-06
3958 5755 -9.81043e-14
3959 5755 -9.81043e-14
3960 5755 -9e-06
3961 5755 -9.81043e-14
3962 5755 -9e-06
3963 5755 -9e-06
3964 5755 -9.81043e-14
3965 5755 -9e-06
3966 5755 -1.64286e-13
3967 5755 -9e-06
3968 5755 -9e-06
3969 5755 -9.81043e-14
3970 5755 -9e-06
3971 5755 -9e-06
3972 5755 -9.81043e-14
3973 5755 -9.81043e-14
3974 5755 -9e-06
3975 5755 -9.81043e-14
3976 5755 -9e-06
3977 5755 -9e-06
3978 5755 -9.81043e-14
3979 5755 -9.81043e-14
3980 5755 -9.81043e-14
3981 5755 -9.81043e-14
3982 5755 -9.81043e-14
3983 5755 -9.81043e-14
3984 5755 -9.81043e-14
3985 5755 -9.81043e-14
3986 5755 -9.81043e-14
3987 5755 -9.81043e-14
3988 5755 -9.81043e-14
3989 5755 -9.81043e-14
3990 5755 -9.81043e-14
3991 5755 -9.81043e-14
3992 5755 -9.81043e-14
3993 5755 -9.81043e-14
3994 5755 -9.81043e-14
3995 5755 -9.81043e-14
3996 5755 -9.81043e-14
3997 5755 -1.53555e-12
3998 5755 -1.53555e-12
3999 5755 -1.53555e-12
4000 5755 -2.05349e-12
5117 5755 -9e-06
5118 5755 -1.64286e-13
5119 5755 -9e-06
5120 5755 -9e-06
5121 5755 -9.81043e-14
5122 5755 -9e-06
5123 5755 -9.81043e-14
5124 5755 -9e-06
5125 5755 -9e-06
5126 5755 -9.81043e-14
5127 5755 -9e-06
5128 5755 -9e-06
5129 5755 -9.81043e-14
5130 5755 -9.81043e-14
5131 5755 -9e-06
5132 5755 -1.64286e-13
5133 5755 -9e-06
5134 5755 -9e-06
5135 5755 -9.81043e-14
5136 5755 -9e-06
5137 5755 -9.81043e-14
5138 5755 -9e-06
5139 5755 -9e-06
5140 5755 -9.81043e-14
5141 5755 -9e-06
5142 5755 -9e-06
5143 5755 -9.81043e-14
5144 5755 -9.81043e-14
5145 5755 -9e-06
5146 5755 -1.64286e-13
5147 5755 -9e-06
5148 5755 -9e-06
5149 5755 -9.81043e-14
5150 5755 -9e-06
5151 5755 -9.81043e-14
5152 5755 -9e-06
5153 5755 -9e-06
5154 5755 -9.81043e-14
5155 5755 -9e-06
5156 5755 -9e-06
5157 5755 -9.81043e-14
5158 5755 -9.81043e-14
5159 5755 -9e-06
5160 5755 -1.64286e-13
5161 5755 -9e-06
5162 5755 -9e-06
5163 5755 -9.81043e-14
5164 5755 -9e-06
5165 5755 -9.81043e-14
5166 5755 -9e-06
5167 5755 -9e-06
5168 5755 -9.81043e-14
5169 5755 -9e-06
5170 5755 -9e-06
5171 5755 -9.81043e-14
5172 5755 -9.81043e-14
5173 5755 -9e-06
5174 5755 -1.64286e-13
5175 5755 -9e-06
5176 5755 -9e-06
5177 5755 -9.81043e-14
5178 5755 -9e-06
5179 5755 -9e-06
5180 5755 -9.81043e-14
5181 5755 -9.81043e-14
5182 5755 -9e-06
5183 5755 -9.81043e-14
5184 5755 -9e-06
5185 5755 -9e-06
5186 5755 -9.81043e-14
5187 5755 -9e-06
5188 5755 -1.64286e-13
5189 5755 -9e-06
5190 5755 -9e-06
5191 5755 -9.81043e-14
5192 5755 -9e-06
5193 5755 -9e-06
5194 5755 -9.81043e-14
5195 5755 -9.81043e-14
5196 5755 -9e-06
5197 5755 -9.81043e-14
5198 5755 -9e-06
5199 5755 -9e-06
5200 5755 -9.81043e-14
5201 5755 -9e-06
5202 5755 -1.64286e-13
5203 5755 -9e-06
5204 5755 -9e-06
5205 5755 -9.81043e-14
5206 5755 -9e-06
5207 5755 -9e-06
5208 5755 -9.81043e-14
5209 5755 -9.81043e-14
5210 5755 -9e-06
5211 5755 -9.81043e-14
5212 5755 -9e-06
5213 5755 -9e-06
5214 5755 -9.81043e-14
5215 5755 -9e-06
5216 5755 -1.64286e-13
5217 5755 -9e-06
5218 5755 -9e-06
5219 5755 -9.81043e-14
5220 5755 -9e-06
5221 5755 -9e-06
5222 5755 -9.81043e-14
5223 5755 -9.81043e-14
5224 5755 -9e-06
5225 5755 -9.81043e-14
5226 5755 -9e-06
5227 5755 -9e-06
5228 5755 -9.81043e-14
5229 5755 -9e-06
5230 5755 -1.64286e-13
5231 5755 -9e-06
5232 5755 -9e-06
5233 5755 -9.81043e-14
5234 5755 -9e-06
5235 5755 -9e-06
5236 5755 -9.81043e-14
5237 5755 -9.81043e-14
5238 5755 -9e-06
5239 5755 -9.81043e-14
5240 5755 -9e-06
5241 5755 -9e-06
5242 5755 -9.81043e-14
5243 5755 -9.81043e-14
5244 5755 -9.81043e-14
5245 5755 -9.81043e-14
5246 5755 -9.81043e-14
5247 5755 -9.81043e-14
5248 5755 -9.81043e-14
5249 5755 -9.81043e-14
5250 5755 -9.81043e-14
5251 5755 -9.81043e-14
5252 5755 -9.81043e-14
5253 5755 -9.81043e-14
5254 5755 -9.81043e-14
5255 5755 -9.81043e-14
5256 5755 -9.81043e-14
5257 5755 -9.81043e-14
5258 5755 -9.81043e-14
5259 5755 -9.81043e-14
5260 5755 -9.81043e-14
5261 5755 -1.53555e-12
5262 5755 -1.53555e-12
5263 5755 -1.53555e-12
5264 5755 -2.05349e-12
5739 5755 -1.9478e-42
5740 5755 -1.9478e-42
5741 5755 -2.27711e-42
5746 5755 -2.27711e-42
5755 5755 12410
5756 5755 -1.53102e-08
5763 5755 -0
5764 5755 -0
5765 5755 -0
5770 5755 -0
5859 5755 -1.2087e-09
3854 5756 -1e-05
3857 5756 -1e-05
3860 5756 -1e-05
3861 5756 -1e-05
3863 5756 -1e-05
3866 5756 -1e-05
3868 5756 -1e-05
3871 5756 -1e-05
3874 5756 -1e-05
3875 5756 -1e-05
3877 5756 -1e-05
3880 5756 -1e-05
3882 5756 -1e-05
3885 5756 -1e-05
3888 5756 -1e-05
3889 5756 -1e-05
3891 5756 -1e-05
3894 5756 -1e-05
3896 5756 -1e-05
3899 5756 -1e-05
3902 5756 -1e-05
3903 5756 -1e-05
3905 5756 -1e-05
3908 5756 -1e-05
3910 5756 -1e-05
3913 5756 -1e-05
3916 5756 -1e-05
3917 5756 -1e-05
3919 5756 -1e-05
3922 5756 -1e-05
3924 5756 -1e-05
3927 5756 -1e-05
3930 5756 -1e-05
3931 5756 -1e-05
3933 5756 -1e-05
3936 5756 -1e-05
3938 5756 -1e-05
3941 5756 -1e-05
3944 5756 -1e-05
3945 5756 -1e-05
3947 5756 -1e-05
3950 5756 -1e-05
3952 5756 -1e-05
3955 5756 -1e-05
3958 5756 -1e-05
3959 5756 -1e-05
3961 5756 -1e-05
3964 5756 -1e-05
3966 5756 -1e-05
3969 5756 -1e-05
3972 5756 -1e-05
3973 5756 -1e-05
3975 5756 -1e-05
3978 5756 -1e-05
3979 5756 -1e-05
3980 5756 -1e-05
3981 5756 -1e-05
3982 5756 -1e-05
3983 5756 -1e-05
3984 5756 -1e-05
3985 5756 -1e-05
3986 5756 -1e-05
3987 5756 -1e-05
3988 5756 -1e-05
3989 5756 -1e-05
3990 5756 -1e-05
3991 5756 -1e-05
3992 5756 -1e-05
3993 5756 -1e-05
3994 5756 -1e-05
3995 5756 -1e-05
3996 5756 -1e-05
3997 5756 -1.32573e-20
3998 5756 -1.02997e-20
3999 5756 -1.02997e-20
4000 5756 -2.22008e-20
5118 5756 -1e-05
5121 5756 -1e-05
5123 5756 -1e-05
5126 5756 -1e-05
5129 5756 -1e-05
5130 5756 -1e-05
5132 5756 -1e-05
5135 5756 -1e-05
5137 5756 -1e-05
5140 5756 -1e-05
5143 5756 -1e-05
5144 5756 -1e-05
5146 5756 -1e-05
5149 5756 -1e-05
5151 5756 -1e-05
5154 5756 -1e-05
5157 5756 -1e-05
5158 5756 -1e-05
5160 5756 -1e-05
5163 5756 -1e-05
5165 5756 -1e-05
5168 5756 -1e-05
5171 5756 -1e-05
5172 5756 -1e-05
5174 5756 -1e-05
5177 5756 -1e-05
5180 5756 -1e-05
5181 5756 -1e-05
5183 5756 -1e-05
5186 5756 -1e-05
5188 5756 -1e-05
5191 5756 -1e-05
5194 5756 -1e-05
5195 5756 -1e-05
5197 5756 -1e-05
5200 5756 -1e-05
5202 5756 -1e-05
5205 5756 -1e-05
5208 5756 -1e-05
5209 5756 -1e-05
5211 5756 -1e-05
5214 5756 -1e-05
5216 5756 -1e-05
5219 5756 -1e-05
5222 5756 -1e-05
5223 5756 -1e-05
5225 5756 -1e-05
5228 5756 -1e-05
5230 5756 -1e-05
5233 5756 -1e-05
5236 5756 -1e-05
5237 5756 -1e-05
5239 5756 -1e-05
5242 5756 -1e-05
5243 5756 -1e-05
5244 5756 -1e-05
5245 5756 -1e-05
5246 5756 -1e-05
5247 5756 -1e-05
5248 5756 -1e-05
5249 5756 -1e-05
5250 5756 -1e-05
5251 5756 -1e-05
5252 5756 -1e-05
5253 5756 -1e-05
5254 5756 -1e-05
5255 5756 -1e-05
5256 5756 -1e-05
5257 5756 -1e-05
5258 5756 -1e-05
5259 5756 -1e-05
5260 5756 -1e-05
5261 5756 -1.32573e-20
5262 5756 -1.02997e-20
5263 5756 -1.02997e-20
5264 5756 -2.22008e-20
5739 5756 0
5740 5756 0
5741 5756 0
5746 5756 0
5755 5756 -0.00019
5756 5756 12580
5763 5756 0
5764 5756 0
5765 5756 0
5770 5756 0
5859 5756 -1.19237e-09
4011 5757 -9e-06
4012 5757 -1.64286e-13
4013 5757 -9e-06
4014 5757 -9e-06
4015 5757 -9.81043e-14
4016 5757 -9e-06
4017 5757 -9e-06
4018 5757 -9.81043e-14
4019 5757 -9.81043e-14
4020 5757 -9e-06
4021 5757 -9.81043e-14
4022 5757 -9e-06
4023 5757 -9e-06
4024 5757 -9.81043e-14
4025 5757 -9e-06
4026 5757 -1.64286e-13
4027 5757 -9e-06
4028 5757 -9e-06
4029 5757 -9.81043e-14
4030 5757 -9e-06
4031 5757 -9e-06
4032 5757 -9.81043e-14
4033 5757 -9.81043e-14
4034 5757 -9e-06
4035 5757 -9.81043e-14
4036 5757 -9e-06
4037 5757 -9e-06
4038 5757 -9.81043e-14
4039 5757 -9e-06
4040 5757 -1.64286e-13
4041 5757 -9e-06
4042 5757 -9e-06
4043 5757 -9.81043e-14
4044 5757 -9e-06
4045 5757 -9e-06
4046 5757 -9.81043e-14
4047 5757 -9.81043e-14
4048 5757 -9e-06
4049 5757 -9.81043e-14
4050 5757 -9e-06
4051 5757 -9e-06
4052 5757 -9.81043e-14
4053 5757 -9e-06
4054 5757 -1.64286e-13
4055 5757 -9e-06
4056 5757 -9e-06
4057 5757 -9.81043e-14
4058 5757 -9e-06
4059 5757 -9e-06
4060 5757 -9.81043e-14
4061 5757 -9.81043e-14
4062 5757 -9e-06
4063 5757 -9.81043e-14
4064 5757 -9e-06
4065 5757 -9e-06
4066 5757 -9.81043e-14
4067 5757 -9e-06
4068 5757 -1.64286e-13
4069 5757 -9e-06
4070 5757 -9e-06
4071 5757 -9.81043e-14
4072 5757 -9e-06
4073 5757 -9e-06
4074 5757 -9.81043e-14
4075 5757 -9.81043e-14
4076 5757 -9e-06
4077 5757 -9.81043e-14
4078 5757 -9e-06
4079 5757 -9e-06
4080 5757 -9.81043e-14
4081 5757 -9e-06
4082 5757 -1.64286e-13
4083 5757 -9e-06
4084 5757 -9e-06
4085 5757 -9.81043e-14
4086 5757 -9e-06
4087 5757 -9e-06
4088 5757 -9.81043e-14
4089 5757 -9.81043e-14
4090 5757 -9e-06
4091 5757 -9.81043e-14
4092 5757 -9e-06
4093 5757 -9e-06
4094 5757 -9.81043e-14
4095 5757 -9e-06
4096 5757 -1.64286e-13
4097 5757 -9e-06
4098 5757 -9e-06
4099 5757 -9.81043e-14
4100 5757 -9e-06
4101 5757 -9e-06
4102 5757 -9.81043e-14
4103 5757 -9.81043e-14
4104 5757 -9e-06
4105 5757 -9.81043e-14
4106 5757 -9e-06
4107 5757 -9e-06
4108 5757 -9.81043e-14
4109 5757 -9e-06
4110 5757 -1.64286e-13
4111 5757 -9e-06
4112 5757 -9e-06
4113 5757 -9.81043e-14
4114 5757 -9e-06
4115 5757 -9e-06
4116 5757 -9.81043e-14
4117 5757 -9.81043e-14
4118 5757 -9e-06
4119 5757 -9.81043e-14
4120 5757 -9e-06
4121 5757 -9e-06
4122 5757 -9.81043e-14
4123 5757 -9e-06
4124 5757 -1.64286e-13
4125 5757 -9e-06
4126 5757 -9e-06
4127 5757 -9.81043e-14
4128 5757 -9e-06
4129 5757 -9e-06
4130 5757 -9.81043e-14
4131 5757 -9.81043e-14
4132 5757 -9e-06
4133 5757 -9.81043e-14
4134 5757 -9e-06
4135 5757 -9e-06
4136 5757 -9.81043e-14
4137 5757 -9.81043e-14
4138 5757 -9.81043e-14
4139 5757 -9.81043e-14
4140 5757 -9.81043e-14
4141 5757 -9.81043e-14
4142 5757 -9.81043e-14
4143 5757 -9.81043e-14
4144 5757 -9.81043e-14
4145 5757 -9.81043e-14
4146 5757 -9.81043e-14
4147 5757 -9.81043e-14
4148 5757 -9.81043e-14
4149 5757 -9.81043e-14
4150 5757 -9.81043e-14
4151 5757 -9.81043e-14
4152 5757 -9.81043e-14
4153 5757 -9.81043e-14
4154 5757 -9.81043e-14
4155 5757 -1.53555e-12
4156 5757 -1.53555e-12
4157 5757 -1.53555e-12
4158 5757 -2.05349e-12
5275 5757 -9e-06
5276 5757 -1.64286e-13
5277 5757 -9e-06
5278 5757 -9e-06
5279 5757 -9.81043e-14
5280 5757 -9e-06
5281 5757 -9.81043e-14
5282 5757 -9e-06
5283 5757 -9e-06
5284 5757 -9.81043e-14
5285 5757 -9e-06
5286 5757 -9e-06
5287 5757 -9.81043e-14
5288 5757 -9.81043e-14
5289 5757 -9e-06
5290 5757 -1.64286e-13
5291 5757 -9e-06
5292 5757 -9e-06
5293 5757 -9.81043e-14
5294 5757 -9e-06
5295 5757 -9.81043e-14
5296 5757 -9e-06
5297 5757 -9e-06
5298 5757 -9.81043e-14
5299 5757 -9e-06
5300 5757 -9e-06
5301 5757 -9.81043e-14
5302 5757 -9.81043e-14
5303 5757 -9e-06
5304 5757 -1.64286e-13
5305 5757 -9e-06
5306 5757 -9e-06
5307 5757 -9.81043e-14
5308 5757 -9e-06
5309 5757 -9.81043e-14
5310 5757 -9e-06
5311 5757 -9e-06
5312 5757 -9.81043e-14
5313 5757 -9e-06
5314 5757 -9e-06
5315 5757 -9.81043e-14
5316 5757 -9.81043e-14
5317 5757 -9e-06
5318 5757 -1.64286e-13
5319 5757 -9e-06
5320 5757 -9e-06
5321 5757 -9.81043e-14
5322 5757 -9e-06
5323 5757 -9.81043e-14
5324 5757 -9e-06
5325 5757 -9e-06
5326 5757 -9.81043e-14
5327 5757 -9e-06
5328 5757 -9e-06
5329 5757 -9.81043e-14
5330 5757 -9.81043e-14
5331 5757 -9e-06
5332 5757 -1.64286e-13
5333 5757 -9e-06
5334 5757 -9e-06
5335 5757 -9.81043e-14
5336 5757 -9e-06
5337 5757 -9e-06
5338 5757 -9.81043e-14
5339 5757 -9.81043e-14
5340 5757 -9e-06
5341 5757 -9.81043e-14
5342 5757 -9e-06
5343 5757 -9e-06
5344 5757 -9.81043e-14
5345 5757 -9e-06
5346 5757 -1.64286e-13
5347 5757 -9e-06
5348 5757 -9e-06
5349 5757 -9.81043e-14
5350 5757 -9e-06
5351 5757 -9e-06
5352 5757 -9.81043e-14
5353 5757 -9.81043e-14
5354 5757 -9e-06
5355 5757 -9.81043e-14
5356 5757 -9e-06
5357 5757 -9e-06
5358 5757 -9.81043e-14
5359 5757 -9e-06
5360 5757 -1.64286e-13
5361 5757 -9e-06
5362 5757 -9e-06
5363 5757 -9.81043e-14
5364 5757 -9e-06
5365 5757 -9e-06
5366 5757 -9.81043e-14
5367 5757 -9.81043e-14
5368 5757 -9e-06
5369 5757 -9.81043e-14
5370 5757 -9e-06
5371 5757 -9e-06
5372 5757 -9.81043e-14
5373 5757 -9e-06
5374 5757 -1.64286e-13
5375 5757 -9e-06
5376 5757 -9e-06
5377 5757 -9.81043e-14
5378 5757 -9e-06
5379 5757 -9e-06
5380 5757 -9.81043e-14
5381 5757 -9.81043e-14
5382 5757 -9e-06
5383 5757 -9.81043e-14
5384 5757 -9e-06
5385 5757 -9e-06
5386 5757 -9.81043e-14
5387 5757 -9e-06
5388 5757 -1.64286e-13
5389 5757 -9e-06
5390 5757 -9e-06
5391 5757 -9.81043e-14
5392 5757 -9e-06
5393 5757 -9e-06
5394 5757 -9.81043e-14
5395 5757 -9.81043e-14
5396 5757 -9e-06
5397 5757 -9.81043e-14
5398 5757 -9e-06
5399 5757 -9e-06
5400 5757 -9.81043e-14
5401 5757 -9.81043e-14
5402 5757 -9.81043e-14
5403 5757 -9.81043e-14
5404 5757 -9.81043e-14
5405 5757 -9.81043e-14
5406 5757 -9.81043e-14
5407 5757 -9.81043e-14
5408 5757 -9.81043e-14
5409 5757 -9.81043e-14
5410 5757 -9.81043e-14
5411 5757 -9.81043e-14
5412 5757 -9.81043e-14
5413 5757 -9.81043e-14
5414 5757 -9.81043e-14
5415 5757 -9.81043e-14
5416 5757 -9.81043e-14
5417 5757 -9.81043e-14
5418 5757 -9.81043e-14
5419 5757 -1.53555e-12
5420 5757 -1.53555e-12
5421 5757 -1.53555e-12
5422 5757 -2.05349e-12
5739 5757 -1.9478e-42
5740 5757 -1.9478e-42
5741 5757 -2.27711e-42
5746 5757 -2.27711e-42
5757 5757 12410
5758 5757 -1.53102e-08
5763 5757 -0
5764 5757 -0
5765 5757 -0
5770 5757 -0
5859 5757 -1.2087e-09
4012 5758 -1e-05
4015 5758 -1e-05
4018 5758 -1e-05
4019 5758 -1e-05
4021 5758 -1e-05
4024 5758 -1e-05
4026 5758 -1e-05
4029 5758 -1e-05
4032 5758 -1e-05
4033 5758 -1e-05
4035 5758 -1e-05
4038 5758 -1e-05
4040 5758 -1e-05
4043 5758 -1e-05
4046 5758 -1e-05
4047 5758 -1e-05
4049 5758 -1e-05
4052 5758 -1e-05
4054 5758 -1e-05
4057 5758 -1e-05
4060 5758 -1e-05
4061 5758 -1e-05
4063 5758 -1e-05
4066 5758 -1e-05
4068 5758 -1e-05
4071 5758 -1e-05
4074 5758 -1e-05
4075 5758 -1e-05
4077 5758 -1e-05
4080 5758 -1e-05
4082 5758 -1e-05
4085 5758 -1e-05
4088 5758 -1e-05
4089 5758 -1e-05
4091 5758 -1e-05
4094 5758 -1e-05
4096 5758 -1e-05
4099 5758 -1e-05
4102 5758 -1e-05
4103 5758 -1e-05
4105 5758 -1e-05
4108 5758 -1e-05
4110 5758 -1e-05
4113 5758 -1e-05
4116 5758 -1e-05
4117 5758 -1e-05
4119 5758 -1e-05
4122 5758 -1e-05
4124 5758 -1e-05
4127 5758 -1e-05
4130 5758 -1e-05
4131 5758 -1e-05
4133 5758 -1e-05
4136 5758 -1e-05
4137 5758 -1e-05
4138 5758 -1e-05
4139 5758 -1e-05
4140 5758 -1e-05
4141 5758 -1e-05
4142 5758 -1e-05
4143 5758 -1e-05
4144 5758 -1e-05
4145 5758 -1e-05
4146 5758 -1e-05
4147 5758 -1e-05
4148 5758 -1e-05
4149 5758 -1e-05
4150 5758 -1e-05
4151 5758 -1e-05
4152 5758 -1e-05
4153 5758 -1e-05
4154 5758 -1e-05
4155 5758 -1.32573e-20
4156 5758 -1.02997e-20
4157 5758 -1.02997e-20
4158 5758 -2.22008e-20
5276 5758 -1e-05
5279 5758 -1e-05
5281 5758 -1e-05
5284 5758 -1e-05
5287 5758 -1e-05
5288 5758 -1e-05
5290 5758 -1e-05
5293 5758 -1e-05
5295 5758 -1e-05
5298 5758 -1e-05
5301 5758 -1e-05
5302 5758 -1e-05
5304 5758 -1e-05
5307 5758 -1e-05
5309 5758 -1e-05
5312 5758 -1e-05
5315 5758 -1e-05
5316 5758 -1e-05
5318 5758 -1e-05
5321 5758 -1e-05
5323 5758 -1e-05
5326 5758 -1e-05
5329 5758 -1e-05
5330 5758 -1e-05
5332 5758 -1e-05
5335 5758 -1e-05
5338 5758 -1e-05
5339 5758 -1e-05
5341 5758 -1e-05
5344 5758 -1e-05
5346 5758 -1e-05
5349 5758 -1e-05
5352 5758 -1e-05
5353 5758 -1e-05
5355 5758 -1e-05
5358 5758 -1e-05
5360 5758 -1e-05
5363 5758 -1e-05
5366 5758 -1e-05
5367 5758 -1e-05
5369 5758 -1e-05
5372 5758 -1e-05
5374 5758 -1e-05
5377 5758 -1e-05
5380 5758 -1e-05
5381 5758 -1e-05
5383 5758 -1e-05
5386 5758 -1e-05
5388 5758 -1e-05
5391 5758 -1e-05
5394 5758 -1e-05
5395 5758 -1e-05
5397 5758 -1e-05
5400 5758 -1e-05
5401 5758 -1e-05
5402 5758 -1e-05
5403 5758 -1e-05
5404 5758 -1e-05
5405 5758 -1e-05
5406 5758 -1e-05
5407 5758 -1e-05
5408 5758 -1e-05
5409 5758 -1e-05
5410 5758 -1e-05
5411 5758 -1e-05
5412 5758 -1e-05
5413 5758 -1e-05
5414 5758 -1e-05
5415 5758 -1e-05
5416 5758 -1e-05
5417 5758 -1e-05
5418 5758 -1e-05
5419 5758 -1.32573e-20
5420 5758 -1.02997e-20
5421 5758 -1.02997e-20
5422 5758 -2.22008e-20
5739 5758 0
5740 5758 0
5741 5758 0
5746 5758 0
5757 5758 -0.00019
5758 5758 12580
5763 5758 0
5764 5758 0
5765 5758 0
5770 5758 0
5859 5758 -1.19237e-09
4169 5759 -9e-06
4170 5759 -1.64286e-13
4171 5759 -9e-06
4172 5759 -9e-06
4173 5759 -9.81043e-14
4174 5759 -9e-06
4175 5759 -9e-06
4176 5759 -9.81043e-14
4177 5759 -9.81043e-14
4178 5759 -9e-06
4179 5759 -9.81043e-14
4180 5759 -9e-06
4181 5759 -9e-06
4182 5759 -9.81043e-14
4183 5759 -9e-06
4184 5759 -1.64286e-13
4185 5759 -9e-06
4186 5759 -9e-06
4187 5759 -9.81043e-14
4188 5759 -9e-06
4189 5759 -9e-06
4190 5759 -9.81043e-14
4191 5759 -9.81043e-14
4192 5759 -9e-06
4193 5759 -9.81043e-14
4194 5759 -9e-06
4195 5759 -9e-06
4196 5759 -9.81043e-14
4197 5759 -9e-06
4198 5759 -1.64286e-13
4199 5759 -9e-06
4200 5759 -9e-06
4201 5759 -9.81043e-14
4202 5759 -9e-06
4203 5759 -9e-06
4204 5759 -9.81043e-14
4205 5759 -9.81043e-14
4206 5759 -9e-06
4207 5759 -9.81043e-14
4208 5759 -9e-06
4209 5759 -9e-06
4210 5759 -9.81043e-14
4211 5759 -9e-06
4212 5759 -1.64286e-13
4213 5759 -9e-06
4214 5759 -9e-06
4215 5759 -9.81043e-14
4216 5759 -9e-06
4217 5759 -9e-06
4218 5759 -9.81043e-14
4219 5759 -9.81043e-14
4220 5759 -9e-06
4221 5759 -9.81043e-14
4222 5759 -9e-06
4223 5759 -9e-06
4224 5759 -9.81043e-14
4225 5759 -9e-06
4226 5759 -1.64286e-13
4227 5759 -9e-06
4228 5759 -9e-06
4229 5759 -9.81043e-14
4230 5759 -9e-06
4231 5759 -9e-06
4232 5759 -9.81043e-14
4233 5759 -9.81043e-14
4234 5759 -9e-06
4235 5759 -9.81043e-14
4236 5759 -9e-06
4237 5759 -9e-06
4238 5759 -9.81043e-14
4239 5759 -9e-06
4240 5759 -1.64286e-13
4241 5759 -9e-06
4242 5759 -9e-06
4243 5759 -9.81043e-14
4244 5759 -9e-06
4245 5759 -9e-06
4246 5759 -9.81043e-14
4247 5759 -9.81043e-14
4248 5759 -9e-06
4249 5759 -9.81043e-14
4250 5759 -9e-06
4251 5759 -9e-06
4252 5759 -9.81043e-14
4253 5759 -9e-06
4254 5759 -1.64286e-13
4255 5759 -9e-06
4256 5759 -9e-06
4257 5759 -9.81043e-14
4258 5759 -9e-06
4259 5759 -9e-06
4260 5759 -9.81043e-14
4261 5759 -9.81043e-14
4262 5759 -9e-06
4263 5759 -9.81043e-14
4264 5759 -9e-06
4265 5759 -9e-06
4266 5759 -9.81043e-14
4267 5759 -9e-06
4268 5759 -1.64286e-13
4269 5759 -9e-06
4270 5759 -9e-06
4271 5759 -9.81043e-14
4272 5759 -9e-06
4273 5759 -9e-06
4274 5759 -9.81043e-14
4275 5759 -9.81043e-14
4276 5759 -9e-06
4277 5759 -9.81043e-14
4278 5759 -9e-06
4279 5759 -9e-06
4280 5759 -9.81043e-14
4281 5759 -9e-06
4282 5759 -1.64286e-13
4283 5759 -9e-06
4284 5759 -9e-06
4285 5759 -9.81043e-14
4286 5759 -9e-06
4287 5759 -9e-06
4288 5759 -9.81043e-14
4289 5759 -9.81043e-14
4290 5759 -9e-06
4291 5759 -9.81043e-14
4292 5759 -9e-06
4293 5759 -9e-06
4294 5759 -9.81043e-14
4295 5759 -9.81043e-14
4296 5759 -9.81043e-14
4297 5759 -9.81043e-14
4298 5759 -9.81043e-14
4299 5759 -9.81043e-14
4300 5759 -9.81043e-14
4301 5759 -9.81043e-14
4302 5759 -9.81043e-14
4303 5759 -9.81043e-14
4304 5759 -9.81043e-14
4305 5759 -9.81043e-14
4306 5759 -9.81043e-14
4307 5759 -9.81043e-14
4308 5759 -9.81043e-14
4309 5759 -9.81043e-14
4310 5759 -9.81043e-14
4311 5759 -9.81043e-14
4312 5759 -9.81043e-14
4313 5759 -1.53555e-12
4314 5759 -1.53555e-12
4315 5759 -1.53555e-12
4316 5759 -2.05349e-12
5433 5759 -9e-06
5434 5759 -1.64286e-13
5435 5759 -9e-06
5436 5759 -9e-06
5437 5759 -9.81043e-14
5438 5759 -9e-06
5439 5759 -9.81043e-14
5440 5759 -9e-06
5441 5759 -9e-06
5442 5759 -9.81043e-14
5443 5759 -9e-06
5444 5759 -9e-06
5445 5759 -9.81043e-14
5446 5759 -9.81043e-14
5447 5759 -9e-06
5448 5759 -1.64286e-13
5449 5759 -9e-06
5450 5759 -9e-06
5451 5759 -9.81043e-14
5452 5759 -9e-06
5453 5759 -9.81043e-14
5454 5759 -9e-06
5455 5759 -9e-06
5456 5759 -9.81043e-14
5457 5759 -9e-06
5458 5759 -9e-06
5459 5759 -9.81043e-14
5460 5759 -9.81043e-14
5461 5759 -9e-06
5462 5759 -1.64286e-13
5463 5759 -9e-06
5464 5759 -9e-06
5465 5759 -9.81043e-14
5466 5759 -9e-06
5467 5759 -9.81043e-14
5468 5759 -9e-06
5469 5759 -9e-06
5470 5759 -9.81043e-14
5471 5759 -9e-06
5472 5759 -9e-06
5473 5759 -9.81043e-14
5474 5759 -9.81043e-14
5475 5759 -9e-06
5476 5759 -1.64286e-13
5477 5759 -9e-06
5478 5759 -9e-06
5479 5759 -9.81043e-14
5480 5759 -9e-06
5481 5759 -9.81043e-14
5482 5759 -9e-06
5483 5759 -9e-06
5484 5759 -9.81043e-14
5485 5759 -9e-06
5486 5759 -9e-06
5487 5759 -9.81043e-14
5488 5759 -9.81043e-14
5489 5759 -9e-06
5490 5759 -1.64286e-13
5491 5759 -9e-06
5492 5759 -9e-06
5493 5759 -9.81043e-14
5494 5759 -9e-06
5495 5759 -9e-06
5496 5759 -9.81043e-14
5497 5759 -9.81043e-14
5498 5759 -9e-06
5499 5759 -9.81043e-14
5500 5759 -9e-06
5501 5759 -9e-06
5502 5759 -9.81043e-14
5503 5759 -9e-06
5504 5759 -1.64286e-13
5505 5759 -9e-06
5506 5759 -9e-06
5507 5759 -9.81043e-14
5508 5759 -9e-06
5509 5759 -9e-06
5510 5759 -9.81043e-14
5511 5759 -9.81043e-14
5512 5759 -9e-06
5513 5759 -9.81043e-14
5514 5759 -9e-06
5515 5759 -9e-06
5516 5759 -9.81043e-14
5517 5759 -9e-06
5518 5759 -1.64286e-13
5519 5759 -9e-06
5520 5759 -9e-06
5521 5759 -9.81043e-14
5522 5759 -9e-06
5523 5759 -9e-06
5524 5759 -9.81043e-14
5525 5759 -9.81043e-14
5526 5759 -9e-06
5527 5759 -9.81043e-14
5528 5759 -9e-06
5529 5759 -9e-06
5530 5759 -9.81043e-14
5531 5759 -9e-06
5532 5759 -1.64286e-13
5533 5759 -9e-06
5534 5759 -9e-06
5535 5759 -9.81043e-14
5536 5759 -9e-06
5537 5759 -9e-06
5538 5759 -9.81043e-14
5539 5759 -9.81043e-14
5540 5759 -9e-06
5541 5759 -9.81043e-14
5542 5759 -9e-06
5543 5759 -9e-06
5544 5759 -9.81043e-14
5545 5759 -9e-06
5546 5759 -1.64286e-13
5547 5759 -9e-06
5548 5759 -9e-06
5549 5759 -9.81043e-14
5550 5759 -9e-06
5551 5759 -9e-06
5552 5759 -9.81043e-14
5553 5759 -9.81043e-14
5554 5759 -9e-06
5555 5759 -9.81043e-14
5556 5759 -9e-06
5557 5759 -9e-06
5558 5759 -9.81043e-14
5559 5759 -9.81043e-14
5560 5759 -9.81043e-14
5561 5759 -9.81043e-14
5562 5759 -9.81043e-14
5563 5759 -9.81043e-14
5564 5759 -9.81043e-14
5565 5759 -9.81043e-14
5566 5759 -9.81043e-14
5567 5759 -9.81043e-14
5568 5759 -9.81043e-14
5569 5759 -9.81043e-14
5570 5759 -9.81043e-14
5571 5759 -9.81043e-14
5572 5759 -9.81043e-14
5573 5759 -9.81043e-14
5574 5759 -9.81043e-14
5575 5759 -9.81043e-14
5576 5759 -9.81043e-14
5577 5759 -1.53555e-12
5578 5759 -1.53555e-12
5579 5759 -1.53555e-12
5580 5759 -2.05349e-12
5739 5759 -1.9478e-42
5740 5759 -1.9478e-42
5741 5759 -2.27711e-42
5746 5759 -2.27711e-42
5759 5759 12410
5760 5759 -1.53102e-08
5763 5759 -0
5764 5759 -0
5765 5759 -0
5770 5759 -0
5859 5759 -1.2087e-09
4170 5760 -1e-05
4173 5760 -1e-05
4176 5760 -1e-05
4177 5760 -1e-05
4179 5760 -1e-05
4182 5760 -1e-05
4184 5760 -1e-05
4187 5760 -1e-05
4190 5760 -1e-05
4191 5760 -1e-05
4193 5760 -1e-05
4196 5760 -1e-05
4198 5760 -1e-05
4201 5760 -1e-05
4204 5760 -1e-05
4205 5760 -1e-05
4207 5760 -1e-05
4210 5760 -1e-05
4212 5760 -1e-05
4215 5760 -1e-05
4218 5760 -1e-05
4219 5760 -1e-05
4221 5760 -1e-05
4224 5760 -1e-05
4226 5760 -1e-05
4229 5760 -1e-05
4232 5760 -1e-05
4233 5760 -1e-05
4235 5760 -1e-05
4238 5760 -1e-05
4240 5760 -1e-05
4243 5760 -1e-05
4246 5760 -1e-05
4247 5760 -1e-05
4249 5760 -1e-05
4252 5760 -1e-05
4254 5760 -1e-05
4257 5760 -1e-05
4260 5760 -1e-05
4261 5760 -1e-05
4263 5760 -1e-05
4266 5760 -1e-05
4268 5760 -1e-05
4271 5760 -1e-05
4274 5760 -1e-05
4275 5760 -1e-05
4277 5760 -1e-05
4280 5760 -1e-05
4282 5760 -1e-05
4285 5760 -1e-05
4288 5760 -1e-05
4289 5760 -1e-05
4291 5760 -1e-05
4294 5760 -1e-05
4295 5760 -1e-05
4296 5760 -1e-05
4297 5760 -1e-05
4298 5760 -1e-05
4299 5760 -1e-05
4300 5760 -1e-05
4301 5760 -1e-05
4302 5760 -1e-05
4303 5760 -1e-05
4304 5760 -1e-05
4305 5760 -1e-05
4306 5760 -1e-05
4307 5760 -1e-05
4308 5760 -1e-05
4309 5760 -1e-05
4310 5760 -1e-05
4311 5760 -1e-05
4312 5760 -1e-05
4313 5760 -1.32573e-20
4314 5760 -1.02997e-20
4315 5760 -1.02997e-20
4316 5760 -2.22008e-20
5434 5760 -1e-05
5437 5760 -1e-05
5439 5760 -1e-05
5442 5760 -1e-05
5445 5760 -1e-05
5446 5760 -1e-05
5448 5760 -1e-05
5451 5760 -1e-05
5453 5760 -1e-05
5456 5760 -1e-05
5459 5760 -1e-05
5460 5760 -1e-05
5462 5760 -1e-05
5465 5760 -1e-05
5467 5760 -1e-05
5470 5760 -1e-05
5473 5760 -1e-05
5474 5760 -1e-05
5476 5760 -1e-05
5479 5760 -1e-05
5481 5760 -1e-05
5484 5760 -1e-05
5487 5760 -1e-05
5488 5760 -1e-05
5490 5760 -1e-05
5493 5760 -1e-05
5496 5760 -1e-05
5497 5760 -1e-05
5499 5760 -1e-05
5502 5760 -1e-05
5504 5760 -1e-05
5507 5760 -1e-05
5510 5760 -1e-05
5511 5760 -1e-05
5513 5760 -1e-05
5516 5760 -1e-05
5518 5760 -1e-05
5521 5760 -1e-05
5524 5760 -1e-05
5525 5760 -1e-05
5527 5760 -1e-05
5530 5760 -1e-05
5532 5760 -1e-05
5535 5760 -1e-05
5538 5760 -1e-05
5539 5760 -1e-05
5541 5760 -1e-05
5544 5760 -1e-05
5546 5760 -1e-05
5549 5760 -1e-05
5552 5760 -1e-05
5553 5760 -1e-05
5555 5760 -1e-05
5558 5760 -1e-05
5559 5760 -1e-05
5560 5760 -1e-05
5561 5760 -1e-05
5562 5760 -1e-05
5563 5760 -1e-05
5564 5760 -1e-05
5565 5760 -1e-05
5566 5760 -1e-05
5567 5760 -1e-05
5568 5760 -1e-05
5569 5760 -1e-05
5570 5760 -1e-05
5571 5760 -1e-05
5572 5760 -1e-05
5573 5760 -1e-05
5574 5760 -1e-05
5575 5760 -1e-05
5576 5760 -1e-05
5577 5760 -1.32573e-20
5578 5760 -1.02997e-20
5579 5760 -1.02997e-20
5580 5760 -2.22008e-20
5739 5760 0
5740 5760 0
5741 5760 0
5746 5760 0
5759 5760 -0.00019
5760 5760 12580
5763 5760 0
5764 5760 0
5765 5760 0
5770 5760 0
5859 5760 -1.19237e-09
4327 5761 -9e-06
4328 5761 -1.64286e-13
4329 5761 -9e-06
4330 5761 -9e-06
4331 5761 -9.81043e-14
4332 5761 -9e-06
4333 5761 -9e-06
4334 5761 -9.81043e-14
4335 5761 -9.81043e-14
4336 5761 -9e-06
4337 5761 -9.81043e-14
4338 5761 -9e-06
4339 5761 -9e-06
4340 5761 -9.81043e-14
4341 5761 -9e-06
4342 5761 -1.64286e-13
4343 5761 -9e-06
4344 5761 -9e-06
4345 5761 -9.81043e-14
4346 5761 -9e-06
4347 5761 -9e-06
4348 5761 -9.81043e-14
4349 5761 -9.81043e-14
4350 5761 -9e-06
4351 5761 -9.81043e-14
4352 5761 -9e-06
4353 5761 -9e-06
4354 5761 -9.81043e-14
4355 5761 -9e-06
4356 5761 -1.64286e-13
4357 5761 -9e-06
4358 5761 -9e-06
4359 5761 -9.81043e-14
4360 5761 -9e-06
4361 5761 -9e-06
4362 5761 -9.81043e-14
4363 5761 -9.81043e-14
4364 5761 -9e-06
4365 5761 -9.81043e-14
4366 5761 -9e-06
4367 5761 -9e-06
4368 5761 -9.81043e-14
4369 5761 -9e-06
4370 5761 -1.64286e-13
4371 5761 -9e-06
4372 5761 -9e-06
4373 5761 -9.81043e-14
4374 5761 -9e-06
4375 5761 -9e-06
4376 5761 -9.81043e-14
4377 5761 -9.81043e-14
4378 5761 -9e-06
4379 5761 -9.81043e-14
4380 5761 -9e-06
4381 5761 -9e-06
4382 5761 -9.81043e-14
4383 5761 -9e-06
4384 5761 -1.64286e-13
4385 5761 -9e-06
4386 5761 -9e-06
4387 5761 -9.81043e-14
4388 5761 -9e-06
4389 5761 -9e-06
4390 5761 -9.81043e-14
4391 5761 -9.81043e-14
4392 5761 -9e-06
4393 5761 -9.81043e-14
4394 5761 -9e-06
4395 5761 -9e-06
4396 5761 -9.81043e-14
4397 5761 -9e-06
4398 5761 -1.64286e-13
4399 5761 -9e-06
4400 5761 -9e-06
4401 5761 -9.81043e-14
4402 5761 -9e-06
4403 5761 -9e-06
4404 5761 -9.81043e-14
4405 5761 -9.81043e-14
4406 5761 -9e-06
4407 5761 -9.81043e-14
4408 5761 -9e-06
4409 5761 -9e-06
4410 5761 -9.81043e-14
4411 5761 -9e-06
4412 5761 -1.64286e-13
4413 5761 -9e-06
4414 5761 -9e-06
4415 5761 -9.81043e-14
4416 5761 -9e-06
4417 5761 -9e-06
4418 5761 -9.81043e-14
4419 5761 -9.81043e-14
4420 5761 -9e-06
4421 5761 -9.81043e-14
4422 5761 -9e-06
4423 5761 -9e-06
4424 5761 -9.81043e-14
4425 5761 -9e-06
4426 5761 -1.64286e-13
4427 5761 -9e-06
4428 5761 -9e-06
4429 5761 -9.81043e-14
4430 5761 -9e-06
4431 5761 -9e-06
4432 5761 -9.81043e-14
4433 5761 -9.81043e-14
4434 5761 -9e-06
4435 5761 -9.81043e-14
4436 5761 -9e-06
4437 5761 -9e-06
4438 5761 -9.81043e-14
4439 5761 -9e-06
4440 5761 -1.64286e-13
4441 5761 -9e-06
4442 5761 -9e-06
4443 5761 -9.81043e-14
4444 5761 -9e-06
4445 5761 -9e-06
4446 5761 -9.81043e-14
4447 5761 -9.81043e-14
4448 5761 -9e-06
4449 5761 -9.81043e-14
4450 5761 -9e-06
4451 5761 -9e-06
4452 5761 -9.81043e-14
4453 5761 -9.81043e-14
4454 5761 -9.81043e-14
4455 5761 -9.81043e-14
4456 5761 -9.81043e-14
4457 5761 -9.81043e-14
4458 5761 -9.81043e-14
4459 5761 -9.81043e-14
4460 5761 -9.81043e-14
4461 5761 -9.81043e-14
4462 5761 -9.81043e-14
4463 5761 -9.81043e-14
4464 5761 -9.81043e-14
4465 5761 -9.81043e-14
4466 5761 -9.81043e-14
4467 5761 -9.81043e-14
4468 5761 -9.81043e-14
4469 5761 -9.81043e-14
4470 5761 -9.81043e-14
4471 5761 -1.53555e-12
4472 5761 -1.53555e-12
4473 5761 -1.53555e-12
4474 5761 -2.05349e-12
5591 5761 -9e-06
5592 5761 -1.64286e-13
5593 5761 -9e-06
5594 5761 -9e-06
5595 5761 -9.81043e-14
5596 5761 -9e-06
5597 5761 -9.81043e-14
5598 5761 -9e-06
5599 5761 -9e-06
5600 5761 -9.81043e-14
5601 5761 -9e-06
5602 5761 -9e-06
5603 5761 -9.81043e-14
5604 5761 -9.81043e-14
5605 5761 -9e-06
5606 5761 -1.64286e-13
5607 5761 -9e-06
5608 5761 -9e-06
5609 5761 -9.81043e-14
5610 5761 -9e-06
5611 5761 -9.81043e-14
5612 5761 -9e-06
5613 5761 -9e-06
5614 5761 -9.81043e-14
5615 5761 -9e-06
5616 5761 -9e-06
5617 5761 -9.81043e-14
5618 5761 -9.81043e-14
5619 5761 -9e-06
5620 5761 -1.64286e-13
5621 5761 -9e-06
5622 5761 -9e-06
5623 5761 -9.81043e-14
5624 5761 -9e-06
5625 5761 -9.81043e-14
5626 5761 -9e-06
5627 5761 -9e-06
5628 5761 -9.81043e-14
5629 5761 -9e-06
5630 5761 -9e-06
5631 5761 -9.81043e-14
5632 5761 -9.81043e-14
5633 5761 -9e-06
5634 5761 -1.64286e-13
5635 5761 -9e-06
5636 5761 -9e-06
5637 5761 -9.81043e-14
5638 5761 -9e-06
5639 5761 -9.81043e-14
5640 5761 -9e-06
5641 5761 -9e-06
5642 5761 -9.81043e-14
5643 5761 -9e-06
5644 5761 -9e-06
5645 5761 -9.81043e-14
5646 5761 -9.81043e-14
5647 5761 -9e-06
5648 5761 -1.64286e-13
5649 5761 -9e-06
5650 5761 -9e-06
5651 5761 -9.81043e-14
5652 5761 -9e-06
5653 5761 -9e-06
5654 5761 -9.81043e-14
5655 5761 -9.81043e-14
5656 5761 -9e-06
5657 5761 -9.81043e-14
5658 5761 -9e-06
5659 5761 -9e-06
5660 5761 -9.81043e-14
5661 5761 -9e-06
5662 5761 -1.64286e-13
5663 5761 -9e-06
5664 5761 -9e-06
5665 5761 -9.81043e-14
5666 5761 -9e-06
5667 5761 -9e-06
5668 5761 -9.81043e-14
5669 5761 -9.81043e-14
5670 5761 -9e-06
5671 5761 -9.81043e-14
5672 5761 -9e-06
5673 5761 -9e-06
5674 5761 -9.81043e-14
5675 5761 -9e-06
5676 5761 -1.64286e-13
5677 5761 -9e-06
5678 5761 -9e-06
5679 5761 -9.81043e-14
5680 5761 -9e-06
5681 5761 -9e-06
5682 5761 -9.81043e-14
5683 5761 -9.81043e-14
5684 5761 -9e-06
5685 5761 -9.81043e-14
5686 5761 -9e-06
5687 5761 -9e-06
5688 5761 -9.81043e-14
5689 5761 -9e-06
5690 5761 -1.64286e-13
5691 5761 -9e-06
5692 5761 -9e-06
5693 5761 -9.81043e-14
5694 5761 -9e-06
5695 5761 -9e-06
5696 5761 -9.81043e-14
5697 5761 -9.81043e-14
5698 5761 -9e-06
5699 5761 -9.81043e-14
5700 5761 -9e-06
5701 5761 -9e-06
5702 5761 -9.81043e-14
5703 5761 -9e-06
5704 5761 -1.64286e-13
5705 5761 -9e-06
5706 5761 -9e-06
5707 5761 -9.81043e-14
5708 5761 -9e-06
5709 5761 -9e-06
5710 5761 -9.81043e-14
5711 5761 -9.81043e-14
5712 5761 -9e-06
5713 5761 -9.81043e-14
5714 5761 -9e-06
5715 5761 -9e-06
5716 5761 -9.81043e-14
5717 5761 -9.81043e-14
5718 5761 -9.81043e-14
5719 5761 -9.81043e-14
5720 5761 -9.81043e-14
5721 5761 -9.81043e-14
5722 5761 -9.81043e-14
5723 5761 -9.81043e-14
5724 5761 -9.81043e-14
5725 5761 -9.81043e-14
5726 5761 -9.81043e-14
5727 5761 -9.81043e-14
5728 5761 -9.81043e-14
5729 5761 -9.81043e-14
5730 5761 -9.81043e-14
5731 5761 -9.81043e-14
5732 5761 -9.81043e-14
5733 5761 -9.81043e-14
5734 5761 -9.81043e-14
5735 5761 -1.53555e-12
5736 5761 -1.53555e-12
5737 5761 -1.53555e-12
5738 5761 -2.05349e-12
5739 5761 -1.9478e-42
5740 5761 -1.9478e-42
5741 5761 -2.27711e-42
5746 5761 -2.27711e-42
5761 5761 12410
5762 5761 -1.53102e-08
5763 5761 -0
5764 5761 -0
5765 5761 -0
5770 5761 -0
5859 5761 -1.2087e-09
4328 5762 -1e-05
4331 5762 -1e-05
4334 5762 -1e-05
4335 5762 -1e-05
4337 5762 -1e-05
4340 5762 -1e-05
4342 5762 -1e-05
4345 5762 -1e-05
4348 5762 -1e-05
4349 5762 -1e-05
4351 5762 -1e-05
4354 5762 -1e-05
4356 5762 -1e-05
4359 5762 -1e-05
4362 5762 -1e-05
4363 5762 -1e-05
4365 5762 -1e-05
4368 5762 -1e-05
4370 5762 -1e-05
4373 5762 -1e-05
4376 5762 -1e-05
4377 5762 -1e-05
4379 5762 -1e-05
4382 5762 -1e-05
4384 5762 -1e-05
4387 5762 -1e-05
4390 5762 -1e-05
4391 5762 -1e-05
4393 5762 -1e-05
4396 5762 -1e-05
4398 5762 -1e-05
4401 5762 -1e-05
4404 5762 -1e-05
4405 5762 -1e-05
4407 5762 -1e-05
4410 5762 -1e-05
4412 5762 -1e-05
4415 5762 -1e-05
4418 5762 -1e-05
4419 5762 -1e-05
4421 5762 -1e-05
4424 5762 -1e-05
4426 5762 -1e-05
4429 5762 -1e-05
4432 5762 -1e-05
4433 5762 -1e-05
4435 5762 -1e-05
4438 5762 -1e-05
4440 5762 -1e-05
4443 5762 -1e-05
4446 5762 -1e-05
4447 5762 -1e-05
4449 5762 -1e-05
4452 5762 -1e-05
4453 5762 -1e-05
4454 5762 -1e-05
4455 5762 -1e-05
4456 5762 -1e-05
4457 5762 -1e-05
4458 5762 -1e-05
4459 5762 -1e-05
4460 5762 -1e-05
4461 5762 -1e-05
4462 5762 -1e-05
4463 5762 -1e-05
4464 5762 -1e-05
4465 5762 -1e-05
4466 5762 -1e-05
4467 5762 -1e-05
4468 5762 -1e-05
4469 5762 -1e-05
4470 5762 -1e-05
4471 5762 -1.32573e-20
4472 5762 -1.02997e-20
4473 5762 -1.02997e-20
4474 5762 -2.22008e-20
5592 5762 -1e-05
5595 5762 -1e-05
5597 5762 -1e-05
5600 5762 -1e-05
5603 5762 -1e-05
5604 5762 -1e-05
5606 5762 -1e-05
5609 5762 -1e-05
5611 5762 -1e-05
5614 5762 -1e-05
5617 5762 -1e-05
5618 5762 -1e-05
5620 5762 -1e-05
5623 5762 -1e-05
5625 5762 -1e-05
5628 5762 -1e-05
5631 5762 -1e-05
5632 5762 -1e-05
5634 5762 -1e-05
5637 5762 -1e-05
5639 5762 -1e-05
5642 5762 -1e-05
5645 5762 -1e-05
5646 5762 -1e-05
5648 5762 -1e-05
5651 5762 -1e-05
5654 5762 -1e-05
5655 5762 -1e-05
5657 5762 -1e-05
5660 5762 -1e-05
5662 5762 -1e-05
5665 5762 -1e-05
5668 5762 -1e-05
5669 5762 -1e-05
5671 5762 -1e-05
5674 5762 -1e-05
5676 5762 -1e-05
5679 5762 -1e-05
5682 5762 -1e-05
5683 5762 -1e-05
5685 5762 -1e-05
5688 5762 -1e-05
5690 5762 -1e-05
5693 5762 -1e-05
5696 5762 -1e-05
5697 5762 -1e-05
5699 5762 -1e-05
5702 5762 -1e-05
5704 5762 -1e-05
5707 5762 -1e-05
5710 5762 -1e-05
5711 5762 -1e-05
5713 5762 -1e-05
5716 5762 -1e-05
5717 5762 -1e-05
5718 5762 -1e-05
5719 5762 -1e-05
5720 5762 -1e-05
5721 5762 -1e-05
5722 5762 -1e-05
5723 5762 -1e-05
5724 5762 -1e-05
5725 5762 -1e-05
5726 5762 -1e-05
5727 5762 -1e-05
5728 5762 -1e-05
5729 5762 -1e-05
5730 5762 -1e-05
5731 5762 -1e-05
5732 5762 -1e-05
5733 5762 -1e-05
5734 5762 -1e-05
5735 5762 -1.32573e-20
5736 5762 -1.02997e-20
5737 5762 -1.02997e-20
5738 5762 -2.22008e-20
5739 5762 0
5740 5762 0
5741 5762 0
5746 5762 0
5761 5762 -0.00019
5762 5762 12580
5763 5762 0
5764 5762 0
5765 5762 0
5770 5762 0
5859 5762 -1.19237e-09
5763 5763 1
5764 5764 1
5765 5765 1
3219 5766 -0.00012
3220 5766 -8.47058e-11
3365 5766 -1.80581e-26
3366 5766 -1.80581e-26
3367 5766 0
3368 5766 0
3377 5766 -0.00012
3378 5766 -8.47058e-11
3523 5766 -1.80581e-26
3524 5766 -1.80581e-26
3525 5766 0
3526 5766 0
3535 5766 -0.00012
3536 5766 -8.47058e-11
3681 5766 -1.80581e-26
3682 5766 -1.80581e-26
3683 5766 0
3684 5766 0
3693 5766 -0.00012
3694 5766 -8.47058e-11
3839 5766 -1.80581e-26
3840 5766 -1.80581e-26
3841 5766 0
3842 5766 0
3851 5766 -0.00012
3852 5766 -8.47058e-11
3997 5766 -1.80581e-26
3998 5766 -1.80581e-26
3999 5766 0
4000 5766 0
4009 5766 -0.00012
4010 5766 -8.47058e-11
4155 5766 -1.80581e-26
4156 5766 -1.80581e-26
4157 5766 0
4158 5766 0
4167 5766 -0.00012
4168 5766 -8.47058e-11
4313 5766 -1.80581e-26
4314 5766 -1.80581e-26
4315 5766 0
4316 5766 0
4325 5766 -0.00012
4326 5766 -8.47058e-11
4471 5766 -1.80581e-26
4472 5766 -1.80581e-26
4473 5766 0
4474 5766 0
5747 5766 -1.9478e-42
5748 5766 0
5749 5766 -1.9478e-42
5750 5766 0
5751 5766 -1.9478e-42
5752 5766 0
5753 5766 -1.9478e-42
5754 5766 0
5755 5766 -1.9478e-42
5756 5766 0
5757 5766 -1.9478e-42
5758 5766 0
5759 5766 -1.9478e-42
5760 5766 0
5761 5766 -1.9478e-42
5762 5766 0
5763 5766 3830.4
5764 5766 -5.05464e-23
5765 5766 0
5766 5766 1
5770 5766 0
5859 5766 0
3218 5767 -0.00012
3220 5767 -8.47058e-11
3365 5767 -1.80581e-26
3366 5767 -1.80581e-26
3367 5767 0
3368 5767 0
3376 5767 -0.00012
3378 5767 -8.47058e-11
3523 5767 -1.80581e-26
3524 5767 -1.80581e-26
3525 5767 0
3526 5767 0
3534 5767 -0.00012
3536 5767 -8.47058e-11
3681 5767 -1.80581e-26
3682 5767 -1.80581e-26
3683 5767 0
3684 5767 0
3692 5767 -0.00012
3694 5767 -8.47058e-11
3839 5767 -1.80581e-26
3840 5767 -1.80581e-26
3841 5767 0
3842 5767 0
3850 5767 -0.00012
3852 5767 -8.47058e-11
3997 5767 -1.80581e-26
3998 5767 -1.80581e-26
3999 5767 0
4000 5767 0
4008 5767 -0.00012
4010 5767 -8.47058e-11
4155 5767 -1.80581e-26
4156 5767 -1.80581e-26
4157 5767 0
4158 5767 0
4166 5767 -0.00012
4168 5767 -8.47058e-11
4313 5767 -1.80581e-26
4314 5767 -1.80581e-26
4315 5767 0
4316 5767 0
4324 5767 -0.00012
4326 5767 -8.47058e-11
4471 5767 -1.80581e-26
4472 5767 -1.80581e-26
4473 5767 0
4474 5767 0
5747 5767 -1.9478e-42
5748 5767 0
5749 5767 -1.9478e-42
5750 5767 0
5751 5767 -1.9478e-42
5752 5767 0
5753 5767 -1.9478e-42
5754 5767 0
5755 5767 -1.9478e-42
5756 5767 0
5757 5767 -1.9478e-42
5758 5767 0
5759 5767 -1.9478e-42
5760 5767 0
5761 5767 -1.9478e-42
5762 5767 0
5763 5767 -5.05464e-23
5764 5767 1881.6
5765 5767 0
5767 5767 1
5770 5767 0
5859 5767 0
3214 5768 -0.00012
3215 5768 -8.47058e-11
3367 5768 -1.80581e-26
3368 5768 -1.80581e-26
3372 5768 -0.00012
3373 5768 -8.47058e-11
3525 5768 -1.80581e-26
3526 5768 -1.80581e-26
3530 5768 -0.00012
3531 5768 -8.47058e-11
3683 5768 -1.80581e-26
3684 5768 -1.80581e-26
3688 5768 -0.00012
3689 5768 -8.47058e-11
3841 5768 -1.80581e-26
3842 5768 -1.80581e-26
3846 5768 -0.00012
3847 5768 -8.47058e-11
3999 5768 -1.80581e-26
4000 5768 -1.80581e-26
4004 5768 -0.00012
4005 5768 -8.47058e-11
4157 5768 -1.80581e-26
4158 5768 -1.80581e-26
4162 5768 -0.00012
4163 5768 -8.47058e-11
4315 5768 -1.80581e-26
4316 5768 -1.80581e-26
4320 5768 -0.00012
4321 5768 -8.47058e-11
4473 5768 -1.80581e-26
4474 5768 -1.80581e-26
5747 5768 -2.27711e-42
5748 5768 0
5749 5768 -2.27711e-42
5750 5768 0
5751 5768 -2.27711e-42
5752 5768 0
5753 5768 -2.27711e-42
5754 5768 0
5755 5768 -2.27711e-42
5756 5768 0
5757 5768 -2.27711e-42
5758 5768 0
5759 5768 -2.27711e-42
5760 5768 0
5761 5768 -2.27711e-42
5762 5768 0
5763 5768 0
5764 5768 0
5765 5768 -5.05464e-23
5768 5768 1
5770 5768 3830.4
5859 5768 0
3213 5769 -0.00012
3215 5769 -8.47058e-11
3367 5769 -1.80581e-26
3368 5769 -1.80581e-26
3371 5769 -0.00012
3373 5769 -8.47058e-11
3525 5769 -1.80581e-26
3526 5769 -1.80581e-26
3529 5769 -0.00012
3531 5769 -8.47058e-11
3683 5769 -1.80581e-26
3684 5769 -1.80581e-26
3687 5769 -0.00012
3689 5769 -8.47058e-11
3841 5769 -1.80581e-26
3842 5769 -1.80581e-26
3845 5769 -0.00012
3847 5769 -8.47058e-11
3999 5769 -1.80581e-26
4000 5769 -1.80581e-26
4003 5769 -0.00012
4005 5769 -8.47058e-11
4157 5769 -1.80581e-26
4158 5769 -1.80581e-26
4161 5769 -0.00012
4163 5769 -8.47058e-11
4315 5769 -1.80581e-26
4316 5769 -1.80581e-26
4319 5769 -0.00012
4321 5769 -8.47058e-11
4473 5769 -1.80581e-26
4474 5769 -1.80581e-26
5747 5769 -2.27711e-42
5748 5769 0
5749 5769 -2.27711e-42
5750 5769 0
5751 5769 -2.27711e-42
5752 5769 0
5753 5769 -2.27711e-42
5754 5769 0
5755 5769 -2.27711e-42
5756 5769 0
5757 5769 -2.27711e-42
5758 5769 0
5759 5769 -2.27711e-42
5760 5769 0
5761 5769 -2.27711e-42
5762 5769 0
5763 5769 0
5764 5769 0
5765 5769 1881.6
5769 5769 1
5770 5769 -5.05464e-23
5859 5769 0
5770 5770 1
5771 5771 1
5771 5772 22579.2
5772 5772 1
5773 5773 1
5773 5774 8914.08
5774 5774 1
5775 5775 1
5775 5776 20193.6
5776 5776 1
5777 5777 1
5777 5778 3386.88
5778 5778 1
5779 5779 1
5779 5780 3386.88
5780 5780 1
5781 5781 1
5781 5782 26409.6
5782 5782 1
5783 5783 1
5783 5784 14515.2
5784 5784 1
5785 5785 1
5785 5786 64693.4
5786 5786 1
5787 5787 1
5787 5788 2268
5788 5788 1
5789 5789 1
5789 5790 5644.8
5790 5790 1
5791 5791 1
5791 5792 5644.8
5792 5792 1
5793 5793 1
5793 5794 5644.8
5794 5794 1
5795 5795 1
5795 5796 5644.8
5796 5796 1
5797 5797 1
5797 5798 7257.6
5798 5798 1
5799 5799 1
5799 5800 4032
5800 5800 1
5801 5801 1
5801 5802 4032
5802 5802 1
5803 5803 1
5803 5804 7257.6
5804 5804 1
5805 5805 1
5805 5806 7257.6
5806 5806 1
5807 5807 1
5807 5808 4032
5808 5808 1
5809 5809 1
5809 5810 4032
5810 5810 1
5811 5811 1
5811 5812 7257.6
5812 5812 1
5813 5813 1
5813 5814 32521.4
5814 5814 1
5815 5815 1
5815 5816 32521.4
5816 5816 1
5817 5817 1
5817 5818 8332.8
5818 5818 1
5819 5819 1
5819 5820 8332.8
5820 5820 1
5821 5821 1
5821 5822 5913.6
5822 5822 1
5823 5823 1
5823 5824 5913.6
5824 5824 1
5825 5825 1
5825 5826 32521.4
5826 5826 1
5827 5827 1
5827 5828 32521.4
5828 5828 1
5829 5829 1
5829 5830 2540.16
5830 5830 1
5831 5831 1
5831 5832 2540.16
5832 5832 1
5833 5833 1
5833 5834 37195.2
5834 5834 1
5835 5835 1
5835 5836 37195.2
5836 5836 1
5837 5837 1
5837 5838 37195.2
5838 5838 1
5839 5839 1
5839 5840 37195.2
5840 5840 1
5841 5841 1
5841 5842 37195.2
5842 5842 1
5843 5843 1
5843 5844 37195.2
5844 5844 1
5845 5845 1
5845 5846 37195.2
5846 5846 1
5847 5847 1
5847 5848 37195.2
5848 5848 1
5849 5849 1
5849 5850 28627.2
5850 5850 1
5851 5851 1
5851 5852 9797.76
5852 5852 1
5853 5853 1
5853 5854 9797.76
5854 5854 1
5855 5855 1
5855 5856 80
5856 5856 1
5857 5857 1
5857 5858 2269
5858 5858 1
5859 5859 1
3222 5860 -1.6e-06
3225 5860 -1.6e-06
3228 5860 -1.6e-06
3229 5860 -1.6e-06
3231 5860 -1.6e-06
3234 5860 -1.6e-06
3236 5860 -1.6e-06
3239 5860 -1.6e-06
3242 5860 -1.6e-06
3243 5860 -1.6e-06
3245 5860 -1.6e-06
3248 5860 -1.6e-06
3250 5860 -1.6e-06
3253 5860 -1.6e-06
3256 5860 -1.6e-06
3257 5860 -1.6e-06
3259 5860 -1.6e-06
3262 5860 -1.6e-06
3264 5860 -1.6e-06
3267 5860 -1.6e-06
3270 5860 -1.6e-06
3271 5860 -1.6e-06
3273 5860 -1.6e-06
3276 5860 -1.6e-06
3278 5860 -1.6e-06
3281 5860 -1.6e-06
3284 5860 -1.6e-06
3285 5860 -1.6e-06
3287 5860 -1.6e-06
3290 5860 -1.6e-06
3292 5860 -1.6e-06
3295 5860 -1.6e-06
3298 5860 -1.6e-06
3299 5860 -1.6e-06
3301 5860 -1.6e-06
3304 5860 -1.6e-06
3306 5860 -1.6e-06
3309 5860 -1.6e-06
3312 5860 -1.6e-06
3313 5860 -1.6e-06
3315 5860 -1.6e-06
3318 5860 -1.6e-06
3320 5860 -1.6e-06
3323 5860 -1.6e-06
3326 5860 -1.6e-06
3327 5860 -1.6e-06
3329 5860 -1.6e-06
3332 5860 -1.6e-06
3334 5860 -1.6e-06
3337 5860 -1.6e-06
3340 5860 -1.6e-06
3341 5860 -1.6e-06
3343 5860 -1.6e-06
3346 5860 -1.6e-06
3347 5860 -1.6e-06
3348 5860 -1.6e-06
3349 5860 -1.6e-06
3350 5860 -1.6e-06
3351 5860 -1.6e-06
3352 5860 -1.6e-06
3353 5860 -1.6e-06
3354 5860 -1.6e-06
3355 5860 -1.6e-06
3356 5860 -1.6e-06
3357 5860 -1.6e-06
3358 5860 -1.6e-06
3359 5860 -1.6e-06
3360 5860 -1.6e-06
3361 5860 -1.6e-06
3362 5860 -1.6e-06
3363 5860 -1.6e-06
3364 5860 -1.6e-06
3365 5860 -2.12117e-21
3366 5860 -1.64795e-21
3367 5860 -1.64795e-21
3368 5860 -3.55212e-21
3380 5860 -1.6e-06
3383 5860 -1.6e-06
3386 5860 -1.6e-06
3387 5860 -1.6e-06
3389 5860 -1.6e-06
3392 5860 -1.6e-06
3394 5860 -1.6e-06
3397 5860 -1.6e-06
3400 5860 -1.6e-06
3401 5860 -1.6e-06
3403 5860 -1.6e-06
3406 5860 -1.6e-06
3408 5860 -1.6e-06
3411 5860 -1.6e-06
3414 5860 -1.6e-06
3415 5860 -1.6e-06
3417 5860 -1.6e-06
3420 5860 -1.6e-06
3422 5860 -1.6e-06
3425 5860 -1.6e-06
3428 5860 -1.6e-06
3429 5860 -1.6e-06
3431 5860 -1.6e-06
3434 5860 -1.6e-06
3436 5860 -1.6e-06
3439 5860 -1.6e-06
3442 5860 -1.6e-06
3443 5860 -1.6e-06
3445 5860 -1.6e-06
3448 5860 -1.6e-06
3450 5860 -1.6e-06
3453 5860 -1.6e-06
3456 5860 -1.6e-06
3457 5860 -1.6e-06
3459 5860 -1.6e-06
3462 5860 -1.6e-06
3464 5860 -1.6e-06
3467 5860 -1.6e-06
3470 5860 -1.6e-06
3471 5860 -1.6e-06
3473 5860 -1.6e-06
3476 5860 -1.6e-06
3478 5860 -1.6e-06
3481 5860 -1.6e-06
3484 5860 -1.6e-06
3485 5860 -1.6e-06
3487 5860 -1.6e-06
3490 5860 -1.6e-06
3492 5860 -1.6e-06
3495 5860 -1.6e-06
3498 5860 -1.6e-06
3499 5860 -1.6e-06
3501 5860 -1.6e-06
3504 5860 -1.6e-06
3505 5860 -1.6e-06
3506 5860 -1.6e-06
3507 5860 -1.6e-06
3508 5860 -1.6e-06
3509 5860 -1.6e-06
3510 5860 -1.6e-06
3511 5860 -1.6e-06
3512 5860 -1.6e-06
3513 5860 -1.6e-06
3514 5860 -1.6e-06
3515 5860 -1.6e-06
3516 5860 -1.6e-06
3517 5860 -1.6e-06
3518 5860 -1.6e-06
3519 5860 -1.6e-06
3520 5860 -1.6e-06
3521 5860 -1.6e-06
3522 5860 -1.6e-06
3523 5860 -2.12117e-21
3524 5860 -1.64795e-21
3525 5860 -1.64795e-21
3526 5860 -3.55212e-21
3538 5860 -1.6e-06
3541 5860 -1.6e-06
3544 5860 -1.6e-06
3545 5860 -1.6e-06
3547 5860 -1.6e-06
3550 5860 -1.6e-06
3552 5860 -1.6e-06
3555 5860 -1.6e-06
3558 5860 -1.6e-06
3559 5860 -1.6e-06
3561 5860 -1.6e-06
3564 5860 -1.6e-06
3566 5860 -1.6e-06
3569 5860 -1.6e-06
3572 5860 -1.6e-06
3573 5860 -1.6e-06
3575 5860 -1.6e-06
3578 5860 -1.6e-06
3580 5860 -1.6e-06
3583 5860 -1.6e-06
3586 5860 -1.6e-06
3587 5860 -1.6e-06
3589 5860 -1.6e-06
3592 5860 -1.6e-06
3594 5860 -1.6e-06
3597 5860 -1.6e-06
3600 5860 -1.6e-06
3601 5860 -1.6e-06
3603 5860 -1.6e-06
3606 5860 -1.6e-06
3608 5860 -1.6e-06
3611 5860 -1.6e-06
3614 5860 -1.6e-06
3615 5860 -1.6e-06
3617 5860 -1.6e-06
3620 5860 -1.6e-06
3622 5860 -1.6e-06
3625 5860 -1.6e-06
3628 5860 -1.6e-06
3629 5860 -1.6e-06
3631 5860 -1.6e-06
3634 5860 -1.6e-06
3636 5860 -1.6e-06
3639 5860 -1.6e-06
3642 5860 -1.6e-06
3643 5860 -1.6e-06
3645 5860 -1.6e-06
3648 5860 -1.6e-06
3650 5860 -1.6e-06
3653 5860 -1.6e-06
3656 5860 -1.6e-06
3657 5860 -1.6e-06
3659 5860 -1.6e-06
3662 5860 -1.6e-06
3663 5860 -1.6e-06
3664 5860 -1.6e-06
3665 5860 -1.6e-06
3666 5860 -1.6e-06
3667 5860 -1.6e-06
3668 5860 -1.6e-06
3669 5860 -1.6e-06
3670 5860 -1.6e-06
3671 5860 -1.6e-06
3672 5860 -1.6e-06
3673 5860 -1.6e-06
3674 5860 -1.6e-06
3675 5860 -1.6e-06
3676 5860 -1.6e-06
3677 5860 -1.6e-06
3678 5860 -1.6e-06
3679 5860 -1.6e-06
3680 5860 -1.6e-06
3681 5860 -2.12117e-21
3682 5860 -1.64795e-21
3683 5860 -1.64795e-21
3684 5860 -3.55212e-21
3696 5860 -1.6e-06
3699 5860 -1.6e-06
3702 5860 -1.6e-06
3703 5860 -1.6e-06
3705 5860 -1.6e-06
3708 5860 -1.6e-06
3710 5860 -1.6e-06
3713 5860 -1.6e-06
3716 5860 -1.6e-06
3717 5860 -1.6e-06
3719 5860 -1.6e-06
3722 5860 -1.6e-06
3724 5860 -1.6e-06
3727 5860 -1.6e-06
3730 5860 -1.6e-06
3731 5860 -1.6e-06
3733 5860 -1.6e-06
3736 5860 -1.6e-06
3738 5860 -1.6e-06
3741 5860 -1.6e-06
3744 5860 -1.6e-06
3745 5860 -1.6e-06
3747 5860 -1.6e-06
3750 5860 -1.6e-06
3752 5860 -1.6e-06
3755 5860 -1.6e-06
3758 5860 -1.6e-06
3759 5860 -1.6e-06
3761 5860 -1.6e-06
3764 5860 -1.6e-06
3766 5860 -1.6e-06
3769 5860 -1.6e-06
3772 5860 -1.6e-06
3773 5860 -1.6e-06
3775 5860 -1.6e-06
3778 5860 -1.6e-06
3780 5860 -1.6e-06
3783 5860 -1.6e-06
3786 5860 -1.6e-06
3787 5860 -1.6e-06
3789 5860 -1.6e-06
3792 5860 -1.6e-06
3794 5860 -1.6e-06
3797 5860 -1.6e-06
3800 5860 -1.6e-06
3801 5860 -1.6e-06
3803 5860 -1.6e-06
3806 5860 -1.6e-06
3808 5860 -1.6e-06
3811 5860 -1.6e-06
3814 5860 -1.6e-06
3815 5860 -1.6e-06
3817 5860 -1.6e-06
3820 5860 -1.6e-06
3821 5860 -1.6e-06
3822 5860 -1.6e-06
3823 5860 -1.6e-06
3824 5860 -1.6e-06
3825 5860 -1.6e-06
3826 5860 -1.6e-06
3827 5860 -1.6e-06
3828 5860 -1.6e-06
3829 5860 -1.6e-06
3830 5860 -1.6e-06
3831 5860 -1.6e-06
3832 5860 -1.6e-06
3833 5860 -1.6e-06
3834 5860 -1.6e-06
3835 5860 -1.6e-06
3836 5860 -1.6e-06
3837 5860 -1.6e-06
3838 5860 -1.6e-06
3839 5860 -2.12117e-21
3840 5860 -1.64795e-21
3841 5860 -1.64795e-21
3842 5860 -3.55212e-21
3854 5860 -1.6e-06
3857 5860 -1.6e-06
3860 5860 -1.6e-06
3861 5860 -1.6e-06
3863 5860 -1.6e-06
3866 5860 -1.6e-06
3868 5860 -1.6e-06
3871 5860 -1.6e-06
3874 5860 -1.6e-06
3875 5860 -1.6e-06
3877 5860 -1.6e-06
3880 5860 -1.6e-06
3882 5860 -1.6e-06
3885 5860 -1.6e-06
3888 5860 -1.6e-06
3889 5860 -1.6e-06
3891 5860 -1.6e-06
3894 5860 -1.6e-06
3896 5860 -1.6e-06
3899 5860 -1.6e-06
3902 5860 -1.6e-06
3903 5860 -1.6e-06
3905 5860 -1.6e-06
3908 5860 -1.6e-06
3910 5860 -1.6e-06
3913 5860 -1.6e-06
3916 5860 -1.6e-06
3917 5860 -1.6e-06
3919 5860 -1.6e-06
3922 5860 -1.6e-06
3924 5860 -1.6e-06
3927 5860 -1.6e-06
3930 5860 -1.6e-06
3931 5860 -1.6e-06
3933 5860 -1.6e-06
3936 5860 -1.6e-06
3938 5860 -1.6e-06
3941 5860 -1.6e-06
3944 5860 -1.6e-06
3945 5860 -1.6e-06
3947 5860 -1.6e-06
3950 5860 -1.6e-06
3952 5860 -1.6e-06
3955 5860 -1.6e-06
3958 5860 -1.6e-06
3959 5860 -1.6e-06
3961 5860 -1.6e-06
3964 5860 -1.6e-06
3966 5860 -1.6e-06
3969 5860 -1.6e-06
3972 5860 -1.6e-06
3973 5860 -1.6e-06
3975 5860 -1.6e-06
3978 5860 -1.6e-06
3979 5860 -1.6e-06
3980 5860 -1.6e-06
3981 5860 -1.6e-06
3982 5860 -1.6e-06
3983 5860 -1.6e-06
3984 5860 -1.6e-06
3985 5860 -1.6e-06
3986 5860 -1.6e-06
3987 5860 -1.6e-06
3988 5860 -1.6e-06
3989 5860 -1.6e-06
3990 5860 -1.6e-06
3991 5860 -1.6e-06
3992 5860 -1.6e-06
3993 5860 -1.6e-06
3994 5860 -1.6e-06
3995 5860 -1.6e-06
3996 5860 -1.6e-06
3997 5860 -2.12117e-21
3998 5860 -1.64795e-21
3999 5860 -1.64795e-21
4000 5860 -3.55212e-21
4012 5860 -1.6e-06
4015 5860 -1.6e-06
4018 5860 -1.6e-06
4019 5860 -1.6e-06
4021 5860 -1.6e-06
4024 5860 -1.6e-06
4026 5860 -1.6e-06
4029 5860 -1.6e-06
4032 5860 -1.6e-06
4033 5860 -1.6e-06
4035 5860 -1.6e-06
4038 5860 -1.6e-06
4040 5860 -1.6e-06
4043 5860 -1.6e-06
4046 5860 -1.6e-06
4047 5860 -1.6e-06
4049 5860 -1.6e-06
4052 5860 -1.6e-06
4054 5860 -1.6e-06
4057 5860 -1.6e-06
4060 5860 -1.6e-06
4061 5860 -1.6e-06
4063 5860 -1.6e-06
4066 5860 -1.6e-06
4068 5860 -1.6e-06
4071 5860 -1.6e-06
4074 5860 -1.6e-06
4075 5860 -1.6e-06
4077 5860 -1.6e-06
4080 5860 -1.6e-06
4082 5860 -1.6e-06
4085 5860 -1.6e-06
4088 5860 -1.6e-06
4089 5860 -1.6e-06
4091 5860 -1.6e-06
4094 5860 -1.6e-06
4096 5860 -1.6e-06
4099 5860 -1.6e-06
4102 5860 -1.6e-06
4103 5860 -1.6e-06
4105 5860 -1.6e-06
4108 5860 -1.6e-06
4110 5860 -1.6e-06
4113 5860 -1.6e-06
4116 5860 -1.6e-06
4117 5860 -1.6e-06
4119 5860 -1.6e-06
4122 5860 -1.6e-06
4124 5860 -1.6e-06
4127 5860 -1.6e-06
4130 5860 -1.6e-06
4131 5860 -1.6e-06
4133 5860 -1.6e-06
4136 5860 -1.6e-06
4137 5860 -1.6e-06
4138 5860 -1.6e-06
4139 5860 -1.6e-06
4140 5860 -1.6e-06
4141 5860 -1.6e-06
4142 5860 -1.6e-06
4143 5860 -1.6e-06
4144 5860 -1.6e-06
4145 5860 -1.6e-06
4146 5860 -1.6e-06
4147 5860 -1.6e-06
4148 5860 -1.6e-06
4149 5860 -1.6e-06
4150 5860 -1.6e-06
4151 5860 -1.6e-06
4152 5860 -1.6e-06
4153 5860 -1.6e-06
4154 5860 -1.6e-06
4155 5860 -2.12117e-21
4156 5860 -1.64795e-21
4157 5860 -1.64795e-21
4158 5860 -3.55212e-21
4170 5860 -1.6e-06
4173 5860 -1.6e-06
4176 5860 -1.6e-06
4177 5860 -1.6e-06
4179 5860 -1.6e-06
4182 5860 -1.6e-06
4184 5860 -1.6e-06
4187 5860 -1.6e-06
4190 5860 -1.6e-06
4191 5860 -1.6e-06
4193 5860 -1.6e-06
4196 5860 -1.6e-06
4198 5860 -1.6e-06
4201 5860 -1.6e-06
4204 5860 -1.6e-06
4205 5860 -1.6e-06
4207 5860 -1.6e-06
4210 5860 -1.6e-06
4212 5860 -1.6e-06
4215 5860 -1.6e-06
4218 5860 -1.6e-06
4219 5860 -1.6e-06
4221 5860 -1.6e-06
4224 5860 -1.6e-06
4226 5860 -1.6e-06
4229 5860 -1.6e-06
4232 5860 -1.6e-06
4233 5860 -1.6e-06
4235 5860 -1.6e-06
4238 5860 -1.6e-06
4240 5860 -1.6e-06
4243 5860 -1.6e-06
4246 5860 -1.6e-06
4247 5860 -1.6e-06
4249 5860 -1.6e-06
4252 5860 -1.6e-06
4254 5860 -1.6e-06
4257 5860 -1.6e-06
4260 5860 -1.6e-06
4261 5860 -1.6e-06
4263 5860 -1.6e-06
4266 5860 -1.6e-06
4268 5860 -1.6e-06
4271 5860 -1.6e-06
4274 5860 -1.6e-06
4275 5860 -1.6e-06
4277 5860 -1.6e-06
4280 5860 -1.6e-06
4282 5860 -1.6e-06
4285 5860 -1.6e-06
4288 5860 -1.6e-06
4289 5860 -1.6e-06
4291 5860 -1.6e-06
4294 5860 -1.6e-06
4295 5860 -1.6e-06
4296 5860 -1.6e-06
4297 5860 -1.6e-06
4298 5860 -1.6e-06
4299 5860 -1.6e-06
4300 5860 -1.6e-06
4301 5860 -1.6e-06
4302 5860 -1.6e-06
4303 5860 -1.6e-06
4304 5860 -1.6e-06
4305 5860 -1.6e-06
4306 5860 -1.6e-06
4307 5860 -1.6e-06
4308 5860 -1.6e-06
4309 5860 -1.6e-06
4310 5860 -1.6e-06
4311 5860 -1.6e-06
4312 5860 -1.6e-06
4313 5860 -2.12117e-21
4314 5860 -1.64795e-21
4315 5860 -1.64795e-21
4316 5860 -3.55212e-21
4328 5860 -1.6e-06
4331 5860 -1.6e-06
4334 5860 -1.6e-06
4335 5860 -1.6e-06
4337 5860 -1.6e-06
4340 5860 -1.6e-06
4342 5860 -1.6e-06
4345 5860 -1.6e-06
4348 5860 -1.6e-06
4349 5860 -1.6e-06
4351 5860 -1.6e-06
4354 5860 -1.6e-06
4356 5860 -1.6e-06
4359 5860 -1.6e-06
4362 5860 -1.6e-06
4363 5860 -1.6e-06
4365 5860 -1.6e-06
4368 5860 -1.6e-06
4370 5860 -1.6e-06
4373 5860 -1.6e-06
4376 5860 -1.6e-06
4377 5860 -1.6e-06
4379 5860 -1.6e-06
4382 5860 -1.6e-06
4384 5860 -1.6e-06
4387 5860 -1.6e-06
4390 5860 -1.6e-06
4391 5860 -1.6e-06
4393 5860 -1.6e-06
4396 5860 -1.6e-06
4398 5860 -1.6e-06
4401 5860 -1.6e-06
4404 5860 -1.6e-06
4405 5860 -1.6e-06
4407 5860 -1.6e-06
4410 5860 -1.6e-06
4412 5860 -1.6e-06
4415 5860 -1.6e-06
4418 5860 -1.6e-06
4419 5860 -1.6e-06
4421 5860 -1.6e-06
4424 5860 -1.6e-06
4426 5860 -1.6e-06
4429 5860 -1.6e-06
4432 5860 -1.6e-06
4433 5860 -1.6e-06
4435 5860 -1.6e-06
4438 5860 -1.6e-06
4440 5860 -1.6e-06
4443 5860 -1.6e-06
4446 5860 -1.6e-06
4447 5860 -1.6e-06
4449 5860 -1.6e-06
4452 5860 -1.6e-06
4453 5860 -1.6e-06
4454 5860 -1.6e-06
4455 5860 -1.6e-06
4456 5860 -1.6e-06
4457 5860 -1.6e-06
4458 5860 -1.6e-06
4459 5860 -1.6e-06
4460 5860 -1.6e-06
4461 5860 -1.6e-06
4462 5860 -1.6e-06
4463 5860 -1.6e-06
4464 5860 -1.6e-06
4465 5860 -1.6e-06
4466 5860 -1.6e-06
4467 5860 -1.6e-06
4468 5860 -1.6e-06
4469 5860 -1.6e-06
4470 5860 -1.6e-06
4471 5860 -2.12117e-21
4472 5860 -1.64795e-21
4473 5860 -1.64795e-21
4474 5860 -3.55212e-21
4486 5860 -1.6e-06
4489 5860 -1.6e-06
4491 5860 -1.6e-06
4494 5860 -1.6e-06
4497 5860 -1.6e-06
4498 5860 -1.6e-06
4500 5860 -1.6e-06
4503 5860 -1.6e-06
4505 5860 -1.6e-06
4508 5860 -1.6e-06
4511 5860 -1.6e-06
4512 5860 -1.6e-06
4514 5860 -1.6e-06
4517 5860 -1.6e-06
4519 5860 -1.6e-06
4522 5860 -1.6e-06
4525 5860 -1.6e-06
4526 5860 -1.6e-06
4528 5860 -1.6e-06
4531 5860 -1.6e-06
4533 5860 -1.6e-06
4536 5860 -1.6e-06
4539 5860 -1.6e-06
4540 5860 -1.6e-06
4542 5860 -1.6e-06
4545 5860 -1.6e-06
4548 5860 -1.6e-06
4549 5860 -1.6e-06
4551 5860 -1.6e-06
4554 5860 -1.6e-06
4556 5860 -1.6e-06
4559 5860 -1.6e-06
4562 5860 -1.6e-06
4563 5860 -1.6e-06
4565 5860 -1.6e-06
4568 5860 -1.6e-06
4570 5860 -1.6e-06
4573 5860 -1.6e-06
4576 5860 -1.6e-06
4577 5860 -1.6e-06
4579 5860 -1.6e-06
4582 5860 -1.6e-06
4584 5860 -1.6e-06
4587 5860 -1.6e-06
4590 5860 -1.6e-06
4591 5860 -1.6e-06
4593 5860 -1.6e-06
4596 5860 -1.6e-06
4598 5860 -1.6e-06
4601 5860 -1.6e-06
4604 5860 -1.6e-06
4605 5860 -1.6e-06
4607 5860 -1.6e-06
4610 5860 -1.6e-06
4611 5860 -1.6e-06
4612 5860 -1.6e-06
4613 5860 -1.6e-06
4614 5860 -1.6e-06
4615 5860 -1.6e-06
4616 5860 -1.6e-06
4617 5860 -1.6e-06
4618 5860 -1.6e-06
4619 5860 -1.6e-06
4620 5860 -1.6e-06
4621 5860 -1.6e-06
4622 5860 -1.6e-06
4623 5860 -1.6e-06
4624 5860 -1.6e-06
4625 5860 -1.6e-06
4626 5860 -1.6e-06
4627 5860 -1.6e-06
4628 5860 -1.6e-06
4629 5860 -2.12117e-21
4630 5860 -1.64795e-21
4631 5860 -1.64795e-21
4632 5860 -3.55212e-21
4644 5860 -1.6e-06
4647 5860 -1.6e-06
4649 5860 -1.6e-06
4652 5860 -1.6e-06
4655 5860 -1.6e-06
4656 5860 -1.6e-06
4658 5860 -1.6e-06
4661 5860 -1.6e-06
4663 5860 -1.6e-06
4666 5860 -1.6e-06
4669 5860 -1.6e-06
4670 5860 -1.6e-06
4672 5860 -1.6e-06
4675 5860 -1.6e-06
4677 5860 -1.6e-06
4680 5860 -1.6e-06
4683 5860 -1.6e-06
4684 5860 -1.6e-06
4686 5860 -1.6e-06
4689 5860 -1.6e-06
4691 5860 -1.6e-06
4694 5860 -1.6e-06
4697 5860 -1.6e-06
4698 5860 -1.6e-06
4700 5860 -1.6e-06
4703 5860 -1.6e-06
4706 5860 -1.6e-06
4707 5860 -1.6e-06
4709 5860 -1.6e-06
4712 5860 -1.6e-06
4714 5860 -1.6e-06
4717 5860 -1.6e-06
4720 5860 -1.6e-06
4721 5860 -1.6e-06
4723 5860 -1.6e-06
4726 5860 -1.6e-06
4728 5860 -1.6e-06
4731 5860 -1.6e-06
4734 5860 -1.6e-06
4735 5860 -1.6e-06
4737 5860 -1.6e-06
4740 5860 -1.6e-06
4742 5860 -1.6e-06
4745 5860 -1.6e-06
4748 5860 -1.6e-06
4749 5860 -1.6e-06
4751 5860 -1.6e-06
4754 5860 -1.6e-06
4756 5860 -1.6e-06
4759 5860 -1.6e-06
4762 5860 -1.6e-06
4763 5860 -1.6e-06
4765 5860 -1.6e-06
4768 5860 -1.6e-06
4769 5860 -1.6e-06
4770 5860 -1.6e-06
4771 5860 -1.6e-06
4772 5860 -1.6e-06
4773 5860 -1.6e-06
4774 5860 -1.6e-06
4775 5860 -1.6e-06
4776 5860 -1.6e-06
4777 5860 -1.6e-06
4778 5860 -1.6e-06
4779 5860 -1.6e-06
4780 5860 -1.6e-06
4781 5860 -1.6e-06
4782 5860 -1.6e-06
4783 5860 -1.6e-06
4784 5860 -1.6e-06
4785 5860 -1.6e-06
4786 5860 -1.6e-06
4787 5860 -2.12117e-21
4788 5860 -1.64795e-21
4789 5860 -1.64795e-21
4790 5860 -3.55212e-21
4802 5860 -1.6e-06
4805 5860 -1.6e-06
4807 5860 -1.6e-06
4810 5860 -1.6e-06
4813 5860 -1.6e-06
4814 5860 -1.6e-06
4816 5860 -1.6e-06
4819 5860 -1.6e-06
4821 5860 -1.6e-06
4824 5860 -1.6e-06
4827 5860 -1.6e-06
4828 5860 -1.6e-06
4830 5860 -1.6e-06
4833 5860 -1.6e-06
4835 5860 -1.6e-06
4838 5860 -1.6e-06
4841 5860 -1.6e-06
4842 5860 -1.6e-06
4844 5860 -1.6e-06
4847 5860 -1.6e-06
4849 5860 -1.6e-06
4852 5860 -1.6e-06
4855 5860 -1.6e-06
4856 5860 -1.6e-06
4858 5860 -1.6e-06
4861 5860 -1.6e-06
4864 5860 -1.6e-06
4865 5860 -1.6e-06
4867 5860 -1.6e-06
4870 5860 -1.6e-06
4872 5860 -1.6e-06
4875 5860 -1.6e-06
4878 5860 -1.6e-06
4879 5860 -1.6e-06
4881 5860 -1.6e-06
4884 5860 -1.6e-06
4886 5860 -1.6e-06
4889 5860 -1.6e-06
4892 5860 -1.6e-06
4893 5860 -1.6e-06
4895 5860 -1.6e-06
4898 5860 -1.6e-06
4900 5860 -1.6e-06
4903 5860 -1.6e-06
4906 5860 -1.6e-06
4907 5860 -1.6e-06
4909 5860 -1.6e-06
4912 5860 -1.6e-06
4914 5860 -1.6e-06
4917 5860 -1.6e-06
4920 5860 -1.6e-06
4921 5860 -1.6e-06
4923 5860 -1.6e-06
4926 5860 -1.6e-06
4927 5860 -1.6e-06
4928 5860 -1.6e-06
4929 5860 -1.6e-06
4930 5860 -1.6e-06
4931 5860 -1.6e-06
4932 5860 -1.6e-06
4933 5860 -1.6e-06
4934 5860 -1.6e-06
4935 5860 -1.6e-06
4936 5860 -1.6e-06
4937 5860 -1.6e-06
4938 5860 -1.6e-06
4939 5860 -1.6e-06
4940 5860 -1.6e-06
4941 5860 -1.6e-06
4942 5860 -1.6e-06
4943 5860 -1.6e-06
4944 5860 -1.6e-06
4945 5860 -2.12117e-21
4946 5860 -1.64795e-21
4947 5860 -1.64795e-21
4948 5860 -3.55212e-21
4960 5860 -1.6e-06
4963 5860 -1.6e-06
4965 5860 -1.6e-06
4968 5860 -1.6e-06
4971 5860 -1.6e-06
4972 5860 -1.6e-06
4974 5860 -1.6e-06
4977 5860 -1.6e-06
4979 5860 -1.6e-06
4982 5860 -1.6e-06
4985 5860 -1.6e-06
4986 5860 -1.6e-06
4988 5860 -1.6e-06
4991 5860 -1.6e-06
4993 5860 -1.6e-06
4996 5860 -1.6e-06
4999 5860 -1.6e-06
5000 5860 -1.6e-06
5002 5860 -1.6e-06
5005 5860 -1.6e-06
5007 5860 -1.6e-06
5010 5860 -1.6e-06
5013 5860 -1.6e-06
5014 5860 -1.6e-06
5016 5860 -1.6e-06
5019 5860 -1.6e-06
5022 5860 -1.6e-06
5023 5860 -1.6e-06
5025 5860 -1.6e-06
5028 5860 -1.6e-06
5030 5860 -1.6e-06
5033 5860 -1.6e-06
5036 5860 -1.6e-06
5037 5860 -1.6e-06
5039 5860 -1.6e-06
5042 5860 -1.6e-06
5044 5860 -1.6e-06
5047 5860 -1.6e-06
5050 5860 -1.6e-06
5051 5860 -1.6e-06
5053 5860 -1.6e-06
5056 5860 -1.6e-06
5058 5860 -1.6e-06
5061 5860 -1.6e-06
5064 5860 -1.6e-06
5065 5860 -1.6e-06
5067 5860 -1.6e-06
5070 5860 -1.6e-06
5072 5860 -1.6e-06
5075 5860 -1.6e-06
5078 5860 -1.6e-06
5079 5860 -1.6e-06
5081 5860 -1.6e-06
5084 5860 -1.6e-06
5085 5860 -1.6e-06
5086 5860 -1.6e-06
5087 5860 -1.6e-06
5088 5860 -1.6e-06
5089 5860 -1.6e-06
5090 5860 -1.6e-06
5091 5860 -1.6e-06
5092 5860 -1.6e-06
5093 5860 -1.6e-06
5094 5860 -1.6e-06
5095 5860 -1.6e-06
5096 5860 -1.6e-06
5097 5860 -1.6e-06
5098 5860 -1.6e-06
5099 5860 -1.6e-06
5100 5860 -1.6e-06
5101 5860 -1.6e-06
5102 5860 -1.6e-06
5103 5860 -2.12117e-21
5104 5860 -1.64795e-21
5105 5860 -1.64795e-21
5106 5860 -3.55212e-21
5118 5860 -1.6e-06
5121 5860 -1.6e-06
5123 5860 -1.6e-06
5126 5860 -1.6e-06
5129 5860 -1.6e-06
5130 5860 -1.6e-06
5132 5860 -1.6e-06
5135 5860 -1.6e-06
5137 5860 -1.6e-06
5140 5860 -1.6e-06
5143 5860 -1.6e-06
5144 5860 -1.6e-06
5146 5860 -1.6e-06
5149 5860 -1.6e-06
5151 5860 -1.6e-06
5154 5860 -1.6e-06
5157 5860 -1.6e-06
5158 5860 -1.6e-06
5160 5860 -1.6e-06
5163 5860 -1.6e-06
5165 5860 -1.6e-06
5168 5860 -1.6e-06
5171 5860 -1.6e-06
5172 5860 -1.6e-06
5174 5860 -1.6e-06
5177 5860 -1.6e-06
5180 5860 -1.6e-06
5181 5860 -1.6e-06
5183 5860 -1.6e-06
5186 5860 -1.6e-06
5188 5860 -1.6e-06
5191 5860 -1.6e-06
5194 5860 -1.6e-06
5195 5860 -1.6e-06
5197 5860 -1.6e-06
5200 5860 -1.6e-06
5202 5860 -1.6e-06
5205 5860 -1.6e-06
5208 5860 -1.6e-06
5209 5860 -1.6e-06
5211 5860 -1.6e-06
5214 5860 -1.6e-06
5216 5860 -1.6e-06
5219 5860 -1.6e-06
5222 5860 -1.6e-06
5223 5860 -1.6e-06
5225 5860 -1.6e-06
5228 5860 -1.6e-06
5230 5860 -1.6e-06
5233 5860 -1.6e-06
5236 5860 -1.6e-06
5237 5860 -1.6e-06
5239 5860 -1.6e-06
5242 5860 -1.6e-06
5243 5860 -1.6e-06
5244 5860 -1.6e-06
5245 5860 -1.6e-06
5246 5860 -1.6e-06
5247 5860 -1.6e-06
5248 5860 -1.6e-06
5249 5860 -1.6e-06
5250 5860 -1.6e-06
5251 5860 -1.6e-06
5252 5860 -1.6e-06
5253 5860 -1.6e-06
5254 5860 -1.6e-06
5255 5860 -1.6e-06
5256 5860 -1.6e-06
5257 5860 -1.6e-06
5258 5860 -1.6e-06
5259 5860 -1.6e-06
5260 5860 -1.6e-06
5261 5860 -2.12117e-21
5262 5860 -1.64795e-21
5263 5860 -1.64795e-21
5264 5860 -3.55212e-21
5276 5860 -1.6e-06
5279 5860 -1.6e-06
5281 5860 -1.6e-06
5284 5860 -1.6e-06
5287 5860 -1.6e-06
5288 5860 -1.6e-06
5290 5860 -1.6e-06
5293 5860 -1.6e-06
5295 5860 -1.6e-06
5298 5860 -1.6e-06
5301 5860 -1.6e-06
5302 5860 -1.6e-06
5304 5860 -1.6e-06
5307 5860 -1.6e-06
5309 5860 -1.6e-06
5312 5860 -1.6e-06
5315 5860 -1.6e-06
5316 5860 -1.6e-06
5318 5860 -1.6e-06
5321 5860 -1.6e-06
5323 5860 -1.6e-06
5326 5860 -1.6e-06
5329 5860 -1.6e-06
5330 5860 -1.6e-06
5332 5860 -1.6e-06
5335 5860 -1.6e-06
5338 5860 -1.6e-06
5339 5860 -1.6e-06
5341 5860 -1.6e-06
5344 5860 -1.6e-06
5346 5860 -1.6e-06
5349 5860 -1.6e-06
5352 5860 -1.6e-06
5353 5860 -1.6e-06
5355 5860 -1.6e-06
5358 5860 -1.6e-06
5360 5860 -1.6e-06
5363 5860 -1.6e-06
5366 5860 -1.6e-06
5367 5860 -1.6e-06
5369 5860 -1.6e-06
5372 5860 -1.6e-06
5374 5860 -1.6e-06
5377 5860 -1.6e-06
5380 5860 -1.6e-06
5381 5860 -1.6e-06
5383 5860 -1.6e-06
5386 5860 -1.6e-06
5388 5860 -1.6e-06
5391 5860 -1.6e-06
5394 5860 -1.6e-06
5395 5860 -1.6e-06
5397 5860 -1.6e-06
5400 5860 -1.6e-06
5401 5860 -1.6e-06
5402 5860 -1.6e-06
5403 5860 -1.6e-06
5404 5860 -1.6e-06
5405 5860 -1.6e-06
5406 5860 -1.6e-06
5407 5860 -1.6e-06
5408 5860 -1.6e-06
5409 5860 -1.6e-06
5410 5860 -1.6e-06
5411 5860 -1.6e-06
5412 5860 -1.6e-06
5413 5860 -1.6e-06
5414 5860 -1.6e-06
5415 5860 -1.6e-06
5416 5860 -1.6e-06
5417 5860 -1.6e-06
5418 5860 -1.6e-06
5419 5860 -2.12117e-21
5420 5860 -1.64795e-21
5421 5860 -1.64795e-21
5422 5860 -3.55212e-21
5434 5860 -1.6e-06
5437 5860 -1.6e-06
5439 5860 -1.6e-06
5442 5860 -1.6e-06
5445 5860 -1.6e-06
5446 5860 -1.6e-06
5448 5860 -1.6e-06
5451 5860 -1.6e-06
5453 5860 -1.6e-06
5456 5860 -1.6e-06
5459 5860 -1.6e-06
5460 5860 -1.6e-06
5462 5860 -1.6e-06
5465 5860 -1.6e-06
5467 5860 -1.6e-06
5470 5860 -1.6e-06
5473 5860 -1.6e-06
5474 5860 -1.6e-06
5476 5860 -1.6e-06
5479 5860 -1.6e-06
5481 5860 -1.6e-06
5484 5860 -1.6e-06
5487 5860 -1.6e-06
5488 5860 -1.6e-06
5490 5860 -1.6e-06
5493 5860 -1.6e-06
5496 5860 -1.6e-06
5497 5860 -1.6e-06
5499 5860 -1.6e-06
5502 5860 -1.6e-06
5504 5860 -1.6e-06
5507 5860 -1.6e-06
5510 5860 -1.6e-06
5511 5860 -1.6e-06
5513 5860 -1.6e-06
5516 5860 -1.6e-06
5518 5860 -1.6e-06
5521 5860 -1.6e-06
5524 5860 -1.6e-06
5525 5860 -1.6e-06
5527 5860 -1.6e-06
5530 5860 -1.6e-06
5532 5860 -1.6e-06
5535 5860 -1.6e-06
5538 5860 -1.6e-06
5539 5860 -1.6e-06
5541 5860 -1.6e-06
5544 5860 -1.6e-06
5546 5860 -1.6e-06
5549 5860 -1.6e-06
5552 5860 -1.6e-06
5553 5860 -1.6e-06
5555 5860 -1.6e-06
5558 5860 -1.6e-06
5559 5860 -1.6e-06
5560 5860 -1.6e-06
5561 5860 -1.6e-06
5562 5860 -1.6e-06
5563 5860 -1.6e-06
5564 5860 -1.6e-06
5565 5860 -1.6e-06
5566 5860 -1.6e-06
5567 5860 -1.6e-06
5568 5860 -1.6e-06
5569 5860 -1.6e-06
5570 5860 -1.6e-06
5571 5860 -1.6e-06
5572 5860 -1.6e-06
5573 5860 -1.6e-06
5574 5860 -1.6e-06
5575 5860 -1.6e-06
5576 5860 -1.6e-06
5577 5860 -2.12117e-21
5578 5860 -1.64795e-21
5579 5860 -1.64795e-21
5580 5860 -3.55212e-21
5592 5860 -1.6e-06
5595 5860 -1.6e-06
5597 5860 -1.6e-06
5600 5860 -1.6e-06
5603 5860 -1.6e-06
5604 5860 -1.6e-06
5606 5860 -1.6e-06
5609 5860 -1.6e-06
5611 5860 -1.6e-06
5614 5860 -1.6e-06
5617 5860 -1.6e-06
5618 5860 -1.6e-06
5620 5860 -1.6e-06
5623 5860 -1.6e-06
5625 5860 -1.6e-06
5628 5860 -1.6e-06
5631 5860 -1.6e-06
5632 5860 -1.6e-06
5634 5860 -1.6e-06
5637 5860 -1.6e-06
5639 5860 -1.6e-06
5642 5860 -1.6e-06
5645 5860 -1.6e-06
5646 5860 -1.6e-06
5648 5860 -1.6e-06
5651 5860 -1.6e-06
5654 5860 -1.6e-06
5655 5860 -1.6e-06
5657 5860 -1.6e-06
5660 5860 -1.6e-06
5662 5860 -1.6e-06
5665 5860 -1.6e-06
5668 5860 -1.6e-06
5669 5860 -1.6e-06
5671 5860 -1.6e-06
5674 5860 -1.6e-06
5676 5860 -1.6e-06
5679 5860 -1.6e-06
5682 5860 -1.6e-06
5683 5860 -1.6e-06
5685 5860 -1.6e-06
5688 5860 -1.6e-06
5690 5860 -1.6e-06
5693 5860 -1.6e-06
5696 5860 -1.6e-06
5697 5860 -1.6e-06
5699 5860 -1.6e-06
5702 5860 -1.6e-06
5704 5860 -1.6e-06
5707 5860 -1.6e-06
5710 5860 -1.6e-06
5711 5860 -1.6e-06
5713 5860 -1.6e-06
5716 5860 -1.6e-06
5717 5860 -1.6e-06
5718 5860 -1.6e-06
5719 5860 -1.6e-06
5720 5860 -1.6e-06
5721 5860 -1.6e-06
5722 5860 -1.6e-06
5723 5860 -1.6e-06
5724 5860 -1.6e-06
5725 5860 -1.6e-06
5726 5860 -1.6e-06
5727 5860 -1.6e-06
5728 5860 -1.6e-06
5729 5860 -1.6e-06
5730 5860 -1.6e-06
5731 5860 -1.6e-06
5732 5860 -1.6e-06
5733 5860 -1.6e-06
5734 5860 -1.6e-06
5735 5860 -2.12117e-21
5736 5860 -1.64795e-21
5737 5860 -1.64795e-21
5738 5860 -3.55212e-21
5739 5860 0
5740 5860 0
5741 5860 0
5746 5860 0
5747 5860 -1.5e-05
5748 5860 -1.5e-05
5749 5860 -1.5e-05
5750 5860 -1.5e-05
5751 5860 -1.5e-05
5752 5860 -1.5e-05
5753 5860 -1.5e-05
5754 5860 -1.5e-05
5755 5860 -1.5e-05
5756 5860 -1.5e-05
5757 5860 -1.5e-05
5758 5860 -1.5e-05
5759 5860 -1.5e-05
5760 5860 -1.5e-05
5761 5860 -1.5e-05
5762 5860 -1.5e-05
5763 5860 0
5764 5860 0
5765 5860 0
5770 5860 0
5859 5860 197200
5860 5860 1
