%%MatrixMarket matrix coordinate real general
180 180 2086
1 1 4.02328
2 1 -0.591586
158 1 -0.632155
177 1 -0.981047
178 1 -1.81849
1 2 -0.569177
2 2 4.74023
3 2 -0.401196
5 2 -0.321739
158 2 0
177 2 -0.997055
178 2 -2.45107
2 3 -0.401545
3 3 4.86706
5 3 -0.711525
6 3 -0.551703
92 3 -0.953249
158 3 0
177 3 -0.706387
178 3 -1.54265
2 4 -0.330513
3 4 -0.734152
4 4 1
5 4 4.50858
6 4 -0.401546
92 4 -0.732059
158 4 0
177 4 -0.622951
178 4 -1.68736
5 5 1
3 6 -0.495915
5 6 -0.401305
6 6 4.87019
92 6 0.050382
158 6 0
159 6 -0.569177
177 6 -0.996946
178 6 -2.45723
7 7 1
7 8 5.17801
8 8 1
9 8 -0.536593
17 8 -1.9327
177 8 -1.39904
178 8 -1.30968
7 9 -0.537523
9 9 1.96057
10 9 -0.521238
178 9 -0.901812
9 10 -0.536593
10 10 8.40458
12 10 -1.13459
17 10 -1.39611
177 10 -2.23634
178 10 -3.10095
10 11 -1.17927
11 11 1
12 11 19.1759
13 11 -0.895699
17 11 0
18 11 -0.948516
85 11 -4.04477
177 11 -4.96344
178 11 -7.14425
12 12 1
12 13 -0.798646
13 13 2.2309
14 13 -0.534943
18 13 7e-06
178 13 -0.897316
13 14 -0.536604
14 14 28.2562
15 14 -9.76674
18 14 -1.93271
177 14 -7.55076
178 14 -8.4694
14 15 -10.4482
15 15 38.7566
18 15 0
19 15 -4.84223
177 15 -11.5069
178 15 -11.9593
16 16 5.03631
17 16 -1.60949
18 16 -1.85051
158 16 0.334926
178 16 -1.91124
7 17 -1.8681
10 17 -1.34582
12 17 0
16 17 -1.81711
17 17 16.3545
18 17 0
158 17 -1.9037
177 17 -3.68533
178 17 -5.73444
12 18 -0.94056
13 18 -1e-06
14 18 -1.86818
15 18 0
16 18 -1.81711
17 18 0
18 18 16.0049
19 18 0
158 18 -3.72081
177 18 -3.74103
178 18 -3.91723
15 19 -6.02978
18 19 0
19 19 56.8594
20 19 -6.50401
85 19 -0.379094
86 19 -10.5182
158 19 0
177 19 -17.0264
178 19 -16.4018
19 20 -9.732
20 20 76.0075
85 20 0
86 20 0
88 20 -10.5182
158 20 0
177 20 -12.5821
178 20 -43.1752
21 21 11.1698
22 21 -4.59304
177 21 -3.1865
178 21 -3.39027
21 22 -4.81349
22 22 16.1015
158 22 -1.3365
177 22 -4.94965
178 22 -5.00184
23 23 15.136
25 23 -2.76965
178 23 -12.3664
24 24 24.2833
25 24 -21.4558
26 24 4.7679
177 24 -7.59544
23 25 -2.96673
24 25 -25.591
25 25 54.2547
26 25 -14.1549
28 25 -0.720609
177 25 -3.23108
178 25 -7.59039
24 26 5.00115
25 26 -14.5793
26 26 14.3675
28 26 0
85 26 -2.28912
177 26 -2.50025
178 26 0
27 27 358.977
28 27 -431.573
29 27 205.292
178 27 -132.695
25 28 -0.710834
26 28 0
27 28 -292.406
28 28 792.942
29 28 -227.21
83 28 -30.1642
85 28 -0.708733
177 28 -28.3958
178 28 -213.347
27 29 0.006655
28 29 -314.131
29 29 1532.61
30 29 -32.7949
83 29 0
84 29 -0.860996
85 29 0
177 29 -1132
178 29 -52.8337
29 30 -13.0182
30 30 118.661
83 30 0
84 30 0
85 30 0
87 30 -30.4699
177 30 -14.2385
178 30 -60.9346
31 31 5.03632
35 31 0.334925
74 31 -1.60949
75 31 -1.85051
178 31 -1.91124
32 32 2.87054
34 32 -0.797293
76 32 -0.770499
178 32 -1.30275
33 33 2.52299
34 33 0.161796
74 33 -0.901538
75 33 -0.798645
178 33 -0.984601
32 34 -0.794194
33 34 0.079955
34 34 13.4921
74 34 -1.73917
75 34 -3.8336
76 34 0
177 34 -3.12748
178 34 -4.07763
31 35 0.159153
35 35 4.43525
36 35 1.4e-05
74 35 0
75 35 -1.60949
76 35 -1.08869
178 35 -1.89624
35 36 -3e-06
36 36 37.85
37 36 -1.81711
74 36 -1.62893
75 36 -1.62893
76 36 -5.29149
77 36 -3.83716
177 36 -12.7433
178 36 -10.903
36 37 -1.60949
37 37 5.03631
38 37 -1.85051
74 37 0
75 37 0
76 37 0.334926
77 37 0
177 37 0
178 37 -1.91124
37 38 -1.81711
38 38 20.1205
39 38 -4.3322
74 38 0
75 38 0
76 38 -3.72081
77 38 0
177 38 -5.92994
178 38 -4.3204
38 39 -4.49031
39 39 16.2704
40 39 -1.95429
74 39 0
75 39 0
76 39 0
77 39 0
177 39 -4.93002
178 39 -4.89578
39 40 -2.0614
40 40 7.68391
74 40 0
75 40 0
76 40 0
77 40 0
92 40 -0.711525
177 40 -2.03175
178 40 -2.87924
41 41 5.53743
42 41 -1.8984
43 41 0.236079
85 41 -1.83784
177 41 -2.03727
41 42 -1.90722
42 42 8.75577
43 42 -2.14942
73 42 -1.13459
85 42 0
177 42 -0.841297
178 42 -2.72325
41 43 0.223199
42 43 -2.07454
43 43 12.5393
44 43 -2.49552
73 43 0
85 43 -0.236696
177 43 -4.06959
178 43 -3.88612
43 44 -2.38451
44 44 17.2652
73 44 0
74 44 -4.49031
85 44 0
177 44 -5.36565
178 44 -5.02478
45 45 10.0636
46 45 0.681827
71 45 -3.74969
75 45 -3.23115
178 45 -3.76455
45 46 0.317537
46 46 8.8439
47 46 1e-06
71 46 -3.23115
75 46 0
76 46 -2.19989
178 46 -3.7304
47 47 7.7547
72 47 -2.20776
76 47 -2.12356
178 47 -3.42338
48 48 14.1064
70 48 -8.10521
177 48 -0.579413
178 48 -5.42177
49 49 17.7021
83 49 -10.8752
177 49 -6.16507
178 49 -0.66178
50 50 37194.7
51 50 -36000
177 50 -1194.66
50 51 -36000
51 51 54102.2
171 51 -0.000206
177 51 0
178 51 -18102.2
52 52 3099.57
171 52 -3000.01
177 52 -99.556
53 53 1
53 54 11.1773
54 54 1
55 54 -4.49031
177 54 -3.70385
178 54 -2.98313
53 55 -4.3322
55 55 20.1205
56 55 -1.81711
72 55 -3.72081
177 55 -5.92994
178 55 -4.3204
55 56 -1.85051
56 56 5.03631
60 56 -1.60949
72 56 0.334926
177 56 0
178 56 -1.91124
57 57 2.87054
59 57 -0.797293
72 57 -0.770499
178 57 -1.30275
58 58 2.52299
59 58 0.161796
71 58 -0.798645
74 58 -0.901538
178 58 -0.984601
57 59 -0.794194
58 59 0.079955
59 59 13.4921
71 59 -3.8336
72 59 0
74 59 -1.73917
177 59 -3.12748
178 59 -4.07763
56 60 -1.81711
60 60 37.85
62 60 -3e-06
63 60 -3.83716
71 60 -1.62893
72 60 -5.29149
74 60 -1.62893
177 60 -12.7433
178 60 -10.903
61 61 5.03632
62 61 0.334925
71 61 -1.85051
74 61 -1.60949
178 61 -1.91124
60 62 1.4e-05
61 62 0.159153
62 62 4.43525
63 62 0
71 62 -1.60949
72 62 -1.08869
74 62 0
177 62 0
178 62 -1.89624
60 63 -3.66639
62 63 0
63 63 19.6505
64 63 -2.89104
67 63 0.064114
71 63 0
72 63 0
74 63 0
177 63 -6.14441
178 63 -7.01275
63 64 -2.79072
64 64 17.1165
65 64 -3.83716
67 64 0
71 64 0
72 64 0
74 64 0
177 64 -5.37393
178 64 -5.11466
64 65 -3.66639
65 65 10.4297
67 65 0
68 65 -0.389394
71 65 0
72 65 0
74 65 0
177 65 -2.57981
178 65 -3.79414
66 66 6.99975
67 66 -1.95548
68 66 -0.624221
177 66 -1.54176
178 66 -2.87829
63 67 0.127307
64 67 0
65 67 0
66 67 -2.02369
67 67 8.66396
68 67 0
71 67 0
72 67 0
74 67 0
177 67 -2.81263
178 67 -3.95495
65 68 -0.379037
66 68 -0.600195
67 68 0
68 68 8.166
70 68 -1.37788
71 68 0
72 68 0
74 68 0
171 68 2.3e-05
177 68 0
178 68 -5.8089
69 69 17.6762
70 69 6.14901
83 69 -17.017
177 69 -6.14661
178 69 -0.661641
48 70 -11.5583
68 70 -1.82463
69 70 -0.000555
70 70 530.618
71 70 0
72 70 0
74 70 0
83 70 -4.33371
171 70 -1.82462
177 70 -4.75499
178 70 -506.321
45 71 -3.65995
46 71 -3.65995
47 71 0
58 71 -0.895699
59 71 -3.74315
60 71 -1.64301
61 71 -1.81711
62 71 -1.81711
63 71 0
64 71 0
65 71 0
67 71 0
68 71 0
70 71 0
71 71 40.0392
72 71 -2.02235
73 71 -2.81496
74 71 0
75 71 0
76 71 0
83 71 0
171 71 0
177 71 -8.57085
178 71 -9.39505
47 72 -2.19259
55 72 -3.49652
56 72 0.159152
57 72 -0.794194
59 72 0
60 72 -5.39396
62 72 -1.08861
63 72 0
64 72 0
65 72 0
67 72 0
68 72 0
70 72 0
71 72 -2.09889
72 72 43.8885
73 72 -6.33592
74 72 0
75 72 0
76 72 0
83 72 0
171 72 0
177 72 -10.66
178 72 -11.987
42 73 -1.17927
43 73 0
44 73 0
71 73 -2.79056
72 73 -6.11903
73 73 43.213
74 73 0
75 73 -2.79056
76 73 -3.99042
83 73 0
85 73 0
171 73 0
177 73 -17.4903
178 73 -8.85292
31 74 -1.81711
33 74 -0.895699
34 74 -1.84434
35 74 0
36 74 -1.64301
37 74 0
38 74 0
39 74 0
40 74 0
44 74 -4.3322
58 74 -0.895699
59 74 -1.84434
60 74 -1.64301
61 74 -1.81711
62 74 0
63 74 0
64 74 0
65 74 0
67 74 0
68 74 0
70 74 0
71 74 0
72 74 0
73 74 0
74 74 38.6159
75 74 0
76 74 0
77 74 0
83 74 0
85 74 0
92 74 0
171 74 0
177 74 -9.90836
178 74 -11.975
31 75 -1.81711
33 75 -0.895699
34 75 -3.74315
35 75 -1.81711
36 75 -1.64301
37 75 0
38 75 0
39 75 0
40 75 0
45 75 -3.65995
46 75 0
47 75 0
71 75 0
72 75 0
73 75 -2.81496
74 75 0
75 75 40.0392
76 75 -2.02235
77 75 0
83 75 0
85 75 0
92 75 0
171 75 0
177 75 -8.57085
178 75 -13.055
32 76 -0.794194
34 76 0
35 76 -1.08861
36 76 -5.39396
37 76 0.159152
38 76 -3.49652
39 76 0
40 76 0
46 76 -2.19259
47 76 -2.19259
71 76 0
72 76 0
73 76 -4.14333
74 76 0
75 76 -2.09889
76 76 43.9382
77 76 0
83 76 0
85 76 0
92 76 0
171 76 0
177 76 -10.66
178 76 -12.0367
36 77 -3.66639
37 77 0
38 77 0
39 77 0
40 77 0
74 77 0
75 77 0
76 77 0
77 77 19.6505
78 77 -2.89104
81 77 0.064114
83 77 0
85 77 0
92 77 0
171 77 0
177 77 -6.14441
178 77 -7.01275
77 78 -2.79072
78 78 17.1165
79 78 -3.83716
81 78 0
83 78 0
85 78 0
92 78 0
171 78 0
177 78 -5.37393
178 78 -5.11466
78 79 -3.66639
79 79 11.0935
81 79 0
82 79 -0.683888
83 79 0
85 79 0
92 79 0
171 79 0
177 79 -3.26516
178 79 -3.47803
80 80 6.6181
81 80 -1.95548
82 80 -0.471042
177 80 -2.11225
178 80 -2.07933
77 81 0.127307
78 81 0
79 81 0
80 81 -2.02369
81 81 8.66396
82 81 0
83 81 0
85 81 0
92 81 0
171 81 0
177 81 -2.81263
178 81 -3.95495
79 82 -0.671549
80 82 -0.467222
81 82 0
82 82 16.3651
83 82 -4.08215
85 82 0
92 82 0
171 82 0.000727
177 82 -8.87893
178 82 -2.266
28 83 -2.21197
29 83 0
30 83 0
49 83 -12.3327
69 83 -12.3136
70 83 -9.66079
71 83 0
72 83 0
73 83 0
74 83 0
75 83 0
76 83 0
77 83 0
78 83 0
79 83 0
81 83 0
82 83 -4.33452
83 83 550.052
84 83 0
85 83 0
87 83 0
92 83 0
171 83 -4.33422
177 83 -491.534
178 83 -13.3302
29 84 -0.862334
30 84 0
83 84 0
84 84 27.8301
85 84 -8.70855
86 84 -0.471049
87 84 0
88 84 -0.471049
92 84 0
171 84 -0.471054
177 84 -10.0321
178 84 -6.81394
12 85 -3.83463
19 85 -0.389394
20 85 0
26 85 -2.33201
28 85 -0.720617
29 85 0
30 85 0
41 85 -1.90722
42 85 0
43 85 -0.242197
44 85 0
73 85 0
74 85 0
75 85 0
76 85 0
77 85 0
78 85 0
79 85 0
81 85 0
82 85 0
83 85 0
84 85 -9.02694
85 85 46.0396
86 85 0
87 85 0
88 85 0
92 85 0
158 85 0
171 85 0
177 85 -13.7335
178 85 -13.8531
19 86 -13.5734
20 86 0
84 86 -0.467228
85 86 0
86 86 62.8951
87 86 -0.28192
88 86 0
90 86 -6.77602
92 86 0
158 86 0
171 86 0
177 86 -23.2248
178 86 -18.5717
30 87 -10.07
83 87 0
84 87 0
85 87 0
86 87 1.6919
87 87 72.482
88 87 1.6919
89 87 -11.1973
90 87 -11.1973
92 87 0
158 87 0
171 87 0
177 87 0
178 87 -43.4013
20 88 -13.5734
84 88 -0.467228
85 88 0
86 88 0
87 88 -0.28192
88 88 62.8951
89 88 -6.77602
90 88 0
92 88 0
158 88 0
171 88 0
177 88 -23.2248
178 88 -18.5717
87 89 -9.4308
88 89 -8.74873
89 89 46.2563
90 89 0
91 89 -0.061115
92 89 0
158 89 0
162 89 -2.52918
171 89 -12.1159
177 89 -3.20195
178 89 -10.1686
86 90 -8.74873
87 90 -9.4308
88 90 0
89 90 0
90 90 46.2563
91 90 -0.061115
92 90 0
158 90 0
160 90 -2.52918
162 90 0
171 90 -12.1159
177 90 -3.20195
178 90 -10.1686
89 91 3.40457
90 91 3.40457
91 91 111.28
92 91 0
158 91 0
160 91 -9.91942
162 91 -9.91942
168 91 -33.4927
171 91 0
177 91 0
178 91 -64.7575
3 92 -0.944158
5 92 -0.726531
6 92 0.097543
40 92 -0.734152
74 92 0
75 92 0
76 92 0
77 92 0
78 92 0
79 92 0
81 92 0
82 92 0
83 92 0
84 92 0
85 92 0
86 92 0
87 92 0
88 92 0
89 92 0
90 92 0
91 92 0
92 92 6.22428
158 92 0
159 92 0
160 92 0
162 92 0
168 92 0
171 92 0
177 92 -1.03506
178 92 -2.88192
93 93 0.502243
95 93 -0.160668
98 93 -0.100573
178 93 -0.241003
94 94 0.544396
95 94 -0.131649
96 94 -0.130961
97 94 1.1e-05
177 94 -0.281797
93 95 -0.170851
94 95 -0.132482
95 95 4.91324
96 95 -0.251272
97 95 -1.1877
98 95 -0.200985
104 95 8.4e-05
177 95 -0.876048
178 95 -2.09399
94 96 -0.132479
95 96 -0.25409
96 96 3.84931
97 96 -0.352468
98 96 -0.551589
101 96 -0.219994
104 96 -0.254055
177 96 -0.548847
178 96 -1.53579
95 97 -1.22789
96 97 -0.335582
97 97 6.33887
98 97 -0.267626
101 97 0.021845
103 97 -0.303775
104 97 0
177 97 -1.73364
178 97 -2.49221
93 98 -0.102354
95 98 -0.205396
96 98 -0.568041
97 98 -0.269539
98 98 7.48376
99 98 -1.42829
101 98 -0.167186
103 98 0
104 98 -0.205398
177 98 -1.3355
178 98 -3.20206
98 99 -1.50312
99 99 7.98382
101 99 0
103 99 0
104 99 0
118 99 -1.28974
177 99 -1.94046
178 99 -3.25049
100 100 0.84901
101 100 0.048059
102 100 -0.258021
103 100 -0.272165
178 100 -0.366883
96 101 -0.210482
97 101 0.037327
98 101 -0.16593
99 101 0
100 101 0.027134
101 101 2.49591
102 101 -0.269354
103 101 -0.258021
104 101 0
118 101 0
177 101 -0.282054
178 101 -1.37453
100 102 -0.281421
101 102 -0.27142
102 102 8.06128
103 102 0
104 102 -1.59004
118 102 0
143 102 -0.591586
177 102 -2.02571
178 102 -3.30109
97 103 -0.306149
98 103 0
99 103 0
100 103 -0.281421
101 103 -0.281421
102 103 0
103 103 3.59032
104 103 0
118 103 0
140 103 -0.530159
143 103 0
177 103 -0.838368
178 103 -1.3528
95 104 -1e-06
96 104 -0.252143
97 104 0
98 104 -0.203086
99 104 0
101 104 0
102 104 -1.64495
103 104 0
104 104 9.81016
106 104 -1.30237
118 104 0
140 104 -0.165062
143 104 0
177 104 -2.08094
178 104 -4.1616
105 105 3.89005
106 105 -1.42829
177 105 -0.911879
178 105 -1.54988
104 106 -1.28974
105 106 -1.50312
106 106 7.98382
118 106 0
140 106 0
143 106 0
177 106 -1.94046
178 106 -3.25049
107 107 0.502243
109 107 -0.160668
112 107 -0.100573
178 107 -0.241003
108 108 0.544396
109 108 -0.131649
110 108 -0.130961
111 108 1.1e-05
177 108 -0.281797
107 109 -0.170851
108 109 -0.132482
109 109 4.91324
110 109 -0.251272
111 109 -1.1877
112 109 -0.200985
118 109 8.4e-05
177 109 -0.876048
178 109 -2.09399
108 110 -0.132479
109 110 -0.25409
110 110 3.84931
111 110 -0.352468
112 110 -0.551589
115 110 -0.219994
118 110 -0.254055
177 110 -0.548847
178 110 -1.53579
109 111 -1.22789
110 111 -0.335582
111 111 6.33887
112 111 -0.267626
115 111 0.021845
117 111 -0.303775
118 111 0
177 111 -1.73364
178 111 -2.49221
107 112 -0.102354
109 112 -0.205396
110 112 -0.568041
111 112 -0.269539
112 112 7.48376
113 112 -1.42829
115 112 -0.167186
117 112 0
118 112 -0.205398
177 112 -1.3355
178 112 -3.20206
112 113 -1.50312
113 113 7.98382
115 113 0
117 113 0
118 113 0
142 113 -1.28974
177 113 -1.94046
178 113 -3.25049
114 114 0.84901
115 114 0.048059
116 114 -0.258021
117 114 -0.272165
178 114 -0.366883
110 115 -0.210482
111 115 0.037327
112 115 -0.16593
113 115 0
114 115 0.027134
115 115 2.49591
116 115 -0.269354
117 115 -0.258021
118 115 0
142 115 0
177 115 -0.282054
178 115 -1.37453
114 116 -0.281421
115 116 -0.27142
116 116 8.06128
117 116 0
118 116 -1.59004
142 116 0
144 116 -0.591586
177 116 -2.02571
178 116 -3.30109
111 117 -0.306149
112 117 0
113 117 0
114 117 -0.281421
115 117 -0.281421
116 117 0
117 117 3.59032
118 117 0
140 117 -0.530159
142 117 0
144 117 0
177 117 -0.838368
178 117 -1.3528
99 118 -1.30237
101 118 0
102 118 0
103 118 0
104 118 0
106 118 0
109 118 -1e-06
110 118 -0.252143
111 118 0
112 118 -0.203086
113 118 0
115 118 0
116 118 -1.64495
117 118 0
118 118 9.81016
140 118 -0.165062
142 118 0
143 118 0
144 118 0
177 118 -2.08094
178 118 -4.1616
119 119 0.502243
121 119 -0.160668
124 119 -0.100573
178 119 -0.241003
120 120 0.5444
121 120 -0.131649
122 120 -0.130961
123 120 1.1e-05
177 120 -0.2818
119 121 -0.170851
120 121 -0.132482
121 121 4.91324
122 121 -0.251272
123 121 -1.1877
124 121 -0.200985
142 121 8.4e-05
177 121 -0.876048
178 121 -2.09399
120 122 -0.132479
121 122 -0.25409
122 122 3.84931
123 122 -0.352468
124 122 -0.551589
127 122 -0.219994
142 122 -0.254055
177 122 -0.548847
178 122 -1.53579
121 123 -1.22789
122 123 -0.335582
123 123 6.33887
124 123 -0.267626
127 123 0.021845
129 123 -0.303775
142 123 0
177 123 -1.73364
178 123 -2.49221
119 124 -0.102354
121 124 -0.205396
122 124 -0.568041
123 124 -0.269539
124 124 7.48376
125 124 -1.42829
127 124 -0.167186
129 124 0
142 124 -0.205398
177 124 -1.3355
178 124 -3.20206
124 125 -1.50312
125 125 7.98382
127 125 0
129 125 0
139 125 -1.28974
142 125 0
177 125 -1.94046
178 125 -3.25049
126 126 0.84901
127 126 0.048059
128 126 -0.258021
129 126 -0.272165
178 126 -0.366883
122 127 -0.210482
123 127 0.037327
124 127 -0.16593
125 127 0
126 127 0.027134
127 127 2.49591
128 127 -0.269354
129 127 -0.258021
139 127 0
142 127 0
177 127 -0.282054
178 127 -1.37453
126 128 -0.281421
127 128 -0.27142
128 128 8.06128
129 128 0
139 128 0
142 128 -1.59004
148 128 -0.591586
177 128 -2.02571
178 128 -3.30109
123 129 -0.306149
124 129 0
125 129 0
126 129 -0.281421
127 129 -0.281421
128 129 0
129 129 3.59032
139 129 0
140 129 -0.530159
142 129 0
148 129 0
177 129 -0.838368
178 129 -1.3528
130 130 0.502243
132 130 -0.160668
158 130 -0.100573
178 130 -0.241003
131 131 0.544396
132 131 -0.131649
133 131 -0.130961
134 131 1.1e-05
177 131 -0.281797
130 132 -0.170851
131 132 -0.132482
132 132 4.91324
133 132 -0.251272
134 132 -1.1877
139 132 8.4e-05
158 132 -0.200985
177 132 -0.876048
178 132 -2.09399
131 133 -0.132479
132 133 -0.25409
133 133 3.84931
134 133 -0.352468
136 133 -0.219994
139 133 -0.254055
158 133 -0.551589
177 133 -0.548847
178 133 -1.53579
132 134 -1.22789
133 134 -0.335582
134 134 6.33887
136 134 0.021845
138 134 -0.303775
139 134 0
158 134 -0.267626
177 134 -1.73364
178 134 -2.49221
135 135 0.84901
136 135 0.048059
137 135 -0.258021
138 135 -0.272165
178 135 -0.366883
133 136 -0.210482
134 136 0.037327
135 136 0.027134
136 136 2.49591
137 136 -0.269354
138 136 -0.258021
139 136 0
158 136 -0.16593
177 136 -0.282054
178 136 -1.37453
135 137 -0.281421
136 137 -0.27142
137 137 8.06128
138 137 0
139 137 -1.59004
149 137 -0.591586
158 137 0
177 137 -2.02571
178 137 -3.30109
134 138 -0.306149
135 138 -0.281421
136 138 -0.281421
137 138 0
138 138 3.59032
139 138 0
140 138 -0.530159
149 138 0
158 138 0
177 138 -0.838368
178 138 -1.3528
125 139 -1.30237
127 139 0
128 139 0
129 139 0
132 139 -1e-06
133 139 -0.252143
134 139 0
136 139 0
137 139 -1.64495
138 139 0
139 139 9.81016
140 139 -0.165062
142 139 0
148 139 0
149 139 0
158 139 -0.203086
177 139 -2.08094
178 139 -4.1616
140 140 1
103 141 -0.545961
104 141 -0.168593
106 141 0
117 141 -0.545961
118 141 -0.168593
129 141 -0.545961
138 141 -0.545961
139 141 -0.168593
140 141 9.74963
141 141 1
142 141 -0.168593
143 141 0
144 141 0
148 141 0
149 141 0
158 141 0
177 141 -1.60113
178 141 -5.29029
113 142 -1.30237
115 142 0
116 142 0
117 142 0
118 142 0
121 142 -1e-06
122 142 -0.252143
123 142 0
124 142 -0.203086
125 142 0
127 142 0
128 142 -1.64495
129 142 0
139 142 0
140 142 -0.165062
142 142 9.81016
143 142 0
144 142 0
148 142 0
149 142 0
158 142 0
177 142 -2.08094
178 142 -4.1616
102 143 -0.569177
103 143 0
104 143 0
106 143 0
118 143 0
140 143 0
142 143 0
143 143 4.74023
144 143 0
145 143 -0.401196
146 143 -0.321739
148 143 0
149 143 0
158 143 0
177 143 -0.997055
178 143 -2.45107
116 144 -0.569177
117 144 0
118 144 0
140 144 0
142 144 0
143 144 0
144 144 4.91736
145 144 -0.547996
146 144 -0.401305
148 144 0
149 144 0
152 144 0.097543
158 144 0
177 144 -0.996946
178 144 -2.49947
143 145 -0.401545
144 145 -0.551703
145 145 4.86706
146 145 -0.711525
148 145 0
149 145 0
152 145 -0.953249
158 145 0
177 145 -0.706387
178 145 -1.54265
146 146 1
146 147 -0.711525
147 147 4.86706
148 147 -0.401545
149 147 -0.551703
151 147 -0.953249
177 147 -0.706387
178 147 -1.54265
128 148 -0.569177
129 148 0
139 148 0
140 148 0
142 148 0
143 148 0
144 148 0
145 148 0
146 148 -0.321739
147 148 -0.401196
148 148 4.74023
149 148 0
151 148 0
152 148 0
158 148 0
177 148 -0.997055
178 148 -2.45107
137 149 -0.569177
138 149 0
139 149 0
140 149 0
142 149 0
143 149 0
144 149 0
145 149 0
146 149 -0.401305
147 149 -0.547996
148 149 0
149 149 4.91736
151 149 0.097543
152 149 0
158 149 0
177 149 -0.996946
178 149 -2.49947
143 150 -0.330513
144 150 -0.401546
145 150 -0.734152
146 150 9.01716
147 150 -0.734152
148 150 -0.330513
149 150 -0.401546
150 150 1
151 150 -0.732059
152 150 -0.732059
158 150 0
177 150 -1.2459
178 150 -3.37472
146 151 -0.726531
147 151 -0.892076
148 151 0
149 151 0.050382
151 151 5.97992
152 151 0
155 151 -0.651863
158 151 0
177 151 -0.971039
178 151 -2.78879
144 152 0.050382
145 152 -0.892076
146 152 -0.726531
148 152 0
149 152 0
151 152 0
152 152 5.97992
155 152 0
157 152 -0.651863
158 152 0
177 152 -0.971039
178 152 -2.78879
153 153 1
153 154 -0.63924
154 154 4.64595
155 154 -0.330513
157 154 -0.591111
159 154 -0.921625
177 154 -0.441689
178 154 -1.72177
151 155 -0.632155
152 155 0
153 155 -0.399398
154 155 -0.335824
155 155 4.88119
157 155 0
158 155 0
159 155 -2e-06
177 155 -1.44967
178 155 -2.06414
153 156 4.4027
154 156 -0.665711
155 156 -0.401606
156 156 1
157 156 -0.330513
158 156 0
159 156 -0.732119
177 156 -0.549628
178 156 -1.72312
152 157 -0.632155
153 157 -0.33383
154 157 -0.586331
155 157 0
157 157 5.03209
158 157 0
159 157 0.072131
177 157 -1.48577
178 157 -2.06613
1 158 -0.651863
2 158 0
3 158 0
5 158 0
6 158 0
16 158 0.159152
17 158 -1.88703
18 158 -3.49652
19 158 0
20 158 0
22 158 -1.38275
85 158 0
86 158 0
87 158 0
88 158 0
89 158 0
90 158 0
91 158 0
92 158 0
130 158 -0.102354
132 158 -0.205396
133 158 -0.568041
134 158 -0.269539
136 158 -0.167186
137 158 0
138 158 0
139 158 -0.205398
140 158 0
142 158 0
143 158 0
144 158 0
145 158 0
146 158 0
148 158 0
149 158 0
151 158 0
152 158 0
155 158 0
157 158 0
158 158 20.6749
159 158 0
160 158 0
162 158 0
168 158 0
171 158 0
177 158 -4.05056
178 158 -7.84745
6 159 -0.591586
92 159 0
153 159 -0.723474
154 159 -0.892564
155 159 3.7e-05
157 159 0.0698
158 159 0
159 159 5.91883
160 159 0
162 159 0
168 159 0
171 159 0
177 159 -1.13928
178 159 -2.64177
90 160 -5.88709
91 160 -7.48556
92 160 0
158 160 0
159 160 0
160 160 54.7462
161 160 -7.48556
162 160 0
163 160 -0.061115
165 160 -2.52918
168 160 0
169 160 -5.88709
171 160 -12.1159
177 160 -3.20195
178 160 -10.0928
160 161 -9.91942
161 161 111.28
162 161 -9.91942
163 161 0
165 161 0
168 161 -33.4927
169 161 3.40457
171 161 0
173 161 3.40457
177 161 0
178 161 -64.7575
89 162 -5.88709
90 162 0
91 162 -7.48556
92 162 0
158 162 0
159 162 0
160 162 0
161 162 -7.48556
162 162 54.7462
163 162 -0.061115
164 162 -2.52918
165 162 0
168 162 0
169 162 0
171 162 -12.1159
173 162 -5.88709
177 162 -3.20195
178 162 -10.0928
160 163 3.40457
161 163 0
162 163 3.40457
163 163 111.28
164 163 -9.91942
165 163 -9.91942
168 163 -33.4927
169 163 0
171 163 0
173 163 0
177 163 0
178 163 -64.7575
162 164 -5.88709
163 164 -7.48556
164 164 38.9388
165 164 0
166 164 -0.061115
168 164 0
169 164 0
171 164 -12.1159
172 164 -2.52918
173 164 0
177 164 -3.20195
178 164 -7.65803
160 165 -5.88709
161 165 0
162 165 0
163 165 -7.48556
164 165 0
165 165 38.9388
166 165 -0.061115
167 165 -2.52918
168 165 0
169 165 0
171 165 -12.1159
172 165 0
173 165 0
177 165 -3.20195
178 165 -7.65803
164 166 3.40457
165 166 3.40457
166 166 111.28
167 166 -9.91942
168 166 -33.4927
169 166 0
171 166 0
172 166 -9.91942
173 166 0
177 166 0
178 166 -64.7575
165 167 -5.88709
166 167 -7.48556
167 167 38.9388
168 167 0
169 167 0
170 167 -2.52918
171 167 -12.1159
172 167 0
173 167 0
175 167 -0.061115
177 167 -3.20195
178 167 -7.65803
91 168 -575.734
92 168 0
158 168 0
159 168 0
160 168 0
161 168 -575.734
162 168 0
163 168 -575.734
164 168 0
165 168 0
166 168 -575.734
167 168 0
168 168 9739.93
169 168 0
170 168 0
171 168 -2.62731
172 168 0
173 168 0
175 168 -575.734
176 168 -575.734
177 168 -2.84189
178 168 -6280.06
160 169 -2.52918
161 169 -0.061115
162 169 0
163 169 0
164 169 0
165 169 0
166 169 0
167 169 0
168 169 0
169 169 38.9388
170 169 -5.88709
171 169 -12.1159
172 169 0
173 169 0
175 169 0
176 169 -7.48556
177 169 -3.20195
178 169 -7.65803
167 170 -5.88709
168 170 0
169 170 -2.52918
170 170 38.9388
171 170 -12.1159
172 170 0
173 170 0
175 170 -7.48556
176 170 -0.061115
177 170 -3.20195
178 170 -7.65803
51 171 -0.000206
52 171 -3000.01
70 171 -1.8236
71 171 0
72 171 0
73 171 0
74 171 0
75 171 0
76 171 0
77 171 0
78 171 0
79 171 0
81 171 0
82 171 1e-06
83 171 -4.33293
84 171 -0.467233
85 171 0
86 171 0
87 171 0
88 171 0
89 171 -18.8229
90 171 -18.8229
91 171 0
92 171 0
158 171 0
159 171 0
160 171 -18.8229
161 171 0
162 171 -18.8229
163 171 0
164 171 -18.8229
165 171 -18.8229
166 171 0
167 171 -18.8229
168 171 -12.6082
169 171 -18.8229
170 171 -18.8229
171 171 5057.39
172 171 -18.8229
173 171 -18.8229
174 171 -18.8229
175 171 0
176 171 0
177 171 -277.51
178 171 -1533.76
164 172 -5.88709
165 172 0
166 172 -7.48556
167 172 0
168 172 0
169 172 0
170 172 0
171 172 -12.1159
172 172 38.9388
173 172 0
174 172 -2.52918
175 172 -0.061115
176 172 0
177 172 -3.20195
178 172 -7.65803
161 173 -0.061115
162 173 -2.52918
163 173 0
164 173 0
165 173 0
166 173 0
167 173 0
168 173 0
169 173 0
170 173 0
171 173 -12.1159
172 173 0
173 173 38.9388
174 173 -5.88709
175 173 0
176 173 -7.48556
177 173 -3.20195
178 173 -7.65803
171 174 -12.1159
172 174 -5.88709
173 174 -2.52918
174 174 38.9388
175 174 -7.48556
176 174 -0.061115
177 174 -3.20195
178 174 -7.65803
167 175 3.40457
168 175 -33.4927
169 175 0
170 175 -9.91942
171 175 0
172 175 3.40457
173 175 0
174 175 -9.91942
175 175 111.28
176 175 0
177 175 0
178 175 -64.7575
168 176 -33.4927
169 176 -9.91942
170 176 3.40457
171 176 0
172 176 0
173 176 -9.91942
174 176 3.40457
175 176 0
176 176 111.28
177 176 0
178 176 -64.7575
177 177 1
178 178 1
1 179 -0.966806
2 179 -0.994022
3 179 -0.692819
5 179 -0.646196
6 179 -0.994022
7 179 -1.44932
10 179 -2.28006
12 179 -4.99891
14 179 -7.43873
15 179 -11.0789
17 179 -3.60143
18 179 -3.69945
19 179 -14.5615
20 179 -9.52682
21 179 -3.15894
22 179 -4.93646
24 179 -3.6935
25 179 -6.9419
26 179 -2.64849
28 179 241.858
29 179 -1422.03
30 179 5.53826
34 179 -3.18777
36 179 -12.6655
37 179 0
38 179 -5.81041
39 179 -5.05616
40 179 -2.02251
41 179 -1.94619
42 179 -0.912931
43 179 -4.02704
44 179 -5.4879
48 179 -0.649785
49 179 -4.67665
50 179 -1194.66
51 179 0
52 179 -99.556
53 179 -3.84005
55 179 -5.81041
56 179 0
59 179 -3.18777
60 179 -12.6655
62 179 0
63 179 -6.28321
64 179 -5.30997
65 179 -2.55769
66 179 -1.4867
67 179 -2.8622
68 179 0
69 179 -4.66935
70 179 -5.57747
71 179 -8.46437
72 179 -10.9445
73 179 -17.1422
74 179 -9.81654
75 179 -8.46437
76 179 -10.9445
77 179 -6.28321
78 179 -5.30997
79 179 -3.25538
80 179 -2.06101
81 179 -2.8622
82 179 -8.60968
83 179 -493.868
84 179 -9.7846
85 179 -14.0851
86 179 -26.2762
87 179 0
88 179 -26.2762
89 179 3.50503
90 179 3.50503
91 179 0
92 179 -1.04528
94 179 -0.279435
95 179 -0.84038
96 179 -0.542801
97 179 -1.76356
98 179 -1.3431
99 179 -1.92892
101 179 -0.278733
102 179 -1.98542
103 179 -0.827615
104 179 -2.14297
105 179 -0.904616
106 179 -1.92892
108 179 -0.279435
109 179 -0.84038
110 179 -0.542801
111 179 -1.76356
112 179 -1.3431
113 179 -1.92892
115 179 -0.278733
116 179 -1.98542
117 179 -0.827615
118 179 -2.14297
120 179 -0.279438
121 179 -0.84038
122 179 -0.542801
123 179 -1.76356
124 179 -1.3431
125 179 -1.92892
127 179 -0.278733
128 179 -1.98542
129 179 -0.827615
131 179 -0.279435
132 179 -0.84038
133 179 -0.542801
134 179 -1.76356
136 179 -0.278733
137 179 -1.98542
138 179 -0.827615
139 179 -2.14297
140 179 -1.65364
142 179 -2.14297
143 179 -0.994022
144 179 -0.994022
145 179 -0.692819
146 179 -1.29239
147 179 -0.692819
148 179 -0.994022
149 179 -0.994022
151 179 -0.978877
152 179 -0.978877
153 179 -0.55805
154 179 -0.463653
155 179 -1.43058
157 179 -1.46173
158 179 -4.08975
159 179 -1.12086
160 179 3.50503
161 179 0
162 179 3.50503
163 179 0
164 179 3.50503
165 179 3.50503
166 179 0
167 179 3.50503
168 179 7.13897
169 179 3.50503
170 179 3.50503
171 179 -367.97
172 179 3.50503
173 179 3.50503
174 179 3.50503
175 179 0
176 179 0
177 179 3793.53
178 179 -88.7299
179 179 1
1 180 -1.83543
2 180 -2.42256
3 180 -1.59882
5 180 -1.70128
6 180 -2.42888
7 180 -1.32307
9 180 -0.887385
10 180 -3.07819
12 180 -7.46861
13 180 -0.798593
14 180 -7.96621
15 180 -11.8812
16 180 -1.56124
17 180 -5.92774
18 180 -4.07723
19 180 -13.7608
20 180 -46.4032
21 180 -3.19739
22 180 -5.18922
23 180 -12.1693
25 180 -7.79725
26 180 0
27 180 -66.5773
28 180 -285.443
29 180 -74.7856
30 180 -81.3346
31 180 -1.56124
32 180 -1.28216
33 180 -0.811546
34 180 -4.08136
35 180 -1.86445
36 180 -11.2286
37 180 -1.56124
38 180 -4.47272
39 180 -4.82064
40 180 -2.97297
42 180 -2.69063
43 180 -3.97217
44 180 -4.94964
45 180 -3.0612
46 180 -3.67318
47 180 -3.36951
48 180 -1.89829
49 180 -0.692774
51 180 -18102.2
53 180 -3.00504
55 180 -4.47272
56 180 -1.56124
57 180 -1.28216
58 180 -0.811546
59 180 -4.08136
60 180 -11.2286
61 180 -1.56124
62 180 -1.86445
63 180 -6.8667
64 180 -5.24907
65 180 -3.65584
66 180 -2.88917
67 180 -3.9104
68 180 -5.32775
69 180 -0.692761
70 180 -510.222
71 180 -9.98335
72 180 -12.0583
73 180 -8.82705
74 180 -12.5508
75 180 -13.733
76 180 -12.1208
77 180 -6.8667
78 180 -5.24907
79 180 -3.32938
80 180 -2.06618
81 180 -3.9104
82 180 -2.266
83 180 14.6221
84 180 -6.75586
85 180 -13.7497
86 180 -18.5728
87 180 -22.5867
88 180 -18.5728
89 180 -10.4826
90 180 -10.4826
91 180 479.547
92 180 -2.83255
93 180 -0.229039
95 180 -2.09317
96 180 -1.55803
97 180 -2.49679
98 180 -3.14775
99 180 -3.32424
100 180 -0.3133
101 180 -1.34706
102 180 -3.33435
103 180 -1.38279
104 180 -4.15945
105 180 -1.48231
106 180 -3.32424
107 180 -0.229039
109 180 -2.09317
110 180 -1.55803
111 180 -2.49679
112 180 -3.14775
113 180 -3.32424
114 180 -0.3133
115 180 -1.34706
116 180 -3.33435
117 180 -1.38279
118 180 -4.15945
119 180 -0.229039
121 180 -2.09317
122 180 -1.55803
123 180 -2.49679
124 180 -3.14775
125 180 -3.32424
126 180 -0.3133
127 180 -1.34706
128 180 -3.33435
129 180 -1.38279
130 180 -0.229039
132 180 -2.09317
133 180 -1.55803
134 180 -2.49679
135 180 -0.3133
136 180 -1.34706
137 180 -3.33435
138 180 -1.38279
139 180 -4.15945
140 180 -5.31511
142 180 -4.15945
143 180 -2.42256
144 180 -2.42888
145 180 -1.59882
146 180 -3.40257
147 180 -1.59882
148 180 -2.42256
149 180 -2.42888
151 180 -2.78112
152 180 -2.78112
153 180 -1.7487
154 180 -1.70187
155 180 -2.06667
157 180 -2.06667
158 180 -7.83714
159 180 -2.64719
160 180 -12.0487
161 180 479.547
162 180 -12.0487
163 180 479.547
164 180 -8.68986
165 180 -8.68986
166 180 479.547
167 180 -8.68986
168 180 -9533.5
169 180 -8.68986
170 180 -8.68986
171 180 -1533.76
172 180 -8.68986
173 180 -8.68986
174 180 -8.68986
175 180 479.547
176 180 479.547
177 180 -88.8768
178 180 28073.5
180 180 1
