%MatrixMarket matrix coordinate real general
180 180 1475
1 1 4.0232770000000002e+00
2 1 -5.9158599999999995e-01
158 1 -6.3215500000000002e-01
177 1 -9.8104700000000000e-01
178 1 -1.8184890000000000e+00
1 2 -5.6917700000000004e-01
2 2 4.7402319999999998e+00
3 2 -4.0119600000000000e-01
5 2 -3.2173900000000000e-01
177 2 -9.9705500000000002e-01
178 2 -2.4510649999999998e+00
2 3 -4.0154499999999999e-01
3 3 4.8670640000000001e+00
5 3 -7.1152499999999996e-01
6 3 -5.5170300000000005e-01
92 3 -9.5324900000000001e-01
177 3 -7.0638699999999999e-01
178 3 -1.5426540000000000e+00
2 4 -3.3051300000000000e-01
3 4 -7.3415200000000003e-01
4 4 1.0000000000000000e+00
5 4 4.5085790000000001e+00
6 4 -4.0154600000000001e-01
92 4 -7.3205900000000002e-01
177 4 -6.2295100000000003e-01
178 4 -1.6873579999999999e+00
5 5 1.0000000000000000e+00
3 6 -4.9591499999999999e-01
5 6 -4.0130500000000002e-01
6 6 4.8701939999999997e+00
92 6 5.0382000000000003e-02
159 6 -5.6917700000000004e-01
177 6 -9.9694600000000000e-01
178 6 -2.4572330000000000e+00
7 7 1.0000000000000000e+00
7 8 5.1780140000000001e+00
8 8 1.0000000000000000e+00
9 8 -5.3659299999999999e-01
17 8 -1.9327030000000001e+00
177 8 -1.3990370000000001e+00
178 8 -1.3096800000000000e+00
7 9 -5.3752299999999997e-01
9 9 1.9605720000000000e+00
10 9 -5.2123799999999998e-01
178 9 -9.0181199999999995e-01
9 10 -5.3659299999999999e-01
10 10 8.4045850000000009e+00
12 10 -1.1345930000000000e+00
17 10 -1.3961100000000000e+00
177 10 -2.2363350000000000e+00
178 10 -3.1009530000000001e+00
10 11 -1.1792720000000001e+00
11 11 1.0000000000000000e+00
12 11 1.9175947000000001e+01
13 11 -8.9569900000000002e-01
18 11 -9.4851600000000003e-01
85 11 -4.0447730000000002e+00
177 11 -4.9634419999999997e+00
178 11 -7.1442449999999997e+00
12 12 1.0000000000000000e+00
12 13 -7.9864599999999997e-01
13 13 2.2308970000000001e+00
14 13 -5.3494299999999995e-01
18 13 6.9999999999999999e-06
178 13 -8.9731600000000000e-01
13 14 -5.3660399999999997e-01
14 14 2.8256216999999999e+01
15 14 -9.7667380000000001e+00
18 14 -1.9327099999999999e+00
177 14 -7.5507640000000000e+00
178 14 -8.4694009999999995e+00
14 15 -1.0448157000000000e+01
15 15 3.8756630999999999e+01
19 15 -4.8422330000000002e+00
177 15 -1.1506900000000000e+01
178 15 -1.1959341000000000e+01
16 16 5.0363129999999998e+00
17 16 -1.6094880000000000e+00
18 16 -1.8505110000000000e+00
158 16 3.3492600000000000e-01
178 16 -1.9112410000000000e+00
7 17 -1.8680960000000000e+00
10 17 -1.3458220000000001e+00
16 17 -1.8171150000000000e+00
17 17 1.6354498000000000e+01
158 17 -1.9036990000000000e+00
177 17 -3.6853300000000000e+00
178 17 -5.7344350000000004e+00
12 18 -9.4055999999999995e-01
13 18 -9.9999999999999995e-07
14 18 -1.8681749999999999e+00
16 18 -1.8171150000000000e+00
18 18 1.6004928000000000e+01
158 18 -3.7208139999999998e+00
177 18 -3.7410280000000000e+00
178 18 -3.9172349999999998e+00
15 19 -6.0297780000000003e+00
19 19 5.6859358999999998e+01
20 19 -6.5040139999999997e+00
85 19 -3.7909399999999999e-01
86 19 -1.0518198999999999e+01
177 19 -1.7026446000000000e+01
178 19 -1.6401828999999999e+01
19 20 -9.7319980000000008e+00
20 20 7.6007493999999994e+01
88 20 -1.0518198999999999e+01
177 20 -1.2582069000000001e+01
178 20 -4.3175227999999997e+01
21 21 1.1169805999999999e+01
22 21 -4.5930439999999999e+00
177 21 -3.1864949999999999e+00
178 21 -3.3902670000000001e+00
21 22 -4.8134860000000002e+00
22 22 1.6101476999999999e+01
158 22 -1.3365039999999999e+00
177 22 -4.9496490000000000e+00
178 22 -5.0018390000000004e+00
23 23 1.5136029000000001e+01
25 23 -2.7696519999999998e+00
178 23 -1.2366376000000001e+01
24 24 2.4283335999999998e+01
25 24 -2.1455787999999998e+01
26 24 4.7678969999999996e+00
177 24 -7.5954439999999996e+00
23 25 -2.9667330000000001e+00
24 25 -2.5590986000000001e+01
25 25 5.4254683999999997e+01
26 25 -1.4154883999999999e+01
28 25 -7.2060900000000006e-01
177 25 -3.2310770000000000e+00
178 25 -7.5903950000000000e+00
24 26 5.0011479999999997e+00
25 26 -1.4579262999999999e+01
26 26 1.4367488000000000e+01
85 26 -2.2891240000000002e+00
177 26 -2.5002499999999999e+00
27 27 3.5897700200000003e+02
28 27 -4.3157344100000000e+02
29 27 2.0529151500000000e+02
178 27 -1.3269507700000000e+02
25 28 -7.1083399999999997e-01
27 28 -2.9240636000000001e+02
28 28 7.9294228399999997e+02
29 28 -2.2720970800000001e+02
83 28 -3.0164192000000000e+01
85 28 -7.0873299999999995e-01
177 28 -2.8395806000000000e+01
178 28 -2.1334665000000001e+02
27 29 6.6550000000000003e-03
28 29 -3.1413092899999998e+02
29 29 1.5326099850000001e+03
30 29 -3.2794924999999999e+01
84 29 -8.6099599999999998e-01
177 29 -1.1319961160000000e+03
178 29 -5.2833674000000002e+01
29 30 -1.3018150000000000e+01
30 30 1.1866117600000000e+02
87 30 -3.0469892000000002e+01
177 30 -1.4238515000000000e+01
178 30 -6.0934618999999998e+01
31 31 5.0363170000000004e+00
35 31 3.3492499999999997e-01
74 31 -1.6094889999999999e+00
75 31 -1.8505080000000000e+00
178 31 -1.9112439999999999e+00
32 32 2.8705419999999999e+00
34 32 -7.9729300000000003e-01
76 32 -7.7049900000000004e-01
178 32 -1.3027500000000001e+00
33 33 2.5229879999999998e+00
34 33 1.6179600000000000e-01
74 33 -9.0153799999999995e-01
75 33 -7.9864500000000005e-01
178 33 -9.8460099999999995e-01
32 34 -7.9419399999999996e-01
33 34 7.9954999999999998e-02
34 34 1.3492115999999999e+01
74 34 -1.7391690000000000e+00
75 34 -3.8336039999999998e+00
177 34 -3.1274760000000001e+00
178 34 -4.0776279999999998e+00
31 35 1.5915299999999999e-01
35 35 4.4352530000000003e+00
36 35 1.4000000000000000e-05
75 35 -1.6094889999999999e+00
76 35 -1.0886920000000000e+00
178 35 -1.8962390000000000e+00
35 36 -3.0000000000000001e-06
36 36 3.7849992000000000e+01
37 36 -1.8171150000000000e+00
74 36 -1.6289320000000000e+00
75 36 -1.6289320000000000e+00
76 36 -5.2914930000000000e+00
77 36 -3.8371559999999998e+00
177 36 -1.2743345000000000e+01
178 36 -1.0903017000000000e+01
36 37 -1.6094880000000000e+00
37 37 5.0363129999999998e+00
38 37 -1.8505100000000001e+00
76 37 3.3492600000000000e-01
178 37 -1.9112410000000000e+00
37 38 -1.8171150000000000e+00
38 38 2.0120463999999998e+01
39 38 -4.3321990000000001e+00
76 38 -3.7208139999999998e+00
177 38 -5.9299359999999997e+00
178 38 -4.3204010000000004e+00
38 39 -4.4903079999999997e+00
39 39 1.6270392999999999e+01
40 39 -1.9542850000000000e+00
177 39 -4.9300210000000000e+00
178 39 -4.8957800000000002e+00
39 40 -2.0613990000000002e+00
40 40 7.6839130000000004e+00
92 40 -7.1152499999999996e-01
177 40 -2.0317479999999999e+00
178 40 -2.8792420000000001e+00
41 41 5.5374280000000002e+00
42 41 -1.8983980000000000e+00
43 41 2.3607900000000001e-01
85 41 -1.8378440000000000e+00
177 41 -2.0372659999999998e+00
41 42 -1.9072199999999999e+00
42 42 8.7557729999999996e+00
43 42 -2.1494160000000000e+00
73 42 -1.1345930000000000e+00
177 42 -8.4129699999999996e-01
178 42 -2.7232470000000002e+00
41 43 2.2319900000000001e-01
42 43 -2.0745399999999998e+00
43 43 1.2539255000000001e+01
44 43 -2.4955159999999998e+00
85 43 -2.3669599999999999e-01
177 43 -4.0695870000000003e+00
178 43 -3.8861150000000002e+00
43 44 -2.3845139999999998e+00
44 44 1.7265249000000001e+01
74 44 -4.4903079999999997e+00
177 44 -5.3656480000000002e+00
178 44 -5.0247789999999997e+00
45 45 1.0063561999999999e+01
46 45 6.8182699999999996e-01
71 45 -3.7496900000000002e+00
75 45 -3.2311459999999999e+00
178 45 -3.7645520000000001e+00
45 46 3.1753700000000001e-01
46 46 8.8438979999999994e+00
47 46 9.9999999999999995e-07
71 46 -3.2311459999999999e+00
76 46 -2.1998929999999999e+00
178 46 -3.7303959999999998e+00
47 47 7.7546960000000000e+00
72 47 -2.2077559999999998e+00
76 47 -2.1235629999999999e+00
178 47 -3.4233769999999999e+00
48 48 1.4106401999999999e+01
70 48 -8.1052140000000001e+00
177 48 -5.7941299999999996e-01
178 48 -5.4217750000000002e+00
49 49 1.7702071000000000e+01
83 49 -1.0875226000000000e+01
177 49 -6.1650660000000004e+00
178 49 -6.6178000000000003e-01
50 50 3.7194664627999999e+04
51 50 -3.6000000000000000e+04
177 50 -1.1946646280000000e+03
50 51 -3.6000000000000000e+04
51 51 5.4102231614999997e+04
171 51 -2.0599999999999999e-04
178 51 -1.8102231409000000e+04
52 52 3.0995659799999999e+03
171 52 -3.0000100000000002e+03
177 52 -9.9555980000000005e+01
53 53 1.0000000000000000e+00
53 54 1.1177294000000000e+01
54 54 1.0000000000000000e+00
55 54 -4.4903079999999997e+00
177 54 -3.7038519999999999e+00
178 54 -2.9831340000000002e+00
53 55 -4.3321990000000001e+00
55 55 2.0120464999999999e+01
56 55 -1.8171150000000000e+00
72 55 -3.7208139999999998e+00
177 55 -5.9299359999999997e+00
178 55 -4.3204010000000004e+00
55 56 -1.8505100000000001e+00
56 56 5.0363129999999998e+00
60 56 -1.6094880000000000e+00
72 56 3.3492600000000000e-01
178 56 -1.9112410000000000e+00
57 57 2.8705419999999999e+00
59 57 -7.9729300000000003e-01
72 57 -7.7049900000000004e-01
178 57 -1.3027500000000001e+00
58 58 2.5229879999999998e+00
59 58 1.6179600000000000e-01
71 58 -7.9864500000000005e-01
74 58 -9.0153799999999995e-01
178 58 -9.8460099999999995e-01
57 59 -7.9419399999999996e-01
58 59 7.9954999999999998e-02
59 59 1.3492115999999999e+01
71 59 -3.8336039999999998e+00
74 59 -1.7391690000000000e+00
177 59 -3.1274760000000001e+00
178 59 -4.0776279999999998e+00
56 60 -1.8171150000000000e+00
60 60 3.7849992000000000e+01
62 60 -3.0000000000000001e-06
63 60 -3.8371559999999998e+00
71 60 -1.6289320000000000e+00
72 60 -5.2914930000000000e+00
74 60 -1.6289320000000000e+00
177 60 -1.2743345000000000e+01
178 60 -1.0903017000000000e+01
61 61 5.0363170000000004e+00
62 61 3.3492499999999997e-01
71 61 -1.8505080000000000e+00
74 61 -1.6094889999999999e+00
178 61 -1.9112439999999999e+00
60 62 1.4000000000000000e-05
61 62 1.5915299999999999e-01
62 62 4.4352530000000003e+00
71 62 -1.6094889999999999e+00
72 62 -1.0886920000000000e+00
178 62 -1.8962390000000000e+00
60 63 -3.6663899999999998e+00
63 63 1.9650473000000002e+01
64 63 -2.8910410000000000e+00
67 63 6.4114000000000004e-02
177 63 -6.1444099999999997e+00
178 63 -7.0127459999999999e+00
63 64 -2.7907160000000002e+00
64 64 1.7116465999999999e+01
65 64 -3.8371559999999998e+00
177 64 -5.3739309999999998e+00
178 64 -5.1146630000000002e+00
64 65 -3.6663899999999998e+00
65 65 1.0429731000000000e+01
68 65 -3.8939400000000002e-01
177 65 -2.5798079999999999e+00
178 65 -3.7941379999999998e+00
66 66 6.9997509999999998e+00
67 66 -1.9554769999999999e+00
68 66 -6.2422100000000003e-01
177 66 -1.5417600000000000e+00
178 66 -2.8782920000000001e+00
63 67 1.2730700000000000e-01
66 67 -2.0236869999999998e+00
67 67 8.6639630000000007e+00
177 67 -2.8126319999999998e+00
178 67 -3.9549509999999999e+00
65 68 -3.7903700000000001e-01
66 68 -6.0019500000000003e-01
68 68 8.1659980000000001e+00
70 68 -1.3778850000000000e+00
171 68 2.3000000000000000e-05
178 68 -5.8089029999999999e+00
69 69 1.7676245999999999e+01
70 69 6.1490060000000000e+00
83 69 -1.7017001000000000e+01
177 69 -6.1466099999999999e+00
178 69 -6.6164100000000003e-01
48 70 -1.1558327000000000e+01
68 70 -1.8246290000000001e+00
69 70 -5.5500000000000005e-04
70 70 5.3061767499999996e+02
83 70 -4.3337139999999996e+00
171 70 -1.8246169999999999e+00
177 70 -4.7549869999999999e+00
178 70 -5.0632084600000002e+02
45 71 -3.6599469999999998e+00
46 71 -3.6599469999999998e+00
58 71 -8.9569900000000002e-01
59 71 -3.7431489999999998e+00
60 71 -1.6430050000000000e+00
61 71 -1.8171150000000000e+00
62 71 -1.8171150000000000e+00
71 71 4.0039183999999999e+01
72 71 -2.0223529999999998e+00
73 71 -2.8149560000000000e+00
177 71 -8.5708500000000001e+00
178 71 -9.3950479999999992e+00
47 72 -2.1925940000000002e+00
55 72 -3.4965160000000002e+00
56 72 1.5915199999999999e-01
57 72 -7.9419399999999996e-01
60 72 -5.3939640000000004e+00
62 72 -1.0886140000000000e+00
71 72 -2.0988859999999998e+00
72 72 4.3888502000000003e+01
73 72 -6.3359199999999998e+00
177 72 -1.0659973000000001e+01
178 72 -1.1986995000000000e+01
42 73 -1.1792720000000001e+00
71 73 -2.7905570000000002e+00
72 73 -6.1190300000000004e+00
73 73 4.3213011999999999e+01
75 73 -2.7905570000000002e+00
76 73 -3.9904220000000001e+00
177 73 -1.7490257000000000e+01
178 73 -8.8529180000000007e+00
31 74 -1.8171150000000000e+00
33 74 -8.9569900000000002e-01
34 74 -1.8443400000000001e+00
36 74 -1.6430050000000000e+00
44 74 -4.3321990000000001e+00
58 74 -8.9569900000000002e-01
59 74 -1.8443400000000001e+00
60 74 -1.6430050000000000e+00
61 74 -1.8171150000000000e+00
74 74 3.8615896999999997e+01
177 74 -9.9083579999999998e+00
178 74 -1.1975021999999999e+01
31 75 -1.8171150000000000e+00
33 75 -8.9569900000000002e-01
34 75 -3.7431489999999998e+00
35 75 -1.8171150000000000e+00
36 75 -1.6430050000000000e+00
45 75 -3.6599469999999998e+00
73 75 -2.8149560000000000e+00
75 75 4.0039183999999999e+01
76 75 -2.0223529999999998e+00
177 75 -8.5708500000000001e+00
178 75 -1.3054995999999999e+01
32 76 -7.9419399999999996e-01
35 76 -1.0886140000000000e+00
36 76 -5.3939640000000004e+00
37 76 1.5915199999999999e-01
38 76 -3.4965160000000002e+00
46 76 -2.1925940000000002e+00
47 76 -2.1925940000000002e+00
73 76 -4.1433260000000001e+00
75 76 -2.0988859999999998e+00
76 76 4.3938170999999997e+01
177 76 -1.0659973000000001e+01
178 76 -1.2036664000000000e+01
36 77 -3.6663899999999998e+00
77 77 1.9650473000000002e+01
78 77 -2.8910410000000000e+00
81 77 6.4114000000000004e-02
177 77 -6.1444099999999997e+00
178 77 -7.0127459999999999e+00
77 78 -2.7907160000000002e+00
78 78 1.7116465999999999e+01
79 78 -3.8371559999999998e+00
177 78 -5.3739309999999998e+00
178 78 -5.1146630000000002e+00
78 79 -3.6663899999999998e+00
79 79 1.1093464000000001e+01
82 79 -6.8388800000000005e-01
177 79 -3.2651590000000001e+00
178 79 -3.4780259999999998e+00
80 80 6.6180990000000000e+00
81 80 -1.9554769999999999e+00
82 80 -4.7104200000000002e-01
177 80 -2.1122529999999999e+00
178 80 -2.0793270000000001e+00
77 81 1.2730700000000000e-01
80 81 -2.0236869999999998e+00
81 81 8.6639630000000007e+00
177 81 -2.8126319999999998e+00
178 81 -3.9549509999999999e+00
79 82 -6.7154899999999995e-01
80 82 -4.6722200000000003e-01
82 82 1.6365127999999999e+01
83 82 -4.0821509999999996e+00
171 82 7.2700000000000000e-04
177 82 -8.8789339999999992e+00
178 82 -2.2660000000000000e+00
28 83 -2.2119680000000002e+00
49 83 -1.2332651000000000e+01
69 83 -1.2313580000000000e+01
70 83 -9.6607900000000004e+00
82 83 -4.3345219999999998e+00
83 83 5.5005158600000004e+02
171 83 -4.3342179999999999e+00
177 83 -4.9153368200000000e+02
178 83 -1.3330174000000000e+01
29 84 -8.6233400000000004e-01
84 84 2.7830086000000001e+01
85 84 -8.7085500000000007e+00
86 84 -4.7104900000000000e-01
88 84 -4.7104900000000000e-01
171 84 -4.7105399999999997e-01
177 84 -1.0032114000000000e+01
178 84 -6.8139370000000001e+00
12 85 -3.8346290000000001e+00
19 85 -3.8939400000000002e-01
26 85 -2.3320110000000001e+00
28 85 -7.2061699999999995e-01
41 85 -1.9072199999999999e+00
43 85 -2.4219700000000000e-01
84 85 -9.0269359999999992e+00
85 85 4.6039608000000001e+01
177 85 -1.3733463000000000e+01
178 85 -1.3853142000000000e+01
19 86 -1.3573445000000000e+01
84 86 -4.6722799999999998e-01
86 86 6.2895077999999998e+01
87 86 -2.8192000000000000e-01
90 86 -6.7760199999999999e+00
177 86 -2.3224813000000001e+01
178 86 -1.8571650999999999e+01
30 87 -1.0069955999999999e+01
86 87 1.6918979999999999e+00
87 87 7.2482039000000000e+01
88 87 1.6918979999999999e+00
89 87 -1.1197279000000000e+01
90 87 -1.1197279000000000e+01
178 87 -4.3401322000000000e+01
20 88 -1.3573445000000000e+01
84 88 -4.6722799999999998e-01
87 88 -2.8192000000000000e-01
88 88 6.2895077999999998e+01
89 88 -6.7760199999999999e+00
177 88 -2.3224813000000001e+01
178 88 -1.8571650999999999e+01
87 89 -9.4308010000000007e+00
88 89 -8.7487279999999998e+00
89 89 4.6256269000000003e+01
91 89 -6.1115000000000003e-02
162 89 -2.5291750000000000e+00
171 89 -1.2115900999999999e+01
177 89 -3.2019510000000002e+00
178 89 -1.0168597000000000e+01
86 90 -8.7487279999999998e+00
87 90 -9.4308010000000007e+00
90 90 4.6256269000000003e+01
91 90 -6.1115000000000003e-02
160 90 -2.5291750000000000e+00
171 90 -1.2115900999999999e+01
177 90 -3.2019510000000002e+00
178 90 -1.0168597000000000e+01
89 91 3.4045670000000001e+00
90 91 3.4045670000000001e+00
91 91 1.1127985400000000e+02
160 91 -9.9194150000000008e+00
162 91 -9.9194150000000008e+00
168 91 -3.3492668000000002e+01
178 91 -6.4757491000000002e+01
3 92 -9.4415800000000005e-01
5 92 -7.2653100000000004e-01
6 92 9.7543000000000005e-02
40 92 -7.3415200000000003e-01
92 92 6.2242800000000003e+00
177 92 -1.0350619999999999e+00
178 92 -2.8819210000000002e+00
93 93 5.0224299999999999e-01
95 93 -1.6066800000000001e-01
98 93 -1.0057300000000000e-01
178 93 -2.4100300000000000e-01
94 94 5.4439599999999999e-01
95 94 -1.3164899999999999e-01
96 94 -1.3096099999999999e-01
97 94 1.1000000000000000e-05
177 94 -2.8179700000000002e-01
93 95 -1.7085100000000000e-01
94 95 -1.3248199999999999e-01
95 95 4.9132429999999996e+00
96 95 -2.5127200000000000e-01
97 95 -1.1877000000000000e+00
98 95 -2.0098500000000000e-01
104 95 8.3999999999999995e-05
177 95 -8.7604800000000005e-01
178 95 -2.0939890000000001e+00
94 96 -1.3247900000000001e-01
95 96 -2.5408999999999998e-01
96 96 3.8493149999999998e+00
97 96 -3.5246800000000000e-01
98 96 -5.5158900000000000e-01
101 96 -2.1999400000000000e-01
104 96 -2.5405499999999998e-01
177 96 -5.4884699999999997e-01
178 96 -1.5357940000000001e+00
95 97 -1.2278849999999999e+00
96 97 -3.3558199999999999e-01
97 97 6.3388749999999998e+00
98 97 -2.6762599999999998e-01
101 97 2.1845000000000000e-02
103 97 -3.0377500000000002e-01
177 97 -1.7336450000000001e+00
178 97 -2.4922070000000001e+00
93 98 -1.0235400000000000e-01
95 98 -2.0539600000000000e-01
96 98 -5.6804100000000002e-01
97 98 -2.6953899999999997e-01
98 98 7.4837629999999997e+00
99 98 -1.4282850000000000e+00
101 98 -1.6718600000000000e-01
104 98 -2.0539800000000000e-01
177 98 -1.3354999999999999e+00
178 98 -3.2020650000000002e+00
98 99 -1.5031239999999999e+00
99 99 7.9838180000000003e+00
118 99 -1.2897449999999999e+00
177 99 -1.9404619999999999e+00
178 99 -3.2504879999999998e+00
100 100 8.4901000000000004e-01
101 100 4.8058999999999998e-02
102 100 -2.5802100000000000e-01
103 100 -2.7216499999999999e-01
178 100 -3.6688300000000001e-01
96 101 -2.1048200000000000e-01
97 101 3.7326999999999999e-02
98 101 -1.6592999999999999e-01
100 101 2.7133999999999998e-02
101 101 2.4959099999999999e+00
102 101 -2.6935399999999998e-01
103 101 -2.5802100000000000e-01
177 101 -2.8205400000000003e-01
178 101 -1.3745300000000000e+00
100 102 -2.8142099999999998e-01
101 102 -2.7141999999999999e-01
102 102 8.0612759999999994e+00
104 102 -1.5900440000000000e+00
143 102 -5.9158599999999995e-01
177 102 -2.0257130000000001e+00
178 102 -3.3010920000000001e+00
97 103 -3.0614900000000000e-01
100 103 -2.8142099999999998e-01
101 103 -2.8142099999999998e-01
103 103 3.5903220000000000e+00
140 103 -5.3015900000000005e-01
177 103 -8.3836800000000000e-01
178 103 -1.3528039999999999e+00
95 104 -9.9999999999999995e-07
96 104 -2.5214300000000001e-01
98 104 -2.0308599999999999e-01
102 104 -1.6449530000000001e+00
104 104 9.8101640000000003e+00
106 104 -1.3023750000000001e+00
140 104 -1.6506199999999999e-01
177 104 -2.0809430000000000e+00
178 104 -4.1616010000000001e+00
105 105 3.8900480000000002e+00
106 105 -1.4282850000000000e+00
177 105 -9.1187900000000000e-01
178 105 -1.5498840000000000e+00
104 106 -1.2897449999999999e+00
105 106 -1.5031239999999999e+00
106 106 7.9838180000000003e+00
177 106 -1.9404619999999999e+00
178 106 -3.2504879999999998e+00
107 107 5.0224299999999999e-01
109 107 -1.6066800000000001e-01
112 107 -1.0057300000000000e-01
178 107 -2.4100300000000000e-01
108 108 5.4439599999999999e-01
109 108 -1.3164899999999999e-01
110 108 -1.3096099999999999e-01
111 108 1.1000000000000000e-05
177 108 -2.8179700000000002e-01
107 109 -1.7085100000000000e-01
108 109 -1.3248199999999999e-01
109 109 4.9132429999999996e+00
110 109 -2.5127200000000000e-01
111 109 -1.1877000000000000e+00
112 109 -2.0098500000000000e-01
118 109 8.3999999999999995e-05
177 109 -8.7604800000000005e-01
178 109 -2.0939890000000001e+00
108 110 -1.3247900000000001e-01
109 110 -2.5408999999999998e-01
110 110 3.8493149999999998e+00
111 110 -3.5246800000000000e-01
112 110 -5.5158900000000000e-01
115 110 -2.1999400000000000e-01
118 110 -2.5405499999999998e-01
177 110 -5.4884699999999997e-01
178 110 -1.5357940000000001e+00
109 111 -1.2278849999999999e+00
110 111 -3.3558199999999999e-01
111 111 6.3388749999999998e+00
112 111 -2.6762599999999998e-01
115 111 2.1845000000000000e-02
117 111 -3.0377500000000002e-01
177 111 -1.7336450000000001e+00
178 111 -2.4922070000000001e+00
107 112 -1.0235400000000000e-01
109 112 -2.0539600000000000e-01
110 112 -5.6804100000000002e-01
111 112 -2.6953899999999997e-01
112 112 7.4837629999999997e+00
113 112 -1.4282850000000000e+00
115 112 -1.6718600000000000e-01
118 112 -2.0539800000000000e-01
177 112 -1.3354999999999999e+00
178 112 -3.2020650000000002e+00
112 113 -1.5031239999999999e+00
113 113 7.9838180000000003e+00
142 113 -1.2897449999999999e+00
177 113 -1.9404619999999999e+00
178 113 -3.2504879999999998e+00
114 114 8.4901000000000004e-01
115 114 4.8058999999999998e-02
116 114 -2.5802100000000000e-01
117 114 -2.7216499999999999e-01
178 114 -3.6688300000000001e-01
110 115 -2.1048200000000000e-01
111 115 3.7326999999999999e-02
112 115 -1.6592999999999999e-01
114 115 2.7133999999999998e-02
115 115 2.4959099999999999e+00
116 115 -2.6935399999999998e-01
117 115 -2.5802100000000000e-01
177 115 -2.8205400000000003e-01
178 115 -1.3745300000000000e+00
114 116 -2.8142099999999998e-01
115 116 -2.7141999999999999e-01
116 116 8.0612759999999994e+00
118 116 -1.5900440000000000e+00
144 116 -5.9158599999999995e-01
177 116 -2.0257130000000001e+00
178 116 -3.3010920000000001e+00
111 117 -3.0614900000000000e-01
114 117 -2.8142099999999998e-01
115 117 -2.8142099999999998e-01
117 117 3.5903220000000000e+00
140 117 -5.3015900000000005e-01
177 117 -8.3836800000000000e-01
178 117 -1.3528039999999999e+00
99 118 -1.3023750000000001e+00
109 118 -9.9999999999999995e-07
110 118 -2.5214300000000001e-01
112 118 -2.0308599999999999e-01
116 118 -1.6449530000000001e+00
118 118 9.8101640000000003e+00
140 118 -1.6506199999999999e-01
177 118 -2.0809430000000000e+00
178 118 -4.1616010000000001e+00
119 119 5.0224299999999999e-01
121 119 -1.6066800000000001e-01
124 119 -1.0057300000000000e-01
178 119 -2.4100300000000000e-01
120 120 5.4440000000000000e-01
121 120 -1.3164899999999999e-01
122 120 -1.3096099999999999e-01
123 120 1.1000000000000000e-05
177 120 -2.8179999999999999e-01
119 121 -1.7085100000000000e-01
120 121 -1.3248199999999999e-01
121 121 4.9132429999999996e+00
122 121 -2.5127200000000000e-01
123 121 -1.1877000000000000e+00
124 121 -2.0098500000000000e-01
142 121 8.3999999999999995e-05
177 121 -8.7604800000000005e-01
178 121 -2.0939890000000001e+00
120 122 -1.3247900000000001e-01
121 122 -2.5408999999999998e-01
122 122 3.8493149999999998e+00
123 122 -3.5246800000000000e-01
124 122 -5.5158900000000000e-01
127 122 -2.1999400000000000e-01
142 122 -2.5405499999999998e-01
177 122 -5.4884699999999997e-01
178 122 -1.5357940000000001e+00
121 123 -1.2278849999999999e+00
122 123 -3.3558199999999999e-01
123 123 6.3388749999999998e+00
124 123 -2.6762599999999998e-01
127 123 2.1845000000000000e-02
129 123 -3.0377500000000002e-01
177 123 -1.7336450000000001e+00
178 123 -2.4922070000000001e+00
119 124 -1.0235400000000000e-01
121 124 -2.0539600000000000e-01
122 124 -5.6804100000000002e-01
123 124 -2.6953899999999997e-01
124 124 7.4837629999999997e+00
125 124 -1.4282850000000000e+00
127 124 -1.6718600000000000e-01
142 124 -2.0539800000000000e-01
177 124 -1.3354999999999999e+00
178 124 -3.2020650000000002e+00
124 125 -1.5031239999999999e+00
125 125 7.9838180000000003e+00
139 125 -1.2897449999999999e+00
177 125 -1.9404619999999999e+00
178 125 -3.2504879999999998e+00
126 126 8.4901000000000004e-01
127 126 4.8058999999999998e-02
128 126 -2.5802100000000000e-01
129 126 -2.7216499999999999e-01
178 126 -3.6688300000000001e-01
122 127 -2.1048200000000000e-01
123 127 3.7326999999999999e-02
124 127 -1.6592999999999999e-01
126 127 2.7133999999999998e-02
127 127 2.4959099999999999e+00
128 127 -2.6935399999999998e-01
129 127 -2.5802100000000000e-01
177 127 -2.8205400000000003e-01
178 127 -1.3745300000000000e+00
126 128 -2.8142099999999998e-01
127 128 -2.7141999999999999e-01
128 128 8.0612759999999994e+00
142 128 -1.5900440000000000e+00
148 128 -5.9158599999999995e-01
177 128 -2.0257130000000001e+00
178 128 -3.3010920000000001e+00
123 129 -3.0614900000000000e-01
126 129 -2.8142099999999998e-01
127 129 -2.8142099999999998e-01
129 129 3.5903220000000000e+00
140 129 -5.3015900000000005e-01
177 129 -8.3836800000000000e-01
178 129 -1.3528039999999999e+00
130 130 5.0224299999999999e-01
132 130 -1.6066800000000001e-01
158 130 -1.0057300000000000e-01
178 130 -2.4100300000000000e-01
131 131 5.4439599999999999e-01
132 131 -1.3164899999999999e-01
133 131 -1.3096099999999999e-01
134 131 1.1000000000000000e-05
177 131 -2.8179700000000002e-01
130 132 -1.7085100000000000e-01
131 132 -1.3248199999999999e-01
132 132 4.9132429999999996e+00
133 132 -2.5127200000000000e-01
134 132 -1.1877000000000000e+00
139 132 8.3999999999999995e-05
158 132 -2.0098500000000000e-01
177 132 -8.7604800000000005e-01
178 132 -2.0939890000000001e+00
131 133 -1.3247900000000001e-01
132 133 -2.5408999999999998e-01
133 133 3.8493149999999998e+00
134 133 -3.5246800000000000e-01
136 133 -2.1999400000000000e-01
139 133 -2.5405499999999998e-01
158 133 -5.5158900000000000e-01
177 133 -5.4884699999999997e-01
178 133 -1.5357940000000001e+00
132 134 -1.2278849999999999e+00
133 134 -3.3558199999999999e-01
134 134 6.3388749999999998e+00
136 134 2.1845000000000000e-02
138 134 -3.0377500000000002e-01
158 134 -2.6762599999999998e-01
177 134 -1.7336450000000001e+00
178 134 -2.4922070000000001e+00
135 135 8.4901000000000004e-01
136 135 4.8058999999999998e-02
137 135 -2.5802100000000000e-01
138 135 -2.7216499999999999e-01
178 135 -3.6688300000000001e-01
133 136 -2.1048200000000000e-01
134 136 3.7326999999999999e-02
135 136 2.7133999999999998e-02
136 136 2.4959099999999999e+00
137 136 -2.6935399999999998e-01
138 136 -2.5802100000000000e-01
158 136 -1.6592999999999999e-01
177 136 -2.8205400000000003e-01
178 136 -1.3745300000000000e+00
135 137 -2.8142099999999998e-01
136 137 -2.7141999999999999e-01
137 137 8.0612759999999994e+00
139 137 -1.5900440000000000e+00
149 137 -5.9158599999999995e-01
177 137 -2.0257130000000001e+00
178 137 -3.3010920000000001e+00
134 138 -3.0614900000000000e-01
135 138 -2.8142099999999998e-01
136 138 -2.8142099999999998e-01
138 138 3.5903220000000000e+00
140 138 -5.3015900000000005e-01
177 138 -8.3836800000000000e-01
178 138 -1.3528039999999999e+00
125 139 -1.3023750000000001e+00
132 139 -9.9999999999999995e-07
133 139 -2.5214300000000001e-01
137 139 -1.6449530000000001e+00
139 139 9.8101640000000003e+00
140 139 -1.6506199999999999e-01
158 139 -2.0308599999999999e-01
177 139 -2.0809430000000000e+00
178 139 -4.1616010000000001e+00
140 140 1.0000000000000000e+00
103 141 -5.4596100000000003e-01
104 141 -1.6859299999999999e-01
117 141 -5.4596100000000003e-01
118 141 -1.6859299999999999e-01
129 141 -5.4596100000000003e-01
138 141 -5.4596100000000003e-01
139 141 -1.6859299999999999e-01
140 141 9.7496329999999993e+00
141 141 1.0000000000000000e+00
142 141 -1.6859299999999999e-01
177 141 -1.6011320000000000e+00
178 141 -5.2902849999999999e+00
113 142 -1.3023750000000001e+00
121 142 -9.9999999999999995e-07
122 142 -2.5214300000000001e-01
124 142 -2.0308599999999999e-01
128 142 -1.6449530000000001e+00
140 142 -1.6506199999999999e-01
142 142 9.8101640000000003e+00
177 142 -2.0809430000000000e+00
178 142 -4.1616010000000001e+00
102 143 -5.6917700000000004e-01
143 143 4.7402319999999998e+00
145 143 -4.0119600000000000e-01
146 143 -3.2173900000000000e-01
177 143 -9.9705500000000002e-01
178 143 -2.4510649999999998e+00
116 144 -5.6917700000000004e-01
144 144 4.9173549999999997e+00
145 144 -5.4799600000000004e-01
146 144 -4.0130500000000002e-01
152 144 9.7543000000000005e-02
177 144 -9.9694600000000000e-01
178 144 -2.4994730000000001e+00
143 145 -4.0154499999999999e-01
144 145 -5.5170300000000005e-01
145 145 4.8670640000000001e+00
146 145 -7.1152499999999996e-01
152 145 -9.5324900000000001e-01
177 145 -7.0638699999999999e-01
178 145 -1.5426540000000000e+00
146 146 1.0000000000000000e+00
146 147 -7.1152499999999996e-01
147 147 4.8670640000000001e+00
148 147 -4.0154499999999999e-01
149 147 -5.5170300000000005e-01
151 147 -9.5324900000000001e-01
177 147 -7.0638699999999999e-01
178 147 -1.5426540000000000e+00
128 148 -5.6917700000000004e-01
146 148 -3.2173900000000000e-01
147 148 -4.0119600000000000e-01
148 148 4.7402319999999998e+00
177 148 -9.9705500000000002e-01
178 148 -2.4510649999999998e+00
137 149 -5.6917700000000004e-01
146 149 -4.0130500000000002e-01
147 149 -5.4799600000000004e-01
149 149 4.9173549999999997e+00
151 149 9.7543000000000005e-02
177 149 -9.9694600000000000e-01
178 149 -2.4994730000000001e+00
143 150 -3.3051300000000000e-01
144 150 -4.0154600000000001e-01
145 150 -7.3415200000000003e-01
146 150 9.0171589999999995e+00
147 150 -7.3415200000000003e-01
148 150 -3.3051300000000000e-01
149 150 -4.0154600000000001e-01
150 150 1.0000000000000000e+00
151 150 -7.3205900000000002e-01
152 150 -7.3205900000000002e-01
177 150 -1.2459020000000001e+00
178 150 -3.3747170000000000e+00
146 151 -7.2653100000000004e-01
147 151 -8.9207599999999998e-01
149 151 5.0382000000000003e-02
151 151 5.9799199999999999e+00
155 151 -6.5186299999999997e-01
177 151 -9.7103899999999999e-01
178 151 -2.7887940000000002e+00
144 152 5.0382000000000003e-02
145 152 -8.9207599999999998e-01
146 152 -7.2653100000000004e-01
152 152 5.9799199999999999e+00
157 152 -6.5186299999999997e-01
177 152 -9.7103899999999999e-01
178 152 -2.7887940000000002e+00
153 153 1.0000000000000000e+00
153 154 -6.3924000000000003e-01
154 154 4.6459530000000004e+00
155 154 -3.3051300000000000e-01
157 154 -5.9111100000000005e-01
159 154 -9.2162500000000003e-01
177 154 -4.4168900000000000e-01
178 154 -1.7217739999999999e+00
151 155 -6.3215500000000002e-01
153 155 -3.9939799999999998e-01
154 155 -3.3582400000000001e-01
155 155 4.8811929999999997e+00
159 155 -1.9999999999999999e-06
177 155 -1.4496720000000001e+00
178 155 -2.0641409999999998e+00
153 156 4.4026969999999999e+00
154 156 -6.6571100000000005e-01
155 156 -4.0160600000000002e-01
156 156 1.0000000000000000e+00
157 156 -3.3051300000000000e-01
159 156 -7.3211899999999996e-01
177 156 -5.4962800000000001e-01
178 156 -1.7231200000000000e+00
152 157 -6.3215500000000002e-01
153 157 -3.3383000000000002e-01
154 157 -5.8633100000000005e-01
157 157 5.0320910000000003e+00
159 157 7.2131000000000001e-02
177 157 -1.4857700000000000e+00
178 157 -2.0661350000000001e+00
1 158 -6.5186299999999997e-01
16 158 1.5915199999999999e-01
17 158 -1.8870279999999999e+00
18 158 -3.4965160000000002e+00
22 158 -1.3827510000000001e+00
130 158 -1.0235400000000000e-01
132 158 -2.0539600000000000e-01
133 158 -5.6804100000000002e-01
134 158 -2.6953899999999997e-01
136 158 -1.6718600000000000e-01
139 158 -2.0539800000000000e-01
158 158 2.0674927000000000e+01
177 158 -4.0505630000000004e+00
178 158 -7.8474449999999996e+00
6 159 -5.9158599999999995e-01
153 159 -7.2347399999999995e-01
154 159 -8.9256400000000002e-01
155 159 3.6999999999999998e-05
157 159 6.9800000000000001e-02
159 159 5.9188340000000004e+00
177 159 -1.1392789999999999e+00
178 159 -2.6417670000000002e+00
90 160 -5.8870940000000003e+00
91 160 -7.4855590000000003e+00
160 160 5.4746219000000004e+01
161 160 -7.4855590000000003e+00
163 160 -6.1115000000000003e-02
165 160 -2.5291750000000000e+00
169 160 -5.8870940000000003e+00
171 160 -1.2115900999999999e+01
177 160 -3.2019510000000002e+00
178 160 -1.0092770000000000e+01
160 161 -9.9194150000000008e+00
161 161 1.1127985400000000e+02
162 161 -9.9194150000000008e+00
168 161 -3.3492668000000002e+01
169 161 3.4045670000000001e+00
173 161 3.4045670000000001e+00
178 161 -6.4757491000000002e+01
89 162 -5.8870940000000003e+00
91 162 -7.4855590000000003e+00
161 162 -7.4855590000000003e+00
162 162 5.4746219000000004e+01
163 162 -6.1115000000000003e-02
164 162 -2.5291750000000000e+00
171 162 -1.2115900999999999e+01
173 162 -5.8870940000000003e+00
177 162 -3.2019510000000002e+00
178 162 -1.0092770000000000e+01
160 163 3.4045670000000001e+00
162 163 3.4045670000000001e+00
163 163 1.1127985400000000e+02
164 163 -9.9194150000000008e+00
165 163 -9.9194150000000008e+00
168 163 -3.3492668000000002e+01
178 163 -6.4757491000000002e+01
162 164 -5.8870940000000003e+00
163 164 -7.4855590000000003e+00
164 164 3.8938831000000000e+01
166 164 -6.1115000000000003e-02
171 164 -1.2115900999999999e+01
172 164 -2.5291750000000000e+00
177 164 -3.2019510000000002e+00
178 164 -7.6580349999999999e+00
160 165 -5.8870940000000003e+00
163 165 -7.4855590000000003e+00
165 165 3.8938831000000000e+01
166 165 -6.1115000000000003e-02
167 165 -2.5291750000000000e+00
171 165 -1.2115900999999999e+01
177 165 -3.2019510000000002e+00
178 165 -7.6580349999999999e+00
164 166 3.4045670000000001e+00
165 166 3.4045670000000001e+00
166 166 1.1127985400000000e+02
167 166 -9.9194150000000008e+00
168 166 -3.3492668000000002e+01
172 166 -9.9194150000000008e+00
178 166 -6.4757491000000002e+01
165 167 -5.8870940000000003e+00
166 167 -7.4855590000000003e+00
167 167 3.8938831000000000e+01
170 167 -2.5291750000000000e+00
171 167 -1.2115900999999999e+01
175 167 -6.1115000000000003e-02
177 167 -3.2019510000000002e+00
178 167 -7.6580349999999999e+00
91 168 -5.7573349800000005e+02
161 168 -5.7573349800000005e+02
163 168 -5.7573349800000005e+02
166 168 -5.7573349800000005e+02
168 168 9.7399268470000006e+03
171 168 -2.6273049999999998e+00
175 168 -5.7573349800000005e+02
176 168 -5.7573349800000005e+02
177 168 -2.8418939999999999e+00
178 168 -6.2800566609999996e+03
160 169 -2.5291750000000000e+00
161 169 -6.1115000000000003e-02
169 169 3.8938831000000000e+01
170 169 -5.8870940000000003e+00
171 169 -1.2115900999999999e+01
176 169 -7.4855590000000003e+00
177 169 -3.2019510000000002e+00
178 169 -7.6580349999999999e+00
167 170 -5.8870940000000003e+00
169 170 -2.5291750000000000e+00
170 170 3.8938831000000000e+01
171 170 -1.2115900999999999e+01
175 170 -7.4855590000000003e+00
176 170 -6.1115000000000003e-02
177 170 -3.2019510000000002e+00
178 170 -7.6580349999999999e+00
51 171 -2.0599999999999999e-04
52 171 -3.0000100000000002e+03
70 171 -1.8235950000000001e+00
82 171 9.9999999999999995e-07
83 171 -4.3329279999999999e+00
84 171 -4.6723300000000001e-01
89 171 -1.8822880000000001e+01
90 171 -1.8822880000000001e+01
160 171 -1.8822880000000001e+01
162 171 -1.8822880000000001e+01
164 171 -1.8822880000000001e+01
165 171 -1.8822880000000001e+01
167 171 -1.8822880000000001e+01
168 171 -1.2608165000000000e+01
169 171 -1.8822880000000001e+01
170 171 -1.8822880000000001e+01
171 171 5.0573884360000002e+03
172 171 -1.8822880000000001e+01
173 171 -1.8822880000000001e+01
174 171 -1.8822880000000001e+01
177 171 -2.7750980700000002e+02
178 171 -1.5337619480000001e+03
164 172 -5.8870940000000003e+00
166 172 -7.4855590000000003e+00
171 172 -1.2115900999999999e+01
172 172 3.8938831000000000e+01
174 172 -2.5291750000000000e+00
175 172 -6.1115000000000003e-02
177 172 -3.2019510000000002e+00
178 172 -7.6580349999999999e+00
161 173 -6.1115000000000003e-02
162 173 -2.5291750000000000e+00
171 173 -1.2115900999999999e+01
173 173 3.8938831000000000e+01
174 173 -5.8870940000000003e+00
176 173 -7.4855590000000003e+00
177 173 -3.2019510000000002e+00
178 173 -7.6580349999999999e+00
171 174 -1.2115900999999999e+01
172 174 -5.8870940000000003e+00
173 174 -2.5291750000000000e+00
174 174 3.8938831000000000e+01
175 174 -7.4855590000000003e+00
176 174 -6.1115000000000003e-02
177 174 -3.2019510000000002e+00
178 174 -7.6580349999999999e+00
167 175 3.4045670000000001e+00
168 175 -3.3492668000000002e+01
170 175 -9.9194150000000008e+00
172 175 3.4045670000000001e+00
174 175 -9.9194150000000008e+00
175 175 1.1127985400000000e+02
178 175 -6.4757491000000002e+01
168 176 -3.3492668000000002e+01
169 176 -9.9194150000000008e+00
170 176 3.4045670000000001e+00
173 176 -9.9194150000000008e+00
174 176 3.4045670000000001e+00
176 176 1.1127985400000000e+02
178 176 -6.4757491000000002e+01
177 177 1.0000000000000000e+00
178 178 1.0000000000000000e+00
1 179 -9.6680600000000005e-01
2 179 -9.9402199999999996e-01
3 179 -6.9281899999999996e-01
5 179 -6.4619599999999999e-01
6 179 -9.9402199999999996e-01
7 179 -1.4493240000000001e+00
10 179 -2.2800600000000002e+00
12 179 -4.9989090000000003e+00
14 179 -7.4387270000000001e+00
15 179 -1.1078920999999999e+01
17 179 -3.6014260000000000e+00
18 179 -3.6994509999999998e+00
19 179 -1.4561507000000001e+01
20 179 -9.5268219999999992e+00
21 179 -3.1589350000000000e+00
22 179 -4.9364610000000004e+00
24 179 -3.6934979999999999e+00
25 179 -6.9418959999999998e+00
26 179 -2.6484890000000001e+00
28 179 2.4185831300000001e+02
29 179 -1.4220256720000000e+03
30 179 5.5382590000000000e+00
34 179 -3.1877749999999998e+00
36 179 -1.2665518000000000e+01
38 179 -5.8104079999999998e+00
39 179 -5.0561579999999999e+00
40 179 -2.0225070000000001e+00
41 179 -1.9461880000000000e+00
42 179 -9.1293100000000005e-01
43 179 -4.0270400000000004e+00
44 179 -5.4878980000000004e+00
48 179 -6.4978499999999995e-01
49 179 -4.6766459999999999e+00
50 179 -1.1946646280000000e+03
52 179 -9.9555980000000005e+01
53 179 -3.8400509999999999e+00
55 179 -5.8104079999999998e+00
59 179 -3.1877749999999998e+00
60 179 -1.2665518000000000e+01
63 179 -6.2832090000000003e+00
64 179 -5.3099660000000002e+00
65 179 -2.5576930000000000e+00
66 179 -1.4867010000000001e+00
67 179 -2.8622010000000002e+00
69 179 -4.6693499999999997e+00
70 179 -5.5774730000000003e+00
71 179 -8.4643730000000001e+00
72 179 -1.0944535999999999e+01
73 179 -1.7142213000000002e+01
74 179 -9.8165399999999998e+00
75 179 -8.4643730000000001e+00
76 179 -1.0944535999999999e+01
77 179 -6.2832090000000003e+00
78 179 -5.3099660000000002e+00
79 179 -3.2553830000000001e+00
80 179 -2.0610140000000001e+00
81 179 -2.8622010000000002e+00
82 179 -8.6096760000000003e+00
83 179 -4.9386842400000000e+02
84 179 -9.7846010000000003e+00
85 179 -1.4085089999999999e+01
86 179 -2.6276239000000000e+01
88 179 -2.6276239000000000e+01
89 179 3.5050270000000001e+00
90 179 3.5050270000000001e+00
92 179 -1.0452770000000000e+00
94 179 -2.7943499999999999e-01
95 179 -8.4038000000000002e-01
96 179 -5.4280099999999998e-01
97 179 -1.7635650000000000e+00
98 179 -1.3430979999999999e+00
99 179 -1.9289190000000001e+00
101 179 -2.7873300000000001e-01
102 179 -1.9854220000000000e+00
103 179 -8.2761499999999999e-01
104 179 -2.1429659999999999e+00
105 179 -9.0461599999999998e-01
106 179 -1.9289190000000001e+00
108 179 -2.7943499999999999e-01
109 179 -8.4038000000000002e-01
110 179 -5.4280099999999998e-01
111 179 -1.7635650000000000e+00
112 179 -1.3430979999999999e+00
113 179 -1.9289190000000001e+00
115 179 -2.7873300000000001e-01
116 179 -1.9854220000000000e+00
117 179 -8.2761499999999999e-01
118 179 -2.1429659999999999e+00
120 179 -2.7943800000000002e-01
121 179 -8.4038000000000002e-01
122 179 -5.4280099999999998e-01
123 179 -1.7635650000000000e+00
124 179 -1.3430979999999999e+00
125 179 -1.9289190000000001e+00
127 179 -2.7873300000000001e-01
128 179 -1.9854220000000000e+00
129 179 -8.2761499999999999e-01
131 179 -2.7943499999999999e-01
132 179 -8.4038000000000002e-01
133 179 -5.4280099999999998e-01
134 179 -1.7635650000000000e+00
136 179 -2.7873300000000001e-01
137 179 -1.9854220000000000e+00
138 179 -8.2761499999999999e-01
139 179 -2.1429659999999999e+00
140 179 -1.6536390000000001e+00
142 179 -2.1429659999999999e+00
143 179 -9.9402199999999996e-01
144 179 -9.9402199999999996e-01
145 179 -6.9281899999999996e-01
146 179 -1.2923929999999999e+00
147 179 -6.9281899999999996e-01
148 179 -9.9402199999999996e-01
149 179 -9.9402199999999996e-01
151 179 -9.7887700000000000e-01
152 179 -9.7887700000000000e-01
153 179 -5.5805000000000005e-01
154 179 -4.6365299999999998e-01
155 179 -1.4305790000000000e+00
157 179 -1.4617340000000001e+00
158 179 -4.0897530000000000e+00
159 179 -1.1208570000000000e+00
160 179 3.5050270000000001e+00
162 179 3.5050270000000001e+00
164 179 3.5050270000000001e+00
165 179 3.5050270000000001e+00
167 179 3.5050270000000001e+00
168 179 7.1389659999999999e+00
169 179 3.5050270000000001e+00
170 179 3.5050270000000001e+00
171 179 -3.6797001999999998e+02
172 179 3.5050270000000001e+00
173 179 3.5050270000000001e+00
174 179 3.5050270000000001e+00
177 179 3.7935290829999999e+03
178 179 -8.8729866000000001e+01
179 179 1.0000000000000000e+00
1 180 -1.8354320000000000e+00
2 180 -2.4225650000000001e+00
3 180 -1.5988249999999999e+00
5 180 -1.7012830000000001e+00
6 180 -2.4288799999999999e+00
7 180 -1.3230710000000001e+00
9 180 -8.8738499999999998e-01
10 180 -3.0781930000000002e+00
12 180 -7.4686100000000000e+00
13 180 -7.9859300000000000e-01
14 180 -7.9662139999999999e+00
15 180 -1.1881194000000001e+01
16 180 -1.5612360000000001e+00
17 180 -5.9277420000000003e+00
18 180 -4.0772329999999997e+00
19 180 -1.3760781000000000e+01
20 180 -4.6403212000000003e+01
21 180 -3.1973850000000001e+00
22 180 -5.1892199999999997e+00
23 180 -1.2169295999999999e+01
25 180 -7.7972489999999999e+00
27 180 -6.6577297000000002e+01
28 180 -2.8544303300000001e+02
29 180 -7.4785636999999994e+01
30 180 -8.1334553999999997e+01
31 180 -1.5612400000000000e+00
32 180 -1.2821549999999999e+00
33 180 -8.1154599999999999e-01
34 180 -4.0813550000000003e+00
35 180 -1.8644470000000000e+00
36 180 -1.1228637000000001e+01
37 180 -1.5612360000000001e+00
38 180 -4.4727220000000001e+00
39 180 -4.8206369999999996e+00
40 180 -2.9729700000000001e+00
42 180 -2.6906319999999999e+00
43 180 -3.9721669999999998e+00
44 180 -4.9496359999999999e+00
45 180 -3.0612040000000000e+00
46 180 -3.6731829999999999e+00
47 180 -3.3695089999999999e+00
48 180 -1.8982910000000000e+00
49 180 -6.9277400000000000e-01
51 180 -1.8102231409000000e+04
53 180 -3.0050450000000000e+00
55 180 -4.4727220000000001e+00
56 180 -1.5612360000000001e+00
57 180 -1.2821549999999999e+00
58 180 -8.1154599999999999e-01
59 180 -4.0813550000000003e+00
60 180 -1.1228637000000001e+01
61 180 -1.5612400000000000e+00
62 180 -1.8644470000000000e+00
63 180 -6.8666989999999997e+00
64 180 -5.2490680000000003e+00
65 180 -3.6558440000000001e+00
66 180 -2.8891680000000002e+00
67 180 -3.9103990000000000e+00
68 180 -5.3277549999999998e+00
69 180 -6.9276099999999996e-01
70 180 -5.1022172399999999e+02
71 180 -9.9833540000000003e+00
72 180 -1.2058256000000000e+01
73 180 -8.8270490000000006e+00
74 180 -1.2550792000000000e+01
75 180 -1.3733045000000001e+01
76 180 -1.2120834000000000e+01
77 180 -6.8666989999999997e+00
78 180 -5.2490680000000003e+00
79 180 -3.3293759999999999e+00
80 180 -2.0661770000000002e+00
81 180 -3.9103990000000000e+00
82 180 -2.2660000000000000e+00
83 180 1.4622050000000000e+01
84 180 -6.7558639999999999e+00
85 180 -1.3749703999999999e+01
86 180 -1.8572761000000000e+01
87 180 -2.2586704999999998e+01
88 180 -1.8572761000000000e+01
89 180 -1.0482590999999999e+01
90 180 -1.0482590999999999e+01
91 180 4.7954699299999999e+02
92 180 -2.8325529999999999e+00
93 180 -2.2903899999999999e-01
95 180 -2.0931739999999999e+00
96 180 -1.5580330000000000e+00
97 180 -2.4967910000000000e+00
98 180 -3.1477529999999998e+00
99 180 -3.3242389999999999e+00
100 180 -3.1330000000000002e-01
101 180 -1.3470620000000000e+00
102 180 -3.3343500000000001e+00
103 180 -1.3827860000000001e+00
104 180 -4.1594480000000003e+00
105 180 -1.4823080000000000e+00
106 180 -3.3242389999999999e+00
107 180 -2.2903899999999999e-01
109 180 -2.0931739999999999e+00
110 180 -1.5580330000000000e+00
111 180 -2.4967910000000000e+00
112 180 -3.1477529999999998e+00
113 180 -3.3242389999999999e+00
114 180 -3.1330000000000002e-01
115 180 -1.3470620000000000e+00
116 180 -3.3343500000000001e+00
117 180 -1.3827860000000001e+00
118 180 -4.1594480000000003e+00
119 180 -2.2903899999999999e-01
121 180 -2.0931739999999999e+00
122 180 -1.5580330000000000e+00
123 180 -2.4967910000000000e+00
124 180 -3.1477529999999998e+00
125 180 -3.3242389999999999e+00
126 180 -3.1330000000000002e-01
127 180 -1.3470620000000000e+00
128 180 -3.3343500000000001e+00
129 180 -1.3827860000000001e+00
130 180 -2.2903899999999999e-01
132 180 -2.0931739999999999e+00
133 180 -1.5580330000000000e+00
134 180 -2.4967910000000000e+00
135 180 -3.1330000000000002e-01
136 180 -1.3470620000000000e+00
137 180 -3.3343500000000001e+00
138 180 -1.3827860000000001e+00
139 180 -4.1594480000000003e+00
140 180 -5.3151109999999999e+00
142 180 -4.1594480000000003e+00
143 180 -2.4225650000000001e+00
144 180 -2.4288799999999999e+00
145 180 -1.5988249999999999e+00
146 180 -3.4025660000000002e+00
147 180 -1.5988249999999999e+00
148 180 -2.4225650000000001e+00
149 180 -2.4288799999999999e+00
151 180 -2.7811230000000000e+00
152 180 -2.7811230000000000e+00
153 180 -1.7487040000000000e+00
154 180 -1.7018700000000000e+00
155 180 -2.0666690000000001e+00
157 180 -2.0666690000000001e+00
158 180 -7.8371399999999998e+00
159 180 -2.6471849999999999e+00
160 180 -1.2048660999999999e+01
161 180 4.7954699299999999e+02
162 180 -1.2048660999999999e+01
163 180 4.7954699299999999e+02
164 180 -8.6898619999999998e+00
165 180 -8.6898619999999998e+00
166 180 4.7954699299999999e+02
167 180 -8.6898619999999998e+00
168 180 -9.5335016400000004e+03
169 180 -8.6898619999999998e+00
170 180 -8.6898619999999998e+00
171 180 -1.5337609480000001e+03
172 180 -8.6898619999999998e+00
173 180 -8.6898619999999998e+00
174 180 -8.6898619999999998e+00
175 180 4.7954699299999999e+02
176 180 4.7954699299999999e+02
177 180 -8.8876808999999994e+01
178 180 2.8073467004999999e+04
180 180 1.0000000000000000e+00
