%MatrixMarket matrix coordinate real general
430 430 1544
1 1 1.0000000000000000e+00
2 2 1.0000000000000000e+00
3 3 1.0000000000000000e+00
424 3 -4.6511627906976997e+02
425 3 -1.0000000000000000e+00
4 4 1.0000000000000000e+05
8 4 -1.0000000000000000e+05
425 4 -1.1800000000000001e-30
5 5 1.0000000000000000e+00
7 5 -3.6351359299502001e+03
6 6 8.3333333333333002e+00
9 6 1.0000000000000000e+00
10 6 -8.3333333333333002e+00
6 7 -8.3333333333333002e+00
7 7 1.0000000000000000e+00
8 7 -6.2500000000000003e-03
10 7 8.3395833333332998e+00
396 7 -2.0000000000000002e-31
6 8 1.0000000000000000e+00
8 8 -1.0000000000000000e+00
4 9 -1.0000000000000000e+05
8 9 2.0000000628333000e+05
9 9 -1.0000000000000000e+00
10 9 -6.2500000000000003e-03
385 9 -1.0000000000000000e+05
425 9 -3.3333333333333003e-05
3 10 -1.0000000000000000e+00
10 10 1.0000000000000000e+00
11 11 1.0000000000000000e+05
17 11 -1.0000000000000000e+05
377 11 -2.0000000000000002e-31
12 12 1.0000000000000000e+00
13 12 1.2987012987013000e+00
382 12 -1.2987012987013000e+00
13 13 1.0000000000000000e+00
17 13 -1.0000000000000000e+00
14 14 1.0000000000000000e+05
382 14 -1.1800000000000001e-30
383 14 -1.0000000000000000e+05
15 15 1.0000000000000000e+00
379 15 -3.6351359314157999e+03
16 16 1.0000000000000000e+00
17 16 -1.0000000000000000e+00
380 16 -1.7054263565890999e+03
11 17 -1.0000000000000000e+05
12 17 -1.0000000000000000e+00
15 17 -1.0000000000000000e+00
17 17 1.0000000060606000e+05
379 17 3.6341359314157999e+03
382 17 -6.0606060606060996e-04
18 18 1.0000000000000000e+00
377 18 -1.0000000000000000e+00
380 18 -3.1007751937984000e+02
19 19 1.8181818181817999e+01
33 19 1.0000000000000000e+00
377 19 -1.8181818181817999e+01
20 20 1.0000020000000000e+05
381 20 -1.0000000000000000e+05
21 21 1.0000000000000000e+05
34 21 -1.1800000000000001e-30
381 21 -1.0000000000000000e+05
22 22 1.0000000000000000e+00
378 22 -3.6351359314157999e+03
23 23 1.0000889838049001e+05
30 23 -8.8983804947500005e+00
382 23 -1.0000000000000000e+05
24 24 1.0000000000000000e+00
24 25 4.0000000000000000e+00
25 25 1.0000000000000000e+00
26 25 -4.0000000000000000e+00
24 26 -4.0000000000000000e+00
26 26 8.0000000000000000e+00
27 26 -4.0000000000000000e+00
26 27 -4.0000000000000000e+00
27 27 4.0099999999999998e+00
384 27 -1.0000000000000000e-02
28 28 1.2641450080837999e-01
29 28 -1.1591450080838001e-01
384 28 -5.0000000000000001e-04
28 29 -1.1591450080838001e-01
29 29 1.1591450126015999e-01
30 29 -4.4238759924572002e-10
31 29 -9.3889692272533996e-12
23 30 -8.8983804947500005e+00
29 30 -4.4336236319966000e-10
30 30 8.8983804952514003e+00
31 30 -5.8110767036606003e-11
29 31 -8.4142052733134999e-12
30 31 -5.9085530990545996e-11
31 31 3.1790134249804002e+01
32 31 -3.1790134249737001e+01
31 32 -3.1790134249737001e+01
32 32 1.0003179013425000e+05
34 32 -1.0000000000000000e+05
21 33 -1.1800000000000001e-30
32 33 -1.0000000000000000e+05
33 33 -1.0000000000000000e+00
34 33 1.0000001436263999e+05
377 33 -1.4285714285714001e-02
381 33 -7.6923076923076993e-05
19 34 1.0000000000000000e+00
34 34 -1.0000000000000000e+00
35 35 1.0000000000000000e+00
380 35 -4.6511627906976997e+02
381 35 -1.0000000000000000e+00
36 36 1.0000000000000000e+05
363 36 -1.0000000000000000e+05
381 36 -1.1800000000000001e-30
37 37 1.0000000000000000e+00
39 37 -3.6351359314157999e+03
38 38 8.3333333333333002e+00
364 38 1.0000000000000000e+00
365 38 -8.3333333333333002e+00
38 39 -8.3333333333333002e+00
39 39 1.0000000000000000e+00
363 39 -6.2500000000000003e-03
365 39 8.3395833333332998e+00
376 39 -2.0000000000000002e-31
40 40 1.0000036529399000e+03
41 40 -4.9625592364033002e-07
42 40 -3.6524435979927998e-03
60 40 -1.0000000000000000e+03
40 41 -3.6529398529143000e-03
41 41 1.0000000004963000e+03
42 41 3.6524435959886001e-03
43 41 -1.0000000000000000e+03
40 42 -1.0021035835274001e-12
41 42 -1.0021035835274001e-12
42 42 1.0000000000000000e+03
126 42 -1.0000000000000000e+03
41 43 -1.0000000000000000e+03
43 43 1.0000003555556000e+03
60 43 -1.3333333333333001e-04
126 43 -2.2222222222222001e-04
44 44 1.0000666666667000e+03
45 44 -1.0000000000000000e+03
44 45 -1.0000000000000000e+03
45 45 1.0000704785194000e+03
46 45 -3.5239259710953000e-02
47 45 -3.5239259710953000e-02
45 46 -7.0472083422501997e-02
46 46 1.0000352392604000e+03
47 46 3.5232823023942997e-02
60 46 -1.0000000000000000e+03
45 47 -6.4359994038319002e-06
46 47 -6.8760677391365995e-10
47 47 1.0000000064367000e+03
48 47 -1.0000000000000000e+03
47 48 -1.0000000000000000e+03
48 48 1.0000454545455000e+03
148 48 -4.5454545454544998e-02
49 49 1.0000000000000000e+03
50 49 -1.4195503784048999e-16
52 49 -1.0447890785060001e-12
49 50 -4.4872234130844999e-14
50 50 1.0000000000000000e+03
51 50 -1.0000000000000000e+03
52 50 -9.5532852032001999e-13
50 51 -1.0000000000000000e+03
51 51 2.0000100000000000e+03
53 51 -1.0000000000000000e+03
49 52 -1.0000587994130000e-12
50 52 -1.0000587994130000e-12
52 52 1.0000000000000000e+03
127 52 -1.0000000000000000e+03
51 53 -1.0000000000000000e+03
53 53 1.0000000000000000e+03
58 53 -1.0183901094712000e-12
59 53 -1.3836822139555001e-16
54 54 2.0000000399999999e+03
55 54 -1.0000000000000000e+03
59 54 -1.0000000000000000e+03
54 55 -1.0000000000000000e+03
55 55 1.0000017087479000e+03
56 55 -1.7085157234987000e-03
57 55 -2.3213528851885000e-07
55 56 -5.0397156188576996e-03
56 56 1.0000100794312000e+03
57 56 -5.0397156188576996e-03
60 56 -1.0000000000000000e+03
55 57 3.3309677600704001e-03
56 57 -8.3709155142165995e-03
57 57 1.0000050399478000e+03
127 57 -1.0000000000000000e+03
53 58 -2.4533470110756999e-02
58 58 1.0000490669402000e+03
59 58 -2.4533470110756999e-02
60 58 -1.0000000000000000e+03
53 59 2.4533470109738002e-02
54 59 -1.0000000000000000e+03
58 59 -4.9066940220496000e-02
59 59 1.0000245334701000e+03
40 60 -1.0000000000000000e+03
43 60 -1.3333333333333001e-04
46 60 -1.0000000000000000e+03
56 60 -1.0000000000000000e+03
58 60 -1.0000000000000000e+03
60 60 4.0000001333332998e+03
61 61 1.0000000000000000e+03
62 61 -1.4023501158522001e-16
63 61 -1.0321296852672000e-12
148 61 -1.0000000000000000e+03
61 62 -3.0776564280528003e-14
62 62 1.0000000000000000e+03
63 62 -9.7085702672934008e-13
68 62 -1.0000000000000000e+03
61 63 -1.0014933559982999e-12
62 63 -1.0014933559982999e-12
63 63 1.0000000000000000e+03
126 63 -1.0000000000000000e+03
64 64 1.0000666666667000e+03
65 64 -1.0000000000000000e+03
361 64 -6.6666666666666999e-02
64 65 -1.0000000000000000e+03
65 65 1.0000000000000000e+03
66 65 -1.0000480229492000e-12
67 65 -1.0000480229492000e-12
65 66 7.0907833659029007e-05
66 66 1.0000000000095999e+03
67 66 -7.0917468875878999e-05
126 66 -1.0000000000000000e+03
65 67 -7.0907835659125005e-05
66 67 -9.6342168015115998e-09
67 67 1.0000000709175000e+03
68 67 -1.0000000000000000e+03
62 68 -1.0000000000000000e+03
67 68 -1.0000000000000000e+03
68 68 2.0000370370369999e+03
148 68 -3.7037037037037000e-02
69 69 1.0000016722620001e+03
70 69 -1.6720347822376000e-03
71 69 -2.2717863889097999e-07
69 70 -1.0321294231691000e-12
70 70 1.0000000000000000e+03
71 70 -1.0321294231691000e-12
76 70 -1.0000000000000000e+03
69 71 -1.6722619598443999e-03
70 71 1.6720347801734000e-03
71 71 1.0000000002272000e+03
76 71 -1.0000000000000000e+03
72 72 1.0000001999999999e+03
73 72 -1.0000000000000000e+03
72 73 -1.0000000000000000e+03
73 73 1.0002488482165001e+03
74 73 -2.4881441022670001e-01
75 73 -3.3806305737322999e-05
73 74 -2.0810475147915000e-01
74 74 1.0004162095030000e+03
75 74 -2.0810475147915000e-01
125 74 -1.0000000000000000e+03
73 75 -4.0743465053291003e-02
74 75 -1.6739509273159001e-01
75 75 1.0002081385578000e+03
76 75 -1.0000000000000000e+03
70 76 -1.0000000000000000e+03
71 76 -1.0000000000000000e+03
75 76 -1.0000000000000000e+03
76 76 3.0000000256409999e+03
80 76 -2.5641025641025999e-05
77 77 1.0000064030417000e+03
78 77 -6.4023576634328000e-03
79 77 -6.8401257087957002e-07
361 77 -1.0000000000000000e+03
77 78 -1.0321294599899001e-12
78 78 1.0000000000000000e+03
79 78 -1.0321294599899001e-12
80 78 -1.0000000000000000e+03
77 79 -6.4030416749714996e-03
78 79 6.4023576613684999e-03
79 79 1.0000000006840000e+03
80 79 -1.0000000000000000e+03
76 80 -2.5641025641025999e-05
78 80 -1.0000000000000000e+03
79 80 -1.0000000000000000e+03
80 80 3.0000000256409999e+03
82 80 -1.0000000000000000e+03
81 81 1.0000064030417000e+03
82 81 -6.8401257087966002e-07
83 81 -6.4023576634335997e-03
361 81 -1.0000000000000000e+03
80 82 -1.0000000000000000e+03
81 82 -6.4030416750045002e-03
82 82 1.0000000006840000e+03
83 82 6.4023576614335000e-03
81 83 -1.0000499660445999e-12
82 83 -1.0000499660445999e-12
83 83 1.0000000000000000e+03
126 83 -1.0000000000000000e+03
84 84 1.0000010000000000e+03
85 84 -1.0000000000000000e+03
84 85 -1.0000000000000000e+03
85 85 1.0000000000000000e+03
86 85 -3.8444675244539997e-12
87 85 -5.2234613103993995e-16
85 86 -1.0000680832391001e-12
86 86 1.0000000000000000e+03
87 86 -1.0000680832391001e-12
127 86 -1.0000000000000000e+03
85 87 -2.8449217873458998e-12
86 87 1.8443313579757002e-12
87 87 1.0000000000000000e+03
92 87 -1.0000000000000000e+03
88 88 1.0000010000000000e+03
89 88 -1.0000000000000000e+03
88 89 -1.0000000000000000e+03
89 89 1.0000000000000000e+03
90 89 -3.8444674167970003e-12
91 89 -5.2234611641262999e-16
89 90 -1.0000649161187000e-12
90 90 1.0000000000000000e+03
91 90 -1.0000649161187000e-12
98 90 -1.0000000000000000e+03
89 91 -2.8449248467947001e-12
90 91 1.8443375845595999e-12
91 91 1.0000000000000000e+03
92 91 -1.0000000000000000e+03
87 92 -1.0000000000000000e+03
91 92 -1.0000000000000000e+03
92 92 3.0000000199999999e+03
94 92 -1.0000000000000000e+03
93 93 1.0000000002033000e+03
94 93 -1.4968472307002999e-03
95 93 1.4966438813463000e-03
98 93 -1.0000000000000000e+03
92 94 -1.0000000000000000e+03
93 94 -2.0334835371561000e-07
94 94 1.0000014968472000e+03
95 94 -1.4966438833468999e-03
93 95 -1.0002858329867000e-12
94 95 -1.0002858329867000e-12
95 95 1.0000000000000000e+03
361 95 -1.0000000000000000e+03
96 96 1.0000524561864000e+03
97 96 2.0424319277512000e-07
124 96 -5.2456390663483003e-02
125 96 -1.0000000000000000e+03
96 97 -5.2444980206118000e-02
97 97 1.0001048899604000e+03
98 97 -1.0000000000000000e+03
124 97 -5.2444980206118000e-02
90 98 -1.0000000000000000e+03
93 98 -1.0000000000000000e+03
97 98 -1.0000000000000000e+03
98 98 3.0000000000000000e+03
99 99 1.0000521345924000e+03
103 99 -5.5693400655142999e-06
104 99 -5.2129023013214003e-02
361 99 -1.0000000000000000e+03
100 100 1.0000521345924000e+03
101 100 -5.2129023013214003e-02
102 100 -5.5693400655142999e-06
361 100 -1.0000000000000000e+03
100 101 -1.0321310441923001e-12
101 101 1.0000000000000000e+03
102 101 -1.0321310441923001e-12
123 101 -1.0000000000000000e+03
100 102 -5.2134592352247003e-02
101 102 5.2129023011150001e-02
102 102 1.0000000055693000e+03
123 102 -1.0000000000000000e+03
99 103 -5.2134592352278998e-02
103 103 1.0000000055693000e+03
104 103 5.2129023011212999e-02
123 103 -1.0000000000000000e+03
99 104 -1.0004962162499000e-12
103 104 -1.0004962162499000e-12
104 104 1.0000000000000000e+03
125 104 -1.0000000000000000e+03
105 105 1.0003494764035000e+03
106 105 -6.9875262378592995e-01
111 105 3.4927622029636002e-01
125 105 -1.0000000000000000e+03
105 106 -3.4947638210704002e-01
106 106 1.0006989527642000e+03
111 106 -3.4947638210704002e-01
127 106 -1.0000000000000000e+03
107 107 2.0000000000000000e+03
108 107 -1.0000000000000000e+03
111 107 -1.0000000000000000e+03
107 108 -1.0000000000000000e+03
108 108 1.0000130795453000e+03
109 108 -1.3077768471648000e-02
110 108 -1.7768707162565000e-06
108 109 -3.8939104692739003e-08
109 109 1.0000000000779000e+03
110 109 -3.8939104692739003e-08
123 109 -1.0000000000000000e+03
108 110 -1.3079506403259999e-02
109 110 1.3077690593439001e-02
110 110 1.0000000018158000e+03
360 110 -1.0000000000000000e+03
105 111 -2.1382524375115999e-08
106 111 -2.0014042815108001e-04
107 111 -1.0000000000000000e+03
111 111 1.0000002001618000e+03
112 112 1.4328200502266000e+00
115 112 -4.2486216551745996e-03
113 113 1.0000000002402001e-02
118 113 -2.4022780776959002e-12
114 114 1.0010215455669000e-02
118 114 -1.0000000000000000e-02
112 115 -4.2486216551745996e-03
115 115 1.0000424862166000e+02
118 115 -1.0000000000000000e+02
116 116 3.9152645018664001e-01
118 116 -3.7979491074819999e-01
360 116 -1.1731539438445999e-02
117 117 3.7979491075206001e-01
118 117 -3.8617853301179999e-12
360 117 -3.7979491074819999e-01
113 118 -2.4022780776959002e-12
114 118 -1.0000000000000000e-02
115 118 -1.0000000000000000e+02
116 118 -3.7979491074819999e-01
117 118 -3.8617853301179999e-12
118 118 1.1003902949108001e+03
122 118 -1.0000000000000000e+03
360 118 -2.2000000000000000e-28
361 118 -5.0000000000000001e-04
119 119 2.0000000000000000e+03
120 119 -1.0000000000000000e+03
124 119 -1.0000000000000000e+03
119 120 -1.0000000000000000e+03
120 120 1.0000609245048000e+03
121 120 -6.0916228187671000e-02
122 120 -8.2766614385422993e-06
120 121 -8.4681141968707008e-03
121 121 1.0000169362284000e+03
122 121 -8.4681141968707008e-03
123 121 -1.0000000000000000e+03
118 122 -1.0000000000000000e+03
120 122 -5.2456390652238997e-02
121 122 4.3979999793929997e-02
122 122 1.0000084763909000e+03
101 123 -1.0000000000000000e+03
102 123 -1.0000000000000000e+03
103 123 -1.0000000000000000e+03
109 123 -1.0000000000000000e+03
121 123 -1.0000000000000000e+03
123 123 5.0000000000000000e+03
96 124 -1.1206214172588001e-05
97 124 -1.0489016465543000e-01
119 124 -1.0000000000000000e+03
124 124 1.0001049013709001e+03
74 125 -1.0000000000000000e+03
96 125 -1.0000000000000000e+03
104 125 -1.0000000000000000e+03
105 125 -1.0000000000000000e+03
125 125 4.0000000000000000e+03
42 126 -1.0000000000000000e+03
43 126 -2.2222222222222001e-04
63 126 -1.0000000000000000e+03
66 126 -1.0000000000000000e+03
83 126 -1.0000000000000000e+03
126 126 4.0000002222222001e+03
127 126 -2.5000000000000002e-32
52 127 -1.0000000000000000e+03
57 127 -1.0000000000000000e+03
86 127 -1.0000000000000000e+03
106 127 -1.0000000000000000e+03
126 127 -2.5000000000000002e-32
127 127 4.0000000000000000e+03
128 128 1.0000000000000000e+02
131 128 -1.0000022822784001e-12
135 128 -1.0000000000000000e+02
129 129 1.0000000001001000e-02
135 129 -1.0008151513963001e-12
146 129 -1.0000000000000000e-02
130 130 1.0000000000011999e+00
135 130 -1.0000000000000000e+00
146 130 -1.1898603758485001e-12
128 131 -1.0000022822784001e-12
131 131 3.3579583613262998e-01
146 131 -3.3579583613163000e-01
132 132 2.1924570350665999e+01
133 132 -9.8193452398198005e-04
134 132 -1.0565730582344000e-01
132 133 -3.2609553091108003e-02
133 133 8.8541531649842006e-02
134 133 8.2227216017906994e-03
147 133 -6.4154700160524006e-02
132 134 -7.4029687256313995e-02
133 134 -2.3404896965336000e-02
134 134 4.1591730082670999e+00
135 134 -4.0617384240455001e+00
128 135 -1.0000000000000000e+02
129 135 -1.0008151513963001e-12
130 135 -1.0000000000000000e+00
134 135 -4.0617384240455001e+00
135 135 1.0506223842404999e+02
148 135 -5.0000000000000001e-04
136 136 1.7889087791910001e+01
144 136 -1.3538039459241999e-07
362 136 -1.7889087656529998e+01
137 137 2.1826744509074999e+01
138 137 -9.0209526720808005e-05
139 137 -8.7231892295769001e-03
362 137 -2.1817931110319002e+01
137 138 1.6193292452091001e-03
138 138 4.4393740396650998e-02
139 138 -6.8433083643205999e-03
146 138 -3.9169761277540002e-02
137 139 -1.0432728001507000e-02
138 139 -5.1337695923908003e-03
139 139 4.0773049216394002e+00
143 139 -4.0617384240455001e+00
140 140 3.8080407385584998e-02
141 140 -2.3299870650517002e-02
142 140 1.9357733949132001e-02
143 140 -3.4138270684200001e-02
140 141 -3.9421367013001999e-03
141 141 4.5999469155137002e-01
142 141 -1.9412612731058002e-02
146 141 -4.3663994211901003e-01
140 142 -8.4732074488874005e-14
141 142 -5.4878781841120998e-05
142 142 5.1609456485288003e+00
144 142 -5.1608907697469002e+00
139 143 -4.0617384240455001e+00
140 143 -3.4138270684200001e-02
143 143 4.0983766947296996e+00
144 143 -2.5000000000000001e-03
144 144 -1.0000000000000000e+00
385 144 1.0000000000000000e+00
136 145 -1.3538039459241999e-07
142 145 -5.1608907697469002e+00
143 145 -2.5000000000000001e-03
144 145 5.1647242384606002e+00
145 145 -1.0000000000000000e+00
147 145 -1.3333333333332999e-03
129 146 -1.0000000000000000e-02
130 146 -1.1898603758485001e-12
131 146 -3.3579583613163000e-01
138 146 -3.9169761277540002e-02
141 146 -4.3663994211901003e-01
146 146 8.2410553952937005e-01
362 146 -2.5000000000000001e-03
133 147 -6.4154700160524006e-02
144 147 -1.3333333333332999e-03
147 147 6.5588033493857001e-02
361 147 -1.0000000000000000e-04
48 148 -4.5454545454544998e-02
61 148 -1.0000000000000000e+03
68 148 -3.7037037037037000e-02
135 148 -5.0000000000000001e-04
148 148 1.0000829915825000e+03
149 149 1.0000000000000000e+00
172 149 -2.4899528802763001e+01
150 150 -1.0000000000000000e+00
172 150 1.0000000000000000e+00
151 151 -1.0000000000000000e+00
152 151 1.0000000000000000e+00
152 152 -1.0000000000000000e+00
162 152 1.0000000000000000e+00
153 153 1.0000000000000000e+00
153 154 2.0000000000000000e+00
154 154 1.0000000000000000e+00
155 154 -2.0000000000000000e+00
153 155 -2.0000000000000000e+00
155 155 2.5000000000000000e+00
160 155 -5.0000000000000000e-01
156 156 7.5797089653210004e-01
159 156 -2.5797089653209998e-01
157 157 6.0128819983944002e+00
361 157 -1.0000000001307000e-12
158 158 1.0000000000071000e+03
361 158 -1.0000000000000000e+03
156 159 -2.5797089653209998e-01
159 159 1.0002579708965000e+03
361 159 -1.0000000000000000e+03
155 160 -5.0000000000000000e-01
160 160 1.0000005030303000e+06
161 160 -1.0000000000000000e+06
361 160 -3.0303030303029999e-03
160 161 -1.0000000000000000e+06
161 161 1.0000032051282000e+06
162 161 -3.2051282051282000e+00
150 162 1.0000000000000000e+00
161 162 -3.2051282051282000e+00
162 162 3.2051282051282000e+00
163 163 1.0000000001833000e+03
164 163 -1.3337844461180000e-07
170 163 -4.9901203484215999e-08
163 164 -1.8298026995289000e-07
164 164 5.1679841326602000e-02
165 164 -5.1679661398110997e-02
170 164 3.0517783046561999e-09
164 165 -5.1679661398110997e-02
165 165 1.7667966139811001e-01
362 165 -1.2500000000000000e-01
166 166 1.4388489209632999e-02
167 166 -1.0000000000033000e-12
166 167 -1.0000000000033000e-12
167 167 1.0000000000000000e+03
171 167 -1.0000000000000000e+03
168 168 7.0921985815715004e+01
171 168 -1.1244455819764000e-10
167 169 -1.0000000000000000e+03
168 169 -1.1244455819764000e-10
169 169 -1.0000000000000000e+03
170 169 -6.5746219592372999e+00
171 169 1.0020065746220000e+06
359 169 -1.0000000000000000e+06
163 170 -2.9937814312158001e-10
164 170 -4.6550047036439002e-08
170 170 6.5746220060868001e+00
171 170 -6.5746219592372999e+00
169 171 1.0000000000000000e+03
171 171 -1.0000000000000000e+03
149 172 -1.0000000000000000e+00
171 172 -1.0000000000000000e+06
172 172 2.3899528802763001e+01
358 172 -8.0000000000000007e-31
359 172 1.0000000000000000e+06
173 173 1.6535716208963000e-04
175 173 -1.1273957158963000e-05
174 174 3.3353333333333002e-04
176 174 -3.3333333333333002e-04
173 175 -1.1273957158963000e-05
175 175 1.1132395715896001e-04
176 175 -4.9999999999999998e-08
360 175 -1.0000000000000000e-04
174 176 -3.3333333333333002e-04
175 176 -4.9999999999999998e-08
176 176 3.6341722745539002e-04
177 176 -3.0033894122053000e-05
176 177 -3.0033894122053000e-05
177 177 8.8264256699208998e-01
179 177 -8.8261253309797005e-01
177 178 -8.8261253309797005e-01
178 178 -1.0000000000000000e+00
179 178 8.8261253309797005e-01
179 179 -1.0000000000000000e+00
183 179 1.0000000000000000e+00
180 180 1.0000000000000000e+00
182 180 -2.4899528802763001e+01
181 181 -2.4899528802763001e+01
357 181 1.0000000000000000e+00
180 182 -1.0000000000000000e+00
181 182 1.0000000000000000e+00
182 182 2.3899528802763001e+01
183 182 -6.4102564102563996e-03
187 182 6.4102564102563996e-03
178 183 1.0000000000000000e+00
183 183 6.4102564102563996e-03
187 183 -6.4102564102563996e-03
184 184 -1.0000000000000000e+00
185 185 -1.0000000000000000e+00
187 185 1.0000000000000000e+00
186 186 1.0000000000000000e+00
184 187 1.0000000000000000e+00
186 187 -2.2553191489362001e+04
187 187 -1.0000000000000000e+00
188 188 -1.0000000000000000e+00
190 188 1.0000000000000000e+00
188 189 8.8261253309797005e-01
189 189 -1.0000000000000000e+00
201 189 -8.8261253309797005e-01
189 190 1.0000000000000000e+00
190 190 1.7241379310345001e-02
355 190 -1.7241379310345001e-02
191 191 2.0019999999999999e-04
192 191 -1.9999999999999999e-07
191 192 -1.9999999999999999e-07
192 192 6.2401484598087001e-05
193 192 -3.1100742299040998e-05
195 192 -3.1100742299045002e-05
192 193 -3.1100742299040998e-05
193 193 8.8264363384027000e-01
194 193 -8.8261253309797005e-01
193 194 -8.8261253309797005e-01
194 194 8.8264363384027000e-01
201 194 -3.1100742299050003e-05
192 195 -3.1100742299045002e-05
195 195 8.8264363384027000e-01
196 195 -8.8261253309797005e-01
195 196 -8.8261253309797005e-01
196 196 8.8264363384027000e-01
197 196 -3.1100742299045002e-05
196 197 -3.1100742299045002e-05
197 197 8.8264363384027000e-01
199 197 -8.8261253309797005e-01
197 198 -8.8261253309797005e-01
198 198 -1.0000000000000000e+00
199 198 8.8261253309797005e-01
199 199 -1.0000000000000000e+00
200 199 1.0000000000000000e+00
198 200 1.0000000000000000e+00
200 200 1.7241379310345001e-02
358 200 -1.7241379310345001e-02
188 201 -8.8261253309797005e-01
194 201 -3.1100742299050003e-05
201 201 8.8264363384027000e-01
202 202 1.6535716208963000e-04
204 202 -1.1273957158963000e-05
203 203 3.3353333333333002e-04
205 203 -3.3333333333333002e-04
202 204 -1.1273957158963000e-05
204 204 1.1132395715896001e-04
205 204 -4.9999999999999998e-08
353 204 -1.0000000000000000e-04
203 205 -3.3333333333333002e-04
204 205 -4.9999999999999998e-08
205 205 3.6341723816282003e-04
206 205 -3.0033904829485001e-05
205 206 -3.0033904829485001e-05
206 206 8.8264256700279997e-01
208 206 -8.8261253309797005e-01
206 207 -8.8261253309797005e-01
207 207 -1.0000000000000000e+00
208 207 8.8261253309797005e-01
208 208 -1.0000000000000000e+00
212 208 1.0000000000000000e+00
209 209 1.0000000000000000e+00
211 209 -2.4899528803889002e+01
210 210 -2.4899528803889002e+01
356 210 1.0000000000000000e+00
209 211 -1.0000000000000000e+00
210 211 1.0000000000000000e+00
211 211 2.3899528803889002e+01
212 211 -6.4102564102563996e-03
216 211 6.4102564102563996e-03
207 212 1.0000000000000000e+00
212 212 6.4102564102563996e-03
216 212 -6.4102564102563996e-03
213 213 -1.0000000000000000e+00
214 214 -1.0000000000000000e+00
216 214 1.0000000000000000e+00
215 215 1.0000000000000000e+00
213 216 1.0000000000000000e+00
215 216 -2.2553191489362001e+04
216 216 -1.0000000000000000e+00
217 217 1.0000000000000000e+00
240 217 -2.4899528803889002e+01
218 218 -1.0000000000000000e+00
240 218 1.0000000000000000e+00
219 219 -1.0000000000000000e+00
220 219 1.0000000000000000e+00
220 220 -1.0000000000000000e+00
230 220 1.0000000000000000e+00
221 221 1.0000000000000000e+00
221 222 2.0000000000000000e+00
222 222 1.0000000000000000e+00
223 222 -2.0000000000000000e+00
221 223 -2.0000000000000000e+00
223 223 2.5000000000000000e+00
228 223 -5.0000000000000000e-01
224 224 7.5797084596044995e-01
227 224 -2.5797084596045000e-01
225 225 6.0128819983944002e+00
351 225 -1.0000000001307000e-12
226 226 1.0000000000071000e+03
351 226 -1.0000000000000000e+03
224 227 -2.5797084596045000e-01
227 227 1.0002579708460000e+03
351 227 -1.0000000000000000e+03
223 228 -5.0000000000000000e-01
228 228 1.0000005030303000e+06
229 228 -1.0000000000000000e+06
351 228 -3.0303030303029999e-03
228 229 -1.0000000000000000e+06
229 229 1.0000032051282000e+06
230 229 -3.2051282051282000e+00
218 230 1.0000000000000000e+00
229 230 -3.2051282051282000e+00
230 230 3.2051282051282000e+00
231 231 1.0000000001833000e+03
232 231 -1.3337844483052000e-07
238 231 -4.9901203625988999e-08
231 232 -1.8298027031054000e-07
232 232 5.1679841326660002e-02
233 232 -5.1679661398167001e-02
238 232 3.0517781289263999e-09
232 233 -5.1679661398167001e-02
233 233 1.7667966139817001e-01
352 233 -1.2500000000000000e-01
234 234 1.4388489209632999e-02
235 234 -1.0000000000033000e-12
234 235 -1.0000000000033000e-12
235 235 1.0000000000000000e+03
239 235 -1.0000000000000000e+03
236 236 7.0921985815715004e+01
239 236 -1.1244455881302000e-10
235 237 -1.0000000000000000e+03
236 237 -1.1244455881302000e-10
237 237 -1.0000000000000000e+03
238 237 -6.5746219592372999e+00
239 237 1.0020065746220000e+06
354 237 -1.0000000000000000e+06
231 238 -2.9937814596454999e-10
232 238 -4.6550047351097997e-08
238 238 6.5746220060868001e+00
239 238 -6.5746219592372999e+00
237 239 1.0000000000000000e+03
239 239 -1.0000000000000000e+03
217 240 -1.0000000000000000e+00
239 240 -1.0000000000000000e+06
240 240 2.3899528803889002e+01
354 240 1.0000000000000000e+06
355 240 -8.0000000000000007e-31
241 241 1.0000036528756000e+03
242 241 -4.9624719684306005e-07
243 241 -3.6523793687649000e-03
261 241 -1.0000000000000000e+03
241 242 -3.6528756149596998e-03
242 242 1.0000000004962000e+03
243 242 3.6523793667606998e-03
244 242 -1.0000000000000000e+03
241 243 -1.0021035849969000e-12
242 243 -1.0021035849969000e-12
243 243 1.0000000000000000e+03
327 243 -1.0000000000000000e+03
242 244 -1.0000000000000000e+03
244 244 1.0000003555556000e+03
261 244 -1.3333333333333001e-04
327 244 -2.2222222222222001e-04
245 245 1.0000666666667000e+03
246 245 -1.0000000000000000e+03
245 246 -1.0000000000000000e+03
246 246 1.0000704786410000e+03
247 246 -3.5239320486146003e-02
248 246 -3.5239320486146003e-02
246 247 -7.0472202604556999e-02
247 247 1.0000352393212000e+03
248 247 3.5232881430550998e-02
261 247 -1.0000000000000000e+03
246 248 -6.4383677351848002e-06
247 248 -6.8785980076761004e-10
248 248 1.0000000064391000e+03
249 248 -1.0000000000000000e+03
248 249 -1.0000000000000000e+03
249 249 1.0000454545455000e+03
350 249 -4.5454545454544998e-02
250 250 1.0000000000000000e+03
251 250 -1.4195505962253000e-16
253 250 -1.0447892388218001e-12
250 251 -4.4872395296602998e-14
251 251 1.0000000000000000e+03
252 251 -1.0000000000000000e+03
253 251 -9.5532835834784998e-13
251 252 -1.0000000000000000e+03
252 252 2.0000100000000000e+03
254 252 -1.0000000000000000e+03
250 253 -1.0000587985848000e-12
251 253 -1.0000587985848000e-12
253 253 1.0000000000000000e+03
328 253 -1.0000000000000000e+03
252 254 -1.0000000000000000e+03
254 254 1.0000000000000000e+03
259 254 -1.0183899041917000e-12
260 254 -1.3836819350430000e-16
255 255 2.0000000399999999e+03
256 255 -1.0000000000000000e+03
260 255 -1.0000000000000000e+03
255 256 -1.0000000000000000e+03
256 256 1.0000017087659000e+03
257 256 -1.7085338086625999e-03
258 256 -2.3213774574220001e-07
256 257 -5.0397698032198998e-03
257 257 1.0000100795396000e+03
258 257 -5.0397698032198998e-03
261 257 -1.0000000000000000e+03
256 258 3.3310038568115001e-03
257 258 -8.3710057977771993e-03
258 258 1.0000050400019001e+03
328 258 -1.0000000000000000e+03
254 259 -2.4533457294367001e-02
259 259 1.0000490669146000e+03
260 259 -2.4533457294367001e-02
261 259 -1.0000000000000000e+03
254 260 2.4533457293348999e-02
255 260 -1.0000000000000000e+03
259 260 -4.9066914587717003e-02
260 260 1.0000245334573000e+03
241 261 -1.0000000000000000e+03
244 261 -1.3333333333333001e-04
247 261 -1.0000000000000000e+03
257 261 -1.0000000000000000e+03
259 261 -1.0000000000000000e+03
261 261 4.0000001333332998e+03
262 262 1.0000000000000000e+03
263 262 -1.4023501158332001e-16
264 262 -1.0321296852533001e-12
350 262 -1.0000000000000000e+03
262 263 -3.0776537039347001e-14
263 263 1.0000000000000000e+03
264 263 -9.7085708119773000e-13
269 263 -1.0000000000000000e+03
262 264 -1.0014933832254999e-12
263 264 -1.0014933832254999e-12
264 264 1.0000000000000000e+03
327 264 -1.0000000000000000e+03
265 265 1.0000666666667000e+03
266 265 -1.0000000000000000e+03
351 265 -6.6666666666666999e-02
265 266 -1.0000000000000000e+03
266 266 1.0000000000000000e+03
267 266 -1.0000480229468000e-12
268 266 -1.0000480229468000e-12
266 267 7.0880025025511000e-05
267 267 1.0000000000095999e+03
268 267 -7.0889656464013999e-05
327 267 -1.0000000000000000e+03
266 268 -7.0880027025606998e-05
267 268 -9.6304384545661999e-09
268 268 1.0000000708897001e+03
269 268 -1.0000000000000000e+03
263 269 -1.0000000000000000e+03
268 269 -1.0000000000000000e+03
269 269 2.0000370370369999e+03
350 269 -3.7037037037037000e-02
270 270 1.0000016722796000e+03
271 270 -1.6720524007981000e-03
272 270 -2.2718103271713000e-07
270 271 -1.0321294231697000e-12
271 271 1.0000000000000000e+03
272 271 -1.0321294231697000e-12
277 271 -1.0000000000000000e+03
270 272 -1.6722795807987000e-03
271 272 1.6720523987339001e-03
272 272 1.0000000002272000e+03
277 272 -1.0000000000000000e+03
273 273 1.0000001999999999e+03
274 273 -1.0000000000000000e+03
273 274 -1.0000000000000000e+03
274 274 1.0002488487921000e+03
275 274 -2.4881498566999000e-01
276 274 -3.3806383922552998e-05
274 275 -2.0810467363726001e-01
275 275 1.0004162093473000e+03
276 275 -2.0810467363726001e-01
326 275 -1.0000000000000000e+03
274 276 -4.0744118416653000e-02
275 276 -1.6739436160453000e-01
276 276 1.0002081384800000e+03
277 276 -1.0000000000000000e+03
271 277 -1.0000000000000000e+03
272 277 -1.0000000000000000e+03
276 277 -1.0000000000000000e+03
277 277 3.0000000256409999e+03
281 277 -2.5641025641025999e-05
278 278 1.0000064029566000e+03
279 278 -6.4022726435609004e-03
280 278 -6.8400348755993005e-07
351 278 -1.0000000000000000e+03
278 279 -1.0321294599835999e-12
279 279 1.0000000000000000e+03
280 279 -1.0321294599835999e-12
281 279 -1.0000000000000000e+03
278 280 -6.4029566460163997e-03
279 280 6.4022726414967000e-03
280 280 1.0000000006840000e+03
281 280 -1.0000000000000000e+03
277 281 -2.5641025641025999e-05
279 281 -1.0000000000000000e+03
280 281 -1.0000000000000000e+03
281 281 3.0000000256409999e+03
283 281 -1.0000000000000000e+03
282 282 1.0000064029566000e+03
283 282 -6.8400348755993005e-07
284 282 -6.4022726435609004e-03
351 282 -1.0000000000000000e+03
281 283 -1.0000000000000000e+03
282 283 -6.4029566460484001e-03
283 283 1.0000000006840000e+03
284 283 6.4022726415607998e-03
282 284 -1.0000499660409000e-12
283 284 -1.0000499660409000e-12
284 284 1.0000000000000000e+03
327 284 -1.0000000000000000e+03
285 285 1.0000010000000000e+03
286 285 -1.0000000000000000e+03
285 286 -1.0000000000000000e+03
286 286 1.0000000000000000e+03
287 286 -3.8444472176303998e-12
288 286 -5.2234337196064999e-16
286 287 -1.0000680820580001e-12
287 287 1.0000000000000000e+03
288 287 -1.0000680820580001e-12
328 287 -1.0000000000000000e+03
286 288 -2.8449014789444000e-12
287 288 1.8443110535144001e-12
288 288 1.0000000000000000e+03
293 288 -1.0000000000000000e+03
289 289 1.0000010000000000e+03
290 289 -1.0000000000000000e+03
289 290 -1.0000000000000000e+03
290 290 1.0000000000000000e+03
291 290 -3.8444471099752002e-12
292 290 -5.2234335733359000e-16
290 291 -1.0000649162417001e-12
291 291 1.0000000000000000e+03
292 291 -1.0000649162417001e-12
299 291 -1.0000000000000000e+03
290 292 -2.8449045370909001e-12
291 292 1.8443172774919002e-12
292 292 1.0000000000000000e+03
293 292 -1.0000000000000000e+03
288 293 -1.0000000000000000e+03
292 293 -1.0000000000000000e+03
293 293 3.0000000199999999e+03
295 293 -1.0000000000000000e+03
294 294 1.0000000002033000e+03
295 294 -1.4968374937658999e-03
296 294 1.4966341457347001e-03
299 294 -1.0000000000000000e+03
293 295 -1.0000000000000000e+03
294 295 -2.0334703094229001e-07
295 295 1.0000014968375000e+03
296 295 -1.4966341477353001e-03
294 296 -1.0002858293666000e-12
295 296 -1.0002858293666000e-12
296 296 1.0000000000000000e+03
351 296 -1.0000000000000000e+03
297 297 1.0000524398738000e+03
298 297 2.0427779809373000e-07
325 297 -5.2440078078532001e-02
326 297 -1.0000000000000000e+03
297 298 -5.2428671071416001e-02
298 298 1.0001048573421000e+03
299 298 -1.0000000000000000e+03
325 298 -5.2428671071416001e-02
291 299 -1.0000000000000000e+03
294 299 -1.0000000000000000e+03
298 299 -1.0000000000000000e+03
299 299 3.0000000000000000e+03
300 300 1.0000521332926000e+03
304 300 -5.5692012133886001e-06
305 300 -5.2127723357317003e-02
351 300 -1.0000000000000000e+03
301 301 1.0000521332926000e+03
302 301 -5.2127723357318002e-02
303 301 -5.5692012133886001e-06
351 301 -1.0000000000000000e+03
301 302 -1.0321310441505000e-12
302 302 1.0000000000000000e+03
303 302 -1.0321310441505000e-12
324 302 -1.0000000000000000e+03
301 303 -5.2133292557499003e-02
302 303 5.2127723355253001e-02
303 303 1.0000000055692000e+03
324 303 -1.0000000000000000e+03
300 304 -5.2133292557529999e-02
304 304 1.0000000055692000e+03
305 304 5.2127723355316000e-02
324 304 -1.0000000000000000e+03
300 305 -1.0004963905178000e-12
304 305 -1.0004963905178000e-12
305 305 1.0000000000000000e+03
326 305 -1.0000000000000000e+03
306 306 1.0003494835185001e+03
307 306 -6.9872807588454000e-01
312 306 3.4924455743041000e-01
326 306 -1.0000000000000000e+03
306 307 -3.4948349292956998e-01
307 307 1.0006989669859000e+03
312 307 -3.4948349292956998e-01
328 307 -1.0000000000000000e+03
308 308 2.0000000000000000e+03
309 308 -1.0000000000000000e+03
312 308 -1.0000000000000000e+03
308 309 -1.0000000000000000e+03
309 309 1.0000000375137000e+03
310 309 -3.7508561700567000e-05
311 309 -5.0962719701857998e-09
309 310 -3.9067779163313003e-08
310 310 1.0000000000781000e+03
311 310 -3.9067779163313003e-08
324 310 -1.0000000000000000e+03
309 311 -3.7474590193373998e-05
310 311 3.7430426142241000e-05
311 311 1.0000000000442000e+03
353 311 -1.0000000000000000e+03
306 312 -2.5524569934842001e-08
307 312 -2.3890997459011999e-04
308 312 -1.0000000000000000e+03
312 312 1.0000002389355000e+03
313 313 1.4328199067027001e+00
316 313 -4.2484781312351000e-03
314 314 1.0000000002402001e-02
319 314 -2.4022972446255002e-12
315 315 1.0010214244997000e-02
319 315 -1.0000000000000000e-02
313 316 -4.2484781312351000e-03
316 316 1.0000424847812999e+02
319 316 -1.0000000000000000e+02
317 317 3.9155622863456002e-01
319 317 -3.7979491074819999e-01
353 317 -1.1761317886362000e-02
318 318 3.7979491075206001e-01
319 318 -3.8595888103998004e-12
353 318 -3.7979491074819999e-01
314 319 -2.4022972446255002e-12
315 319 -1.0000000000000000e-02
316 319 -1.0000000000000000e+02
317 319 -3.7979491074819999e-01
318 319 -3.8595888103998004e-12
319 319 1.1003902949108001e+03
323 319 -1.0000000000000000e+03
351 319 -5.0000000000000001e-04
353 319 -2.2000000000000000e-28
320 320 2.0000000000000000e+03
321 320 -1.0000000000000000e+03
325 320 -1.0000000000000000e+03
320 321 -1.0000000000000000e+03
321 321 1.0000609123855000e+03
322 321 -6.0904110474404999e-02
323 321 -8.2750150101092999e-06
321 322 -8.4723074403688006e-03
322 322 1.0000169446149000e+03
323 322 -8.4723074403688006e-03
324 322 -1.0000000000000000e+03
319 323 -1.0000000000000000e+03
321 323 -5.2440078049045998e-02
322 323 4.3959495593666999e-02
323 323 1.0000084805825001e+03
302 324 -1.0000000000000000e+03
303 324 -1.0000000000000000e+03
304 324 -1.0000000000000000e+03
310 324 -1.0000000000000000e+03
322 324 -1.0000000000000000e+03
324 324 5.0000000000000000e+03
297 325 -1.1202729318443000e-05
298 325 -1.0485754642063000e-01
320 325 -1.0000000000000000e+03
325 325 1.0001048687492000e+03
275 326 -1.0000000000000000e+03
297 326 -1.0000000000000000e+03
305 326 -1.0000000000000000e+03
306 326 -1.0000000000000000e+03
326 326 4.0000000000000000e+03
243 327 -1.0000000000000000e+03
244 327 -2.2222222222222001e-04
264 327 -1.0000000000000000e+03
267 327 -1.0000000000000000e+03
284 327 -1.0000000000000000e+03
327 327 4.0000002222222001e+03
328 327 -2.5000000000000002e-32
253 328 -1.0000000000000000e+03
258 328 -1.0000000000000000e+03
287 328 -1.0000000000000000e+03
307 328 -1.0000000000000000e+03
327 328 -2.5000000000000002e-32
328 328 4.0000000000000000e+03
329 329 1.0000000000000000e+02
332 329 -1.0000022822785000e-12
336 329 -1.0000000000000000e+02
330 330 1.0000000001001000e-02
336 330 -1.0008151513943000e-12
348 330 -1.0000000000000000e-02
331 331 1.0000000000011999e+00
336 331 -1.0000000000000000e+00
348 331 -1.1898603928487001e-12
329 332 -1.0000022822785000e-12
332 332 3.3579583613262998e-01
348 332 -3.3579583613163000e-01
333 333 2.1924570466565001e+01
334 333 -9.8193555002322008e-04
335 333 -1.0565742069655000e-01
333 334 -3.2609674884094997e-02
334 334 8.8541528639579994e-02
335 334 8.2228448606508995e-03
349 334 -6.4154698616135999e-02
333 335 -7.4029681362472996e-02
334 335 -2.3404894473420999e-02
335 335 4.1591729998813998e+00
336 335 -4.0617384240455001e+00
329 336 -1.0000000000000000e+02
330 336 -1.0008151513943000e-12
331 336 -1.0000000000000000e+00
335 336 -4.0617384240455001e+00
336 336 1.0506223842404999e+02
350 336 -5.0000000000000001e-04
337 337 1.0000000000000000e+00
338 337 1.0000000000000000e+05
363 337 -1.0000000000000000e+05
338 338 1.0000000000000000e+00
347 338 -1.0000000000000000e+00
339 339 1.7889087791910001e+01
347 339 -1.3538039420505001e-07
352 339 -1.7889087656529998e+01
340 340 -1.0432728010507000e-02
341 340 -5.1337695957522000e-03
345 340 4.0773049216518000e+00
346 340 -4.0617384240455001e+00
340 341 2.1826744509103001e+01
341 341 -9.0209526986276994e-05
345 341 -8.7231892571729003e-03
352 341 -2.1817931110319002e+01
342 342 4.5999469157313999e-01
343 342 -3.9421367046782998e-03
344 342 -1.9412612749456000e-02
348 342 -4.3663994211901003e-01
342 343 -2.3299870672240000e-02
343 343 3.8080407395970003e-02
344 343 1.9357733967477000e-02
346 343 -3.4138270691207000e-02
342 344 -5.4878781894436999e-05
343 344 -8.4732074607694001e-14
344 344 5.1609456485288003e+00
347 344 -5.1608907697469002e+00
340 345 1.6193292263478000e-03
341 345 4.4393740407843003e-02
345 345 -6.8433083490863000e-03
348 345 -3.9169761285104999e-02
337 346 -1.0000000000000000e+00
339 346 -1.3538039420505001e-07
344 346 -5.1608907697469002e+00
346 346 -2.5000000000000001e-03
347 346 5.1647242384606002e+00
349 346 -1.3333333333332999e-03
343 347 -3.4138270691207000e-02
345 347 -4.0617384240455001e+00
346 347 4.0983766947367002e+00
347 347 -2.5000000000000001e-03
330 348 -1.0000000000000000e-02
331 348 -1.1898603928487001e-12
332 348 -3.3579583613163000e-01
341 348 -3.9169761285104999e-02
342 348 -4.3663994211901003e-01
348 348 8.2410553953693999e-01
352 348 -2.5000000000000001e-03
334 349 -6.4154698616135999e-02
347 349 -1.3333333333332999e-03
349 349 6.5588031949468995e-02
351 349 -1.0000000000000000e-04
249 350 -4.5454545454544998e-02
262 350 -1.0000000000000000e+03
269 350 -3.7037037037037000e-02
336 350 -5.0000000000000001e-04
350 350 1.0000829915825000e+03
225 351 -1.0000000001307000e-12
226 351 -1.0000000000000000e+03
227 351 -1.0000000000000000e+03
228 351 -3.0303030303029999e-03
265 351 -6.6666666666666999e-02
278 351 -1.0000000000000000e+03
282 351 -1.0000000000000000e+03
296 351 -1.0000000000000000e+03
300 351 -1.0000000000000000e+03
301 351 -1.0000000000000000e+03
319 351 -5.0000000000000001e-04
349 351 -1.0000000000000000e-04
351 351 7.0000702969697004e+03
233 352 -1.2500000000000000e-01
339 352 -1.7889087656529998e+01
340 352 -2.1817931110319002e+01
348 352 -2.5000000000000001e-03
352 352 3.9844518766847997e+01
204 353 -1.0000000000000000e-04
311 353 -1.0000000000000000e+03
317 353 -1.1761317886362000e-02
318 353 -3.7979491074819999e-01
319 353 -2.2000000000000000e-28
353 353 1.0003916562286000e+03
215 354 -6.9148936170213005e+02
219 354 1.0000000000000000e+00
354 354 -1.0000000000000000e+00
214 355 1.0000000000000000e+00
215 355 -7.0478723404254997e+03
355 355 -1.0000000000000000e+00
190 356 -1.7241379310345001e-02
210 356 2.3899528803889002e+01
354 356 -8.0000000000000007e-31
355 356 1.7241379310345001e-02
356 356 -1.0000000000000000e+00
181 357 2.3899528802763001e+01
200 357 -1.7241379310345001e-02
357 357 -1.0000000000000000e+00
358 357 1.7241379310345001e-02
359 357 -8.0000000000000007e-31
185 358 1.0000000000000000e+00
186 358 -7.0478723404254997e+03
358 358 -1.0000000000000000e+00
151 359 1.0000000000000000e+00
186 359 -6.9148936170213005e+02
359 359 -1.0000000000000000e+00
110 360 -1.0000000000000000e+03
116 360 -1.1731539438445999e-02
117 360 -3.7979491074819999e-01
118 360 -2.2000000000000000e-28
175 360 -1.0000000000000000e-04
360 360 1.0003916264502000e+03
64 361 -6.6666666666666999e-02
77 361 -1.0000000000000000e+03
81 361 -1.0000000000000000e+03
95 361 -1.0000000000000000e+03
99 361 -1.0000000000000000e+03
100 361 -1.0000000000000000e+03
118 361 -5.0000000000000001e-04
147 361 -1.0000000000000000e-04
157 361 -1.0000000001307000e-12
158 361 -1.0000000000000000e+03
159 361 -1.0000000000000000e+03
160 361 -3.0303030303029999e-03
361 361 7.0000702969697004e+03
136 362 -1.7889087656529998e+01
137 362 -2.1817931110319002e+01
146 362 -2.5000000000000001e-03
165 362 -1.2500000000000000e-01
362 362 3.9844518766847997e+01
38 363 1.0000000000000000e+00
363 363 -1.0000000000000000e+00
36 364 -1.0000000000000000e+05
338 364 -1.0000000000000000e+05
363 364 2.0000000628333000e+05
364 364 -1.0000000000000000e+00
365 364 -6.2500000000000003e-03
381 364 -3.3333333333333003e-05
35 365 -1.0000000000000000e+00
365 365 1.0000000000000000e+00
366 366 2.6917900473747999e+01
367 366 -6.9979103180368000e-08
366 367 -6.9979103180368000e-08
367 367 1.0000000065880000e+05
375 367 -1.0000000000000000e+05
384 367 -5.0000000000000001e-04
368 368 1.0000000000000000e+05
375 368 -1.0000000000000000e+05
383 368 -1.1800000000000001e-30
369 369 1.0000000000000000e+00
380 369 -2.3255813953488000e+03
383 369 -1.0000000000000000e+00
370 370 1.0000000000000000e+00
373 370 -3.6351359314157999e+03
371 371 1.0000000000000000e+00
374 371 -1.0000000000000000e+00
371 372 7.1428571428570997e-01
372 372 1.0000000000000000e+00
375 372 -7.1428571428570997e-01
372 373 -1.0000000000000000e+00
373 373 1.0000000000000000e+00
374 373 1.0000000032468000e+05
375 373 -3.2467532467532001e-04
376 373 -1.0000000000000000e+05
369 374 -1.0000000000000000e+00
374 374 1.0000000000000000e+00
367 375 -1.0000000000000000e+05
368 375 -1.0000000000000000e+05
371 375 -7.1428571428570997e-01
374 375 -3.2467532467532001e-04
375 375 2.0000071461172000e+05
383 375 -1.3333333333333000e-06
365 376 -2.0000000000000002e-31
374 376 -1.0000000000000000e+05
376 376 1.0000000000000000e+05
11 377 -2.0000000000000002e-31
19 377 -1.8181818181817999e+01
22 377 -1.0000000000000000e+00
34 377 -1.4285714285714001e-02
377 377 1.8196103896103999e+01
378 377 3.6341359314157999e+03
20 378 -1.0000000000000000e+05
21 378 -1.0000000000000000e+05
34 378 -7.6923076923076993e-05
36 378 -1.1800000000000001e-30
37 378 -1.0000000000000000e+00
39 378 3.6341359314157999e+03
363 378 -3.3333333333333003e-05
378 378 1.0000000000000000e+00
381 378 2.0000000011026999e+05
383 378 -1.0000000000000000e-08
14 379 -1.0000000000000000e+05
368 379 -1.1800000000000001e-30
370 379 -1.0000000000000000e+00
373 379 3.6341359314157999e+03
375 379 -1.3333333333333000e-06
379 379 1.0000000000000000e+00
381 379 -1.0000000000000000e-08
382 379 -2.4630541871921000e-06
383 379 2.0000000000381001e+05
384 379 -1.0000000000000000e+05
380 380 1.0000000000000000e+00
18 381 -1.0000000000000000e+00
381 381 1.0000000000000000e+00
13 382 -1.2987012987013000e+00
14 382 -1.1800000000000001e-30
17 382 -6.0606060606060996e-04
23 382 -1.0000000000000000e+05
382 382 1.0000129930981999e+05
383 382 -2.4630541871921000e-06
16 383 -1.0000000000000000e+00
383 383 1.0000000000000000e+00
27 384 -1.0000000000000000e-02
28 384 -5.0000000000000001e-04
367 384 -5.0000000000000001e-04
383 384 -1.0000000000000000e+05
384 384 1.0000001100000000e+05
8 385 -1.0000000000000000e+05
145 385 1.0000000000000000e+00
385 385 1.0000000000000000e+05
386 386 2.6917900473747999e+01
387 386 -6.9979103180368000e-08
386 387 -6.9979103180368000e-08
387 387 1.0000000065880000e+05
395 387 -1.0000000000000000e+05
428 387 -5.0000000000000001e-04
388 388 1.0000000000000000e+05
395 388 -1.0000000000000000e+05
427 388 -1.1800000000000001e-30
389 389 1.0000000000000000e+00
424 389 -2.3255813953488000e+03
427 389 -1.0000000000000000e+00
390 390 1.0000000000000000e+00
393 390 -3.6351359299502001e+03
391 391 1.0000000000000000e+00
394 391 -1.0000000000000000e+00
391 392 7.1428571428570997e-01
392 392 1.0000000000000000e+00
395 392 -7.1428571428570997e-01
392 393 -1.0000000000000000e+00
393 393 1.0000000000000000e+00
394 393 1.0000000032468000e+05
395 393 -3.2467532467532001e-04
396 393 -1.0000000000000000e+05
389 394 -1.0000000000000000e+00
394 394 1.0000000000000000e+00
387 395 -1.0000000000000000e+05
388 395 -1.0000000000000000e+05
391 395 -7.1428571428570997e-01
394 395 -3.2467532467532001e-04
395 395 2.0000071461172000e+05
427 395 -1.3333333333333000e-06
10 396 -2.0000000000000002e-31
394 396 -1.0000000000000000e+05
396 396 1.0000000000000000e+05
397 397 1.0000000000000000e+05
403 397 -1.0000000000000000e+05
421 397 -2.0000000000000002e-31
398 398 1.0000000000000000e+00
399 398 1.2987012987013000e+00
426 398 -1.2987012987013000e+00
399 399 1.0000000000000000e+00
403 399 -1.0000000000000000e+00
400 400 1.0000000000000000e+05
426 400 -1.1800000000000001e-30
427 400 -1.0000000000000000e+05
401 401 1.0000000000000000e+00
423 401 -3.6351359299502001e+03
402 402 1.0000000000000000e+00
403 402 -1.0000000000000000e+00
424 402 -1.7054263565890999e+03
397 403 -1.0000000000000000e+05
398 403 -1.0000000000000000e+00
401 403 -1.0000000000000000e+00
403 403 1.0000000060606000e+05
423 403 3.6341359299502001e+03
426 403 -6.0606060606060996e-04
404 404 1.0000000000000000e+00
421 404 -1.0000000000000000e+00
424 404 -3.1007751937984000e+02
405 405 1.8181818181817999e+01
419 405 1.0000000000000000e+00
421 405 -1.8181818181817999e+01
406 406 1.0000020000000000e+05
425 406 -1.0000000000000000e+05
407 407 1.0000000000000000e+05
420 407 -1.1800000000000001e-30
425 407 -1.0000000000000000e+05
408 408 1.0000000000000000e+00
422 408 -3.6351359299502001e+03
409 409 1.0000889838049001e+05
416 409 -8.8983804947500005e+00
426 409 -1.0000000000000000e+05
410 410 1.0000000000000000e+00
410 411 4.0000000000000000e+00
411 411 1.0000000000000000e+00
412 411 -4.0000000000000000e+00
410 412 -4.0000000000000000e+00
412 412 8.0000000000000000e+00
413 412 -4.0000000000000000e+00
412 413 -4.0000000000000000e+00
413 413 4.0099999999999998e+00
428 413 -1.0000000000000000e-02
414 414 1.2641450080837999e-01
415 414 -1.1591450080838001e-01
428 414 -5.0000000000000001e-04
414 415 -1.1591450080838001e-01
415 415 1.1591450126015999e-01
416 415 -4.4238759883529999e-10
417 415 -9.3889696866154995e-12
409 416 -8.8983804947500005e+00
415 416 -4.4336236319966000e-10
416 416 8.8983804952514003e+00
417 416 -5.8110767036379000e-11
415 417 -8.4142053222611001e-12
416 417 -5.9085531400732997e-11
417 417 3.1790134249804002e+01
418 417 -3.1790134249737001e+01
417 418 -3.1790134249737001e+01
418 418 1.0003179013425000e+05
420 418 -1.0000000000000000e+05
407 419 -1.1800000000000001e-30
418 419 -1.0000000000000000e+05
419 419 -1.0000000000000000e+00
420 419 1.0000001436263999e+05
421 419 -1.4285714285714001e-02
425 419 -7.6923076923076993e-05
405 420 1.0000000000000000e+00
420 420 -1.0000000000000000e+00
397 421 -2.0000000000000002e-31
405 421 -1.8181818181817999e+01
408 421 -1.0000000000000000e+00
420 421 -1.4285714285714001e-02
421 421 1.8196103896103999e+01
422 421 3.6341359299502001e+03
4 422 -1.1800000000000001e-30
5 422 -1.0000000000000000e+00
7 422 3.6341359299502001e+03
8 422 -3.3333333333333003e-05
406 422 -1.0000000000000000e+05
407 422 -1.0000000000000000e+05
420 422 -7.6923076923076993e-05
422 422 1.0000000000000000e+00
425 422 2.0000000011026999e+05
427 422 -1.0000000000000000e-08
388 423 -1.1800000000000001e-30
390 423 -1.0000000000000000e+00
393 423 3.6341359299502001e+03
395 423 -1.3333333333333000e-06
400 423 -1.0000000000000000e+05
423 423 1.0000000000000000e+00
425 423 -1.0000000000000000e-08
426 423 -2.4630541871921000e-06
427 423 2.0000000000381001e+05
428 423 -1.0000000000000000e+05
424 424 1.0000000000000000e+00
404 425 -1.0000000000000000e+00
425 425 1.0000000000000000e+00
399 426 -1.2987012987013000e+00
400 426 -1.1800000000000001e-30
403 426 -6.0606060606060996e-04
409 426 -1.0000000000000000e+05
426 426 1.0000129930981999e+05
427 426 -2.4630541871921000e-06
402 427 -1.0000000000000000e+00
427 427 1.0000000000000000e+00
387 428 -5.0000000000000001e-04
413 428 -1.0000000000000000e-02
414 428 -5.0000000000000001e-04
427 428 -1.0000000000000000e+05
428 428 1.0000001100000000e+05
429 429 1.0000000000000000e+00
430 430 1.0000000000000000e+00
