%%MatrixMarket matrix coordinate real general
430 430 2250
1 1 1
2 2 1
3 3 100000
425 3 -1
426 3 -1.18e-35
4 4 -1
425 4 -1
5 5 -3635.14
8 5 -0.000275093
6 6 1
7 6 18.1818
9 6 -18.1818
7 7 1
426 7 -1
5 8 3634.14
7 8 -18.1818
8 8 -0.000275135
9 8 -66135.2
423 8 7.26916e-28
426 8 66135.2
4 9 1
9 9 -1
424 9 310.078
425 9 -1
10 10 100000
427 10 -1
428 10 -1.18e-35
11 11 -1
427 11 -1
12 12 -3635.14
15 12 -0.000275093
13 13 1
16 13 -1
13 14 1.2987
14 14 1
16 14 1.2987
428 14 -1.2987
12 15 3634.14
14 15 -1
15 15 -0.000275135
16 15 -3.63463e+08
423 15 3.63458e+08
428 15 4722.44
11 16 1
16 16 -1
424 16 1705.43
427 16 -1
17 17 1
17 18 4
18 18 1
19 18 -4
17 19 -4
19 19 8
20 19 -0.5
19 20 -4
20 20 2.01
422 20 -0.00497512
21 21 0.126415
26 21 -0.91694
422 21 -0.00395524
22 22 100009
25 22 -8.89759e-05
428 22 -0.999911
23 23 100032
24 23 -0.0003178
426 23 -0.999682
23 24 -31.7901
24 24 31.78
25 24 -1.8592e-12
26 24 -2.64764e-13
426 24 -1
22 25 -8.89838
24 25 -5.81108e-11
25 25 8.89759
26 25 -4.98295e-11
426 25 -6.53107e-12
428 25 -1
21 26 -0.115915
24 26 -9.38897e-12
25 26 -4.42388e-10
26 26 0.00962788
422 26 -0.047619
426 26 -9.75186e-10
428 26 -4.59486e-08
27 27 1
424 27 -465.116
425 27 -1
28 28 100000
410 28 -1
425 28 -1.18e-35
29 29 100000
425 29 -0.999998
30 30 1
33 30 -3635.14
31 31 1
32 31 8.33333
34 31 -8.33333
32 32 1
410 32 -1
32 33 -8.33333
33 33 1
34 33 8.33958
410 33 -8.33958
421 33 -2e-31
27 34 -1
34 34 1
424 34 -465.116
425 34 -1
35 35 100000
405 35 -1
406 35 -1.18e-35
36 36 -1
405 36 -1
37 37 -3635.14
40 37 -0.000275093
38 38 1
39 38 18.1818
41 38 -18.1818
39 39 1
406 39 -1
37 40 3634.14
39 40 -18.1818
40 40 -0.000275135
41 40 -66135.2
49 40 7.26916e-28
406 40 66135.2
36 41 1
41 41 -1
404 41 310.078
405 41 -1
42 42 100000
407 42 -1.18e-35
409 42 -1
43 43 -1
409 43 -1
44 44 -3635.14
47 44 -0.000275093
45 45 1
48 45 -1
45 46 1.2987
46 46 1
48 46 1.2987
407 46 -1.2987
44 47 3634.14
46 47 -1
47 47 -0.000275135
48 47 -3.63463e+08
49 47 3.63458e+08
407 47 4722.44
43 48 1
48 48 -1
404 48 1705.43
409 48 -1
41 49 -2e-31
48 49 -100000
49 49 100000
404 49 1705.43
405 49 -2e-36
409 49 -1
50 50 1
50 51 4
51 51 1
52 51 -4
50 52 -4
52 52 8
53 52 -0.5
52 53 -4
53 53 2.01
408 53 -0.00497512
54 54 0.126415
59 54 -0.91694
408 54 -0.00395524
55 55 100009
58 55 -8.89759e-05
407 55 -0.999911
56 56 100032
57 56 -0.0003178
406 56 -0.999682
56 57 -31.7901
57 57 31.78
58 57 -1.8592e-12
59 57 -2.64764e-13
406 57 -1
55 58 -8.89838
57 58 -5.81108e-11
58 58 8.89759
59 58 -4.98295e-11
406 58 -6.53107e-12
407 58 -1
54 59 -0.115915
57 59 -9.38897e-12
58 59 -4.42388e-10
59 59 0.00962788
406 59 -9.75186e-10
407 59 -4.59486e-08
408 59 -0.047619
60 60 1
404 60 -465.116
405 60 -1
61 61 100000
392 61 -1
405 61 -1.18e-35
62 62 100000
405 62 -0.999998
63 63 1
66 63 -3635.14
64 64 1
65 64 8.33333
67 64 -8.33333
65 65 1
392 65 -1
65 66 -8.33333
66 66 1
67 66 8.33958
392 66 -8.33958
403 66 -2e-31
60 67 -1
67 67 1
404 67 -465.116
405 67 -1
68 68 1000
69 68 -4.96254e-10
70 68 -3.65243e-06
88 68 -0.999996
68 69 -0.00365294
69 69 1000
70 69 3.65243e-06
71 69 -1
88 69 -3.65293e-06
68 70 -1.0021e-12
69 70 -1.0021e-12
70 70 1000
71 70 -1.0021e-15
88 70 -1.0021e-15
154 70 -1
69 71 -1000
70 71 0.00365243
71 71 0.000366211
88 71 -10.339
154 71 9.36676
72 72 1000.07
73 72 -0.999933
72 73 -1000
73 73 0.137146
74 73 -0.256947
75 73 -0.256947
73 74 -0.0704721
74 74 1000.02
75 74 1.71249e-05
88 74 -0.999983
73 75 -6.436e-06
74 75 -1.6544e-06
75 75 1000
76 75 -1
88 75 -1.65437e-09
75 76 -1000
76 76 0.0454712
88 76 -3.63828e-05
391 76 -0.999634
77 77 1000
78 77 -1.41955e-19
80 77 -1.04479e-15
77 78 -4.48722e-14
78 78 1000
79 78 -1
80 78 -9.55328e-16
78 79 -1000
79 79 1000.01
80 79 -9.55319e-16
81 79 -0.99999
77 80 -1.00006e-12
78 80 -1.00006e-12
79 80 -1.00006e-12
80 80 1000
81 80 -1.00005e-15
155 80 -1
79 81 -1000
80 81 -9.55319e-13
81 81 0.0100098
86 81 -1.0174e-10
87 81 -1.38233e-14
155 81 -9.54387e-11
82 82 2000
83 82 -0.5
87 82 -0.5
82 83 -1000
83 83 500.002
84 83 -3.41702e-06
85 83 -4.64269e-10
87 83 -0.999997
83 84 -0.00503972
84 84 1000.01
85 84 -5.03966e-06
87 84 -5.03965e-06
88 84 -0.99999
83 85 0.00333097
84 85 -0.0083709
85 85 1000.01
87 85 3.3309e-06
88 85 -8.37078e-06
155 85 -0.999995
81 86 -0.0245335
86 86 1000.05
87 86 -2.45323e-05
88 86 -0.999951
155 86 -2.34133e-15
81 87 0.0245335
82 87 -1000
83 87 -500
84 87 -0.00170851
85 87 -2.40745e-07
86 87 -0.0490669
87 87 0.0262439
88 87 -1.93466
155 87 -9.17323e-06
68 88 -1000
69 88 -4.96254e-07
70 88 -0.00365243
71 88 -0.00013383
74 88 -1000
75 88 0.0171249
76 88 0.0171249
84 88 -1000
85 88 -0.00503966
86 88 -1000
87 88 -0.0295719
88 88 0.0214628
154 88 -0.111769
155 88 -0.234821
391 88 0.797599
89 89 1000
90 89 -1.40235e-19
91 89 -1.03213e-15
391 89 -1
89 90 -3.07766e-14
90 90 1000
91 90 -9.70857e-16
96 90 -1
391 90 -3.07766e-17
89 91 -1.00149e-12
90 91 -1.00149e-12
91 91 1000
96 91 -1.00149e-15
154 91 -1
391 91 -1.00149e-15
92 92 1000.07
93 92 -0.999933
390 92 -6.66622e-05
92 93 -1000
93 93 0.0666504
94 93 -1.50044e-11
95 93 -1.50044e-11
390 93 -1.00018
93 94 7.09078e-05
94 94 1000
95 94 -7.09175e-08
154 94 -1
390 94 7.09204e-08
93 95 -7.09078e-05
94 95 -9.63422e-09
95 95 1000
96 95 -1
154 95 -9.63422e-12
390 95 -7.09204e-08
90 96 -1000
91 96 -9.70857e-13
95 96 -1000
96 96 0.0370483
154 96 -2.60071e-07
390 96 -0.00191427
391 96 -0.999695
97 97 1000
98 97 -1.67203e-06
99 97 -2.27178e-10
97 98 -1.03213e-12
98 98 1000
99 98 -1.03213e-15
104 98 -1
97 99 -0.00167226
98 99 0.00167203
99 99 1000
104 99 -0.999998
100 100 1000
101 100 -1
100 101 -1000
101 101 0.249023
102 101 -0.999161
103 101 -0.000135756
101 102 -0.208105
102 102 1000.21
103 102 -0.00020809
153 102 -0.999792
101 103 -0.0407435
102 103 -0.208104
103 103 1000.21
104 103 -0.999792
153 103 -0.000208018
98 104 -1000
99 104 -1000
103 104 -1000
104 104 0.209656
108 104 -0.000122301
153 104 -0.992187
105 105 1000.01
106 105 -6.40232e-06
107 105 -6.84008e-10
390 105 -0.999994
105 106 -1.03213e-12
106 106 1000
107 106 -1.03213e-15
108 106 -1
390 106 -1.03212e-15
105 107 -0.00640304
106 107 0.00640232
107 107 1000
108 107 -0.999994
390 107 -6.403e-06
104 108 -2.5641e-05
106 108 -1000
107 108 -1000
108 108 1000.01
110 108 -0.999994
153 108 -2.54405e-08
390 108 -6.40296e-06
109 109 1000.01
110 109 -6.84008e-10
111 109 -6.40232e-06
390 109 -0.999994
108 110 -1000
109 110 -0.00640304
110 110 0.00640869
111 110 0.999005
153 110 -0.00396969
390 110 -1.99822
109 111 -1.00005e-12
110 111 -1.00005e-12
111 111 1000
153 111 -3.96989e-18
154 111 -1
390 111 -2.99836e-15
112 112 1000
113 112 -0.999999
112 113 -1000
113 113 0.000976562
114 113 -3.93673e-09
115 113 -5.34882e-13
113 114 -1.00007e-12
114 114 1000
115 114 -1.00007e-15
155 114 -1
113 115 -2.84492e-12
114 115 1.84433e-12
115 115 1000
120 115 -1
155 115 1.84433e-15
116 116 1000
117 116 -0.999999
116 117 -1000
117 117 0.000976562
118 117 -3.93673e-09
119 117 -5.34882e-13
117 118 -1.00006e-12
118 118 1000
119 118 -1.00006e-15
126 118 -1
117 119 -2.84492e-12
118 119 1.84434e-12
119 119 1000
120 119 -1
126 119 1.84434e-15
115 120 -1000
119 120 -1000
120 120 1000
122 120 -1
126 120 1.84434e-15
155 120 1.84433e-15
121 121 1000
122 121 -1.49685e-06
123 121 1.49664e-06
126 121 -1
120 122 -1000
121 122 -2.03348e-07
122 122 0.00152588
123 122 -0.980841
126 122 -0.000133265
155 122 1.2087e-09
121 123 -1.00029e-12
122 123 -1.00029e-12
123 123 1000
126 123 -1.00042e-15
155 123 1.20905e-24
390 123 -1
124 124 1000.05
125 124 2.04232e-10
152 124 -5.24536e-05
153 124 -0.999948
124 125 -0.052445
125 125 1000.1
126 125 -0.999895
152 125 -5.24422e-05
153 125 -5.24367e-05
118 126 -1000
119 126 -1.00006e-12
120 126 -1.00006e-12
121 126 -1000
122 126 -0.00149685
123 126 2.84754e-05
125 126 -1000
126 126 0.104919
152 126 -0.499834
153 126 -0.499782
155 126 1.72441e-11
390 126 0.000271403
127 127 1000.05
131 127 -5.56905e-09
132 127 -5.21263e-05
390 127 -0.999948
128 128 1000.05
129 128 -5.21263e-05
130 128 -5.56905e-09
390 128 -0.999948
128 129 -1.03213e-12
129 129 1000
130 129 -1.03213e-15
151 129 -1
390 129 -1.03208e-15
128 130 -0.0521346
129 130 0.0521263
130 130 1000
151 130 -0.999948
390 130 -5.21319e-05
127 131 -0.0521346
131 131 1000
132 131 5.21263e-05
151 131 -1
390 131 -5.21319e-05
127 132 -1.0005e-12
131 132 -1.0005e-12
132 132 1000
151 132 -1.0005e-15
153 132 -1
390 132 -1.0005e-15
133 133 1000.35
134 133 -0.000698509
139 133 0.000349154
153 133 -0.999651
133 134 -0.349476
134 134 1000.7
139 134 -0.00034911
153 134 -0.00034911
155 134 -0.999302
135 135 2000
136 135 -0.5
139 135 -0.5
135 136 -1000
136 136 500.013
137 136 -2.61549e-05
138 136 -3.55365e-09
139 136 -0.999974
136 137 -3.89391e-08
137 137 1000
138 137 -3.89391e-11
139 137 -3.89381e-11
151 137 -1
136 138 -0.0130795
137 138 0.0130773
138 138 1000
139 138 -1.30792e-05
151 138 1.30773e-05
389 138 -1
133 139 -2.13825e-08
134 139 -0.00020014
135 139 -1000
136 139 -500
137 139 -0.0130774
138 139 -1.77682e-06
139 139 0.0132446
151 139 -0.987376
153 139 -6.88929e-06
155 139 -0.0151005
389 139 -0.000134154
140 140 1.43282
143 140 -0.00296522
141 141 0.01
146 141 -2.40228e-10
142 142 0.0100102
146 142 -0.998979
140 143 -0.00424862
143 143 100.004
146 143 -0.999958
144 144 0.391526
146 144 -0.970036
389 144 -0.0299636
145 145 0.379795
146 145 -1.01681e-11
389 145 -1
141 146 -2.40228e-12
142 146 -0.01
143 146 -100
144 146 -0.379795
145 146 -3.86179e-12
146 146 1000.02
150 146 -0.999984
389 146 -1.13798e-05
390 146 -4.99992e-07
147 147 2000
148 147 -0.5
152 147 -0.5
147 148 -1000
148 148 500.061
149 148 -0.000121818
150 148 -1.65513e-08
152 148 -0.999878
148 149 -0.00846811
149 149 1000.02
150 149 -8.46797e-06
151 149 -0.999983
152 149 -8.46694e-06
146 150 -1000
148 150 -0.0524564
149 150 0.0439736
150 150 0.0245361
151 150 1.79217
152 150 -2.13765
389 150 -0.463799
390 150 -0.0203778
129 151 -1000
130 151 -1000
131 151 -1000
132 151 0.0521263
137 151 -1000
138 151 -3.89391e-08
139 151 -3.89386e-08
149 151 -1000
150 151 -0.00846797
151 151 0.0842067
152 151 -0.315515
153 151 0.619028
155 151 -6.98273e-09
389 151 -0.0466409
390 151 -1.24024
124 152 -1.12062e-05
125 152 -0.10489
126 152 -0.104879
147 152 -1000
148 152 -500
149 152 -0.0609088
150 152 -8.79143e-06
151 152 -0.060892
152 152 0.0941787
153 152 -0.156506
155 152 -4.49554e-09
389 152 -0.0301994
390 152 -0.801585
102 153 -1000
103 153 -0.20809
104 153 -0.208046
108 153 -2.54442e-05
110 153 -2.5444e-05
111 153 2.54187e-05
124 153 -1000
125 153 2.04232e-07
126 153 2.04211e-07
132 153 -1000
133 153 -1000
134 153 -0.698509
139 153 0.34891
151 153 0.344506
152 153 0.0562431
153 153 0.198884
154 153 0.000127807
155 153 -3.48319
389 153 0.0895665
390 153 2.37476
70 154 -1000
71 154 -0.000222222
88 154 -0.00229756
91 154 -1000
94 154 -1000
95 154 -7.09175e-05
96 154 -7.09175e-05
111 154 -1000
153 154 -3.96989e-15
154 154 0.00206254
155 154 -0.261578
389 154 1.72394e-13
390 154 0.0343192
391 154 0.854109
80 155 -1000
81 155 -1.00005e-12
85 155 -1000
86 155 -1.01745e-22
87 155 0.0033309
88 155 -0.00192662
114 155 -1000
115 155 -1.00007e-12
120 155 -1.00007e-12
122 155 -1.00007e-12
123 155 -9.80907e-13
126 155 -1.33274e-16
134 155 -1000
139 155 -0.34911
151 155 -0.344703
152 155 -0.108759
153 155 -0.152753
154 155 -0.000195815
155 155 0.165463
389 155 -0.0346116
390 155 -0.918237
391 155 0.0102979
156 156 100
159 156 -1e-14
163 156 -1
157 157 0.01
163 157 -1.00082e-10
185 157 -1
158 158 1
163 158 -1
185 158 -1.18986e-12
156 159 -1e-12
159 159 0.335796
163 159 -2.97801e-12
185 159 -1
160 160 21.9246
161 160 -4.47869e-05
162 160 -0.00481913
160 161 -0.0326096
161 161 0.0885401
162 161 0.0910952
186 161 -0.724584
160 162 -0.0740297
161 162 -0.0234082
162 162 4.16095
163 162 -0.976157
186 162 -0.00407628
156 163 -100
157 163 -1.00082e-12
158 163 -1
159 163 -1e-12
162 163 -4.06174
163 163 0.0973468
185 163 -3.27764e-11
186 163 -0.170081
391 163 -0.00513628
164 164 100000
184 164 1e-05
392 164 -1
165 165 0.0143885
168 165 -6.95e-11
166 166 70.922
169 166 -1.58547e-12
167 167 1000
169 167 -1
165 168 -1e-12
168 168 1000
169 168 -1
166 169 -1.12445e-10
167 169 -1000
168 169 -1000
169 169 1.00001e+06
173 169 -6.57458e-06
388 169 -0.999993
170 170 1000
171 170 -1.33378e-10
173 170 -4.99012e-11
170 171 -1.8298e-07
171 171 0.0516798
172 171 -0.999996
173 171 5.90516e-08
171 172 -0.0516797
172 172 0.125
173 172 2.44141e-08
182 172 -0.999999
169 173 -6.57462
170 173 -2.99378e-10
171 173 -4.655e-08
172 173 -4.65499e-08
173 173 6.57458
182 173 -7.08027e-09
388 173 -1
174 174 17.8891
182 174 -1
183 174 -7.56776e-09
175 175 21.8267
176 175 -4.13298e-06
177 175 -0.000399656
182 175 -0.999596
175 176 0.00161933
176 176 0.0443937
177 176 -0.154136
182 176 0.0364618
185 176 -0.882326
175 177 -0.0104327
176 177 -0.00513381
177 177 4.07651
181 177 -0.996377
182 177 -0.00251228
185 177 -0.00111117
178 178 0.0380804
179 178 -0.61186
180 178 0.508338
181 178 -0.896479
178 179 -0.00394214
179 179 0.457583
180 179 -0.0380449
181 179 -0.00772328
185 179 -0.954232
178 180 -8.47321e-14
179 180 -5.48788e-05
180 180 5.16094
181 180 -8.21254e-08
183 180 -0.99999
185 180 -1.01468e-05
177 181 -4.06174
178 181 -0.0341383
179 181 -0.0208878
180 181 0.0165591
181 181 0.0205903
182 181 -0.495584
183 181 0.682795
185 181 -1.18721
172 182 -0.125
173 182 3.05176e-09
174 182 -17.8891
175 182 -21.8179
176 182 -9.01731e-05
177 182 -0.00873356
181 182 -0.00870192
182 182 0.0169817
183 182 0.349875
185 182 -0.760832
388 182 1.79709e-07
164 183 1
183 183 -1
184 183 1e-05
392 183 -1
174 184 -1.3538e-07
180 184 -5.16089
181 184 -0.00250042
182 184 -0.0012393
183 184 0.00602758
184 184 -1
185 184 0.00396379
186 184 0.00133333
388 184 -2.22714e-10
392 184 -0.00602758
157 185 -0.01
158 185 -1.18986e-12
159 185 -0.335796
163 185 -3.19068e-12
176 185 -0.0391698
177 185 -0.00603746
179 185 -0.43664
180 185 -0.0166119
181 185 -0.00938788
182 185 -0.00573945
183 185 -0.00819365
184 185 8.19365e-08
185 185 0.0115745
186 185 -9.48561e-09
388 185 8.9112e-08
391 185 -1.41589e-12
392 185 -0.707905
161 186 -0.0641547
162 186 0.00584418
163 186 0.00570484
183 186 -0.00133333
184 186 1.33333e-08
185 186 -5.26635e-11
186 186 0.0200967
388 186 3.8128e-16
390 186 -0.00497595
391 186 0.00145803
392 186 -0.0663459
187 187 1
187 188 2
188 188 1
189 188 -2
187 189 -2
189 189 2.5
194 189 -0.2
190 190 0.757971
193 190 -0.340344
191 191 6.01288
390 191 -1.6631e-13
192 192 1000
390 192 -1
190 193 -0.257971
193 193 1000.17
390 193 -0.99983
189 194 -0.5
194 194 1e+06
201 194 -1
390 194 -3.0303e-09
195 195 1
196 195 -24.8995
196 196 1
197 196 -1
197 197 1
200 197 3.20513
201 197 -3.20513
198 198 1
199 198 -1
199 199 1
387 199 -691.489
388 199 -1
198 200 -1
199 200 -1
200 200 1
387 200 -691.489
388 200 -1
194 201 -1e+06
200 201 -3.20513
201 201 3.5625
387 201 -622.123
388 201 -0.899685
390 201 -0.000850611
202 202 1
215 202 -1
202 203 0.0172414
203 203 1
215 203 0.0172414
370 203 -0.0172414
204 204 0.0002002
205 204 -0.000999001
204 205 -2e-07
205 205 6.24013e-05
206 205 -0.498399
209 205 -0.498399
205 206 -3.11007e-05
206 206 0.882628
207 206 -0.999982
209 206 -1.75618e-05
206 207 -0.882613
207 207 4.673e-05
208 207 -0.665541
209 207 -0.331699
207 208 -3.11007e-05
208 208 0.882623
209 208 -1.1688e-05
215 208 -0.999988
205 209 -3.11007e-05
206 209 -1.55006e-05
207 209 -1.55003e-05
208 209 -1.03161e-05
209 209 0.882623
210 209 -0.999988
215 209 -1.16878e-05
209 210 -0.882613
210 210 4.1604e-05
211 210 -0.747541
215 210 -0.247953
210 211 -3.11007e-05
211 211 0.88262
212 211 -0.999991
215 211 -8.73707e-06
211 212 -0.882613
212 212 7.86781e-06
214 212 -127100
215 212 -0.980126
212 213 -1
213 213 1
214 213 -127100
215 213 -0.980126
213 214 0.0172414
214 214 2192.38
215 214 7.70793e-06
386 214 -7.86422e-06
203 215 -1
208 215 -0.882613
209 215 -1.0316e-05
210 215 -1.03158e-05
211 215 -7.71152e-06
212 215 -7.71145e-06
214 215 -0.980126
215 215 0.0172492
370 215 -0.999545
386 215 -0.000446857
216 216 -1
217 217 -1
229 217 -1
218 218 0.000165357
220 218 -0.0681794
219 219 0.000333533
221 219 -0.9994
218 220 -1.1274e-05
220 220 0.000110555
221 220 -0.000452262
367 220 -0.904525
219 221 -0.000333333
220 221 -5e-08
221 221 3.02838e-05
222 221 -0.991749
367 221 -0.00149342
221 222 -3.00339e-05
222 222 0.882613
223 222 -1
367 222 -5.08185e-08
222 223 -0.882613
223 223 2.38419e-07
224 223 -4.1943e+06
367 223 -0.188127
224 224 1
228 224 0.00641026
229 224 -0.00641026
225 225 -24.8995
227 225 -0.0401614
226 226 -24.8995
369 226 -0.0401614
225 227 23.8995
226 227 1
227 227 -0.0401614
228 227 0.159612
229 227 -0.159612
369 227 -1
223 228 -1
224 228 -4.1943e+06
228 228 26887.6
229 228 -0.999963
367 228 -6.99682e-06
216 229 1
229 229 -1
368 229 22553.2
230 230 1
230 231 2
231 231 1
232 231 -2
230 232 -2
232 232 2.5
237 232 -0.2
233 233 0.757971
236 233 -0.340344
234 234 6.01288
365 234 -1.6631e-13
235 235 1000
365 235 -1
233 236 -0.257971
236 236 1000.17
365 236 -0.99983
232 237 -0.5
237 237 1e+06
244 237 -1
365 237 -3.0303e-09
238 238 1
239 238 -24.8995
239 239 1
240 239 -1
240 240 1
243 240 3.20513
244 240 -3.20513
241 241 1
242 241 -1
242 242 1
366 242 -1
368 242 -691.489
241 243 -1
242 243 -1
243 243 1
366 243 -1
368 243 -691.489
237 244 -1e+06
243 244 -3.20513
244 244 3.5625
365 244 -0.000850611
366 244 -0.899685
368 244 -622.123
245 245 1000
246 245 -4.96245e-10
247 245 -3.65237e-06
265 245 -0.999996
245 246 -0.00365288
246 246 1000
247 246 3.65237e-06
248 246 -1
265 246 -3.65286e-06
245 247 -1.0021e-12
246 247 -1.0021e-12
247 247 1000
248 247 -1.0021e-15
265 247 -1.0021e-15
331 247 -1
246 248 -1000
247 248 0.00365237
248 248 0.000366211
265 248 -10.3388
331 248 9.36658
249 249 1000.07
250 249 -0.999933
249 250 -1000
250 250 0.137146
251 250 -0.256947
252 250 -0.256947
250 251 -0.0704722
251 251 1000.02
252 251 1.71249e-05
265 251 -0.999983
250 252 -6.43837e-06
251 252 -1.65501e-06
252 252 1000
253 252 -1
265 252 -1.65498e-09
252 253 -1000
253 253 0.0454712
265 253 -3.63963e-05
364 253 -0.999634
254 254 1000
255 254 -1.41955e-19
257 254 -1.04479e-15
254 255 -4.48724e-14
255 255 1000
256 255 -1
257 255 -9.55328e-16
255 256 -1000
256 256 1000.01
257 256 -9.55319e-16
258 256 -0.99999
254 257 -1.00006e-12
255 257 -1.00006e-12
256 257 -1.00006e-12
257 257 1000
258 257 -1.00005e-15
332 257 -1
256 258 -1000
257 258 -9.55319e-13
258 258 0.0100098
263 258 -1.0174e-10
264 258 -1.38233e-14
332 258 -9.54387e-11
259 259 2000
260 259 -0.5
264 259 -0.5
259 260 -1000
260 260 500.002
261 260 -3.41706e-06
262 260 -4.64274e-10
264 260 -0.999997
260 261 -0.00503977
261 261 1000.01
262 261 -5.03972e-06
264 261 -5.0397e-06
265 261 -0.99999
260 262 0.003331
261 262 -0.00837099
262 262 1000.01
264 262 3.33093e-06
265 262 -8.37087e-06
332 262 -0.999995
258 263 -0.0245335
263 263 1000.05
264 263 -2.45323e-05
265 263 -0.999951
332 263 -2.34133e-15
258 264 0.0245335
259 264 -1000
260 264 -500
261 264 -0.00170853
262 264 -2.40747e-07
263 264 -0.0490669
264 264 0.0262439
265 264 -1.93466
332 264 -9.17333e-06
245 265 -1000
246 265 -4.96245e-07
247 265 -0.00365237
248 265 -0.00013383
251 265 -1000
252 265 0.0171249
253 265 0.0171249
261 265 -1000
262 265 -0.00503972
263 265 -1000
264 265 -0.0295719
265 265 0.0214627
331 265 -0.111768
332 265 -0.234825
364 265 0.797601
266 266 1000
267 266 -1.40235e-19
268 266 -1.03213e-15
364 266 -1
266 267 -3.07765e-14
267 267 1000
268 267 -9.70857e-16
273 267 -1
364 267 -3.07765e-17
266 268 -1.00149e-12
267 268 -1.00149e-12
268 268 1000
273 268 -1.00149e-15
331 268 -1
364 268 -1.00149e-15
269 269 1000.07
270 269 -0.999933
365 269 -6.66622e-05
269 270 -1000
270 270 0.0666504
271 270 -1.50044e-11
272 270 -1.50044e-11
365 270 -1.00018
270 271 7.088e-05
271 271 1000
272 271 -7.08897e-08
331 271 -1
365 271 7.08926e-08
270 272 -7.088e-05
271 272 -9.63044e-09
272 272 1000
273 272 -1
331 272 -9.63044e-12
365 272 -7.08926e-08
267 273 -1000
268 273 -9.70857e-13
272 273 -1000
273 273 0.0370483
331 273 -2.59969e-07
364 273 -0.999695
365 273 -0.00191352
274 274 1000
275 274 -1.67205e-06
276 274 -2.27181e-10
274 275 -1.03213e-12
275 275 1000
276 275 -1.03213e-15
281 275 -1
274 276 -0.00167228
275 276 0.00167205
276 276 1000
281 276 -0.999998
277 277 1000
278 277 -1
277 278 -1000
278 278 0.249023
279 278 -0.999163
280 278 -0.000135756
278 279 -0.208105
279 279 1000.21
280 279 -0.00020809
330 279 -0.999792
278 280 -0.0407441
279 280 -0.208104
280 280 1000.21
281 280 -0.999792
330 280 -0.000208018
275 281 -1000
276 281 -1000
280 281 -1000
281 281 0.209656
285 281 -0.000122301
330 281 -0.992187
282 282 1000.01
283 282 -6.40223e-06
284 282 -6.83999e-10
365 282 -0.999994
282 283 -1.03213e-12
283 283 1000
284 283 -1.03213e-15
285 283 -1
365 283 -1.03212e-15
282 284 -0.00640296
283 284 0.00640223
284 284 1000
285 284 -0.999994
365 284 -6.40292e-06
281 285 -2.5641e-05
283 285 -1000
284 285 -1000
285 285 1000.01
287 285 -0.999994
330 285 -2.54405e-08
365 285 -6.40287e-06
286 286 1000.01
287 286 -6.83999e-10
288 286 -6.40223e-06
365 286 -0.999994
285 287 -1000
286 287 -0.00640296
287 287 0.00640869
288 287 0.998992
330 287 -0.00396969
365 287 -1.99819
286 288 -1.00005e-12
287 288 -1.00005e-12
288 288 1000
330 288 -3.96989e-18
331 288 -1
365 288 -2.99833e-15
289 289 1000
290 289 -0.999999
289 290 -1000
290 290 0.000976562
291 290 -3.93671e-09
292 290 -5.3488e-13
290 291 -1.00007e-12
291 291 1000
292 291 -1.00007e-15
332 291 -1
290 292 -2.8449e-12
291 292 1.84431e-12
292 292 1000
297 292 -1
332 292 1.84431e-15
293 293 1000
294 293 -0.999999
293 294 -1000
294 294 0.000976562
295 294 -3.93671e-09
296 294 -5.3488e-13
294 295 -1.00006e-12
295 295 1000
296 295 -1.00006e-15
303 295 -1
294 296 -2.8449e-12
295 296 1.84432e-12
296 296 1000
297 296 -1
303 296 1.84432e-15
292 297 -1000
296 297 -1000
297 297 1000
299 297 -1
303 297 1.84432e-15
332 297 1.84431e-15
298 298 1000
299 298 -1.49684e-06
300 298 1.49663e-06
303 298 -1
297 299 -1000
298 299 -2.03347e-07
299 299 0.00152588
300 299 -0.980834
303 299 -0.000133264
332 299 1.20869e-09
298 300 -1.00029e-12
299 300 -1.00029e-12
300 300 1000
303 300 -1.00042e-15
332 300 1.20903e-24
365 300 -1
301 301 1000.05
302 301 2.04267e-10
329 301 -5.24373e-05
330 301 -0.999948
301 302 -0.0524287
302 302 1000.1
303 302 -0.999895
329 302 -5.24259e-05
330 302 -5.24204e-05
295 303 -1000
296 303 -1.00006e-12
297 303 -1.00006e-12
298 303 -1000
299 303 -0.00149684
300 303 2.84849e-05
302 303 -1000
303 303 0.104858
329 303 -0.49997
330 303 -0.499917
332 303 1.72539e-11
365 303 0.000271651
304 304 1000.05
308 304 -5.56891e-09
309 304 -5.2125e-05
365 304 -0.999948
305 305 1000.05
306 305 -5.2125e-05
307 305 -5.56891e-09
365 305 -0.999948
305 306 -1.03213e-12
306 306 1000
307 306 -1.03213e-15
328 306 -1
365 306 -1.03208e-15
305 307 -0.0521333
306 307 0.052125
307 307 1000
328 307 -0.999948
365 307 -5.21306e-05
304 308 -0.0521333
308 308 1000
309 308 5.2125e-05
328 308 -1
365 308 -5.21306e-05
304 309 -1.0005e-12
308 309 -1.0005e-12
309 309 1000
328 309 -1.0005e-15
330 309 -1
365 309 -1.0005e-15
310 310 1000.35
311 310 -0.000698484
316 310 0.000349123
330 310 -0.999651
310 311 -0.349483
311 311 1000.7
316 311 -0.000349118
330 311 -0.000349117
332 311 -0.999302
312 312 2000
313 312 -0.5
316 312 -0.5
312 313 -1000
313 313 500
314 313 -7.50171e-08
315 313 -1.01925e-11
316 313 -1
313 314 -3.90678e-08
314 314 1000
315 314 -3.90678e-11
316 314 -3.90678e-11
328 314 -1
313 315 -3.74746e-05
314 315 3.74304e-05
315 315 1000
316 315 -3.74746e-08
328 315 3.74304e-08
367 315 -1
310 316 -2.55246e-08
311 316 -0.00023891
312 316 -1000
313 316 -500
314 316 -3.75086e-05
315 316 -5.09627e-09
316 316 0.000305176
328 316 -0.122908
330 316 -0.00035692
332 316 -0.782314
367 316 -1.66995e-05
317 317 1.43282
320 317 -0.00296512
318 318 0.01
323 318 -2.4023e-10
319 319 0.0100102
323 319 -0.99898
317 320 -0.00424848
320 320 100.004
323 320 -0.999958
321 321 0.391556
323 321 -0.969963
367 321 -0.0300374
322 322 0.379795
323 322 -1.01623e-11
367 322 -1
318 323 -2.4023e-12
319 323 -0.01
320 323 -100
321 323 -0.379795
322 323 -3.85959e-12
323 323 1000.02
327 323 -0.999984
365 323 -4.99992e-07
367 323 -1.14079e-05
324 324 2000
325 324 -0.5
329 324 -0.5
324 325 -1000
325 325 500.061
326 325 -0.000121793
327 325 -1.6548e-08
329 325 -0.999878
325 326 -0.00847231
326 326 1000.02
327 326 -8.47216e-06
328 326 -0.999983
329 326 -8.47113e-06
323 327 -1000
325 327 -0.0524401
326 327 0.0439531
327 327 0.0245365
328 327 1.7913
329 327 -2.13695
365 327 -0.0203775
367 327 -0.464934
306 328 -1000
307 328 -1000
308 328 -1000
309 328 0.052125
314 328 -1000
315 328 -3.90678e-08
316 328 -3.90678e-08
326 328 -1000
327 328 -0.00847216
328 328 0.084268
329 328 -0.315372
330 328 0.618562
332 328 -3.62691e-07
365 328 -1.23931
367 328 -0.0467441
301 329 -1.12027e-05
302 329 -0.104858
303 329 -0.104847
324 329 -1000
325 329 -500
326 329 -0.0608967
327 329 -8.78993e-06
328 329 -0.0608799
329 329 0.0941323
330 329 -0.156942
332 329 -2.34551e-07
365 329 -0.801218
367 329 -0.0302751
279 330 -1000
280 330 -0.20809
281 330 -0.208046
285 330 -2.54442e-05
287 330 -2.5444e-05
288 330 2.54184e-05
301 330 -1000
302 330 2.04267e-07
303 330 2.04246e-07
309 330 -1000
310 330 -1000
311 330 -0.698484
316 330 0.348879
328 330 0.04288
329 330 -0.0389141
330 330 0.370831
331 330 6.85443e-05
332 330 -1.14624
365 330 0.0590885
367 330 0.00224384
247 331 -1000
248 331 -0.000222222
265 331 -0.00229752
268 331 -1000
271 331 -1000
272 331 -7.08897e-05
273 331 -7.08896e-05
288 331 -1000
330 331 -3.96989e-15
331 331 0.00206255
332 331 -0.261577
364 331 0.854107
365 331 0.0343056
367 331 4.31883e-15
257 332 -1000
258 332 -1.00005e-12
262 332 -1000
263 332 -1.01745e-22
264 332 0.00333093
265 332 -0.00192664
291 332 -1000
292 332 -1.00007e-12
297 332 -1.00007e-12
299 332 -1.00007e-12
300 332 -9.80901e-13
303 332 -1.33273e-16
311 332 -1000
316 332 -0.349118
328 332 -0.0429093
329 332 -0.0135324
330 332 -0.324824
331 332 -0.000193072
332 332 0.0573582
364 332 0.0296662
365 332 -0.781408
367 332 -0.0295064
333 333 100
336 333 -1e-14
340 333 -1
334 334 0.01
340 334 -1.00082e-10
362 334 -1
335 335 1
340 335 -1
362 335 -1.18986e-12
333 336 -1e-12
336 336 0.335796
340 336 -2.97801e-12
362 336 -1
337 337 21.9246
338 337 -4.4787e-05
339 337 -0.00481913
337 338 -0.0326097
338 338 0.0885401
339 338 0.0910965
363 338 -0.724584
337 339 -0.0740297
338 339 -0.0234082
339 339 4.16095
340 339 -0.976157
363 339 -0.00407628
333 340 -100
334 340 -1.00082e-12
335 340 -1
336 340 -1e-12
339 340 -4.06174
340 340 0.0973468
362 340 -3.27764e-11
363 340 -0.170081
364 340 -0.00513628
341 341 100000
361 341 1e-05
410 341 -1
342 342 0.0143885
345 342 -6.95e-11
343 343 70.922
346 343 -1.58547e-12
344 344 1000
346 344 -1
342 345 -1e-12
345 345 1000
346 345 -1
343 346 -1.12445e-10
344 346 -1000
345 346 -1000
346 346 1.00001e+06
350 346 -6.57458e-06
366 346 -0.999993
347 347 1000
348 347 -1.33378e-10
350 347 -4.99012e-11
347 348 -1.8298e-07
348 348 0.0516798
349 348 -0.999996
350 348 5.90516e-08
348 349 -0.0516797
349 349 0.125
350 349 2.44141e-08
359 349 -0.999999
346 350 -6.57462
347 350 -2.99378e-10
348 350 -4.655e-08
349 350 -4.65499e-08
350 350 6.57458
359 350 -7.08027e-09
366 350 -1
351 351 17.8891
359 351 -1
360 351 -7.56776e-09
352 352 21.8267
353 352 -4.13298e-06
354 352 -0.000399656
359 352 -0.999596
352 353 0.00161933
353 353 0.0443937
354 353 -0.154136
359 353 0.0364618
362 353 -0.882326
352 354 -0.0104327
353 354 -0.00513381
354 354 4.07651
358 354 -0.996377
359 354 -0.00251228
362 354 -0.00111117
355 355 0.0380804
356 355 -0.61186
357 355 0.508338
358 355 -0.896479
355 356 -0.00394214
356 356 0.457583
357 356 -0.0380449
358 356 -0.00772328
362 356 -0.954232
355 357 -8.47321e-14
356 357 -5.48788e-05
357 357 5.16094
358 357 -8.21254e-08
360 357 -0.99999
362 357 -1.01468e-05
354 358 -4.06174
355 358 -0.0341383
356 358 -0.0208878
357 358 0.0165591
358 358 0.0205903
359 358 -0.495584
360 358 0.682795
362 358 -1.18721
349 359 -0.125
350 359 3.05176e-09
351 359 -17.8891
352 359 -21.8179
353 359 -9.01731e-05
354 359 -0.00873356
358 359 -0.00870192
359 359 0.0169817
360 359 0.349875
362 359 -0.760832
366 359 1.79709e-07
341 360 1
360 360 -1
361 360 1e-05
410 360 -1
351 361 -1.3538e-07
357 361 -5.16089
358 361 -0.00250042
359 361 -0.0012393
360 361 0.00602758
361 361 -1
362 361 0.00396379
363 361 0.00133333
366 361 -2.22714e-10
410 361 -0.00602758
334 362 -0.01
335 362 -1.18986e-12
336 362 -0.335796
340 362 -3.19068e-12
353 362 -0.0391698
354 362 -0.00603746
356 362 -0.43664
357 362 -0.0166119
358 362 -0.00938788
359 362 -0.00573945
360 362 -0.00819365
361 362 8.19365e-08
362 362 0.0115745
363 362 -9.48561e-09
364 362 -1.41589e-12
366 362 8.9112e-08
410 362 -0.707905
338 363 -0.0641547
339 363 0.00584427
340 363 0.00570493
360 363 -0.00133333
361 363 1.33333e-08
362 363 -5.26635e-11
363 363 0.0200967
364 363 0.00145805
365 363 -0.00497594
366 363 3.8128e-16
410 363 -0.0663459
253 364 -0.0454545
265 364 -1.65438e-06
266 364 -1000
267 364 -1.40235e-16
268 364 -1.03213e-12
273 364 -0.037037
331 364 -1.94536e-07
332 364 -4.39374e-07
340 364 -0.0005
362 364 -1.63882e-14
363 364 -8.50403e-05
364 364 0.00054322
365 364 -0.131863
366 364 6.23772e-17
367 364 -2.38657e-05
410 364 -0.0103863
234 365 -1e-12
235 365 -1000
236 365 -1000
237 365 -0.0030303
244 365 -0.0030303
269 365 -0.0666667
270 365 -0.0666622
271 365 -1.00023e-12
272 365 -1.00023e-12
273 365 -1.00023e-12
282 365 -1000
283 365 -0.00640223
284 365 -6.83999e-07
285 365 -0.00640292
286 365 -1000
287 365 -0.00640356
288 365 -5.12786e-06
300 365 -1000
303 365 -1.00042e-12
304 365 -1000
305 365 -1000
306 365 -0.052125
307 365 -5.56891e-06
308 365 -5.56891e-06
309 365 -0.052125
323 365 -0.0005
327 365 -0.000499992
328 365 -0.0512405
329 365 -0.0172283
330 365 -0.0231588
331 365 -3.54046e-06
332 365 -0.0265466
363 365 -0.0001
364 365 0.000790707
365 365 0.181525
366 365 -0.015019
367 365 -0.0213776
368 365 -10.3855
410 365 8.69285e-06
238 366 -1
239 366 -1
240 366 -1
243 366 3.20513
244 366 -3.20513
346 366 -1e+06
350 366 -6.57458
359 366 -4.65498e-08
360 366 1.62866e-08
361 366 -1.62866e-13
362 366 -3.54166e-08
363 366 -1.18793e-16
364 366 1.23061e-19
365 366 -0.00272632
366 366 0.309401
367 366 -0.000188371
368 366 718.487
370 366 -2.58564e-30
410 366 4.82045e-08
220 367 -0.0001
221 367 -4.52262e-08
222 367 -4.48531e-08
223 367 -4.48531e-08
224 367 -0.188127
228 367 0.00120595
229 367 -4.48199e-08
315 367 -1000
316 367 -3.74746e-05
321 367 -0.0117613
322 367 -0.379795
323 367 -0.011408
327 367 -0.0114079
328 367 0.0204678
329 367 -0.0179231
330 367 -0.0154735
331 367 1.06062e-06
332 367 -0.0177654
364 367 0.000526127
365 367 -0.00212536
366 367 -3.19208e-05
367 367 0.0059889
368 367 0.312684
370 367 -1.37815e-32
410 367 0.00091553
368 368 1
202 369 -0.0172414
215 369 -0.0172414
226 369 23.8995
366 369 -8e-31
367 369 -1.50697e-34
368 369 5.7479e-28
369 369 -0.0401614
370 369 -0.000195348
386 369 0.000191837
410 369 -4.39554e-36
217 370 1
229 370 1
368 370 -29601.1
370 370 -1
371 371 -1
372 372 -1
384 372 -1
373 373 0.000165357
375 373 -0.0681794
374 374 0.000333533
376 374 -0.9994
373 375 -1.1274e-05
375 375 0.000110555
376 375 -0.000452262
389 375 -0.904525
374 376 -0.000333333
375 376 -5e-08
376 376 3.02838e-05
377 376 -0.991749
389 376 -0.00149342
376 377 -3.00339e-05
377 377 0.882613
378 377 -1
389 377 -5.08185e-08
377 378 -0.882613
378 378 2.38419e-07
379 378 -4.1943e+06
389 378 -0.188127
379 379 1
383 379 0.00641026
384 379 -0.00641026
380 380 -24.8995
382 380 -0.0401614
381 381 -24.8995
385 381 -0.0401614
380 382 23.8995
381 382 1
382 382 -0.0401614
383 382 0.159612
384 382 -0.159612
385 382 -1
378 383 -1
379 383 -4.1943e+06
383 383 26887.6
384 383 -0.999963
389 383 -6.99682e-06
371 384 1
384 384 -1
387 384 22553.2
213 385 -0.0172414
214 385 -2191.38
215 385 -7.70949e-06
370 385 -7.70598e-06
381 385 23.8995
385 385 -0.0401614
386 385 -0.000195726
388 385 1.99196e-29
372 386 1
384 386 1
386 386 -1
387 386 29601.1
387 387 1
169 388 -1e+06
173 388 -6.57458
182 388 -4.65498e-08
183 388 1.62866e-08
184 388 -1.62866e-13
185 388 -3.54166e-08
186 388 -1.18793e-16
195 388 -1
196 388 -1
197 388 -1
200 388 3.20513
201 388 -3.20513
386 388 -8e-31
387 388 222.329
388 388 0.291814
390 388 -0.00934264
391 388 4.21701e-19
392 388 -3.01046e-08
138 389 -1000
139 389 -0.0130792
144 389 -0.0117315
145 389 -0.379795
146 389 -0.01138
150 389 -0.0113798
151 389 0.0205579
152 389 -0.0178398
153 389 -0.015518
154 389 1.98331e-06
155 389 -0.0542492
375 389 -0.0001
376 389 -4.52262e-08
377 389 -4.48531e-08
378 389 -4.48531e-08
379 389 -0.188127
383 389 0.00120594
384 389 -4.48199e-08
387 389 0.00101083
389 389 0.00600502
390 389 -0.332648
391 389 0.0927486
92 390 -0.0666667
93 390 -0.0666622
94 390 -1.00023e-12
95 390 -1.00023e-12
96 390 -1.00023e-12
105 390 -1000
106 390 -0.00640232
107 390 -6.84008e-07
108 390 -0.006403
109 390 -1000
110 390 -0.00640364
111 390 -5.04311e-06
123 390 -1000
126 390 -1.00042e-12
127 390 -1000
128 390 -1000
129 390 -0.0521263
130 390 -5.56905e-06
131 390 -5.56905e-06
132 390 -0.0521263
146 390 -0.0005
150 390 -0.000499992
151 390 -0.0512414
152 390 -0.0172362
153 390 -0.0231295
154 390 -2.08701e-06
155 390 -0.0805649
186 390 -0.0001
191 390 -1e-12
192 390 -1000
193 390 -1000
194 390 -0.0030303
201 390 -0.0030303
387 390 -1.88522
388 390 -0.00272632
389 390 -0.00385923
390 390 0.180362
391 390 0.00659515
392 390 -3.67854e-05
76 391 -0.0454545
88 391 -1.65376e-06
89 391 -1000
90 391 -1.40235e-16
91 391 -1.03213e-12
96 391 -0.037037
154 391 -1.94474e-07
155 391 -4.39209e-07
163 391 -0.0005
185 391 -1.63882e-14
186 391 -8.50403e-05
388 391 3.38846e-20
389 391 -1.52018e-08
390 391 -7.17236e-05
391 391 0.000543682
392 391 -0.0103824
61 392 -100000
64 392 -1
65 392 8.33333
67 392 -8.33958
164 392 -100000
184 392 1
185 392 -0.00396379
186 392 -0.00133333
388 392 5.75935e-10
390 392 -6.63459e-06
391 392 1.9878e-06
392 392 8.33647
404 392 -465.29
405 392 -1.00038
393 393 26.9179
394 393 -2.59972e-09
393 394 -6.99791e-08
394 394 100000
402 394 -1
408 394 -5e-09
395 395 1
404 395 -2325.58
409 395 -1
396 396 100000
402 396 -1
409 396 -1.18e-35
397 397 1
400 397 -3635.14
398 398 1
401 398 -1
398 399 0.714286
399 399 1
401 399 0.714286
402 399 -0.714286
399 400 -1
400 400 1
401 400 100001
402 400 -0.71461
403 400 -100000
395 401 -1
401 401 1
404 401 -2325.58
409 401 -1
394 402 -100000
396 402 -100000
398 402 -0.714286
401 402 -0.71461
402 402 0.71875
404 402 -2312.19
408 402 -0.000695652
409 402 -0.994242
67 403 -2e-31
401 403 -100000
403 403 100000
404 403 -2325.58
405 403 -2e-36
409 403 -1
404 404 1
35 405 -100000
37 405 1
40 405 0.000275093
41 405 18.1933
49 405 -1.99969e-31
61 405 -1.18e-30
62 405 -100000
63 405 -1
66 405 -1
67 405 8.33958
392 405 -8.33962
403 405 -2e-31
404 405 -5642.8
405 405 18.3933
406 405 -0.989134
409 405 -5.43678e-10
35 406 -1.18e-30
38 406 -1
39 406 18.1818
41 406 -18.1961
56 406 -100000
57 406 -31.78
58 406 -5.90855e-11
59 406 -8.41421e-12
404 406 5642.2
405 406 -18.1962
406 406 0.200199
407 406 -2.95134e-10
408 406 -2.00139e-12
409 406 -4.94151e-08
42 407 -1.18e-30
45 407 -1.2987
48 407 -1.29931
55 407 -100000
58 407 -8.89759
59 407 -4.43362e-10
404 407 2215.87
406 407 -5.81108e-11
407 407 1.29772
408 407 -1.62688e-11
409 407 -1.00122
53 408 -0.01
54 408 -0.0005
59 408 -0.00045847
394 408 -0.0005
402 408 -0.0005
404 408 -1.15609
406 408 -4.47093e-13
407 408 -2.10661e-11
408 408 100000
409 408 -1
42 409 -100000
44 409 1
47 409 0.000275093
48 409 99986
49 409 -99984.7
396 409 -1.18e-30
397 409 -1
400 409 -1
401 409 100001
402 409 -0.714612
403 409 -100000
404 409 -2208
405 409 -1e-08
406 409 -9.89134e-09
407 409 -1.29911
408 409 -100000
409 409 0.0078125
28 410 -100000
31 410 -1
32 410 8.33333
34 410 -8.33958
341 410 -100000
361 410 1
362 410 -0.00396379
363 410 -0.00133333
364 410 1.94407e-06
365 410 -6.37824e-06
366 410 -9.52188e-08
367 410 -1.36323e-07
368 410 2.21509e-06
370 410 -2.4808e-37
410 410 8.33647
424 410 -465.29
425 410 -1.00038
411 411 26.9179
412 411 -2.59972e-09
411 412 -6.99791e-08
412 412 100000
420 412 -1
422 412 -5e-09
413 413 1
424 413 -2325.58
427 413 -1
414 414 100000
420 414 -1
427 414 -1.18e-35
415 415 1
418 415 -3635.14
416 416 1
419 416 -1
416 417 0.714286
417 417 1
419 417 0.714286
420 417 -0.714286
417 418 -1
418 418 1
419 418 100001
420 418 -0.71461
421 418 -100000
413 419 -1
419 419 1
424 419 -2325.58
427 419 -1
412 420 -100000
414 420 -100000
416 420 -0.714286
419 420 -0.71461
420 420 0.71875
422 420 -0.000695652
424 420 -2312.19
427 420 -0.994242
34 421 -2e-31
419 421 -100000
421 421 100000
424 421 -2325.58
425 421 -2e-36
427 421 -1
20 422 -0.01
21 422 -0.0005
26 422 -0.00045847
412 422 -0.0005
420 422 -0.0005
422 422 100000
424 422 -1.15609e-05
426 422 -4.47093e-18
427 422 -1
428 422 -2.10661e-16
9 423 -2e-31
16 423 -100000
423 423 100000
424 423 1705.43
425 423 -2e-36
427 423 -1
424 424 1
3 425 -100000
5 425 1
8 425 0.000275093
9 425 18.1933
28 425 -1.18e-30
29 425 -100000
30 425 -1
33 425 -1
34 425 8.33958
410 425 -8.33962
421 425 -2e-31
423 425 -1.99969e-31
424 425 -5642.8
425 425 18.3933
426 425 -0.989134
427 425 -5.43678e-10
3 426 -1.18e-30
6 426 -1
7 426 18.1818
9 426 -18.1961
23 426 -100000
24 426 -31.78
25 426 -5.90855e-11
26 426 -8.41421e-12
422 426 -4.00676e-13
424 426 5642.2
425 426 -18.1962
426 426 0.200199
427 426 -4.94171e-08
428 426 -2.95134e-10
10 427 -100000
12 427 1
15 427 0.000275093
16 427 99986
414 427 -1.18e-30
415 427 -1
418 427 -1
419 427 100001
420 427 -0.714612
421 427 -100000
422 427 -100000
423 427 -99984.7
424 427 -2209.16
425 427 -1e-08
426 427 -9.89179e-09
427 427 1.30469
428 427 -0.995726
10 428 -1.18e-30
13 428 -1.2987
16 428 -1.29931
22 428 -100000
25 428 -8.89759
26 428 -4.43362e-10
422 428 -2.11125e-11
424 428 2215.87
426 428 -5.81108e-11
427 428 -1.29931
428 428 0.00396764
429 429 1
430 430 1
