%MatrixMarket matrix coordinate real general
1020 1020 5883
1 1 5.9523809523810006e-04
34 1 -1.5677900496717969e-08
1015 1 4.7190480495121078e-06
1016 1 -4.7033701490153903e-06
1 2 1.0000000000000000e+00
2 2 3.1000000000000005e-01
33 2 -1.0000000000000000e-02
982 2 -1.0000000000000001e-01
984 2 -1.0000000000000001e-01
985 2 -1.0000000000000001e-01
3 3 1.0000000000000000e+00
7 3 1.0000000000000000e+00
4 4 1.0000000000000000e+00
7 4 -5.0000000000000000e-01
5 5 1.0000000000000000e+00
7 5 1.0714285714285765e-01
6 6 1.0000000000000000e+00
7 6 -1.1904761904761779e-02
7 7 5.9523809523810006e-04
8 8 5.9523809523810006e-04
30 8 -1.2542320397374375e-07
34 8 1.4110110447046171e-07
1015 8 -1.5677900496717969e-08
9 9 5.9523809523810006e-04
30 9 -1.5677900496717967e-07
31 9 1.5677900496717967e-07
10 10 5.9523809523810006e-04
10 11 -1.1904761904761779e-02
11 11 1.0000000000000000e+00
30 11 -2.0000000000000000e-02
31 11 2.0000000000000000e-02
34 11 -1.0000000000000000e+00
10 12 1.0714285714285765e-01
12 12 1.0000000000000000e+00
29 12 -2.0000000000000000e-02
116 12 2.0000000000000000e-02
1009 12 -1.0000000000000000e+00
10 13 -5.0000000000000000e-01
13 13 1.0000000000000000e+00
27 13 2.0000000000000000e-02
28 13 -2.0000000000000000e-02
997 13 -1.0000000000000000e+00
10 14 1.0000000000000000e+00
14 14 1.0000000000000000e+00
26 14 2.0000000000000000e-02
32 14 -1.0000000000000000e+00
33 14 -2.0000000000000000e-02
15 15 5.9523809523810006e-04
30 15 2.8220220894092341e-07
31 15 -1.5677900496717967e-07
34 15 -1.2542320397374375e-07
16 16 5.9523809523810006e-04
16 17 1.0000000000000000e+00
17 17 1.0000000000000000e+00
26 17 -1.0000000000000000e+00
32 17 9.8999999999999999e-01
33 17 -9.8999999999999999e-01
18 18 5.9523809523810006e-04
18 19 -1.1904761904761779e-02
19 19 1.0000000000000000e+00
23 19 9.0149207520533604e-04
30 19 -9.0149207520533604e-04
18 20 1.0714285714285765e-01
20 20 1.0000000000000000e+00
23 20 -1.0302935928996486e-07
25 20 9.0149207520533604e-04
29 20 -9.0149207520533604e-04
30 20 1.0302935928996486e-07
18 21 -5.0000000000000000e-01
21 21 1.0000000000000000e+00
23 21 -2.4639739615779480e-08
24 21 9.0149207520533604e-04
25 21 -6.8686239526643242e-08
28 21 -9.0149207520533604e-04
29 21 6.8686239526643242e-08
30 21 2.4639739615779480e-08
17 22 9.0149207520533604e-04
18 22 1.0000000000000000e+00
22 22 1.0000000000000000e+00
23 22 1.5421645948777657e-09
24 22 -3.4343119763321621e-08
25 22 -8.2132465385931600e-09
28 22 3.4343119763321621e-08
29 22 8.2132465385931600e-09
30 22 -1.5421645948777657e-09
33 22 -9.0149207520533604e-04
16 23 -1.1904761904761779e-02
23 23 1.0000000000000000e+00
30 23 -9.8999999999999999e-01
31 23 -1.0000000000000000e+00
34 23 9.8999999999999999e-01
15 24 -5.0000000000000000e-01
23 24 2.4639739615779480e-08
24 24 -9.0149207520533604e-04
25 24 6.8686239526643242e-08
26 24 -1.5677900496717967e-07
28 24 1.0901492075205335e-02
29 24 -6.8686239526643242e-08
30 24 -2.4639739615779480e-08
32 24 -1.2542320397374375e-07
33 24 2.8220220894092341e-07
990 24 -1.0000000000000000e-02
15 25 1.0714285714285765e-01
23 25 1.0302935928996486e-07
25 25 -9.0149207520533604e-04
27 25 -1.5677900496717967e-07
28 25 2.8220220894092341e-07
29 25 1.0901492075205335e-02
30 25 -1.0302935928996486e-07
997 25 -1.2542320397374375e-07
1002 25 -1.0000000000000000e-02
9 26 1.0000000000000000e+00
22 26 -1.0000000000000000e+00
26 26 1.0000000000000000e+00
113 26 -1.0000000000000000e+00
9 27 -5.0000000000000000e-01
21 27 -1.0000000000000000e+00
26 27 1.5677900496717967e-07
27 27 1.0000000000000000e+00
33 27 -1.5677900496717967e-07
114 27 -1.0000000000000000e+00
16 28 -5.0000000000000000e-01
24 28 1.0000000000000000e+00
27 28 -1.0000000000000000e+00
28 28 -9.8999999999999999e-01
997 28 9.8999999999999999e-01
16 29 1.0714285714285765e-01
25 29 1.0000000000000000e+00
29 29 -9.8999999999999999e-01
116 29 -1.0000000000000000e+00
1009 29 9.8999999999999999e-01
15 30 -1.1904761904761779e-02
23 30 -9.0149207520533604e-04
29 30 2.8220220894092341e-07
30 30 1.0901492075205335e-02
116 30 -1.5677900496717967e-07
1009 30 -1.2542320397374375e-07
1015 30 -1.0000000000000000e-02
9 31 -1.1904761904761779e-02
19 31 -1.0000000000000000e+00
29 31 -1.5677900496717967e-07
31 31 1.0000000000000000e+00
115 31 -1.0000000000000000e+00
116 31 1.5677900496717967e-07
3 32 -1.0000000000000000e+00
8 32 1.0000000000000000e+00
32 32 1.0000000000000001e-01
977 32 -1.0000000000000001e-01
2 33 -1.0000000000000000e-02
15 33 1.0000000000000000e+00
17 33 -9.0149207520533604e-04
23 33 -1.5421645948777657e-09
24 33 3.4343119763321621e-08
25 33 8.2132465385931600e-09
28 33 -3.4343119763321621e-08
29 33 -8.2132465385931600e-09
30 33 1.5421645948777657e-09
33 33 1.0901492075205335e-02
6 34 -1.0000000000000000e+00
8 34 -1.1904761904761779e-02
29 34 -1.2542320397374375e-07
34 34 1.0000000000000001e-01
1002 34 -1.5677900496717969e-08
1009 34 1.4110110447046171e-07
1013 34 -1.0000000000000001e-01
35 35 5.9523809523810006e-04
35 36 -1.1904761904761779e-02
36 36 1.0100000000000000e+00
73 36 -1.0000000000000000e+00
1014 36 -1.0000000000000000e-02
35 37 1.0714285714285765e-01
37 37 1.0100000000000000e+00
72 37 -1.0000000000000000e+00
1000 37 -1.0000000000000000e-02
35 38 -5.0000000000000000e-01
38 38 1.0100000000000000e+00
71 38 -1.0000000000000000e+00
988 38 -1.0000000000000000e-02
39 39 5.9523809523810006e-04
70 39 -1.5677900496717969e-08
115 39 1.5677900496717969e-08
39 40 1.0714285714285765e-01
40 40 1.0100199999999999e+00
69 40 -1.0000000000000000e-02
75 40 -1.5677900496717969e-08
114 40 1.5677900496717969e-08
116 40 -1.0000000000000000e+00
1000 40 -2.0000000000000002e-05
41 41 5.9523809523810006e-04
67 41 -1.2542320397374375e-07
70 41 1.4110110447046171e-07
115 41 -1.5677900496717969e-08
42 42 5.9523809523810006e-04
42 43 1.0000000000000000e+00
43 43 1.0000000000000000e+00
64 43 -2.0000000000000000e-02
65 43 2.0000000000000000e-02
112 43 -1.0000000000000000e+00
44 44 5.9523809523810006e-04
44 45 -1.1904761904761779e-02
45 45 1.0000000000000000e+00
63 45 5.3685949167087698e-195
67 45 -5.3685949167087698e-195
44 46 1.0714285714285765e-01
46 46 1.0000000000000000e+00
50 46 5.3685949167087698e-195
63 46 3.9941834838718506e-193
67 46 -3.9941834838718506e-193
69 46 -5.3685949167087698e-195
44 47 -5.0000000000000000e-01
47 47 1.0000000000000000e+00
49 47 5.3685949167087698e-195
50 47 2.6627889892479004e-193
63 47 9.9026412831441968e-192
66 47 -5.3685949167087698e-195
67 47 -9.9026412831441968e-192
69 47 -2.6627889892479004e-193
43 48 5.3685949167087698e-195
44 48 1.0000000000000000e+00
48 48 1.0000000000000000e+00
49 48 1.3313944946239502e-193
50 48 3.3008804277147320e-192
63 48 8.1814174594083340e-191
64 48 -5.3685949167087698e-195
66 48 -1.3313944946239502e-193
67 48 -8.1814174594083340e-191
69 48 -3.3008804277147320e-192
42 49 -5.0000000000000000e-01
49 49 1.0000000000000000e+00
66 49 -2.0000000000000000e-02
71 49 2.0000000000000000e-02
75 49 -1.0000000000000000e+00
42 50 1.0714285714285765e-01
50 50 1.0000000000000000e+00
68 50 -1.0000000000000000e+00
69 50 -2.0000000000000000e-02
72 50 2.0000000000000000e-02
51 51 5.9523809523810006e-04
67 51 2.8220220894092341e-07
70 51 -1.2542320397374375e-07
73 51 -1.5677900496717967e-07
52 52 5.9523809523810006e-04
52 53 1.0000000000000000e+00
53 53 1.0000000000000000e+00
64 53 -9.8999999999999999e-01
65 53 -1.0000000000000000e+00
112 53 9.8999999999999999e-01
54 54 5.9523809523810006e-04
67 54 -1.5677900496717967e-07
73 54 1.5677900496717967e-07
55 55 5.9523809523810006e-04
55 56 -1.1904761904761779e-02
56 56 1.0000000000000000e+00
62 56 2.9223056890586994e-02
67 56 -2.9223056890586994e-02
55 57 1.0714285714285765e-01
57 57 1.0000000000000000e+00
61 57 2.9223056890586994e-02
62 57 -2.2888923459966104e-06
67 57 2.2888923459966104e-06
69 57 -2.9223056890586994e-02
55 58 -5.0000000000000000e-01
58 58 1.0000000000000000e+00
60 58 2.9223056890586994e-02
61 58 -1.5259282306644067e-06
62 58 -6.6730500890987242e-07
66 58 -2.9223056890586994e-02
67 58 6.6730500890987242e-07
69 58 1.5259282306644067e-06
53 59 2.9223056890586994e-02
55 59 1.0000000000000000e+00
59 59 1.0000000000000000e+00
60 59 -7.6296411533220335e-07
61 59 -2.2243500296995744e-07
62 59 3.5557300150029018e-08
64 59 -2.9223056890586994e-02
66 59 7.6296411533220335e-07
67 59 -3.5557300150029018e-08
69 59 2.2243500296995744e-07
52 60 -5.0000000000000000e-01
60 60 1.0000000000000000e+00
66 60 -9.8999999999999999e-01
71 60 -1.0000000000000000e+00
75 60 9.8999999999999999e-01
52 61 1.0714285714285765e-01
61 61 1.0000000000000000e+00
68 61 9.8999999999999999e-01
69 61 -9.8999999999999999e-01
72 61 -1.0000000000000000e+00
52 62 -1.1904761904761779e-02
62 62 1.0000000000000000e+00
67 62 -9.8999999999999999e-01
70 62 9.8999999999999999e-01
73 62 -1.0000000000000000e+00
42 63 -1.1904761904761779e-02
63 63 1.0000000000000000e+00
67 63 -2.0000000000000000e-02
70 63 -1.0000000000000000e+00
73 63 2.0000000000000000e-02
43 64 -5.3685949167087698e-195
49 64 -1.3313944946239502e-193
50 64 -3.3008804277147320e-192
51 64 1.0000000000000000e+00
53 64 -2.9223056890586994e-02
60 64 7.6296411533220335e-07
61 64 2.2243500296995744e-07
62 64 -3.5557300150029018e-08
63 64 -8.1814174594083340e-191
64 64 3.9223056890586992e-02
66 64 -7.6296411533220335e-07
67 64 3.5557300150029018e-08
69 64 -2.2243500296995744e-07
113 64 -1.0000000000000000e-02
54 65 1.0000000000000000e+00
59 65 -1.0000000000000000e+00
65 65 1.0000000000000000e+00
74 65 -1.0000000000000000e+00
49 66 -5.3685949167087698e-195
50 66 -2.6627889892479004e-193
51 66 -5.0000000000000000e-01
60 66 -2.9223056890586994e-02
61 66 1.5259282306644067e-06
62 66 6.6730500890987242e-07
63 66 -9.9026412831441968e-192
64 66 2.8220220894092341e-07
65 66 -1.5677900496717967e-07
66 66 3.9223056890586992e-02
67 66 -6.6730500890987242e-07
69 66 -1.5259282306644067e-06
112 66 -1.2542320397374375e-07
114 66 -1.0000000000000000e-02
51 67 -1.1904761904761779e-02
62 67 -2.9223056890586994e-02
63 67 -5.3685949167087698e-195
67 67 3.9223056890586992e-02
68 67 -1.2542320397374375e-07
69 67 2.8220220894092341e-07
72 67 -1.5677900496717967e-07
115 67 -1.0000000000000000e-02
41 68 1.0714285714285765e-01
46 68 -1.0000000000000000e+00
66 68 -1.2542320397374375e-07
68 68 1.0000000000000001e-01
75 68 1.4110110447046171e-07
114 68 -1.5677900496717969e-08
1003 68 -1.0000000000000001e-01
40 69 -1.0000000000000000e-02
50 69 -5.3685949167087698e-195
51 69 1.0714285714285765e-01
61 69 -2.9223056890586994e-02
62 69 2.2888923459966104e-06
63 69 -3.9941834838718506e-193
66 69 2.8220220894092341e-07
67 69 -2.2888923459966104e-06
69 69 3.9223056890586992e-02
71 69 -1.5677900496717967e-07
75 69 -1.2542320397374375e-07
40 70 -1.5677900496717969e-08
41 70 -1.1904761904761779e-02
45 70 -1.0000000000000000e+00
68 70 1.4110110447046171e-07
69 70 -1.2542320397374375e-07
70 70 1.0000000000000001e-01
1016 70 -1.0000000000000001e-01
38 71 -1.0000000000000000e+00
54 71 -5.0000000000000000e-01
58 71 -1.0000000000000000e+00
64 71 -1.5677900496717967e-07
65 71 1.5677900496717967e-07
71 71 1.0000000000000000e+00
37 72 -1.0000000000000000e+00
54 72 1.0714285714285765e-01
57 72 -1.0000000000000000e+00
66 72 -1.5677900496717967e-07
71 72 1.5677900496717967e-07
72 72 1.0000000000000000e+00
36 73 -1.0000000000000000e+00
54 73 -1.1904761904761779e-02
56 73 -1.0000000000000000e+00
69 73 -1.5677900496717967e-07
72 73 1.5677900496717967e-07
73 73 1.0000000000000000e+00
35 74 1.0000000000000000e+00
65 74 -1.0000000000000000e+00
74 74 1.0100000000000000e+00
978 74 -1.0000000000000000e-02
41 75 -5.0000000000000000e-01
47 75 -1.0000000000000000e+00
64 75 -1.2542320397374375e-07
75 75 1.0000000000000001e-01
112 75 1.4110110447046171e-07
113 75 -1.5677900496717969e-08
991 75 -1.0000000000000001e-01
76 76 5.9523809523810006e-04
110 76 -1.5677900496717969e-08
1015 76 -4.7033701490153903e-06
1016 76 4.7190480495121078e-06
76 77 1.0000000000000000e+00
77 77 2.1000000000000002e-01
109 77 -1.0000000000000000e-02
112 77 -1.0000000000000001e-01
981 77 -1.0000000000000001e-01
78 78 5.9523809523810006e-04
103 78 -1.2542320397374375e-07
110 78 1.4110110447046171e-07
1016 78 -1.5677900496717969e-08
79 79 5.9523809523810006e-04
103 79 2.8220220894092341e-07
104 79 -1.5677900496717967e-07
110 79 -1.2542320397374375e-07
80 80 5.9523809523810006e-04
80 81 1.0000000000000000e+00
81 81 -1.0000000000000000e+00
107 81 1.0000000000000000e+00
109 81 2.0000000000000000e-02
983 81 -2.0000000000000000e-02
82 82 5.9523809523810006e-04
82 83 -1.1904761904761779e-02
83 83 -1.0000000000000000e+00
88 83 3.7461423284388352e-208
103 83 -3.7461423284388352e-208
82 84 1.0714285714285765e-01
84 84 -1.0000000000000000e+00
88 84 2.7871312699319201e-206
101 84 3.7461423284388352e-208
103 84 -2.7871312699319201e-206
108 84 -3.7461423284388352e-208
82 85 -5.0000000000000000e-01
85 85 -1.0000000000000000e+00
87 85 3.7461423284388352e-208
88 85 6.9101306609472252e-205
101 85 1.8580875132879465e-206
103 85 -6.9101306609472252e-205
105 85 -3.7461423284388352e-208
108 85 -1.8580875132879465e-206
81 86 3.7461423284388352e-208
82 86 1.0000000000000000e+00
86 86 -1.0000000000000000e+00
87 86 9.2904375664397327e-207
88 86 5.7091255028809873e-204
101 86 2.3033768869824083e-205
103 86 -5.7091255028809873e-204
105 86 -9.2904375664397327e-207
108 86 -2.3033768869824083e-205
109 86 -3.7461423284388352e-208
80 87 -5.0000000000000000e-01
87 87 -1.0000000000000000e+00
102 87 -2.0000000000000000e-02
105 87 2.0000000000000000e-02
111 87 1.0000000000000000e+00
80 88 -1.1904761904761779e-02
88 88 -1.0000000000000000e+00
103 88 2.0000000000000000e-02
104 88 -2.0000000000000000e-02
110 88 1.0000000000000000e+00
89 89 5.9523809523810006e-04
89 90 1.0000000000000000e+00
90 90 -1.0000000000000000e+00
107 90 -9.8999999999999999e-01
109 90 9.8999999999999999e-01
983 90 1.0000000000000000e+00
91 91 5.9523809523810006e-04
103 91 -1.5677900496717967e-07
104 91 1.5677900496717967e-07
92 92 5.9523809523810006e-04
92 93 -1.1904761904761779e-02
93 93 -1.0000000000000000e+00
100 93 2.8623773525280425e-02
103 93 -2.8623773525280425e-02
92 94 1.0714285714285765e-01
94 94 -1.0000000000000000e+00
99 94 2.8623773525280425e-02
100 94 7.3092275406898714e-05
103 94 -7.3092275406898714e-05
108 94 -2.8623773525280425e-02
92 95 -5.0000000000000000e-01
95 95 -1.0000000000000000e+00
98 95 2.8623773525280425e-02
99 95 4.8728183604599140e-05
100 95 -5.7915668962777742e-07
103 95 5.7915668962777742e-07
105 95 -2.8623773525280425e-02
108 95 -4.8728183604599140e-05
91 96 1.0714285714285765e-01
94 96 1.0000000000000000e+00
96 96 1.0000000000000000e+00
102 96 1.5677900496717967e-07
105 96 -1.5677900496717967e-07
1005 96 -1.0000000000000000e+00
90 97 2.8623773525280425e-02
92 97 1.0000000000000000e+00
97 97 -1.0000000000000000e+00
98 97 2.4364091802299570e-05
99 97 -1.9305222987592581e-07
100 97 -4.6819994947460657e-08
103 97 4.6819994947460657e-08
105 97 -2.4364091802299570e-05
108 97 1.9305222987592581e-07
109 97 -2.8623773525280425e-02
89 98 -5.0000000000000000e-01
98 98 -1.0000000000000000e+00
102 98 1.0000000000000000e+00
105 98 9.8999999999999999e-01
111 98 -9.8999999999999999e-01
89 99 1.0714285714285765e-01
96 99 1.0000000000000000e+00
99 99 -1.0000000000000000e+00
106 99 -9.8999999999999999e-01
108 99 9.8999999999999999e-01
89 100 -1.1904761904761779e-02
100 100 -1.0000000000000000e+00
103 100 9.8999999999999999e-01
104 100 1.0000000000000000e+00
110 100 -9.8999999999999999e-01
80 101 1.0714285714285765e-01
96 101 -2.0000000000000000e-02
101 101 -1.0000000000000000e+00
106 101 1.0000000000000000e+00
108 101 2.0000000000000000e-02
91 102 -5.0000000000000000e-01
95 102 1.0000000000000000e+00
102 102 1.0000000000000000e+00
109 102 -1.5677900496717967e-07
983 102 1.5677900496717967e-07
993 102 -1.0000000000000000e+00
79 103 -1.1904761904761779e-02
88 103 -3.7461423284388352e-208
96 103 -1.5677900496717967e-07
100 103 -2.8623773525280425e-02
103 103 3.8623773525280423e-02
106 103 -1.2542320397374375e-07
108 103 2.8220220894092341e-07
1016 103 -1.0000000000000000e-02
91 104 -1.1904761904761779e-02
93 104 1.0000000000000000e+00
96 104 1.5677900496717967e-07
104 104 1.0000000000000000e+00
108 104 -1.5677900496717967e-07
1018 104 -1.0000000000000000e+00
79 105 -5.0000000000000000e-01
87 105 -3.7461423284388352e-208
88 105 -6.9101306609472252e-205
98 105 -2.8623773525280425e-02
99 105 -4.8728183604599140e-05
100 105 5.7915668962777742e-07
101 105 -1.8580875132879465e-206
103 105 -5.7915668962777742e-07
105 105 3.8623773525280423e-02
107 105 -1.2542320397374375e-07
108 105 4.8728183604599140e-05
109 105 2.8220220894092341e-07
983 105 -1.5677900496717967e-07
991 105 -1.0000000000000000e-02
78 106 1.0714285714285765e-01
84 106 1.0000000000000000e+00
105 106 -1.2542320397374375e-07
106 106 1.0000000000000001e-01
111 106 1.4110110447046171e-07
991 106 -1.5677900496717969e-08
1000 106 -1.0000000000000001e-01
78 107 1.0000000000000000e+00
86 107 1.0000000000000000e+00
107 107 1.0000000000000001e-01
978 107 -1.0000000000000001e-01
79 108 1.0714285714285765e-01
88 108 -2.7871312699319201e-206
99 108 -2.8623773525280425e-02
100 108 -7.3092275406898714e-05
101 108 -3.7461423284388352e-208
102 108 -1.5677900496717967e-07
103 108 7.3092275406898714e-05
105 108 2.8220220894092341e-07
108 108 3.8623773525280423e-02
111 108 -1.2542320397374375e-07
1003 108 -1.0000000000000000e-02
77 109 -1.0000000000000000e-02
79 109 1.0000000000000000e+00
81 109 -3.7461423284388352e-208
87 109 -9.2904375664397327e-207
88 109 -5.7091255028809873e-204
90 109 -2.8623773525280425e-02
98 109 -2.4364091802299570e-05
99 109 1.9305222987592581e-07
100 109 4.6819994947460657e-08
101 109 -2.3033768869824083e-205
103 109 -4.6819994947460657e-08
105 109 2.4364091802299570e-05
108 109 -1.9305222987592581e-07
109 109 3.8623773525280423e-02
78 110 -1.1904761904761779e-02
83 110 1.0000000000000000e+00
106 110 1.4110110447046171e-07
108 110 -1.2542320397374375e-07
110 110 1.0000000000000001e-01
1003 110 -1.5677900496717969e-08
1014 110 -1.0000000000000001e-01
77 111 -1.5677900496717969e-08
78 111 -5.0000000000000000e-01
85 111 1.0000000000000000e+00
107 111 1.4110110447046171e-07
109 111 -1.2542320397374375e-07
111 111 1.0000000000000001e-01
988 111 -1.0000000000000001e-01
41 112 1.0000000000000000e+00
48 112 -1.0000000000000000e+00
77 112 -1.0000000000000001e-01
112 112 1.0000000000000001e-01
26 113 -1.0000000000000000e+00
39 113 1.0000000000000000e+00
64 113 -1.0000000000000000e-02
113 113 1.0100199999999999e+00
978 113 -2.0000000000000002e-05
27 114 -1.0000000000000000e+00
39 114 -5.0000000000000000e-01
66 114 -1.0000000000000000e-02
112 114 -1.5677900496717969e-08
113 114 1.5677900496717969e-08
114 114 1.0100199999999999e+00
988 114 -2.0000000000000002e-05
31 115 -1.0000000000000000e+00
39 115 -1.1904761904761779e-02
40 115 1.5677900496717969e-08
67 115 -1.0000000000000000e-02
68 115 -1.5677900496717969e-08
115 115 1.0100199999999999e+00
1014 115 -2.0000000000000002e-05
9 116 1.0714285714285765e-01
20 116 -1.0000000000000000e+00
27 116 1.5677900496717967e-07
28 116 -1.5677900496717967e-07
40 116 -1.0000000000000000e+00
116 116 1.0000000000000000e+00
117 117 5.9523809523810006e-04
150 117 -1.5677900496717969e-08
414 117 1.5677900496717969e-08
117 118 1.0714285714285765e-01
118 118 1.0470370370370370e+00
148 118 -1.0000000000000000e-02
153 118 -1.5677900496717969e-08
185 118 1.5677900496717969e-08
186 118 -1.0000000000000000e+00
1001 118 -3.7037037037037035e-02
117 119 1.0000000000000000e+00
119 119 1.0470370370370370e+00
149 119 -1.0000000000000000e-02
184 119 -1.0000000000000000e+00
979 119 -3.7037037037037035e-02
120 120 5.9523809523810006e-04
147 120 -1.2542320397374375e-07
150 120 1.4110110447046171e-07
414 120 -1.5677900496717969e-08
121 121 5.9523809523810006e-04
147 121 2.8220220894092341e-07
150 121 -1.2542320397374375e-07
415 121 -1.5677900496717967e-07
122 122 5.9523809523810006e-04
122 123 1.0000000000000000e+00
123 123 1.0000000000000000e+00
144 123 2.0000000000000000e-02
149 123 -2.0000000000000000e-02
151 123 -1.0000000000000000e+00
124 124 5.9523809523810006e-04
124 125 -1.1904761904761779e-02
125 125 1.0000000000000000e+00
130 125 4.6835832028605799e-23
147 125 -4.6835832028605799e-23
124 126 1.0714285714285765e-01
126 126 1.0000000000000000e+00
130 126 3.2477811386413254e-23
143 126 4.6835832028605799e-23
147 126 -3.2477811386413254e-23
148 126 -4.6835832028605799e-23
124 127 -5.0000000000000000e-01
127 127 1.0000000000000000e+00
129 127 4.6835832028605799e-23
130 127 5.0450860287547533e-24
143 127 2.1651874257608833e-23
146 127 -4.6835832028605799e-23
147 127 -5.0450860287547533e-24
148 127 -2.1651874257608833e-23
123 128 4.6835832028605799e-23
124 128 1.0000000000000000e+00
128 128 1.0000000000000000e+00
129 128 1.0825937128804416e-23
130 128 3.0749921866234289e-26
143 128 1.6816953429182507e-24
146 128 -1.0825937128804416e-23
147 128 -3.0749921866234289e-26
148 128 -1.6816953429182507e-24
149 128 -4.6835832028605799e-23
122 129 -5.0000000000000000e-01
129 129 1.0000000000000000e+00
145 129 2.0000000000000000e-02
146 129 -2.0000000000000000e-02
153 129 -1.0000000000000000e+00
122 130 -1.1904761904761779e-02
130 130 1.0000000000000000e+00
147 130 -2.0000000000000000e-02
150 130 -1.0000000000000000e+00
415 130 2.0000000000000000e-02
131 131 5.9523809523810006e-04
131 132 1.0000000000000000e+00
132 132 1.0000000000000000e+00
144 132 -1.0000000000000000e+00
149 132 -9.8999999999999999e-01
151 132 9.8999999999999999e-01
133 133 5.9523809523810006e-04
147 133 -1.5677900496717967e-07
415 133 1.5677900496717967e-07
134 134 5.9523809523810006e-04
134 135 -1.1904761904761779e-02
135 135 1.0000000000000000e+00
142 135 4.2324357394037935e-14
147 135 -4.2324357394037935e-14
134 136 1.0714285714285765e-01
136 136 1.0000000000000000e+00
141 136 4.2324357394037935e-14
142 136 -1.3582408443359296e-15
147 136 1.3582408443359296e-15
148 136 -4.2324357394037935e-14
134 137 -5.0000000000000000e-01
137 137 1.0000000000000000e+00
140 137 4.2324357394037935e-14
141 137 -9.0549389622395313e-16
142 137 4.2938910505756537e-16
146 137 -4.2324357394037935e-14
147 137 -4.2938910505756537e-16
148 137 9.0549389622395313e-16
133 138 1.0714285714285765e-01
136 138 -1.0000000000000000e+00
138 138 1.0000000000000000e+00
145 138 1.5677900496717967e-07
146 138 -1.5677900496717967e-07
1001 138 -1.0000000000000000e+00
132 139 4.2324357394037935e-14
134 139 1.0000000000000000e+00
139 139 1.0000000000000000e+00
140 139 -4.5274694811197657e-16
141 139 1.4312970168585512e-16
142 139 -5.2680319141566269e-17
146 139 4.5274694811197657e-16
147 139 5.2680319141566269e-17
148 139 -1.4312970168585512e-16
149 139 -4.2324357394037935e-14
131 140 -5.0000000000000000e-01
140 140 1.0000000000000000e+00
145 140 -1.0000000000000000e+00
146 140 -9.8999999999999999e-01
153 140 9.8999999999999999e-01
131 141 1.0714285714285765e-01
138 141 -1.0000000000000000e+00
141 141 1.0000000000000000e+00
148 141 -9.8999999999999999e-01
152 141 9.8999999999999999e-01
131 142 -1.1904761904761779e-02
142 142 1.0000000000000000e+00
147 142 -9.8999999999999999e-01
150 142 9.8999999999999999e-01
415 142 -1.0000000000000000e+00
122 143 1.0714285714285765e-01
138 143 2.0000000000000000e-02
143 143 1.0000000000000000e+00
148 143 -2.0000000000000000e-02
152 143 -1.0000000000000000e+00
133 144 1.0000000000000000e+00
139 144 -1.0000000000000000e+00
144 144 1.0000000000000000e+00
979 144 -1.0000000000000000e+00
133 145 -5.0000000000000000e-01
137 145 -1.0000000000000000e+00
144 145 1.5677900496717967e-07
145 145 1.0000000000000000e+00
149 145 -1.5677900496717967e-07
989 145 -1.0000000000000000e+00
121 146 -5.0000000000000000e-01
129 146 -4.6835832028605799e-23
130 146 -5.0450860287547533e-24
140 146 -4.2324357394037935e-14
141 146 9.0549389622395313e-16
142 146 -4.2938910505756537e-16
143 146 -2.1651874257608833e-23
144 146 -1.5677900496717967e-07
146 146 1.0000000000042324e-02
147 146 4.2938911010265144e-16
148 146 -9.0549387457207879e-16
149 146 2.8220220894092341e-07
151 146 -1.2542320397374375e-07
185 146 -1.0000000000000000e-02
121 147 -1.1904761904761779e-02
130 147 -4.6835832028605799e-23
138 147 -1.5677900496717967e-07
142 147 -4.2324357394037935e-14
147 147 1.0000000000042324e-02
148 147 2.8220220894092341e-07
152 147 -1.2542320397374375e-07
414 147 -1.0000000000000000e-02
118 148 -1.0000000000000000e-02
121 148 1.0714285714285765e-01
130 148 -3.2477811386413254e-23
141 148 -4.2324357394037935e-14
142 148 1.3582408443359296e-15
143 148 -4.6835832028605799e-23
145 148 -1.5677900496717967e-07
146 148 2.8220220894092341e-07
147 148 -1.3582408118581183e-15
148 148 1.0000000000042324e-02
153 148 -1.2542320397374375e-07
119 149 -1.0000000000000000e-02
121 149 1.0000000000000000e+00
123 149 -4.6835832028605799e-23
129 149 -1.0825937128804416e-23
130 149 -3.0749921866234289e-26
132 149 -4.2324357394037935e-14
140 149 4.5274694811197657e-16
141 149 -1.4312970168585512e-16
142 149 5.2680319141566269e-17
143 149 -1.6816953429182507e-24
146 149 -4.5274693728603940e-16
147 149 -5.2680319110816354e-17
148 149 1.4312970336755045e-16
149 149 1.0000000000042324e-02
118 150 -1.5677900496717969e-08
120 150 -1.1904761904761779e-02
125 150 -1.0000000000000000e+00
148 150 -1.2542320397374375e-07
150 150 1.0000000000000001e-01
152 150 1.4110110447046171e-07
1017 150 -1.0000000000000001e-01
120 151 1.0000000000000000e+00
128 151 -1.0000000000000000e+00
151 151 1.0000000000000001e-01
980 151 -1.0000000000000001e-01
120 152 1.0714285714285765e-01
126 152 -1.0000000000000000e+00
146 152 -1.2542320397374375e-07
152 152 1.0000000000000001e-01
153 152 1.4110110447046171e-07
185 152 -1.5677900496717969e-08
1004 152 -1.0000000000000001e-01
119 153 -1.5677900496717969e-08
120 153 -5.0000000000000000e-01
127 153 -1.0000000000000000e+00
149 153 -1.2542320397374375e-07
151 153 1.4110110447046171e-07
153 153 1.0000000000000001e-01
992 153 -1.0000000000000001e-01
154 154 5.9523809523810006e-04
180 154 -1.2542320397374375e-07
416 154 1.4110110447046171e-07
1017 154 -1.5677900496717969e-08
155 155 5.9523809523810006e-04
155 156 1.0000000000000000e+00
156 156 1.0000000000000000e+00
179 156 -2.0000000000000000e-02
182 156 -1.0000000000000000e+00
184 156 2.0000000000000000e-02
157 157 5.9523809523810006e-04
157 158 -1.1904761904761779e-02
158 158 1.0000000000000000e+00
176 158 1.2794580669176269e-303
180 158 -1.2794580669176269e-303
157 159 1.0714285714285765e-01
159 159 1.0000000000000000e+00
163 159 1.2794580669176269e-303
176 159 -9.5200265414839495e-302
180 159 9.5200265414839495e-302
183 159 -1.2794580669176269e-303
157 160 -5.0000000000000000e-01
160 160 1.0000000000000000e+00
162 160 1.2794580669176269e-303
163 160 -6.3466843609892997e-302
176 160 2.3618522150307916e-300
180 160 -2.3618522150307916e-300
181 160 -1.2794580669176269e-303
183 160 6.3466843609892997e-302
156 161 1.2794580669176269e-303
157 161 1.0000000000000000e+00
161 161 1.0000000000000000e+00
162 161 -3.1733421804946498e-302
163 161 7.8728407167693047e-301
176 161 -1.9537480583615252e-299
179 161 -1.2794580669176269e-303
180 161 1.9537480583615252e-299
181 161 3.1733421804946498e-302
183 161 -7.8728407167693047e-301
155 162 -5.0000000000000000e-01
162 162 1.0000000000000000e+00
178 162 2.0000000000000000e-02
181 162 -2.0000000000000000e-02
996 162 -1.0000000000000000e+00
155 163 1.0714285714285765e-01
163 163 1.0000000000000000e+00
183 163 -2.0000000000000000e-02
186 163 2.0000000000000000e-02
1008 163 -1.0000000000000000e+00
164 164 5.9523809523810006e-04
177 164 -1.5677900496717967e-07
180 164 2.8220220894092341e-07
416 164 -1.2542320397374375e-07
165 165 5.9523809523810006e-04
165 166 1.0000000000000000e+00
166 166 1.0000000000000000e+00
179 166 -9.8999999999999999e-01
182 166 9.8999999999999999e-01
184 166 -1.0000000000000000e+00
167 167 5.9523809523810006e-04
177 167 1.5677900496717967e-07
180 167 -1.5677900496717967e-07
168 168 5.9523809523810006e-04
168 169 -1.1904761904761779e-02
169 169 1.0000000000000000e+00
175 169 1.7199586890401753e-03
180 169 -1.7199586890401753e-03
168 170 1.0714285714285765e-01
170 170 1.0000000000000000e+00
174 170 1.7199586890401753e-03
175 170 -1.1886102075208532e-03
180 170 1.1886102075208532e-03
183 170 -1.7199586890401753e-03
168 171 -5.0000000000000000e-01
171 171 1.0000000000000000e+00
173 171 1.7199586890401753e-03
174 171 -7.9240680501390217e-04
175 171 3.6296678218401303e-04
180 171 -3.6296678218401303e-04
181 171 -1.7199586890401753e-03
183 171 7.9240680501390217e-04
166 172 1.7199586890401753e-03
168 172 1.0000000000000000e+00
172 172 1.0000000000000000e+00
173 172 -3.9620340250695108e-04
174 172 1.2098892739467100e-04
175 172 -4.2203805535895212e-05
179 172 -1.7199586890401753e-03
180 172 4.2203805535895212e-05
181 172 3.9620340250695108e-04
183 172 -1.2098892739467100e-04
165 173 -5.0000000000000000e-01
173 173 1.0000000000000000e+00
178 173 -1.0000000000000000e+00
181 173 -9.8999999999999999e-01
996 173 9.8999999999999999e-01
165 174 1.0714285714285765e-01
174 174 1.0000000000000000e+00
183 174 -9.8999999999999999e-01
186 174 -1.0000000000000000e+00
1008 174 9.8999999999999999e-01
165 175 -1.1904761904761779e-02
175 175 1.0000000000000000e+00
177 175 -1.0000000000000000e+00
180 175 -9.8999999999999999e-01
416 175 9.8999999999999999e-01
155 176 -1.1904761904761779e-02
176 176 1.0000000000000000e+00
177 176 2.0000000000000000e-02
180 176 -2.0000000000000000e-02
416 176 -1.0000000000000000e+00
167 177 -1.1904761904761779e-02
169 177 -1.0000000000000000e+00
177 177 1.0000000000000000e+00
183 177 -1.5677900496717967e-07
186 177 1.5677900496717967e-07
414 177 -1.0000000000000000e+00
167 178 -5.0000000000000000e-01
171 178 -1.0000000000000000e+00
178 178 1.0000000000000000e+00
179 178 -1.5677900496717967e-07
184 178 1.5677900496717967e-07
185 178 -1.0000000000000000e+00
156 179 -1.2794580669176269e-303
162 179 3.1733421804946498e-302
163 179 -7.8728407167693047e-301
164 179 1.0000000000000000e+00
166 179 -1.7199586890401753e-03
173 179 3.9620340250695108e-04
174 179 -1.2098892739467100e-04
175 179 4.2203805535895212e-05
176 179 1.9537480583615252e-299
179 179 1.1719958689040175e-02
180 179 -4.2203805535895212e-05
181 179 -3.9620340250695108e-04
183 179 1.2098892739467100e-04
980 179 -1.0000000000000000e-02
164 180 -1.1904761904761779e-02
175 180 -1.7199586890401753e-03
176 180 -1.2794580669176269e-303
180 180 1.1719958689040175e-02
183 180 2.8220220894092341e-07
186 180 -1.5677900496717967e-07
1008 180 -1.2542320397374375e-07
1017 180 -1.0000000000000000e-02
162 181 -1.2794580669176269e-303
163 181 6.3466843609892997e-302
164 181 -5.0000000000000000e-01
173 181 -1.7199586890401753e-03
174 181 7.9240680501390217e-04
175 181 -3.6296678218401303e-04
176 181 -2.3618522150307916e-300
179 181 2.8220220894092341e-07
180 181 3.6296678218401303e-04
181 181 1.1719958689040175e-02
182 181 -1.2542320397374375e-07
183 181 -7.9240680501390217e-04
184 181 -1.5677900496717967e-07
992 181 -1.0000000000000000e-02
154 182 1.0000000000000000e+00
161 182 -1.0000000000000000e+00
182 182 1.0000000000000001e-01
977 182 -1.0000000000000001e-01
163 183 -1.2794580669176269e-303
164 183 1.0714285714285765e-01
174 183 -1.7199586890401753e-03
175 183 1.1886102075208532e-03
176 183 9.5200265414839495e-302
178 183 -1.5677900496717967e-07
180 183 -1.1886102075208532e-03
181 183 2.8220220894092341e-07
183 183 1.1719958689040175e-02
996 183 -1.2542320397374375e-07
1004 183 -1.0000000000000000e-02
119 184 -1.0000000000000000e+00
167 184 1.0000000000000000e+00
172 184 -1.0000000000000000e+00
184 184 1.0000000000000000e+00
117 185 -5.0000000000000000e-01
119 185 1.5677900496717969e-08
146 185 -1.0000000000000000e-02
151 185 -1.5677900496717969e-08
178 185 -1.0000000000000000e+00
185 185 1.0470370370370370e+00
989 185 -3.7037037037037035e-02
118 186 -1.0000000000000000e+00
167 186 1.0714285714285765e-01
170 186 -1.0000000000000000e+00
178 186 1.5677900496717967e-07
181 186 -1.5677900496717967e-07
186 186 1.0000000000000000e+00
187 187 5.9523809523810006e-04
214 187 -1.2542320397374375e-07
297 187 1.4110110447046171e-07
1018 187 -1.5677900496717969e-08
188 188 5.9523809523810006e-04
188 189 1.0000000000000000e+00
189 189 -1.0000000000000000e+00
215 189 1.0000000000000000e+00
295 189 2.0000000000000000e-02
410 189 -2.0000000000000000e-02
190 190 5.9523809523810006e-04
190 191 -1.1904761904761779e-02
191 191 -1.0000000000000000e+00
209 191 4.2785328203738928e-220
214 191 -4.2785328203738928e-220
190 192 1.0714285714285765e-01
192 192 -1.0000000000000000e+00
196 192 4.2785328203738928e-220
209 192 3.1854391390751613e-218
213 192 -4.2785328203738928e-220
214 192 -3.1854391390751613e-218
190 193 -5.0000000000000000e-01
193 193 -1.0000000000000000e+00
195 193 4.2785328203738928e-220
196 193 2.1236260927167742e-218
209 193 7.9031510346713076e-217
212 193 -4.2785328203738928e-220
213 193 -2.1236260927167742e-218
214 193 -7.9031510346713076e-217
189 194 4.2785328203738928e-220
190 194 1.0000000000000000e+00
194 194 -1.0000000000000000e+00
195 194 1.0618130463583871e-218
196 194 2.6343836782237691e-217
209 194 6.5341120734928531e-216
212 194 -1.0618130463583871e-218
213 194 -2.6343836782237691e-217
214 194 -6.5341120734928531e-216
295 194 -4.2785328203738928e-220
188 195 -5.0000000000000000e-01
195 195 -1.0000000000000000e+00
211 195 -2.0000000000000000e-02
212 195 2.0000000000000000e-02
296 195 1.0000000000000000e+00
188 196 1.0714285714285765e-01
196 196 -1.0000000000000000e+00
213 196 2.0000000000000000e-02
216 196 1.0000000000000000e+00
413 196 -2.0000000000000000e-02
197 197 5.9523809523810006e-04
210 197 -1.5677900496717967e-07
214 197 2.8220220894092341e-07
297 197 -1.2542320397374375e-07
198 198 5.9523809523810006e-04
198 199 1.0000000000000000e+00
199 199 -1.0000000000000000e+00
215 199 -9.8999999999999999e-01
295 199 9.8999999999999999e-01
410 199 1.0000000000000000e+00
200 200 5.9523809523810006e-04
210 200 1.5677900496717967e-07
214 200 -1.5677900496717967e-07
201 201 5.9523809523810006e-04
201 202 -1.1904761904761779e-02
202 202 -1.0000000000000000e+00
208 202 1.1293495124181199e-02
214 202 -1.1293495124181199e-02
201 203 1.0714285714285765e-01
203 203 -1.0000000000000000e+00
207 203 1.1293495124181199e-02
208 203 6.1771379911436993e-03
213 203 -1.1293495124181199e-02
214 203 -6.1771379911436993e-03
201 204 -5.0000000000000000e-01
204 204 -1.0000000000000000e+00
206 204 1.1293495124181199e-02
207 204 4.1180919940957995e-03
208 204 3.1606311035880863e-04
212 204 -1.1293495124181199e-02
213 204 -4.1180919940957995e-03
214 204 -3.1606311035880863e-04
199 205 1.1293495124181199e-02
201 205 1.0000000000000000e+00
205 205 -1.0000000000000000e+00
206 205 2.0590459970478998e-03
207 205 1.0535437011960286e-04
208 205 -4.5880801748214586e-05
212 205 -2.0590459970478998e-03
213 205 -1.0535437011960286e-04
214 205 4.5880801748214586e-05
295 205 -1.1293495124181199e-02
198 206 -5.0000000000000000e-01
206 206 -1.0000000000000000e+00
211 206 1.0000000000000000e+00
212 206 9.8999999999999999e-01
296 206 -9.8999999999999999e-01
198 207 1.0714285714285765e-01
207 207 -1.0000000000000000e+00
213 207 9.8999999999999999e-01
216 207 -9.8999999999999999e-01
413 207 1.0000000000000000e+00
198 208 -1.1904761904761779e-02
208 208 -1.0000000000000000e+00
210 208 1.0000000000000000e+00
214 208 9.8999999999999999e-01
297 208 -9.8999999999999999e-01
188 209 -1.1904761904761779e-02
209 209 -1.0000000000000000e+00
210 209 -2.0000000000000000e-02
214 209 2.0000000000000000e-02
297 209 1.0000000000000000e+00
200 210 -1.1904761904761779e-02
202 210 1.0000000000000000e+00
210 210 1.0000000000000000e+00
213 210 -1.5677900496717967e-07
412 210 -1.0000000000000000e+00
413 210 1.5677900496717967e-07
200 211 -5.0000000000000000e-01
204 211 1.0000000000000000e+00
211 211 1.0000000000000000e+00
295 211 -1.5677900496717967e-07
410 211 1.5677900496717967e-07
411 211 -1.0000000000000000e+00
195 212 -4.2785328203738928e-220
196 212 -2.1236260927167742e-218
197 212 -5.0000000000000000e-01
206 212 -1.1293495124181199e-02
207 212 -4.1180919940957995e-03
208 212 -3.1606311035880863e-04
209 212 -7.9031510346713076e-217
212 212 2.1293495124181199e-02
213 212 4.1180919940957995e-03
214 212 3.1606311035880863e-04
215 212 -1.2542320397374375e-07
295 212 2.8220220894092341e-07
410 212 -1.5677900496717967e-07
993 212 -1.0000000000000000e-02
196 213 -4.2785328203738928e-220
197 213 1.0714285714285765e-01
207 213 -1.1293495124181199e-02
208 213 -6.1771379911436993e-03
209 213 -3.1854391390751613e-218
211 213 -1.5677900496717967e-07
212 213 2.8220220894092341e-07
213 213 2.1293495124181199e-02
214 213 6.1771379911436993e-03
296 213 -1.2542320397374375e-07
1005 213 -1.0000000000000000e-02
197 214 -1.1904761904761779e-02
208 214 -1.1293495124181199e-02
209 214 -4.2785328203738928e-220
213 214 2.8220220894092341e-07
214 214 2.1293495124181199e-02
216 214 -1.2542320397374375e-07
413 214 -1.5677900496717967e-07
1018 214 -1.0000000000000000e-02
187 215 1.0000000000000000e+00
194 215 1.0000000000000000e+00
215 215 1.0000000000000001e-01
978 215 -1.0000000000000001e-01
187 216 1.0714285714285765e-01
192 216 1.0000000000000000e+00
212 216 -1.2542320397374375e-07
216 216 1.0000000000000001e-01
296 216 1.4110110447046171e-07
993 216 -1.5677900496717969e-08
1000 216 -1.0000000000000001e-01
217 217 5.9523809523810006e-04
297 217 -1.5677900496717969e-08
1018 217 1.5677900496717969e-08
217 218 1.0000000000000000e+00
218 218 2.0100249999999997e+00
293 218 -1.0000000000000000e+00
294 218 -2.5000000000000001e-05
295 218 -1.0000000000000000e-02
983 218 -1.0000000000000000e+00
219 219 5.9523809523810006e-04
253 219 -1.5677900496717969e-08
416 219 -1.5677900496717969e-08
1017 219 3.1355800993435937e-08
220 220 5.9523809523810006e-04
247 220 -1.2542320397374375e-07
253 220 1.4110110447046171e-07
1017 220 -1.5677900496717969e-08
221 221 5.9523809523810006e-04
221 222 1.0000000000000000e+00
222 222 1.0000000000000000e+00
245 222 -2.0000000000000000e-02
246 222 2.0000000000000000e-02
248 222 -1.0000000000000000e+00
223 223 5.9523809523810006e-04
223 224 -1.1904761904761779e-02
224 224 1.0000000000000000e+00
242 224 2.0171807067591861e-12
247 224 -2.0171807067591861e-12
223 225 1.0714285714285765e-01
225 225 1.0000000000000000e+00
229 225 2.0171807067591861e-12
242 225 2.2409656784331509e-18
247 225 -2.2409656784331509e-18
252 225 -2.0171807067591861e-12
223 226 -5.0000000000000000e-01
226 226 1.0000000000000000e+00
228 226 2.0171807067591861e-12
229 226 1.4939771189554337e-18
242 226 -7.3310989495065607e-19
247 226 7.3310989495065607e-19
249 226 -2.0171807067591861e-12
252 226 -1.4939771189554337e-18
222 227 2.0171807067591861e-12
223 227 1.0000000000000000e+00
227 227 1.0000000000000000e+00
228 227 7.4698855947771686e-19
229 227 -2.4436996498355197e-19
242 227 7.9048838327450303e-20
245 227 -2.0171807067591861e-12
247 227 -7.9048838327450303e-20
249 227 -7.4698855947771686e-19
252 227 2.4436996498355197e-19
221 228 -5.0000000000000000e-01
228 228 1.0000000000000000e+00
244 228 2.0000000000000000e-02
249 228 -2.0000000000000000e-02
250 228 -1.0000000000000000e+00
221 229 1.0714285714285765e-01
229 229 1.0000000000000000e+00
251 229 -1.0000000000000000e+00
252 229 -2.0000000000000000e-02
292 229 2.0000000000000000e-02
230 230 5.9523809523810006e-04
243 230 -1.5677900496717967e-07
247 230 2.8220220894092341e-07
253 230 -1.2542320397374375e-07
231 231 5.9523809523810006e-04
231 232 1.0000000000000000e+00
232 232 1.0000000000000000e+00
245 232 -9.8999999999999999e-01
246 232 -1.0000000000000000e+00
248 232 9.8999999999999999e-01
233 233 5.9523809523810006e-04
243 233 1.5677900496717967e-07
247 233 -1.5677900496717967e-07
234 234 5.9523809523810006e-04
234 235 -1.1904761904761779e-02
235 235 1.0000000000000000e+00
241 235 9.6108617235042949e-04
247 235 -9.6108617235042949e-04
234 236 1.0714285714285765e-01
236 236 1.0000000000000000e+00
240 236 9.6108617235042949e-04
241 236 1.2474920220305716e-07
247 236 -1.2474920220305716e-07
252 236 -9.6108617235042949e-04
234 237 -5.0000000000000000e-01
237 237 1.0000000000000000e+00
239 237 9.6108617235042949e-04
240 237 8.3166134802038109e-08
241 237 -4.0809769070191551e-08
247 237 4.0809769070191551e-08
249 237 -9.6108617235042949e-04
252 237 -8.3166134802038109e-08
232 238 9.6108617235042949e-04
234 238 1.0000000000000000e+00
238 238 1.0000000000000000e+00
239 238 4.1583067401019054e-08
240 238 -1.3603256356730516e-08
241 238 4.5789162423927365e-09
245 238 -9.6108617235042949e-04
247 238 -4.5789162423927365e-09
249 238 -4.1583067401019054e-08
252 238 1.3603256356730516e-08
231 239 -5.0000000000000000e-01
239 239 1.0000000000000000e+00
244 239 -1.0000000000000000e+00
249 239 -9.8999999999999999e-01
250 239 9.8999999999999999e-01
231 240 1.0714285714285765e-01
240 240 1.0000000000000000e+00
251 240 9.8999999999999999e-01
252 240 -9.8999999999999999e-01
292 240 -1.0000000000000000e+00
231 241 -1.1904761904761779e-02
241 241 1.0000000000000000e+00
243 241 -1.0000000000000000e+00
247 241 -9.8999999999999999e-01
253 241 9.8999999999999999e-01
221 242 -1.1904761904761779e-02
242 242 1.0000000000000000e+00
243 242 2.0000000000000000e-02
247 242 -2.0000000000000000e-02
253 242 -1.0000000000000000e+00
233 243 -1.1904761904761779e-02
235 243 -1.0000000000000000e+00
243 243 1.0000000000000000e+00
252 243 -1.5677900496717967e-07
291 243 -1.0000000000000000e+00
292 243 1.5677900496717967e-07
233 244 -5.0000000000000000e-01
237 244 -1.0000000000000000e+00
244 244 1.0000000000000000e+00
245 244 -1.5677900496717967e-07
246 244 1.5677900496717967e-07
289 244 -1.0000000000000000e+00
222 245 -2.0171807067591861e-12
228 245 -7.4698855947771686e-19
229 245 2.4436996498355197e-19
230 245 1.0000000000000000e+00
232 245 -9.6108617235042949e-04
239 245 -4.1583067401019054e-08
240 245 1.3603256356730516e-08
241 245 -4.5789162423927365e-09
242 245 -7.9048838327450303e-20
245 245 1.0961086174367611e-02
247 245 4.5789162424717852e-09
249 245 4.1583067401766045e-08
252 245 -1.3603256356974887e-08
980 245 -1.0000000000000000e-02
233 246 1.0000000000000000e+00
238 246 -1.0000000000000000e+00
246 246 1.0000000000000000e+00
294 246 -1.0000000000000000e+00
230 247 -1.1904761904761779e-02
241 247 -9.6108617235042949e-04
242 247 -2.0171807067591861e-12
247 247 1.0961086174367611e-02
251 247 -1.2542320397374375e-07
252 247 2.8220220894092341e-07
292 247 -1.5677900496717967e-07
1017 247 -1.0000000000000000e-02
220 248 1.0000000000000000e+00
227 248 -1.0000000000000000e+00
248 248 1.0000000000000001e-01
980 248 -1.0000000000000001e-01
228 249 -2.0171807067591861e-12
229 249 -1.4939771189554337e-18
230 249 -5.0000000000000000e-01
239 249 -9.6108617235042949e-04
240 249 -8.3166134802038109e-08
241 249 4.0809769070191551e-08
242 249 7.3310989495065607e-19
245 249 2.8220220894092341e-07
246 249 -1.5677900496717967e-07
247 249 -4.0809769070924665e-08
248 249 -1.2542320397374375e-07
249 249 1.0961086174367611e-02
252 249 8.3166134803532089e-08
992 249 -1.0000000000000000e-02
220 250 -5.0000000000000000e-01
226 250 -1.0000000000000000e+00
245 250 -1.2542320397374375e-07
248 250 1.4110110447046171e-07
250 250 1.0000000000000001e-01
980 250 -1.5677900496717969e-08
992 250 -1.0000000000000001e-01
220 251 1.0714285714285765e-01
225 251 -1.0000000000000000e+00
249 251 -1.2542320397374375e-07
250 251 1.4110110447046171e-07
251 251 1.0000000000000001e-01
992 251 -1.5677900496717969e-08
1004 251 -1.0000000000000001e-01
229 252 -2.0171807067591861e-12
230 252 1.0714285714285765e-01
240 252 -9.6108617235042949e-04
241 252 -1.2474920220305716e-07
242 252 -2.2409656784331509e-18
244 252 -1.5677900496717967e-07
247 252 1.2474920220529812e-07
249 252 2.8220220894092341e-07
250 252 -1.2542320397374375e-07
252 252 1.0961086174367611e-02
1004 252 -1.0000000000000000e-02
220 253 -1.1904761904761779e-02
224 253 -1.0000000000000000e+00
251 253 1.4110110447046171e-07
252 253 -1.2542320397374375e-07
253 253 1.0000000000000001e-01
1004 253 -1.5677900496717969e-08
1017 253 -1.0000000000000001e-01
254 254 5.9523809523810006e-04
286 254 -1.5677900496717969e-08
291 254 1.5677900496717969e-08
254 255 1.0714285714285765e-01
255 255 1.0100250000000000e+00
285 255 -1.0000000000000000e-02
289 255 1.5677900496717969e-08
290 255 -1.5677900496717969e-08
292 255 -1.0000000000000000e+00
1005 255 -2.5000000000000001e-05
256 256 5.9523809523810006e-04
283 256 -1.2542320397374375e-07
286 256 1.4110110447046171e-07
291 256 -1.5677900496717969e-08
257 257 5.9523809523810006e-04
283 257 2.8220220894092341e-07
286 257 -1.2542320397374375e-07
287 257 -1.5677900496717967e-07
258 258 5.9523809523810006e-04
258 259 1.0000000000000000e+00
259 259 1.0000000000000000e+00
280 259 -2.0000000000000000e-02
284 259 -1.0000000000000000e+00
293 259 2.0000000000000000e-02
260 260 5.9523809523810006e-04
260 261 -1.1904761904761779e-02
261 261 1.0000000000000000e+00
266 261 1.0749924565668845e-22
283 261 -1.0749924565668845e-22
260 262 1.0714285714285765e-01
262 262 1.0000000000000000e+00
266 262 -3.0774881497164444e-27
279 262 1.0749924565668845e-22
283 262 3.0774881497164444e-27
285 262 -1.0749924565668845e-22
260 263 -5.0000000000000000e-01
263 263 1.0000000000000000e+00
265 263 1.0749924565668845e-22
266 263 1.0074964917342694e-27
279 263 -2.0516587664776295e-27
282 263 -1.0749924565668845e-22
283 263 -1.0074964917342694e-27
285 263 2.0516587664776295e-27
259 264 1.0749924565668845e-22
260 264 1.0000000000000000e+00
264 264 1.0000000000000000e+00
265 264 -1.0258293832388147e-27
266 264 -1.1705628261458040e-28
279 264 3.3583216391142306e-28
280 264 -1.0749924565668845e-22
282 264 1.0258293832388147e-27
283 264 1.1705628261458040e-28
285 264 -3.3583216391142306e-28
258 265 -5.0000000000000000e-01
265 265 1.0000000000000000e+00
281 265 2.0000000000000000e-02
282 265 -2.0000000000000000e-02
290 265 -1.0000000000000000e+00
258 266 -1.1904761904761779e-02
266 266 1.0000000000000000e+00
283 266 -2.0000000000000000e-02
286 266 -1.0000000000000000e+00
287 266 2.0000000000000000e-02
267 267 5.9523809523810006e-04
267 268 1.0000000000000000e+00
268 268 1.0000000000000000e+00
280 268 -9.8999999999999999e-01
284 268 9.8999999999999999e-01
293 268 -1.0000000000000000e+00
269 269 5.9523809523810006e-04
283 269 -1.5677900496717967e-07
287 269 1.5677900496717967e-07
270 270 5.9523809523810006e-04
270 271 -1.1904761904761779e-02
271 271 1.0000000000000000e+00
278 271 2.7824475305018193e-02
283 271 -2.7824475305018193e-02
270 272 1.0714285714285765e-01
272 272 1.0000000000000000e+00
277 272 2.7824475305018193e-02
278 272 1.1395379680853633e-05
283 272 -1.1395379680853633e-05
285 272 -2.7824475305018193e-02
270 273 -5.0000000000000000e-01
273 273 1.0000000000000000e+00
276 273 2.7824475305018193e-02
277 273 7.5969197872357555e-06
278 273 -3.7276923424227277e-06
282 273 -2.7824475305018193e-02
283 273 3.7276923424227277e-06
285 273 -7.5969197872357555e-06
269 274 1.0714285714285765e-01
272 274 -1.0000000000000000e+00
274 274 1.0000000000000000e+00
281 274 1.5677900496717967e-07
282 274 -1.5677900496717967e-07
1005 274 -1.0000000000000000e+00
268 275 2.7824475305018193e-02
270 275 1.0000000000000000e+00
275 275 1.0000000000000000e+00
276 275 3.7984598936178777e-06
277 275 -1.2425641141409090e-06
278 275 4.1485341856260802e-07
280 275 -2.7824475305018193e-02
282 275 -3.7984598936178777e-06
283 275 -4.1485341856260802e-07
285 275 1.2425641141409090e-06
267 276 -5.0000000000000000e-01
276 276 1.0000000000000000e+00
281 276 -1.0000000000000000e+00
282 276 -9.8999999999999999e-01
290 276 9.8999999999999999e-01
267 277 1.0714285714285765e-01
274 277 -1.0000000000000000e+00
277 277 1.0000000000000000e+00
285 277 -9.8999999999999999e-01
288 277 9.8999999999999999e-01
267 278 -1.1904761904761779e-02
278 278 1.0000000000000000e+00
283 278 -9.8999999999999999e-01
286 278 9.8999999999999999e-01
287 278 -1.0000000000000000e+00
258 279 1.0714285714285765e-01
274 279 2.0000000000000000e-02
279 279 1.0000000000000000e+00
285 279 -2.0000000000000000e-02
288 279 -1.0000000000000000e+00
257 280 1.0000000000000000e+00
259 280 -1.0749924565668845e-22
265 280 1.0258293832388147e-27
266 280 1.1705628261458040e-28
268 280 -2.7824475305018193e-02
276 280 -3.7984598936178777e-06
277 280 1.2425641141409090e-06
278 280 -4.1485341856260802e-07
279 280 -3.3583216391142306e-28
280 280 3.7824475305018194e-02
282 280 3.7984598936178777e-06
283 280 4.1485341856260802e-07
285 280 -1.2425641141409090e-06
294 280 -1.0000000000000000e-02
269 281 -5.0000000000000000e-01
273 281 -1.0000000000000000e+00
280 281 -1.5677900496717967e-07
281 281 1.0000000000000000e+00
293 281 1.5677900496717967e-07
993 281 -1.0000000000000000e+00
257 282 -5.0000000000000000e-01
265 282 -1.0749924565668845e-22
266 282 -1.0074964917342694e-27
276 282 -2.7824475305018193e-02
277 282 -7.5969197872357555e-06
278 282 3.7276923424227277e-06
279 282 2.0516587664776295e-27
280 282 2.8220220894092341e-07
282 282 3.7824475305018194e-02
283 282 -3.7276923424227277e-06
284 282 -1.2542320397374375e-07
285 282 7.5969197872357555e-06
289 282 -1.0000000000000000e-02
293 282 -1.5677900496717967e-07
257 283 -1.1904761904761779e-02
266 283 -1.0749924565668845e-22
274 283 -1.5677900496717967e-07
278 283 -2.7824475305018193e-02
283 283 3.7824475305018194e-02
285 283 2.8220220894092341e-07
288 283 -1.2542320397374375e-07
291 283 -1.0000000000000000e-02
256 284 1.0000000000000000e+00
264 284 -1.0000000000000000e+00
284 284 1.0000000000000001e-01
980 284 -1.0000000000000001e-01
255 285 -1.0000000000000000e-02
257 285 1.0714285714285765e-01
266 285 3.0774881497164444e-27
277 285 -2.7824475305018193e-02
278 285 -1.1395379680853633e-05
279 285 -1.0749924565668845e-22
281 285 -1.5677900496717967e-07
282 285 2.8220220894092341e-07
283 285 1.1395379680853633e-05
285 285 3.7824475305018194e-02
290 285 -1.2542320397374375e-07
255 286 -1.5677900496717969e-08
256 286 -1.1904761904761779e-02
261 286 -1.0000000000000000e+00
285 286 -1.2542320397374375e-07
286 286 1.0000000000000001e-01
288 286 1.4110110447046171e-07
1017 286 -1.0000000000000001e-01
269 287 -1.1904761904761779e-02
271 287 -1.0000000000000000e+00
274 287 1.5677900496717967e-07
285 287 -1.5677900496717967e-07
287 287 1.0000000000000000e+00
1018 287 -1.0000000000000000e+00
256 288 1.0714285714285765e-01
262 288 -1.0000000000000000e+00
282 288 -1.2542320397374375e-07
288 288 1.0000000000000001e-01
289 288 -1.5677900496717969e-08
290 288 1.4110110447046171e-07
1004 288 -1.0000000000000001e-01
244 289 -1.0000000000000000e+00
254 289 -5.0000000000000000e-01
282 289 -1.0000000000000000e-02
284 289 -1.5677900496717969e-08
289 289 1.0100250000000000e+00
294 289 1.5677900496717969e-08
993 289 -2.5000000000000001e-05
256 290 -5.0000000000000000e-01
263 290 -1.0000000000000000e+00
280 290 -1.2542320397374375e-07
284 290 1.4110110447046171e-07
290 290 1.0000000000000001e-01
294 290 -1.5677900496717969e-08
992 290 -1.0000000000000001e-01
243 291 -1.0000000000000000e+00
254 291 -1.1904761904761779e-02
255 291 1.5677900496717969e-08
283 291 -1.0000000000000000e-02
288 291 -1.5677900496717969e-08
291 291 1.0100250000000000e+00
1018 291 -2.5000000000000001e-05
233 292 1.0714285714285765e-01
236 292 -1.0000000000000000e+00
244 292 1.5677900496717967e-07
249 292 -1.5677900496717967e-07
255 292 -1.0000000000000000e+00
292 292 1.0000000000000000e+00
218 293 -1.0000000000000000e+00
269 293 1.0000000000000000e+00
275 293 -1.0000000000000000e+00
293 293 1.0000000000000000e+00
218 294 -2.5000000000000001e-05
246 294 -1.0000000000000000e+00
254 294 1.0000000000000000e+00
280 294 -1.0000000000000000e-02
294 294 1.0100250000000000e+00
189 295 -4.2785328203738928e-220
195 295 -1.0618130463583871e-218
196 295 -2.6343836782237691e-217
197 295 1.0000000000000000e+00
199 295 -1.1293495124181199e-02
206 295 -2.0590459970478998e-03
207 295 -1.0535437011960286e-04
208 295 4.5880801748214586e-05
209 295 -6.5341120734928531e-216
212 295 2.0590459970478998e-03
213 295 1.0535437011960286e-04
214 295 -4.5880801748214586e-05
218 295 -1.0000000000000000e-02
295 295 2.1293495124181199e-02
187 296 -5.0000000000000000e-01
193 296 1.0000000000000000e+00
215 296 1.4110110447046171e-07
218 296 -1.5677900496717969e-08
295 296 -1.2542320397374375e-07
296 296 1.0000000000000001e-01
988 296 -1.0000000000000001e-01
187 297 -1.1904761904761779e-02
191 297 1.0000000000000000e+00
213 297 -1.2542320397374375e-07
216 297 1.4110110447046171e-07
297 297 1.0000000000000001e-01
1005 297 -1.5677900496717969e-08
1014 297 -1.0000000000000001e-01
298 298 5.9523809523810006e-04
298 299 -1.1904761904761779e-02
299 299 2.0741740740740742e+00
335 299 -1.0000000000000000e+00
412 299 -3.7037037037037035e-02
414 299 -3.7037037037037035e-02
415 299 -1.0000000000000000e+00
1012 299 -1.0000000000000000e-04
300 300 5.9523809523810006e-04
333 300 -1.5677900496717969e-08
412 300 1.5677900496717969e-08
300 301 1.0714285714285765e-01
301 301 1.0470370370370370e+00
331 301 -1.0000000000000000e-02
406 301 -1.5677900496717969e-08
411 301 1.5677900496717969e-08
413 301 -1.0000000000000000e+00
1001 301 -3.7037037037037035e-02
300 302 1.0000000000000000e+00
302 302 1.0470370370370370e+00
332 302 -1.0000000000000000e-02
410 302 -1.0000000000000000e+00
979 302 -3.7037037037037035e-02
303 303 5.9523809523810006e-04
330 303 -1.2542320397374375e-07
333 303 1.4110110447046171e-07
412 303 -1.5677900496717969e-08
304 304 5.9523809523810006e-04
330 304 2.8220220894092341e-07
333 304 -1.2542320397374375e-07
335 304 -1.5677900496717967e-07
305 305 5.9523809523810006e-04
305 306 1.0000000000000000e+00
306 306 -1.0000000000000000e+00
327 306 -2.0000000000000000e-02
332 306 2.0000000000000000e-02
334 306 1.0000000000000000e+00
307 307 5.9523809523810006e-04
307 308 -1.1904761904761779e-02
308 308 -1.0000000000000000e+00
312 308 1.1372967712096110e-231
330 308 -1.1372967712096110e-231
307 309 1.0714285714285765e-01
309 309 -1.0000000000000000e+00
312 309 8.3978607756120421e-230
326 309 1.1372967712096110e-231
330 309 -8.3978607756120421e-230
331 309 -1.1372967712096110e-231
307 310 -5.0000000000000000e-01
310 310 -1.0000000000000000e+00
312 310 2.0664959725104298e-228
313 310 1.1372967712096110e-231
326 310 5.5985738504080275e-230
329 310 -1.1372967712096110e-231
330 310 -2.0664959725104298e-228
331 310 -5.5985738504080275e-230
306 311 1.1372967712096110e-231
307 311 1.0000000000000000e+00
311 311 -1.0000000000000000e+00
312 311 1.6946117103862618e-227
313 311 2.7992869252040137e-230
326 311 6.8883199083680990e-229
329 311 -2.7992869252040137e-230
330 311 -1.6946117103862618e-227
331 311 -6.8883199083680990e-229
332 311 -1.1372967712096110e-231
305 312 -1.1904761904761779e-02
312 312 -1.0000000000000000e+00
330 312 2.0000000000000000e-02
333 312 1.0000000000000000e+00
335 312 -2.0000000000000000e-02
305 313 -5.0000000000000000e-01
313 313 -1.0000000000000000e+00
328 313 -2.0000000000000000e-02
329 313 2.0000000000000000e-02
406 313 1.0000000000000000e+00
314 314 5.9523809523810006e-04
314 315 1.0000000000000000e+00
315 315 -1.0000000000000000e+00
327 315 1.0000000000000000e+00
332 315 9.8999999999999999e-01
334 315 -9.8999999999999999e-01
316 316 5.9523809523810006e-04
330 316 -1.5677900496717967e-07
335 316 1.5677900496717967e-07
317 317 5.9523809523810006e-04
317 318 -1.1904761904761779e-02
318 318 -1.0000000000000000e+00
325 318 5.4785674068222163e-14
330 318 -5.4785674068222163e-14
317 319 1.0714285714285765e-01
319 319 -1.0000000000000000e+00
324 319 5.4785674068222163e-14
325 319 9.1375787769417644e-15
330 319 -9.1375787769417644e-15
331 319 -5.4785674068222163e-14
317 320 -5.0000000000000000e-01
320 320 -1.0000000000000000e+00
323 320 5.4785674068222163e-14
324 320 6.0917191846278427e-15
325 320 9.7659447350697537e-16
329 320 -5.4785674068222163e-14
330 320 -9.7659447350697537e-16
331 320 -6.0917191846278427e-15
316 321 1.0714285714285765e-01
319 321 1.0000000000000000e+00
321 321 1.0000000000000000e+00
328 321 1.5677900496717967e-07
329 321 -1.5677900496717967e-07
1001 321 -1.0000000000000000e+00
315 322 5.4785674068222163e-14
317 322 1.0000000000000000e+00
322 322 -1.0000000000000000e+00
323 322 3.0458595923139214e-15
324 322 3.2553149116899174e-16
325 322 -3.2846097028721683e-17
329 322 -3.0458595923139214e-15
330 322 3.2846097028721683e-17
331 322 -3.2553149116899174e-16
332 322 -5.4785674068222163e-14
314 323 -5.0000000000000000e-01
323 323 -1.0000000000000000e+00
328 323 1.0000000000000000e+00
329 323 9.8999999999999999e-01
406 323 -9.8999999999999999e-01
314 324 1.0714285714285765e-01
321 324 1.0000000000000000e+00
324 324 -1.0000000000000000e+00
331 324 9.8999999999999999e-01
407 324 -9.8999999999999999e-01
314 325 -1.1904761904761779e-02
325 325 -1.0000000000000000e+00
330 325 9.8999999999999999e-01
333 325 -9.8999999999999999e-01
335 325 1.0000000000000000e+00
305 326 1.0714285714285765e-01
321 326 -2.0000000000000000e-02
326 326 -1.0000000000000000e+00
331 326 2.0000000000000000e-02
407 326 1.0000000000000000e+00
316 327 1.0000000000000000e+00
322 327 1.0000000000000000e+00
327 327 1.0000000000000000e+00
979 327 -1.0000000000000000e+00
316 328 -5.0000000000000000e-01
320 328 1.0000000000000000e+00
327 328 1.5677900496717967e-07
328 328 1.0000000000000000e+00
332 328 -1.5677900496717967e-07
989 328 -1.0000000000000000e+00
304 329 -5.0000000000000000e-01
312 329 -2.0664959725104298e-228
313 329 -1.1372967712096110e-231
323 329 -5.4785674068222163e-14
324 329 -6.0917191846278427e-15
325 329 -9.7659447350697537e-16
326 329 -5.5985738504080275e-230
327 329 -1.5677900496717967e-07
329 329 1.0000000000054786e-02
330 329 9.7659447350697537e-16
331 329 6.0917191846278427e-15
332 329 2.8220220894092341e-07
334 329 -1.2542320397374375e-07
411 329 -1.0000000000000000e-02
304 330 -1.1904761904761779e-02
312 330 -1.1372967712096110e-231
321 330 -1.5677900496717967e-07
325 330 -5.4785674068222163e-14
330 330 1.0000000000054786e-02
331 330 2.8220220894092341e-07
407 330 -1.2542320397374375e-07
412 330 -1.0000000000000000e-02
301 331 -1.0000000000000000e-02
304 331 1.0714285714285765e-01
312 331 -8.3978607756120421e-230
324 331 -5.4785674068222163e-14
325 331 -9.1375787769417644e-15
326 331 -1.1372967712096110e-231
328 331 -1.5677900496717967e-07
329 331 2.8220220894092341e-07
330 331 9.1375787769417644e-15
331 331 1.0000000000054786e-02
406 331 -1.2542320397374375e-07
302 332 -1.0000000000000000e-02
304 332 1.0000000000000000e+00
306 332 -1.1372967712096110e-231
312 332 -1.6946117103862618e-227
313 332 -2.7992869252040137e-230
315 332 -5.4785674068222163e-14
323 332 -3.0458595923139214e-15
324 332 -3.2553149116899174e-16
325 332 3.2846097028721683e-17
326 332 -6.8883199083680990e-229
329 332 3.0458595923139214e-15
330 332 -3.2846097028721683e-17
331 332 3.2553149116899174e-16
332 332 1.0000000000054786e-02
301 333 -1.5677900496717969e-08
303 333 -1.1904761904761779e-02
308 333 1.0000000000000000e+00
331 333 -1.2542320397374375e-07
333 333 1.0000000000000001e-01
407 333 1.4110110447046171e-07
408 333 -1.0000000000000001e-01
303 334 1.0000000000000000e+00
311 334 1.0000000000000000e+00
334 334 1.0000000000000001e-01
404 334 -1.0000000000000001e-01
299 335 -1.0000000000000000e+00
316 335 -1.1904761904761779e-02
318 335 1.0000000000000000e+00
321 335 1.5677900496717967e-07
331 335 -1.5677900496717967e-07
335 335 1.0000000000000000e+00
336 336 5.9523809523810006e-04
367 336 -1.5677900496717969e-08
403 336 -1.5677900496717969e-08
408 336 3.1355800993435937e-08
337 337 5.9523809523810006e-04
361 337 -1.2542320397374375e-07
367 337 1.4110110447046171e-07
408 337 -1.5677900496717969e-08
338 338 5.9523809523810006e-04
338 339 1.0000000000000000e+00
339 339 1.0000000000000000e+00
360 339 -2.0000000000000000e-02
362 339 -1.0000000000000000e+00
371 339 2.0000000000000000e-02
340 340 5.9523809523810006e-04
340 341 -1.1904761904761779e-02
341 341 1.0000000000000000e+00
359 341 1.9999999669844902e-12
361 341 -1.9999999669844902e-12
340 342 1.0714285714285765e-01
342 342 1.0000000000000000e+00
346 342 1.9999999669844902e-12
359 342 -2.7923509820771557e-20
361 342 2.7923509820771557e-20
366 342 -1.9999999669844902e-12
340 343 -5.0000000000000000e-01
343 343 1.0000000000000000e+00
345 343 1.9999999669844902e-12
346 343 -1.8615673213847705e-20
359 343 2.4941195383110639e-20
361 343 -2.4941195383110639e-20
363 343 -1.9999999669844902e-12
366 343 1.8615673213847705e-20
339 344 1.9999999669844902e-12
340 344 1.0000000000000000e+00
344 344 1.0000000000000000e+00
345 344 -9.3078366069238523e-21
346 344 8.3137317943702126e-21
359 344 -9.1425938346663403e-21
360 344 -1.9999999669844902e-12
361 344 9.1425938346663403e-21
363 344 9.3078366069238523e-21
366 344 -8.3137317943702126e-21
338 345 -5.0000000000000000e-01
345 345 1.0000000000000000e+00
363 345 -2.0000000000000000e-02
364 345 -1.0000000000000000e+00
370 345 2.0000000000000000e-02
338 346 1.0714285714285765e-01
346 346 1.0000000000000000e+00
365 346 -1.0000000000000000e+00
366 346 -2.0000000000000000e-02
369 346 2.0000000000000000e-02
347 347 5.9523809523810006e-04
361 347 2.8220220894092341e-07
367 347 -1.2542320397374375e-07
368 347 -1.5677900496717967e-07
348 348 5.9523809523810006e-04
348 349 1.0000000000000000e+00
349 349 1.0000000000000000e+00
360 349 -9.8999999999999999e-01
362 349 9.8999999999999999e-01
371 349 -1.0000000000000000e+00
350 350 5.9523809523810006e-04
361 350 -1.5677900496717967e-07
368 350 1.5677900496717967e-07
351 351 5.9523809523810006e-04
351 352 -1.1904761904761779e-02
352 352 1.0000000000000000e+00
358 352 3.3962443891473341e-14
361 352 -3.3962443891473341e-14
351 353 1.0714285714285765e-01
353 353 1.0000000000000000e+00
357 353 3.3962443891473341e-14
358 353 1.0728056104065289e-16
361 353 -1.0728056104065289e-16
366 353 -3.3962443891473341e-14
351 354 -5.0000000000000000e-01
354 354 1.0000000000000000e+00
356 354 3.3962443891473341e-14
357 354 7.1520374027101921e-17
358 354 3.0357411642943511e-17
361 354 -3.0357411642943511e-17
363 354 -3.3962443891473341e-14
366 354 -7.1520374027101921e-17
349 355 3.3962443891473341e-14
351 355 1.0000000000000000e+00
355 355 1.0000000000000000e+00
356 355 3.5760187013550961e-17
357 355 1.0119137214314502e-17
358 355 -8.9728399005038439e-18
360 355 -3.3962443891473341e-14
361 355 8.9728399005038439e-18
363 355 -3.5760187013550961e-17
366 355 -1.0119137214314502e-17
348 356 -5.0000000000000000e-01
356 356 1.0000000000000000e+00
363 356 -9.8999999999999999e-01
364 356 9.8999999999999999e-01
370 356 -1.0000000000000000e+00
348 357 1.0714285714285765e-01
357 357 1.0000000000000000e+00
365 357 9.8999999999999999e-01
366 357 -9.8999999999999999e-01
369 357 -1.0000000000000000e+00
348 358 -1.1904761904761779e-02
358 358 1.0000000000000000e+00
361 358 -9.8999999999999999e-01
367 358 9.8999999999999999e-01
368 358 -1.0000000000000000e+00
338 359 -1.1904761904761779e-02
359 359 1.0000000000000000e+00
361 359 -2.0000000000000000e-02
367 359 -1.0000000000000000e+00
368 359 2.0000000000000000e-02
339 360 -1.9999999669844902e-12
345 360 9.3078366069238523e-21
346 360 -8.3137317943702126e-21
347 360 1.0000000000000000e+00
349 360 -3.3962443891473341e-14
356 360 -3.5760187013550961e-17
357 360 -1.0119137214314502e-17
358 360 8.9728399005038439e-18
359 360 9.1425938346663403e-21
360 360 1.0000000002033963e-02
361 360 -8.9819824943385106e-18
363 360 3.5750879176944036e-17
366 360 1.0127450946108872e-17
404 360 -1.0000000000000000e-02
347 361 -1.1904761904761779e-02
358 361 -3.3962443891473341e-14
359 361 -1.9999999669844902e-12
361 361 1.0000000002033963e-02
365 361 -1.2542320397374375e-07
366 361 2.8220220894092341e-07
369 361 -1.5677900496717967e-07
408 361 -1.0000000000000000e-02
337 362 1.0000000000000000e+00
344 362 -1.0000000000000000e+00
362 362 1.0000000000000001e-01
404 362 -1.0000000000000001e-01
345 363 -1.9999999669844902e-12
346 363 1.8615673213847705e-20
347 363 -5.0000000000000000e-01
356 363 -3.3962443891473341e-14
357 363 -7.1520374027101921e-17
358 363 -3.0357411642943511e-17
359 363 -2.4941195383110639e-20
360 363 2.8220220894092341e-07
361 363 3.0382352838326618e-17
362 363 -1.2542320397374375e-07
363 363 1.0000000002033963e-02
366 363 7.1501758353888073e-17
371 363 -1.5677900496717967e-07
405 363 -1.0000000000000000e-02
337 364 -5.0000000000000000e-01
343 364 -1.0000000000000000e+00
360 364 -1.2542320397374375e-07
362 364 1.4110110447046171e-07
364 364 1.0000000000000001e-01
404 364 -1.5677900496717969e-08
405 364 -1.0000000000000001e-01
337 365 1.0714285714285765e-01
342 365 -1.0000000000000000e+00
363 365 -1.2542320397374375e-07
364 365 1.4110110447046171e-07
365 365 1.0000000000000001e-01
405 365 -1.5677900496717969e-08
409 365 -1.0000000000000001e-01
346 366 -1.9999999669844902e-12
347 366 1.0714285714285765e-01
357 366 -3.3962443891473341e-14
358 366 -1.0728056104065289e-16
359 366 2.7923509820771557e-20
361 366 1.0725263753083212e-16
363 366 2.8220220894092341e-07
364 366 -1.2542320397374375e-07
366 366 1.0000000002033963e-02
370 366 -1.5677900496717967e-07
409 366 -1.0000000000000000e-02
337 367 -1.1904761904761779e-02
341 367 -1.0000000000000000e+00
365 367 1.4110110447046171e-07
366 367 -1.2542320397374375e-07
367 367 1.0000000000000001e-01
408 367 -1.0000000000000001e-01
409 367 -1.5677900496717969e-08
350 368 -1.1904761904761779e-02
352 368 -1.0000000000000000e+00
366 368 -1.5677900496717967e-07
368 368 1.0000000000000000e+00
369 368 1.5677900496717967e-07
1014 368 -1.0000000000000000e+00
350 369 1.0714285714285765e-01
353 369 -1.0000000000000000e+00
363 369 -1.5677900496717967e-07
369 369 1.0000000000000000e+00
370 369 1.5677900496717967e-07
1000 369 -1.0000000000000000e+00
350 370 -5.0000000000000000e-01
354 370 -1.0000000000000000e+00
360 370 -1.5677900496717967e-07
370 370 1.0000000000000000e+00
371 370 1.5677900496717967e-07
988 370 -1.0000000000000000e+00
350 371 1.0000000000000000e+00
355 371 -1.0000000000000000e+00
371 371 1.0000000000000000e+00
978 371 -1.0000000000000000e+00
372 372 5.9523809523810006e-04
396 372 -1.2542320397374375e-07
403 372 1.4110110447046171e-07
408 372 -1.5677900496717969e-08
373 373 5.9523809523810006e-04
396 373 2.8220220894092341e-07
399 373 -1.5677900496717967e-07
403 373 -1.2542320397374375e-07
374 374 5.9523809523810006e-04
374 375 1.0000000000000000e+00
375 375 1.0000000000000000e+00
395 375 -9.8999999999999999e-01
400 375 -1.0000000000000000e+00
982 375 9.8999999999999999e-01
376 376 5.9523809523810006e-04
396 376 -1.5677900496717967e-07
399 376 1.5677900496717967e-07
377 377 5.9523809523810006e-04
377 378 -1.1904761904761779e-02
378 378 1.0000000000000000e+00
384 378 3.3962443388157061e-14
396 378 -3.3962443388157061e-14
377 379 1.0714285714285765e-01
379 379 1.0000000000000000e+00
383 379 3.3962443388157061e-14
384 379 1.0728012911299148e-16
396 379 -1.0728012911299148e-16
402 379 -3.3962443388157061e-14
377 380 -5.0000000000000000e-01
380 380 1.0000000000000000e+00
382 380 3.3962443388157061e-14
383 380 7.1520086075327643e-17
384 380 3.0357757692360969e-17
396 380 -3.0357757692360969e-17
401 380 -3.3962443388157061e-14
402 380 -7.1520086075327643e-17
375 381 3.3962443388157061e-14
377 381 1.0000000000000000e+00
381 381 1.0000000000000000e+00
382 381 3.5760043037663822e-17
383 381 1.0119252564120322e-17
384 381 -8.9777015611499502e-18
395 381 -3.3962443388157061e-14
396 381 8.9777015611499502e-18
401 381 -3.5760043037663822e-17
402 381 -1.0119252564120322e-17
374 382 -5.0000000000000000e-01
382 382 1.0000000000000000e+00
398 382 -1.0000000000000000e+00
401 382 -9.8999999999999999e-01
998 382 9.8999999999999999e-01
374 383 1.0714285714285765e-01
383 383 1.0000000000000000e+00
397 383 -1.0000000000000000e+00
402 383 -9.8999999999999999e-01
1010 383 9.8999999999999999e-01
374 384 -1.1904761904761779e-02
384 384 1.0000000000000000e+00
396 384 -9.8999999999999999e-01
399 384 -1.0000000000000000e+00
403 384 9.8999999999999999e-01
385 385 5.9523809523810006e-04
385 386 1.0000000000000000e+00
386 386 1.0000000000000000e+00
395 386 -2.0000000000000000e-02
400 386 2.0000000000000000e-02
982 386 -1.0000000000000000e+00
387 387 5.9523809523810006e-04
387 388 -1.1904761904761779e-02
388 388 1.0000000000000000e+00
392 388 5.2762333253386887e-36
396 388 -5.2762333253386887e-36
387 389 1.0714285714285765e-01
389 389 1.0000000000000000e+00
392 389 1.8950286736917414e-38
394 389 5.2762333253386887e-36
396 389 -1.8950286736917414e-38
402 389 -5.2762333253386887e-36
387 390 -5.0000000000000000e-01
390 390 1.0000000000000000e+00
392 390 5.3530465470277686e-39
393 390 5.2762333253386887e-36
394 390 1.2633524491278277e-38
396 390 -5.3530465470277686e-39
401 390 -5.2762333253386887e-36
402 390 -1.2633524491278277e-38
386 391 5.2762333253386887e-36
387 391 1.0000000000000000e+00
391 391 1.0000000000000000e+00
392 391 -1.4270547275129233e-39
393 391 6.3167622456391383e-39
394 391 1.7843488490092560e-39
395 391 -5.2762333253386887e-36
396 391 1.4270547275129233e-39
401 391 -6.3167622456391383e-39
402 391 -1.7843488490092560e-39
385 392 -1.1904761904761779e-02
392 392 1.0000000000000000e+00
396 392 -2.0000000000000000e-02
399 392 2.0000000000000000e-02
403 392 -1.0000000000000000e+00
385 393 -5.0000000000000000e-01
393 393 1.0000000000000000e+00
398 393 2.0000000000000000e-02
401 393 -2.0000000000000000e-02
998 393 -1.0000000000000000e+00
385 394 1.0714285714285765e-01
394 394 1.0000000000000000e+00
397 394 2.0000000000000000e-02
402 394 -2.0000000000000000e-02
1010 394 -1.0000000000000000e+00
373 395 1.0000000000000000e+00
375 395 -3.3962443388157061e-14
382 395 -3.5760043037663822e-17
383 395 -1.0119252564120322e-17
384 395 8.9777015611499502e-18
386 395 -5.2762333253386887e-36
392 395 1.4270547275129233e-39
393 395 -6.3167622456391383e-39
394 395 -1.7843488490092560e-39
395 395 1.0000000000033963e-02
396 395 -8.9777015611499502e-18
401 395 3.5760043037663822e-17
402 395 1.0119252564120322e-17
404 395 -1.0000000000000000e-02
373 396 -1.1904761904761779e-02
384 396 -3.3962443388157061e-14
392 396 -5.2762333253386887e-36
396 396 1.0000000000033963e-02
397 396 -1.5677900496717967e-07
402 396 2.8220220894092341e-07
408 396 -1.0000000000000000e-02
1010 396 -1.2542320397374375e-07
376 397 1.0714285714285765e-01
379 397 -1.0000000000000000e+00
397 397 1.0000000000000000e+00
398 397 1.5677900496717967e-07
401 397 -1.5677900496717967e-07
1000 397 -1.0000000000000000e+00
376 398 -5.0000000000000000e-01
380 398 -1.0000000000000000e+00
395 398 -1.5677900496717967e-07
398 398 1.0000000000000000e+00
400 398 1.5677900496717967e-07
988 398 -1.0000000000000000e+00
376 399 -1.1904761904761779e-02
378 399 -1.0000000000000000e+00
397 399 1.5677900496717967e-07
399 399 1.0000000000000000e+00
402 399 -1.5677900496717967e-07
1014 399 -1.0000000000000000e+00
376 400 1.0000000000000000e+00
381 400 -1.0000000000000000e+00
400 400 1.0000000000000000e+00
978 400 -1.0000000000000000e+00
373 401 -5.0000000000000000e-01
382 401 -3.3962443388157061e-14
383 401 -7.1520086075327643e-17
384 401 -3.0357757692360969e-17
392 401 -5.3530465470277686e-39
393 401 -5.2762333253386887e-36
394 401 -1.2633524491278277e-38
395 401 2.8220220894092341e-07
396 401 3.0357757692360969e-17
400 401 -1.5677900496717967e-07
401 401 1.0000000000033963e-02
402 401 7.1520086075327643e-17
405 401 -1.0000000000000000e-02
982 401 -1.2542320397374375e-07
373 402 1.0714285714285765e-01
383 402 -3.3962443388157061e-14
384 402 -1.0728012911299148e-16
392 402 -1.8950286736917414e-38
394 402 -5.2762333253386887e-36
396 402 1.0728012911299148e-16
398 402 -1.5677900496717967e-07
401 402 2.8220220894092341e-07
402 402 1.0000000000033963e-02
409 402 -1.0000000000000000e-02
998 402 -1.2542320397374375e-07
372 403 -1.1904761904761779e-02
388 403 -1.0000000000000000e+00
402 403 -1.2542320397374375e-07
403 403 1.0000000000000001e-01
409 403 -1.5677900496717969e-08
1010 403 1.4110110447046171e-07
1015 403 -1.0000000000000001e-01
334 404 -1.0000000000000001e-01
336 404 1.0000000000000000e+00
360 404 -1.0000000000000000e-02
362 404 -1.0000000000000001e-01
395 404 -1.0000000000000000e-02
404 404 2.2001999999999999e-01
978 404 -2.0000000000000002e-05
302 405 -1.5677900496717969e-08
303 405 -5.0000000000000000e-01
310 405 1.0000000000000000e+00
332 405 -1.2542320397374375e-07
334 405 1.4110110447046171e-07
405 405 -1.0000000000000001e-01
406 405 1.0000000000000001e-01
336 406 -5.0000000000000000e-01
362 406 -1.5677900496717969e-08
363 406 -1.0000000000000000e-02
364 406 -1.0000000000000001e-01
401 406 -1.0000000000000000e-02
404 406 3.1355800993435937e-08
405 406 2.2001999999999999e-01
406 406 -1.0000000000000001e-01
982 406 -1.5677900496717969e-08
988 406 -2.0000000000000002e-05
336 407 1.0714285714285765e-01
364 407 -1.5677900496717969e-08
365 407 -1.0000000000000001e-01
366 407 -1.0000000000000000e-02
402 407 -1.0000000000000000e-02
405 407 3.1355800993435937e-08
407 407 -1.0000000000000001e-01
409 407 2.2001999999999999e-01
998 407 -1.5677900496717969e-08
1000 407 -2.0000000000000002e-05
333 408 -1.0000000000000001e-01
336 408 -1.1904761904761779e-02
361 408 -1.0000000000000000e-02
365 408 -1.5677900496717969e-08
367 408 -1.0000000000000001e-01
396 408 -1.0000000000000000e-02
408 408 2.2001999999999999e-01
409 408 3.1355800993435937e-08
1010 408 -1.5677900496717969e-08
1014 408 -2.0000000000000002e-05
303 409 1.0714285714285765e-01
309 409 1.0000000000000000e+00
329 409 -1.2542320397374375e-07
406 409 1.4110110447046171e-07
407 409 1.0000000000000001e-01
409 409 -1.0000000000000001e-01
411 409 -1.5677900496717969e-08
200 410 1.0000000000000000e+00
205 410 1.0000000000000000e+00
302 410 -1.0000000000000000e+00
410 410 1.0000000000000000e+00
211 411 -1.0000000000000000e+00
300 411 -5.0000000000000000e-01
302 411 1.5677900496717969e-08
329 411 -1.0000000000000000e-02
334 411 -1.5677900496717969e-08
411 411 1.0470370370370370e+00
989 411 -3.7037037037037035e-02
210 412 -1.0000000000000000e+00
299 412 -3.7037037037037035e-02
300 412 -1.1904761904761779e-02
301 412 1.5677900496717969e-08
330 412 -1.0000000000000000e-02
407 412 -1.5677900496717969e-08
412 412 1.0470370370370370e+00
200 413 1.0714285714285765e-01
203 413 1.0000000000000000e+00
211 413 1.5677900496717967e-07
212 413 -1.5677900496717967e-07
301 413 -1.0000000000000000e+00
413 413 1.0000000000000000e+00
117 414 -1.1904761904761779e-02
118 414 1.5677900496717969e-08
147 414 -1.0000000000000000e-02
152 414 -1.5677900496717969e-08
177 414 -1.0000000000000000e+00
299 414 -3.7037037037037035e-02
414 414 1.0470370370370370e+00
133 415 -1.1904761904761779e-02
135 415 -1.0000000000000000e+00
138 415 1.5677900496717967e-07
148 415 -1.5677900496717967e-07
299 415 -1.0000000000000000e+00
415 415 1.0000000000000000e+00
154 416 -1.1904761904761779e-02
158 416 -1.0000000000000000e+00
183 416 -1.2542320397374375e-07
416 416 1.0000000000000001e-01
1004 416 -1.5677900496717969e-08
1008 416 1.4110110447046171e-07
1013 416 -1.0000000000000001e-01
417 417 5.9523809523810006e-04
449 417 -1.5677900496717969e-08
490 417 3.1355800993435937e-08
495 417 -1.5677900496717969e-08
417 418 1.0000000000000000e+00
418 418 1.2002564102564102e-01
448 418 -1.0000000000000001e-01
450 418 -1.0000000000000000e-02
489 418 -1.0000000000000000e-02
589 418 -2.5641025641025640e-05
419 419 5.9523809523810006e-04
445 419 -1.2542320397374375e-07
449 419 1.4110110447046171e-07
490 419 -1.5677900496717969e-08
420 420 5.9523809523810006e-04
445 420 2.8220220894092341e-07
446 420 -1.5677900496717967e-07
449 420 -1.2542320397374375e-07
421 421 5.9523809523810006e-04
421 422 1.0000000000000000e+00
422 422 1.0000000000000000e+00
448 422 9.8999999999999999e-01
450 422 -9.8999999999999999e-01
451 422 -1.0000000000000000e+00
423 423 5.9523809523810006e-04
445 423 -1.5677900496717967e-07
446 423 1.5677900496717967e-07
424 424 5.9523809523810006e-04
424 425 -1.1904761904761779e-02
425 425 1.0000000000000000e+00
429 425 2.9358684625583199e-02
445 425 -2.9358684625583199e-02
424 426 1.0714285714285765e-01
426 426 1.0000000000000000e+00
429 426 -1.0794111588673202e-10
442 426 2.9358684625583199e-02
443 426 -2.9358684625583199e-02
445 426 1.0794111588673202e-10
424 427 -5.0000000000000000e-01
427 427 1.0000000000000000e+00
429 427 -9.5694167840345461e-10
440 427 -2.9358684625583199e-02
441 427 2.9358684625583199e-02
442 427 -7.1960743924488006e-11
443 427 7.1960743924488006e-11
445 427 9.5694167840345461e-10
422 428 2.9358684625583199e-02
424 428 1.0000000000000000e+00
428 428 1.0000000000000000e+00
429 428 1.1606390896097024e-07
440 428 3.5980371962244003e-11
441 428 -3.5980371962244003e-11
442 428 -3.1898055946781813e-10
443 428 3.1898055946781813e-10
445 428 -1.1606390896097024e-07
450 428 -2.9358684625583199e-02
421 429 -1.1904761904761779e-02
429 429 1.0000000000000000e+00
445 429 -9.8999999999999999e-01
446 429 -1.0000000000000000e+00
449 429 9.8999999999999999e-01
423 430 1.0714285714285765e-01
426 430 -1.0000000000000000e+00
430 430 1.0000000000000000e+00
440 430 -1.5677900496717967e-07
447 430 1.5677900496717967e-07
1000 430 -1.0000000000000000e+00
431 431 5.9523809523810006e-04
431 432 1.0000000000000000e+00
432 432 1.0000000000000000e+00
448 432 -1.0000000000000000e+00
450 432 -2.0000000000000000e-02
451 432 2.0000000000000000e-02
433 433 5.9523809523810006e-04
433 434 -1.1904761904761779e-02
434 434 1.0000000000000000e+00
439 434 2.5972143677775021e-12
445 434 -2.5972143677775021e-12
433 435 1.0714285714285765e-01
435 435 1.0000000000000000e+00
439 435 -2.4934368400282837e-21
443 435 -2.5972143677775021e-12
444 435 2.5972143677775021e-12
445 435 2.4934368400282837e-21
433 436 -5.0000000000000000e-01
436 436 1.0000000000000000e+00
438 436 2.5972143677775021e-12
439 436 -2.2714264548134671e-20
440 436 -2.5972143677775021e-12
443 436 1.6622912266855224e-21
444 436 -1.6622912266855224e-21
445 436 2.2714264548134671e-20
432 437 2.5972143677775021e-12
433 437 1.0000000000000000e+00
437 437 1.0000000000000000e+00
438 437 -8.3114561334276122e-22
439 437 2.6584558627156896e-18
440 437 8.3114561334276122e-22
443 437 7.5714215160448897e-21
444 437 -7.5714215160448897e-21
445 437 -2.6584558627156896e-18
450 437 -2.5972143677775021e-12
431 438 -5.0000000000000000e-01
438 438 1.0000000000000000e+00
440 438 -2.0000000000000000e-02
447 438 2.0000000000000000e-02
492 438 -1.0000000000000000e+00
431 439 -1.1904761904761779e-02
439 439 1.0000000000000000e+00
445 439 -2.0000000000000000e-02
446 439 2.0000000000000000e-02
449 439 -1.0000000000000000e+00
421 440 -5.0000000000000000e-01
440 440 -9.8999999999999999e-01
441 440 1.0000000000000000e+00
447 440 -1.0000000000000000e+00
492 440 9.8999999999999999e-01
420 441 -5.0000000000000000e-01
429 441 9.5694167840345461e-10
438 441 -2.5972143677775021e-12
439 441 2.2714264548134671e-20
440 441 3.9358684628180415e-02
441 441 -2.9358684625583199e-02
442 441 7.1960743924488006e-11
443 441 -7.1960743926150303e-11
444 441 1.6622912266855224e-21
445 441 -9.5694167842616878e-10
448 441 -1.2542320397374375e-07
450 441 2.8220220894092341e-07
451 441 -1.5677900496717967e-07
493 441 -1.0000000000000000e-02
420 442 1.0714285714285765e-01
429 442 1.0794111588673202e-10
439 442 2.4934368400282837e-21
440 442 2.8220220894092341e-07
442 442 -2.9358684625583199e-02
443 442 3.9358684628180415e-02
444 442 -2.5972143677775021e-12
445 442 -1.0794111588922545e-10
447 442 -1.5677900496717967e-07
492 442 -1.2542320397374375e-07
494 442 -1.0000000000000000e-02
421 443 1.0714285714285765e-01
430 443 -1.0000000000000000e+00
442 443 1.0000000000000000e+00
443 443 -9.8999999999999999e-01
491 443 9.8999999999999999e-01
430 444 2.0000000000000000e-02
431 444 1.0714285714285765e-01
443 444 -2.0000000000000000e-02
444 444 1.0000000000000000e+00
491 444 -1.0000000000000000e+00
420 445 -1.1904761904761779e-02
429 445 -2.9358684625583199e-02
430 445 -1.5677900496717967e-07
439 445 -2.5972143677775021e-12
443 445 2.8220220894092341e-07
445 445 3.9358684628180415e-02
490 445 -1.0000000000000000e-02
491 445 -1.2542320397374375e-07
423 446 -1.1904761904761779e-02
425 446 -1.0000000000000000e+00
430 446 1.5677900496717967e-07
443 446 -1.5677900496717967e-07
446 446 1.0000000000000000e+00
1014 446 -1.0000000000000000e+00
423 447 -5.0000000000000000e-01
427 447 -1.0000000000000000e+00
447 447 1.0000000000000000e+00
450 447 -1.5677900496717967e-07
451 447 1.5677900496717967e-07
988 447 -1.0000000000000000e+00
418 448 -1.0000000000000001e-01
419 448 1.0000000000000000e+00
437 448 -1.0000000000000000e+00
448 448 1.0000000000000001e-01
419 449 -1.1904761904761779e-02
434 449 -1.0000000000000000e+00
443 449 -1.2542320397374375e-07
449 449 1.0000000000000001e-01
490 449 -1.0000000000000001e-01
491 449 1.4110110447046171e-07
494 449 -1.5677900496717969e-08
418 450 -1.0000000000000000e-02
420 450 1.0000000000000000e+00
422 450 -2.9358684625583199e-02
429 450 -1.1606390896097024e-07
432 450 -2.5972143677775021e-12
438 450 8.3114561334276122e-22
439 450 -2.6584558627156896e-18
440 450 -3.5980371963075151e-11
441 450 3.5980371962244003e-11
442 450 3.1898055946781813e-10
443 450 -3.1898055947538958e-10
444 450 7.5714215160448897e-21
445 450 1.1606390896362868e-07
450 450 3.9358684628180415e-02
423 451 1.0000000000000000e+00
428 451 -1.0000000000000000e+00
451 451 1.0000000000000000e+00
978 451 -1.0000000000000000e+00
452 452 5.9523809523810006e-04
453 453 5.9523809523810006e-04
454 454 5.9523809523810006e-04
454 455 -1.1904761904761779e-02
455 455 1.0002000000000000e+00
487 455 -1.0000000000000000e+00
1014 455 -2.0000000000000001e-04
454 456 1.0714285714285765e-01
456 456 1.0002000000000000e+00
488 456 -1.0000000000000000e+00
1000 456 -2.0000000000000001e-04
454 457 -5.0000000000000000e-01
457 457 1.0002000000000000e+00
486 457 -1.0000000000000000e+00
988 457 -2.0000000000000001e-04
454 458 1.0000000000000000e+00
458 458 1.0002000000000000e+00
485 458 -1.0000000000000000e+00
978 458 -2.0000000000000001e-04
459 459 5.9523809523810006e-04
484 459 -1.2542320397374375e-07
490 459 -1.5677900496717969e-08
495 459 1.4110110447046171e-07
460 460 5.9523809523810006e-04
484 460 2.8220220894092341e-07
487 460 -1.5677900496717967e-07
495 460 -1.2542320397374375e-07
461 461 5.9523809523810006e-04
461 462 1.0000000000000000e+00
462 462 1.0000000000000000e+00
485 462 -1.0000000000000000e+00
489 462 -9.8999999999999999e-01
965 462 9.8999999999999999e-01
463 463 5.9523809523810006e-04
484 463 -1.5677900496717967e-07
487 463 1.5677900496717967e-07
464 464 5.9523809523810006e-04
464 465 -1.1904761904761779e-02
465 465 1.0000000000000000e+00
469 465 7.4597531205191899e-04
484 465 -7.4597531205191899e-04
464 466 1.0714285714285765e-01
466 466 1.0000000000000000e+00
469 466 -3.9856196162190193e-12
479 466 7.4597531205191899e-04
483 466 -7.4597531205191899e-04
484 466 3.9856196162190193e-12
464 467 -5.0000000000000000e-01
467 467 1.0000000000000000e+00
469 467 -2.0337337953423061e-11
479 467 -2.6570797441460126e-12
480 467 7.4597531205191899e-04
481 467 -7.4597531205191899e-04
483 467 2.6570797441460126e-12
484 467 2.0337337953423061e-11
462 468 7.4597531205191899e-04
464 468 1.0000000000000000e+00
468 468 1.0000000000000000e+00
469 468 2.2441535636173242e-09
479 468 -6.7791126511410194e-12
480 468 -1.3285398720730063e-12
481 468 1.3285398720730063e-12
483 468 6.7791126511410194e-12
484 468 -2.2441535636173242e-09
489 468 -7.4597531205191899e-04
461 469 -1.1904761904761779e-02
469 469 1.0000000000000000e+00
484 469 -9.8999999999999999e-01
487 469 -1.0000000000000000e+00
495 469 9.8999999999999999e-01
470 470 5.9523809523810006e-04
470 471 1.0000000000000000e+00
471 471 1.0000000000000000e+00
485 471 2.0000000000000000e-02
489 471 -2.0000000000000000e-02
965 471 -1.0000000000000000e+00
472 472 5.9523809523810006e-04
472 473 -1.1904761904761779e-02
473 473 1.0000000000000000e+00
478 473 2.5109797436488609e-241
484 473 -2.5109797436488609e-241
472 474 1.0714285714285765e-01
474 474 1.0000000000000000e+00
478 474 1.9789770179888752e-243
482 474 2.5109797436488609e-241
483 474 -2.5109797436488609e-241
484 474 -1.9789770179888752e-243
472 475 -5.0000000000000000e-01
475 475 1.0000000000000000e+00
477 475 2.5109797436488609e-241
478 475 4.3377957141579217e-244
481 475 -2.5109797436488609e-241
482 475 1.3193180119925833e-243
483 475 -1.3193180119925833e-243
484 475 -4.3377957141579217e-244
471 476 2.5109797436488609e-241
472 476 1.0000000000000000e+00
476 476 1.0000000000000000e+00
477 476 6.5965900599629165e-244
478 476 5.8498278125531022e-244
481 476 -6.5965900599629165e-244
482 476 1.4459319047193071e-244
483 476 -1.4459319047193071e-244
484 476 -5.8498278125531022e-244
489 476 -2.5109797436488609e-241
470 477 -5.0000000000000000e-01
477 477 1.0000000000000000e+00
481 477 -2.0000000000000000e-02
486 477 2.0000000000000000e-02
967 477 -1.0000000000000000e+00
470 478 -1.1904761904761779e-02
478 478 1.0000000000000000e+00
484 478 -2.0000000000000000e-02
487 478 2.0000000000000000e-02
495 478 -1.0000000000000000e+00
460 479 1.0714285714285765e-01
469 479 3.9856196162190193e-12
478 479 -1.9789770179888752e-243
479 479 -7.4597531205191899e-04
481 479 2.8220220894092341e-07
482 479 -2.5109797436488609e-241
483 479 1.0745975312051919e-02
484 479 -3.9856196162190193e-12
486 479 -1.5677900496717967e-07
494 479 -1.0000000000000000e-02
967 479 -1.2542320397374375e-07
460 480 -5.0000000000000000e-01
469 480 2.0337337953423061e-11
477 480 -2.5109797436488609e-241
478 480 -4.3377957141579217e-244
479 480 2.6570797441460126e-12
480 480 -7.4597531205191899e-04
481 480 1.0745975312051919e-02
482 480 -1.3193180119925833e-243
483 480 -2.6570797441460126e-12
484 480 -2.0337337953423061e-11
485 480 -1.5677900496717967e-07
489 480 2.8220220894092341e-07
493 480 -1.0000000000000000e-02
965 480 -1.2542320397374375e-07
461 481 -5.0000000000000000e-01
480 481 1.0000000000000000e+00
481 481 -9.8999999999999999e-01
486 481 -1.0000000000000000e+00
967 481 9.8999999999999999e-01
470 482 1.0714285714285765e-01
482 482 1.0000000000000000e+00
483 482 -2.0000000000000000e-02
488 482 2.0000000000000000e-02
972 482 -1.0000000000000000e+00
461 483 1.0714285714285765e-01
479 483 1.0000000000000000e+00
483 483 -9.8999999999999999e-01
488 483 -1.0000000000000000e+00
972 483 9.8999999999999999e-01
460 484 -1.1904761904761779e-02
469 484 -7.4597531205191899e-04
478 484 -2.5109797436488609e-241
483 484 2.8220220894092341e-07
484 484 1.0745975312051919e-02
488 484 -1.5677900496717967e-07
490 484 -1.0000000000000000e-02
972 484 -1.2542320397374375e-07
458 485 -1.0000000000000000e+00
463 485 1.0000000000000000e+00
468 485 -1.0000000000000000e+00
485 485 1.0000000000000000e+00
457 486 -1.0000000000000000e+00
463 486 -5.0000000000000000e-01
467 486 -1.0000000000000000e+00
485 486 1.5677900496717967e-07
486 486 1.0000000000000000e+00
489 486 -1.5677900496717967e-07
455 487 -1.0000000000000000e+00
463 487 -1.1904761904761779e-02
465 487 -1.0000000000000000e+00
483 487 -1.5677900496717967e-07
487 487 1.0000000000000000e+00
488 487 1.5677900496717967e-07
456 488 -1.0000000000000000e+00
463 488 1.0714285714285765e-01
466 488 -1.0000000000000000e+00
481 488 -1.5677900496717967e-07
486 488 1.5677900496717967e-07
488 488 1.0000000000000000e+00
418 489 -1.0000000000000000e-02
460 489 1.0000000000000000e+00
462 489 -7.4597531205191899e-04
469 489 -2.2441535636173242e-09
471 489 -2.5109797436488609e-241
477 489 -6.5965900599629165e-244
478 489 -5.8498278125531022e-244
479 489 6.7791126511410194e-12
480 489 1.3285398720730063e-12
481 489 -1.3285398720730063e-12
482 489 -1.4459319047193071e-244
483 489 -6.7791126511410194e-12
484 489 2.2441535636173242e-09
489 489 1.0745975312051919e-02
417 490 -1.1904761904761779e-02
445 490 -1.0000000000000000e-02
449 490 -1.0000000000000001e-01
484 490 -1.0000000000000000e-02
490 490 1.2002564102564102e-01
491 490 -1.5677900496717969e-08
494 490 3.1355800993435937e-08
593 490 -2.5641025641025640e-05
972 490 -1.5677900496717969e-08
417 491 1.0714285714285765e-01
443 491 -1.0000000000000000e-02
483 491 -1.0000000000000000e-02
491 491 -1.0000000000000001e-01
492 491 -1.5677900496717969e-08
493 491 3.1355800993435937e-08
494 491 1.2002564102564102e-01
592 491 -2.5641025641025640e-05
967 491 -1.5677900496717969e-08
417 492 -5.0000000000000000e-01
418 492 3.1355800993435937e-08
440 492 -1.0000000000000000e-02
448 492 -1.5677900496717969e-08
481 492 -1.0000000000000000e-02
492 492 -1.0000000000000001e-01
493 492 1.2002564102564102e-01
590 492 -2.5641025641025640e-05
965 492 -1.5677900496717969e-08
418 493 -1.5677900496717969e-08
419 493 -5.0000000000000000e-01
436 493 -1.0000000000000000e+00
448 493 1.4110110447046171e-07
450 493 -1.2542320397374375e-07
492 493 1.0000000000000001e-01
493 493 -1.0000000000000001e-01
419 494 1.0714285714285765e-01
435 494 -1.0000000000000000e+00
440 494 -1.2542320397374375e-07
491 494 1.0000000000000001e-01
492 494 1.4110110447046171e-07
493 494 -1.5677900496717969e-08
494 494 -1.0000000000000001e-01
459 495 -1.1904761904761779e-02
473 495 -1.0000000000000000e+00
483 495 -1.2542320397374375e-07
494 495 -1.5677900496717969e-08
495 495 1.0000000000000001e-01
972 495 1.4110110447046171e-07
975 495 -1.0000000000000001e-01
496 496 5.9523809523810006e-04
519 496 -1.2542320397374375e-07
588 496 1.4110110447046171e-07
593 496 -1.5677900496717969e-08
497 497 5.9523809523810006e-04
519 497 2.8220220894092341e-07
521 497 -1.5677900496717967e-07
588 497 -1.2542320397374375e-07
498 498 5.9523809523810006e-04
498 499 1.0000000000000000e+00
499 499 -1.0000000000000000e+00
520 499 9.8999999999999999e-01
523 499 1.0000000000000000e+00
981 499 -9.8999999999999999e-01
500 500 5.9523809523810006e-04
519 500 -1.5677900496717967e-07
521 500 1.5677900496717967e-07
501 501 5.9523809523810006e-04
501 502 -1.1904761904761779e-02
502 502 -1.0000000000000000e+00
508 502 2.8805503713746249e-02
519 502 -2.8805503713746249e-02
501 503 1.0714285714285765e-01
503 503 -1.0000000000000000e+00
507 503 2.8805503713746249e-02
508 503 -3.1957834958220518e-07
519 503 3.1957834958220518e-07
522 503 -2.8805503713746249e-02
501 504 -5.0000000000000000e-01
504 504 -1.0000000000000000e+00
506 504 2.8805503713746249e-02
507 504 -2.1305223305480345e-07
508 504 -6.9865651342627186e-08
519 504 6.9865651342627186e-08
522 504 2.1305223305480345e-07
524 504 -2.8805503713746249e-02
499 505 2.8805503713746249e-02
501 505 1.0000000000000000e+00
505 505 -1.0000000000000000e+00
506 505 -1.0652611652740172e-07
507 505 -2.3288550447542394e-08
508 505 9.5685360147751651e-09
519 505 -9.5685360147751651e-09
520 505 -2.8805503713746249e-02
522 505 2.3288550447542394e-08
524 505 1.0652611652740172e-07
498 506 -5.0000000000000000e-01
506 506 -1.0000000000000000e+00
524 506 9.8999999999999999e-01
970 506 1.0000000000000000e+00
995 506 -9.8999999999999999e-01
498 507 1.0714285714285765e-01
507 507 -1.0000000000000000e+00
522 507 9.8999999999999999e-01
976 507 1.0000000000000000e+00
1007 507 -9.8999999999999999e-01
498 508 -1.1904761904761779e-02
508 508 -1.0000000000000000e+00
519 508 9.8999999999999999e-01
521 508 1.0000000000000000e+00
588 508 -9.8999999999999999e-01
509 509 5.9523809523810006e-04
509 510 -5.0000000000000000e-01
510 510 -1.0000000000000000e+00
524 510 2.0000000000000000e-02
970 510 -2.0000000000000000e-02
995 510 1.0000000000000000e+00
509 511 1.0000000000000000e+00
511 511 -1.0000000000000000e+00
520 511 2.0000000000000000e-02
523 511 -2.0000000000000000e-02
981 511 1.0000000000000000e+00
512 512 -1.0000000000000000e+00
513 512 -1.1904761904761779e-02
513 513 5.9523809523810006e-04
513 514 1.0714285714285765e-01
514 514 -1.0000000000000000e+00
517 514 -4.9406564584124654e-324
519 514 4.9406564584124654e-324
513 515 1.0000000000000000e+00
515 515 -1.0000000000000000e+00
517 515 -1.4426716858564399e-321
518 515 5.9287877500949585e-323
519 515 1.4426716858564399e-321
522 515 -5.9287877500949585e-323
513 516 -5.0000000000000000e-01
516 516 -1.0000000000000000e+00
517 516 1.7292297604443629e-322
518 516 -4.9406564584124654e-324
519 516 -1.7292297604443629e-322
522 516 4.9406564584124654e-324
509 517 -1.1904761904761779e-02
517 517 -1.0000000000000000e+00
519 517 2.0000000000000000e-02
521 517 -2.0000000000000000e-02
588 517 1.0000000000000000e+00
509 518 1.0714285714285765e-01
518 518 -1.0000000000000000e+00
522 518 2.0000000000000000e-02
976 518 -2.0000000000000000e-02
1007 518 1.0000000000000000e+00
497 519 -1.1904761904761779e-02
508 519 -2.8805503713746249e-02
519 519 3.8805503713746248e-02
522 519 2.8220220894092341e-07
593 519 -1.0000000000000000e-02
976 519 -1.5677900496717967e-07
1007 519 -1.2542320397374375e-07
497 520 1.0000000000000000e+00
499 520 -2.8805503713746249e-02
506 520 1.0652611652740172e-07
507 520 2.3288550447542394e-08
508 520 -9.5685360147751651e-09
517 520 1.4426716858564399e-321
518 520 -5.9287877500949585e-323
519 520 9.5685360147751651e-09
520 520 3.8805503713746248e-02
522 520 -2.3288550447542394e-08
524 520 -1.0652611652740172e-07
589 520 -1.0000000000000000e-02
500 521 -1.1904761904761779e-02
502 521 1.0000000000000000e+00
521 521 1.0000000000000000e+00
522 521 -1.5677900496717967e-07
976 521 1.5677900496717967e-07
1013 521 -1.0000000000000000e+00
497 522 1.0714285714285765e-01
507 522 -2.8805503713746249e-02
508 522 3.1957834958220518e-07
517 522 4.9406564584124654e-324
519 522 -3.1957834958220518e-07
522 522 3.8805503713746248e-02
524 522 2.8220220894092341e-07
592 522 -1.0000000000000000e-02
970 522 -1.5677900496717967e-07
995 522 -1.2542320397374375e-07
500 523 1.0000000000000000e+00
505 523 1.0000000000000000e+00
523 523 1.0000000000000000e+00
977 523 -1.0000000000000000e+00
497 524 -5.0000000000000000e-01
506 524 -2.8805503713746249e-02
507 524 2.1305223305480345e-07
508 524 6.9865651342627186e-08
517 524 -1.7292297604443629e-322
518 524 4.9406564584124654e-324
519 524 -6.9865651342627186e-08
520 524 2.8220220894092341e-07
522 524 -2.1305223305480345e-07
523 524 -1.5677900496717967e-07
524 524 3.8805503713746248e-02
590 524 -1.0000000000000000e-02
981 524 -1.2542320397374375e-07
525 525 5.9523809523810006e-04
555 525 -1.5677900496717969e-08
587 525 -1.5677900496717969e-08
588 525 -1.5677900496717969e-08
593 525 4.7033701490153909e-08
526 526 5.9523809523810006e-04
553 526 -1.2542320397374375e-07
555 526 1.4110110447046171e-07
593 526 -1.5677900496717969e-08
527 527 5.9523809523810006e-04
527 528 1.0000000000000000e+00
528 528 -1.0000000000000000e+00
552 528 2.0000000000000000e-02
554 528 1.0000000000000000e+00
556 528 -2.0000000000000000e-02
529 529 5.9523809523810006e-04
529 530 -1.1904761904761779e-02
530 530 -1.0000000000000000e+00
549 530 2.5842640700753528e-12
553 530 -2.5842640700753528e-12
529 531 1.0714285714285765e-01
531 531 -1.0000000000000000e+00
549 531 -3.2421542924936050e-18
550 531 -2.5842640700753528e-12
551 531 2.5842640700753528e-12
553 531 3.2421542924936050e-18
529 532 -5.0000000000000000e-01
532 532 -1.0000000000000000e+00
534 532 2.5842640700753528e-12
546 532 -2.5842640700753528e-12
549 532 -7.0900632921310098e-19
550 532 2.1614361949957365e-18
551 532 -2.1614361949957365e-18
553 532 7.0900632921310098e-19
528 533 2.5842640700753528e-12
529 533 1.0000000000000000e+00
533 533 -1.0000000000000000e+00
534 533 -1.0807180974978683e-18
546 533 1.0807180974978683e-18
549 533 9.6512387903406472e-20
550 533 2.3633544307103363e-19
551 533 -2.3633544307103363e-19
552 533 -2.5842640700753528e-12
553 533 -9.6512387903406472e-20
527 534 -5.0000000000000000e-01
534 534 -1.0000000000000000e+00
546 534 2.0000000000000000e-02
591 534 1.0000000000000000e+00
968 534 -2.0000000000000000e-02
535 535 5.9523809523810006e-04
545 535 -1.5677900496717967e-07
553 535 2.8220220894092341e-07
555 535 -1.2542320397374375e-07
536 536 5.9523809523810006e-04
536 537 1.0000000000000000e+00
537 537 -1.0000000000000000e+00
552 537 9.8999999999999999e-01
554 537 -9.8999999999999999e-01
556 537 1.0000000000000000e+00
538 538 5.9523809523810006e-04
545 538 1.5677900496717967e-07
553 538 -1.5677900496717967e-07
539 539 5.9523809523810006e-04
539 540 -1.1904761904761779e-02
540 540 -1.0000000000000000e+00
544 540 2.8797033086804931e-02
553 540 -2.8797033086804931e-02
539 541 1.0714285714285765e-01
541 541 -1.0000000000000000e+00
544 541 -1.4096585309910163e-07
548 541 2.8797033086804931e-02
550 541 -2.8797033086804931e-02
553 541 1.4096585309910163e-07
539 542 -5.0000000000000000e-01
542 542 -1.0000000000000000e+00
544 542 -3.0825541562666203e-08
546 542 -2.8797033086804931e-02
547 542 2.8797033086804931e-02
548 542 -9.3977235399401089e-08
550 542 9.3977235399401089e-08
553 542 3.0825541562666203e-08
537 543 2.8797033086804931e-02
539 543 1.0000000000000000e+00
543 543 -1.0000000000000000e+00
544 543 4.1409264451289346e-09
546 543 4.6988617699700544e-08
547 543 -4.6988617699700544e-08
548 543 -1.0275180520888733e-08
550 543 1.0275180520888733e-08
552 543 -2.8797033086804931e-02
553 543 -4.1409264451289346e-09
536 544 -1.1904761904761779e-02
544 544 -1.0000000000000000e+00
545 544 1.0000000000000000e+00
553 544 9.8999999999999999e-01
555 544 -9.8999999999999999e-01
538 545 -1.1904761904761779e-02
540 545 1.0000000000000000e+00
545 545 1.0000000000000000e+00
550 545 -1.5677900496717967e-07
973 545 1.5677900496717967e-07
1013 545 -1.0000000000000000e+00
536 546 -5.0000000000000000e-01
546 546 9.8999999999999999e-01
547 546 -1.0000000000000000e+00
591 546 -9.8999999999999999e-01
968 546 1.0000000000000000e+00
534 547 -2.5842640700753528e-12
535 547 -5.0000000000000000e-01
544 547 3.0825541562666203e-08
546 547 3.8797033089389192e-02
547 547 -2.8797033086804931e-02
548 547 9.3977235399401089e-08
549 547 7.0900632921310098e-19
550 547 -9.3977235401562518e-08
551 547 2.1614361949957365e-18
552 547 2.8220220894092341e-07
553 547 -3.0825541563375209e-08
554 547 -1.2542320397374375e-07
556 547 -1.5677900496717967e-07
590 547 -1.0000000000000000e-02
535 548 1.0714285714285765e-01
544 548 1.4096585309910163e-07
546 548 2.8220220894092341e-07
548 548 -2.8797033086804931e-02
549 548 3.2421542924936050e-18
550 548 3.8797033089389192e-02
551 548 -2.5842640700753528e-12
553 548 -1.4096585310234378e-07
591 548 -1.2542320397374375e-07
592 548 -1.0000000000000000e-02
968 548 -1.5677900496717967e-07
527 549 -1.1904761904761779e-02
545 549 -2.0000000000000000e-02
549 549 -1.0000000000000000e+00
553 549 2.0000000000000000e-02
555 549 1.0000000000000000e+00
536 550 1.0714285714285765e-01
548 550 -1.0000000000000000e+00
550 550 9.8999999999999999e-01
594 550 -9.8999999999999999e-01
973 550 1.0000000000000000e+00
527 551 1.0714285714285765e-01
550 551 2.0000000000000000e-02
551 551 -1.0000000000000000e+00
594 551 1.0000000000000000e+00
973 551 -2.0000000000000000e-02
528 552 -2.5842640700753528e-12
534 552 1.0807180974978683e-18
535 552 1.0000000000000000e+00
537 552 -2.8797033086804931e-02
544 552 -4.1409264451289346e-09
546 552 -4.6988617700781259e-08
547 552 4.6988617699700544e-08
548 552 1.0275180520888733e-08
549 552 -9.6512387903406472e-20
550 552 -1.0275180521125069e-08
551 552 2.3633544307103363e-19
552 552 3.8797033089389192e-02
553 552 4.1409264452254475e-09
589 552 -1.0000000000000000e-02
535 553 -1.1904761904761779e-02
544 553 -2.8797033086804931e-02
549 553 -2.5842640700753528e-12
550 553 2.8220220894092341e-07
553 553 3.8797033089389192e-02
593 553 -1.0000000000000000e-02
594 553 -1.2542320397374375e-07
973 553 -1.5677900496717967e-07
526 554 1.0000000000000000e+00
533 554 1.0000000000000000e+00
554 554 1.0000000000000001e-01
589 554 -1.0000000000000001e-01
526 555 -1.1904761904761779e-02
530 555 1.0000000000000000e+00
550 555 -1.2542320397374375e-07
555 555 1.0000000000000001e-01
592 555 -1.5677900496717969e-08
593 555 -1.0000000000000001e-01
594 555 1.4110110447046171e-07
538 556 1.0000000000000000e+00
543 556 1.0000000000000000e+00
556 556 1.0000000000000000e+00
977 556 -1.0000000000000000e+00
557 557 5.9523809523810006e-04
581 557 -1.2542320397374375e-07
587 557 1.4110110447046171e-07
593 557 -1.5677900496717969e-08
558 558 5.9523809523810006e-04
581 558 2.8220220894092341e-07
582 558 -1.5677900496717967e-07
587 558 -1.2542320397374375e-07
559 559 5.9523809523810006e-04
559 560 1.0000000000000000e+00
560 560 -1.0000000000000000e+00
580 560 9.8999999999999999e-01
583 560 1.0000000000000000e+00
584 560 -9.8999999999999999e-01
561 561 5.9523809523810006e-04
581 561 -1.5677900496717967e-07
582 561 1.5677900496717967e-07
562 562 5.9523809523810006e-04
562 563 -1.1904761904761779e-02
563 563 -1.0000000000000000e+00
569 563 2.8805503343036092e-02
581 563 -2.8805503343036092e-02
562 564 1.0714285714285765e-01
564 564 -1.0000000000000000e+00
568 564 2.8805503343036092e-02
569 564 -3.1950693885951894e-07
581 564 3.1950693885951894e-07
586 564 -2.8805503343036092e-02
562 565 -5.0000000000000000e-01
565 565 -1.0000000000000000e+00
567 565 2.8805503343036092e-02
568 565 -2.1300462590634596e-07
569 565 -6.9885137698274481e-08
581 565 6.9885137698274481e-08
585 565 -2.8805503343036092e-02
586 565 2.1300462590634596e-07
560 566 2.8805503343036092e-02
562 566 1.0000000000000000e+00
566 566 -1.0000000000000000e+00
567 566 -1.0650231295317298e-07
568 566 -2.3295045899424822e-08
569 566 9.4432923391319935e-09
580 566 -2.8805503343036092e-02
581 566 -9.4432923391319935e-09
585 566 1.0650231295317298e-07
586 566 2.3295045899424822e-08
559 567 -5.0000000000000000e-01
567 567 -1.0000000000000000e+00
585 567 9.8999999999999999e-01
969 567 1.0000000000000000e+00
994 567 -9.8999999999999999e-01
559 568 1.0714285714285765e-01
568 568 -1.0000000000000000e+00
586 568 9.8999999999999999e-01
974 568 1.0000000000000000e+00
1006 568 -9.8999999999999999e-01
559 569 -1.1904761904761779e-02
569 569 -1.0000000000000000e+00
581 569 9.8999999999999999e-01
582 569 1.0000000000000000e+00
587 569 -9.8999999999999999e-01
570 570 5.9523809523810006e-04
570 571 1.0000000000000000e+00
571 571 -1.0000000000000000e+00
580 571 2.0000000000000000e-02
583 571 -2.0000000000000000e-02
584 571 1.0000000000000000e+00
572 572 5.9523809523810006e-04
572 573 -1.1904761904761779e-02
573 573 -1.0000000000000000e+00
577 573 1.2292833877838919e-291
581 573 -1.2292833877838919e-291
572 574 1.0714285714285765e-01
574 574 -1.0000000000000000e+00
577 574 -9.1453937427958129e-290
579 574 1.2292833877838919e-291
581 574 9.1453937427958129e-290
586 574 -1.2292833877838919e-291
572 575 -5.0000000000000000e-01
575 575 -1.0000000000000000e+00
577 575 2.2685822834507169e-288
578 575 1.2292833877838919e-291
579 575 -6.0969291618638753e-290
581 575 -2.2685822834507169e-288
585 575 -1.2292833877838919e-291
586 575 6.0969291618638753e-290
571 576 1.2292833877838919e-291
572 576 1.0000000000000000e+00
576 576 -1.0000000000000000e+00
577 576 -1.8763212963843703e-287
578 576 -3.0484645809319376e-290
579 576 7.5619409448357217e-289
580 576 -1.2292833877838919e-291
581 576 1.8763212963843703e-287
585 576 3.0484645809319376e-290
586 576 -7.5619409448357217e-289
570 577 -1.1904761904761779e-02
577 577 -1.0000000000000000e+00
581 577 2.0000000000000000e-02
582 577 -2.0000000000000000e-02
587 577 1.0000000000000000e+00
570 578 -5.0000000000000000e-01
578 578 -1.0000000000000000e+00
585 578 2.0000000000000000e-02
969 578 -2.0000000000000000e-02
994 578 1.0000000000000000e+00
570 579 1.0714285714285765e-01
579 579 -1.0000000000000000e+00
586 579 2.0000000000000000e-02
974 579 -2.0000000000000000e-02
1006 579 1.0000000000000000e+00
558 580 1.0000000000000000e+00
560 580 -2.8805503343036092e-02
567 580 1.0650231295317298e-07
568 580 2.3295045899424822e-08
569 580 -9.4432923391319935e-09
571 580 -1.2292833877838919e-291
577 580 1.8763212963843703e-287
578 580 3.0484645809319376e-290
579 580 -7.5619409448357217e-289
580 580 3.8805503343036091e-02
581 580 9.4432923391319935e-09
585 580 -1.0650231295317298e-07
586 580 -2.3295045899424822e-08
589 580 -1.0000000000000000e-02
558 581 -1.1904761904761779e-02
569 581 -2.8805503343036092e-02
577 581 -1.2292833877838919e-291
581 581 3.8805503343036091e-02
586 581 2.8220220894092341e-07
593 581 -1.0000000000000000e-02
974 581 -1.5677900496717967e-07
1006 581 -1.2542320397374375e-07
561 582 -1.1904761904761779e-02
563 582 1.0000000000000000e+00
582 582 1.0000000000000000e+00
586 582 -1.5677900496717967e-07
974 582 1.5677900496717967e-07
1013 582 -1.0000000000000000e+00
561 583 1.0000000000000000e+00
566 583 1.0000000000000000e+00
583 583 1.0000000000000000e+00
977 583 -1.0000000000000000e+00
557 584 1.0000000000000000e+00
576 584 1.0000000000000000e+00
584 584 1.0000000000000001e-01
980 584 -1.0000000000000001e-01
558 585 -5.0000000000000000e-01
567 585 -2.8805503343036092e-02
568 585 2.1300462590634596e-07
569 585 6.9885137698274481e-08
577 585 -2.2685822834507169e-288
578 585 -1.2292833877838919e-291
579 585 6.0969291618638753e-290
580 585 2.8220220894092341e-07
581 585 -6.9885137698274481e-08
583 585 -1.5677900496717967e-07
584 585 -1.2542320397374375e-07
585 585 3.8805503343036091e-02
586 585 -2.1300462590634596e-07
590 585 -1.0000000000000000e-02
558 586 1.0714285714285765e-01
568 586 -2.8805503343036092e-02
569 586 3.1950693885951894e-07
577 586 9.1453937427958129e-290
579 586 -1.2292833877838919e-291
581 586 -3.1950693885951894e-07
585 586 2.8220220894092341e-07
586 586 3.8805503343036091e-02
592 586 -1.0000000000000000e-02
969 586 -1.5677900496717967e-07
994 586 -1.2542320397374375e-07
557 587 -1.1904761904761779e-02
573 587 1.0000000000000000e+00
586 587 -1.2542320397374375e-07
587 587 1.0000000000000001e-01
592 587 -1.5677900496717969e-08
1006 587 1.4110110447046171e-07
1017 587 -1.0000000000000001e-01
496 588 -1.1904761904761779e-02
512 588 1.0000000000000000e+00
522 588 -1.2542320397374375e-07
588 588 1.0000000000000001e-01
592 588 -1.5677900496717969e-08
1007 588 1.4110110447046171e-07
1016 588 -1.0000000000000001e-01
418 589 -2.5641025641025640e-05
520 589 -1.0000000000000000e-02
525 589 1.0000000000000000e+00
552 589 -1.0000000000000000e-02
554 589 -1.0000000000000001e-01
580 589 -1.0000000000000000e-02
589 589 1.3002564102564101e-01
526 590 -5.0000000000000000e-01
532 590 1.0000000000000000e+00
552 590 -1.2542320397374375e-07
554 590 1.4110110447046171e-07
589 590 -1.5677900496717969e-08
590 590 -1.0000000000000001e-01
591 590 1.0000000000000001e-01
493 591 -2.5641025641025640e-05
524 591 -1.0000000000000000e-02
525 591 -5.0000000000000000e-01
546 591 -1.0000000000000000e-02
554 591 -1.5677900496717969e-08
584 591 -1.5677900496717969e-08
585 591 -1.0000000000000000e-02
589 591 4.7033701490153909e-08
590 591 1.3002564102564101e-01
591 591 -1.0000000000000001e-01
981 591 -1.5677900496717969e-08
526 592 1.0714285714285765e-01
531 592 1.0000000000000000e+00
546 592 -1.2542320397374375e-07
590 592 -1.5677900496717969e-08
591 592 1.4110110447046171e-07
592 592 -1.0000000000000001e-01
594 592 1.0000000000000001e-01
490 593 -2.5641025641025640e-05
519 593 -1.0000000000000000e-02
525 593 -1.1904761904761779e-02
553 593 -1.0000000000000000e-02
555 593 -1.0000000000000001e-01
581 593 -1.0000000000000000e-02
592 593 4.7033701490153909e-08
593 593 1.3002564102564101e-01
594 593 -1.5677900496717969e-08
1006 593 -1.5677900496717969e-08
1007 593 -1.5677900496717969e-08
494 594 -2.5641025641025640e-05
522 594 -1.0000000000000000e-02
525 594 1.0714285714285765e-01
550 594 -1.0000000000000000e-02
586 594 -1.0000000000000000e-02
590 594 4.7033701490153909e-08
591 594 -1.5677900496717969e-08
592 594 1.3002564102564101e-01
594 594 -1.0000000000000001e-01
994 594 -1.5677900496717969e-08
995 594 -1.5677900496717969e-08
595 595 5.9523809523810006e-04
626 595 -1.5677900496717969e-08
660 595 -1.5677900496717969e-08
963 595 3.1355800993435937e-08
596 596 5.9523809523810006e-04
620 596 -1.2542320397374375e-07
626 596 1.4110110447046171e-07
963 596 -1.5677900496717969e-08
597 597 5.9523809523810006e-04
597 598 1.0000000000000000e+00
598 598 -1.0000000000000000e+00
619 598 2.0000000000000000e-02
621 598 1.0000000000000000e+00
628 598 -2.0000000000000000e-02
599 599 5.9523809523810006e-04
599 600 -1.1904761904761779e-02
600 600 -1.0000000000000000e+00
618 600 2.0131861686261384e-12
620 600 -2.0131861686261384e-12
599 601 1.0714285714285765e-01
601 601 -1.0000000000000000e+00
605 601 2.0131861686261384e-12
618 601 -2.0588888531430257e-20
620 601 2.0588888531430257e-20
625 601 -2.0131861686261384e-12
599 602 -5.0000000000000000e-01
602 602 -1.0000000000000000e+00
604 602 2.0131861686261384e-12
605 602 -1.3725925687620170e-20
618 602 -1.8736074399655905e-19
620 602 1.8736074399655905e-19
622 602 -2.0131861686261384e-12
625 602 1.3725925687620170e-20
598 603 2.0131861686261384e-12
599 603 1.0000000000000000e+00
603 603 -1.0000000000000000e+00
604 603 -6.8629628438100851e-21
605 603 -6.2453581332186342e-20
618 603 7.9135523059384733e-18
619 603 -2.0131861686261384e-12
620 603 -7.9135523059384733e-18
622 603 6.8629628438100851e-21
625 603 6.2453581332186342e-20
597 604 -5.0000000000000000e-01
604 604 -1.0000000000000000e+00
622 604 2.0000000000000000e-02
623 604 1.0000000000000000e+00
667 604 -2.0000000000000000e-02
597 605 1.0714285714285765e-01
605 605 -1.0000000000000000e+00
624 605 1.0000000000000000e+00
625 605 2.0000000000000000e-02
670 605 -2.0000000000000000e-02
606 606 5.9523809523810006e-04
620 606 2.8220220894092341e-07
626 606 -1.2542320397374375e-07
627 606 -1.5677900496717967e-07
607 607 5.9523809523810006e-04
607 608 1.0000000000000000e+00
608 608 -1.0000000000000000e+00
619 608 9.8999999999999999e-01
621 608 -9.8999999999999999e-01
628 608 1.0000000000000000e+00
609 609 5.9523809523810006e-04
620 609 -1.5677900496717967e-07
627 609 1.5677900496717967e-07
610 610 5.9523809523810006e-04
610 611 -1.1904761904761779e-02
611 611 -1.0000000000000000e+00
617 611 7.3836460533487970e-04
620 611 -7.3836460533487970e-04
610 612 1.0714285714285765e-01
612 612 -1.0000000000000000e+00
616 612 7.3836460533487970e-04
617 612 -1.1628637306411561e-09
620 612 1.1628637306411561e-09
625 612 -7.3836460533487970e-04
610 613 -5.0000000000000000e-01
613 613 -1.0000000000000000e+00
615 613 7.3836460533487970e-04
616 613 -7.7524248709410410e-10
617 613 -5.7065239205642260e-09
620 613 5.7065239205642260e-09
622 613 -7.3836460533487970e-04
625 613 7.7524248709410410e-10
608 614 7.3836460533487970e-04
610 614 1.0000000000000000e+00
614 614 -1.0000000000000000e+00
615 614 -3.8762124354705205e-10
616 614 -1.9021746401880751e-09
617 614 6.6111471760548364e-07
619 614 -7.3836460533487970e-04
620 614 -6.6111471760548364e-07
622 614 3.8762124354705205e-10
625 614 1.9021746401880751e-09
607 615 -5.0000000000000000e-01
615 615 -1.0000000000000000e+00
622 615 9.8999999999999999e-01
623 615 -9.8999999999999999e-01
667 615 1.0000000000000000e+00
607 616 1.0714285714285765e-01
616 616 -1.0000000000000000e+00
624 616 -9.8999999999999999e-01
625 616 9.8999999999999999e-01
670 616 1.0000000000000000e+00
607 617 -1.1904761904761779e-02
617 617 -1.0000000000000000e+00
620 617 9.8999999999999999e-01
626 617 -9.8999999999999999e-01
627 617 1.0000000000000000e+00
597 618 -1.1904761904761779e-02
618 618 -1.0000000000000000e+00
620 618 2.0000000000000000e-02
626 618 1.0000000000000000e+00
627 618 -2.0000000000000000e-02
598 619 -2.0131861686261384e-12
604 619 6.8629628438100851e-21
605 619 6.2453581332186342e-20
606 619 1.0000000000000000e+00
608 619 -7.3836460533487970e-04
615 619 3.8762124354705205e-10
616 619 1.9021746401880751e-09
617 619 -6.6111471760548364e-07
618 619 -7.9135523059384733e-18
619 619 1.0738364607348066e-02
620 619 6.6111471761339705e-07
622 619 -3.8762124355391501e-10
625 619 -1.9021746402505284e-09
956 619 -1.0000000000000000e-02
606 620 -1.1904761904761779e-02
617 620 -7.3836460533487970e-04
618 620 -2.0131861686261384e-12
620 620 1.0738364607348066e-02
624 620 -1.2542320397374375e-07
625 620 2.8220220894092341e-07
670 620 -1.5677900496717967e-07
963 620 -1.0000000000000000e-02
596 621 1.0000000000000000e+00
603 621 1.0000000000000000e+00
621 621 1.0000000000000001e-01
956 621 -1.0000000000000001e-01
604 622 -2.0131861686261384e-12
605 622 1.3725925687620170e-20
606 622 -5.0000000000000000e-01
615 622 -7.3836460533487970e-04
616 622 7.7524248709410410e-10
617 622 5.7065239205642260e-09
618 622 1.8736074399655905e-19
619 622 2.8220220894092341e-07
620 622 -5.7065239207515866e-09
621 622 -1.2542320397374375e-07
622 622 1.0738364607348066e-02
625 622 -7.7524248710783002e-10
628 622 -1.5677900496717967e-07
958 622 -1.0000000000000000e-02
596 623 -5.0000000000000000e-01
602 623 1.0000000000000000e+00
619 623 -1.2542320397374375e-07
621 623 1.4110110447046171e-07
623 623 1.0000000000000001e-01
956 623 -1.5677900496717969e-08
958 623 -1.0000000000000001e-01
596 624 1.0714285714285765e-01
601 624 1.0000000000000000e+00
622 624 -1.2542320397374375e-07
623 624 1.4110110447046171e-07
624 624 1.0000000000000001e-01
958 624 -1.5677900496717969e-08
961 624 -1.0000000000000001e-01
605 625 -2.0131861686261384e-12
606 625 1.0714285714285765e-01
616 625 -7.3836460533487970e-04
617 625 1.1628637306411561e-09
618 625 2.0588888531430257e-20
620 625 -1.1628637306617450e-09
622 625 2.8220220894092341e-07
623 625 -1.2542320397374375e-07
625 625 1.0738364607348066e-02
667 625 -1.5677900496717967e-07
961 625 -1.0000000000000000e-02
596 626 -1.1904761904761779e-02
600 626 1.0000000000000000e+00
624 626 1.4110110447046171e-07
625 626 -1.2542320397374375e-07
626 626 1.0000000000000001e-01
961 626 -1.5677900496717969e-08
963 626 -1.0000000000000001e-01
609 627 -1.1904761904761779e-02
611 627 1.0000000000000000e+00
625 627 -1.5677900496717967e-07
627 627 1.0000000000000000e+00
670 627 1.5677900496717967e-07
1013 627 -1.0000000000000000e+00
609 628 1.0000000000000000e+00
614 628 1.0000000000000000e+00
628 628 1.0000000000000000e+00
977 628 -1.0000000000000000e+00
629 629 5.9523809523810006e-04
653 629 -1.2542320397374375e-07
660 629 1.4110110447046171e-07
963 629 -1.5677900496717969e-08
630 630 5.9523809523810006e-04
630 631 1.0000000000000000e+00
631 631 -1.0000000000000000e+00
652 631 2.0000000000000000e-02
655 631 -2.0000000000000000e-02
957 631 1.0000000000000000e+00
632 632 5.9523809523810006e-04
632 633 -1.1904761904761779e-02
633 633 -1.0000000000000000e+00
651 633 1.5991000437862215e-282
653 633 -1.5991000437862215e-282
632 634 1.0714285714285765e-01
634 634 -1.0000000000000000e+00
638 634 1.5991000437862215e-282
651 634 -1.2605522563688572e-284
653 634 1.2605522563688572e-284
657 634 -1.5991000437862215e-282
632 635 -5.0000000000000000e-01
635 635 -1.0000000000000000e+00
637 635 1.5991000437862215e-282
638 635 -8.4036817091257145e-285
651 635 -2.7088350613981909e-285
653 635 2.7088350613981909e-285
656 635 -1.5991000437862215e-282
657 635 8.4036817091257145e-285
631 636 1.5991000437862215e-282
632 636 1.0000000000000000e+00
636 636 -1.0000000000000000e+00
637 636 -4.2018408545628572e-285
638 636 -9.0294502046606355e-286
651 636 -2.2638385423475629e-285
652 636 -1.5991000437862215e-282
653 636 2.2638385423475629e-285
656 636 4.2018408545628572e-285
657 636 9.0294502046606355e-286
630 637 -5.0000000000000000e-01
637 637 -1.0000000000000000e+00
656 637 2.0000000000000000e-02
658 637 1.0000000000000000e+00
668 637 -2.0000000000000000e-02
630 638 1.0714285714285765e-01
638 638 -1.0000000000000000e+00
657 638 2.0000000000000000e-02
659 638 1.0000000000000000e+00
669 638 -2.0000000000000000e-02
639 639 5.9523809523810006e-04
653 639 2.8220220894092341e-07
654 639 -1.5677900496717967e-07
660 639 -1.2542320397374375e-07
640 640 5.9523809523810006e-04
640 641 1.0000000000000000e+00
641 641 -1.0000000000000000e+00
652 641 9.8999999999999999e-01
655 641 1.0000000000000000e+00
957 641 -9.8999999999999999e-01
642 642 5.9523809523810006e-04
653 642 -1.5677900496717967e-07
654 642 1.5677900496717967e-07
643 643 5.9523809523810006e-04
643 644 -1.1904761904761779e-02
644 644 -1.0000000000000000e+00
650 644 7.3836462977836382e-04
653 644 -7.3836462977836382e-04
643 645 1.0714285714285765e-01
645 645 -1.0000000000000000e+00
649 645 7.3836462977836382e-04
650 645 -1.1470092831423988e-09
653 645 1.1470092831423988e-09
657 645 -7.3836462977836382e-04
643 646 -5.0000000000000000e-01
646 646 -1.0000000000000000e+00
648 646 7.3836462977836382e-04
649 646 -7.6467285542826584e-10
650 646 -5.6666016499657547e-09
653 646 5.6666016499657547e-09
656 646 -7.3836462977836382e-04
657 646 7.6467285542826584e-10
641 647 7.3836462977836382e-04
643 647 1.0000000000000000e+00
647 647 -1.0000000000000000e+00
648 647 -3.8233642771413292e-10
649 647 -1.8888672166552513e-09
650 647 6.5235525835211573e-07
652 647 -7.3836462977836382e-04
653 647 -6.5235525835211573e-07
656 647 3.8233642771413292e-10
657 647 1.8888672166552513e-09
640 648 -5.0000000000000000e-01
648 648 -1.0000000000000000e+00
656 648 9.8999999999999999e-01
658 648 -9.8999999999999999e-01
668 648 1.0000000000000000e+00
640 649 1.0714285714285765e-01
649 649 -1.0000000000000000e+00
657 649 9.8999999999999999e-01
659 649 -9.8999999999999999e-01
669 649 1.0000000000000000e+00
640 650 -1.1904761904761779e-02
650 650 -1.0000000000000000e+00
653 650 9.8999999999999999e-01
654 650 1.0000000000000000e+00
660 650 -9.8999999999999999e-01
630 651 -1.1904761904761779e-02
651 651 -1.0000000000000000e+00
653 651 2.0000000000000000e-02
654 651 -2.0000000000000000e-02
660 651 1.0000000000000000e+00
631 652 -1.5991000437862215e-282
637 652 4.2018408545628572e-285
638 652 9.0294502046606355e-286
639 652 1.0000000000000000e+00
641 652 -7.3836462977836382e-04
648 652 3.8233642771413292e-10
649 652 1.8888672166552513e-09
650 652 -6.5235525835211573e-07
651 652 2.2638385423475629e-285
652 652 1.0738364629778363e-02
653 652 6.5235525835211573e-07
656 652 -3.8233642771413292e-10
657 652 -1.8888672166552513e-09
956 652 -1.0000000000000000e-02
639 653 -1.1904761904761779e-02
650 653 -7.3836462977836382e-04
651 653 -1.5991000437862215e-282
653 653 1.0738364629778363e-02
657 653 2.8220220894092341e-07
659 653 -1.2542320397374375e-07
669 653 -1.5677900496717967e-07
963 653 -1.0000000000000000e-02
642 654 -1.1904761904761779e-02
644 654 1.0000000000000000e+00
654 654 1.0000000000000000e+00
657 654 -1.5677900496717967e-07
669 654 1.5677900496717967e-07
1013 654 -1.0000000000000000e+00
642 655 1.0000000000000000e+00
647 655 1.0000000000000000e+00
655 655 1.0000000000000000e+00
977 655 -1.0000000000000000e+00
637 656 -1.5991000437862215e-282
638 656 8.4036817091257145e-285
639 656 -5.0000000000000000e-01
648 656 -7.3836462977836382e-04
649 656 7.6467285542826584e-10
650 656 5.6666016499657547e-09
651 656 2.7088350613981909e-285
652 656 2.8220220894092341e-07
653 656 -5.6666016499657547e-09
655 656 -1.5677900496717967e-07
656 656 1.0738364629778363e-02
657 656 -7.6467285542826584e-10
957 656 -1.2542320397374375e-07
958 656 -1.0000000000000000e-02
638 657 -1.5991000437862215e-282
639 657 1.0714285714285765e-01
649 657 -7.3836462977836382e-04
650 657 1.1470092831423988e-09
651 657 1.2605522563688572e-284
653 657 -1.1470092831423988e-09
656 657 2.8220220894092341e-07
657 657 1.0738364629778363e-02
658 657 -1.2542320397374375e-07
668 657 -1.5677900496717967e-07
961 657 -1.0000000000000000e-02
629 658 -5.0000000000000000e-01
635 658 1.0000000000000000e+00
652 658 -1.2542320397374375e-07
658 658 1.0000000000000001e-01
956 658 -1.5677900496717969e-08
957 658 1.4110110447046171e-07
966 658 -1.0000000000000001e-01
629 659 1.0714285714285765e-01
634 659 1.0000000000000000e+00
656 659 -1.2542320397374375e-07
658 659 1.4110110447046171e-07
659 659 1.0000000000000001e-01
958 659 -1.5677900496717969e-08
971 659 -1.0000000000000001e-01
629 660 -1.1904761904761779e-02
633 660 1.0000000000000000e+00
657 660 -1.2542320397374375e-07
659 660 1.4110110447046171e-07
660 660 1.0000000000000001e-01
961 660 -1.5677900496717969e-08
975 660 -1.0000000000000001e-01
661 661 5.9523809523810006e-04
661 662 -5.0000000000000000e-01
662 662 1.0000000000000000e+00
663 663 5.9523809523810006e-04
663 664 1.0714285714285765e-01
664 664 1.0000000000000000e+00
665 664 5.2999999999999998e+00
669 664 -1.0000000000000000e+00
670 664 -1.0000000000000000e+00
964 664 -1.0000000000000001e-01
973 664 -1.0000000000000000e+00
974 664 -1.0000000000000000e+00
976 664 -1.0000000000000000e+00
1008 664 -1.0000000000000001e-01
1009 664 -1.0000000000000001e-01
661 665 1.0714285714285765e-01
665 665 1.0000000000000000e+00
662 666 5.2999999999999998e+00
663 666 -5.0000000000000000e-01
666 666 1.0000000000000000e+00
667 666 -1.0000000000000000e+00
668 666 -1.0000000000000000e+00
960 666 -1.0000000000000001e-01
968 666 -1.0000000000000000e+00
969 666 -1.0000000000000000e+00
970 666 -1.0000000000000000e+00
996 666 -1.0000000000000001e-01
997 666 -1.0000000000000001e-01
609 667 -5.0000000000000000e-01
613 667 1.0000000000000000e+00
619 667 -1.5677900496717967e-07
628 667 1.5677900496717967e-07
662 667 -1.0000000000000000e+00
667 667 1.0000000000000000e+00
642 668 -5.0000000000000000e-01
646 668 1.0000000000000000e+00
652 668 -1.5677900496717967e-07
655 668 1.5677900496717967e-07
662 668 -1.0000000000000000e+00
668 668 1.0000000000000000e+00
642 669 1.0714285714285765e-01
645 669 1.0000000000000000e+00
656 669 -1.5677900496717967e-07
665 669 -1.0000000000000000e+00
668 669 1.5677900496717967e-07
669 669 1.0000000000000000e+00
609 670 1.0714285714285765e-01
612 670 1.0000000000000000e+00
622 670 -1.5677900496717967e-07
665 670 -1.0000000000000000e+00
667 670 1.5677900496717967e-07
670 670 1.0000000000000000e+00
671 671 5.9523809523810006e-04
705 671 -1.5677900496717969e-08
790 671 1.5677900496717969e-08
671 672 1.0000000000000000e+00
672 672 2.1000000000000002e-01
704 672 -1.0000000000000000e-02
786 672 -1.0000000000000001e-01
955 672 -1.0000000000000001e-01
673 673 1.0000000000000000e+00
677 673 1.0000000000000000e+00
674 674 1.0000000000000000e+00
677 674 -5.0000000000000000e-01
675 675 1.0000000000000000e+00
677 675 1.0714285714285765e-01
676 676 1.0000000000000000e+00
677 676 -1.1904761904761779e-02
677 677 5.9523809523810006e-04
678 678 5.9523809523810006e-04
699 678 -1.2542320397374375e-07
705 678 1.4110110447046171e-07
790 678 -1.5677900496717969e-08
679 679 5.9523809523810006e-04
699 679 2.8220220894092341e-07
700 679 -1.5677900496717967e-07
705 679 -1.2542320397374375e-07
680 680 5.9523809523810006e-04
699 680 -1.5677900496717967e-07
700 680 1.5677900496717967e-07
681 681 5.9523809523810006e-04
681 682 -1.1904761904761779e-02
682 682 1.0000000000000000e+00
699 682 -2.0000000000000000e-02
700 682 2.0000000000000000e-02
705 682 -1.0000000000000000e+00
681 683 1.0714285714285765e-01
683 683 1.0000000000000000e+00
698 683 2.0000000000000000e-02
703 683 -2.0000000000000000e-02
964 683 -1.0000000000000000e+00
681 684 -5.0000000000000000e-01
684 684 1.0000000000000000e+00
697 684 2.0000000000000000e-02
701 684 -2.0000000000000000e-02
960 684 -1.0000000000000000e+00
681 685 1.0000000000000000e+00
685 685 1.0000000000000000e+00
696 685 2.0000000000000000e-02
702 685 -1.0000000000000000e+00
704 685 -2.0000000000000000e-02
686 686 5.9523809523810006e-04
686 687 1.0000000000000000e+00
687 687 1.0000000000000000e+00
696 687 -1.0000000000000000e+00
702 687 9.8999999999999999e-01
704 687 -9.8999999999999999e-01
688 688 5.9523809523810006e-04
688 689 -1.1904761904761779e-02
689 689 1.0000000000000000e+00
695 689 4.6771630206132427e-04
699 689 -4.6771630206132427e-04
688 690 1.0714285714285765e-01
690 690 1.0000000000000000e+00
694 690 4.6771630206132427e-04
695 690 1.2994386671858649e-07
699 690 -1.2994386671858649e-07
703 690 -4.6771630206132427e-04
688 691 -5.0000000000000000e-01
691 691 1.0000000000000000e+00
693 691 4.6771630206132427e-04
694 691 8.6629244479057667e-08
695 691 3.0785513187905804e-08
699 691 -3.0785513187905804e-08
701 691 -4.6771630206132427e-04
703 691 -8.6629244479057667e-08
687 692 4.6771630206132427e-04
688 692 1.0000000000000000e+00
692 692 1.0000000000000000e+00
693 692 4.3314622239528834e-08
694 692 1.0261837729301933e-08
695 692 -6.4527164366184114e-08
699 692 6.4527164366184114e-08
701 692 -4.3314622239528834e-08
703 692 -1.0261837729301933e-08
704 692 -4.6771630206132427e-04
686 693 -5.0000000000000000e-01
693 693 1.0000000000000000e+00
697 693 -1.0000000000000000e+00
701 693 -9.8999999999999999e-01
960 693 9.8999999999999999e-01
686 694 1.0714285714285765e-01
694 694 1.0000000000000000e+00
698 694 -1.0000000000000000e+00
703 694 -9.8999999999999999e-01
964 694 9.8999999999999999e-01
686 695 -1.1904761904761779e-02
695 695 1.0000000000000000e+00
699 695 -9.8999999999999999e-01
700 695 -1.0000000000000000e+00
705 695 9.8999999999999999e-01
680 696 1.0000000000000000e+00
692 696 -1.0000000000000000e+00
696 696 1.0000000000000000e+00
785 696 -1.0000000000000000e+00
680 697 -5.0000000000000000e-01
691 697 -1.0000000000000000e+00
696 697 1.5677900496717967e-07
697 697 1.0000000000000000e+00
704 697 -1.5677900496717967e-07
787 697 -1.0000000000000000e+00
680 698 1.0714285714285765e-01
690 698 -1.0000000000000000e+00
697 698 1.5677900496717967e-07
698 698 1.0000000000000000e+00
701 698 -1.5677900496717967e-07
788 698 -1.0000000000000000e+00
679 699 -1.1904761904761779e-02
695 699 -4.6771630206132427e-04
698 699 -1.5677900496717967e-07
699 699 1.0467716302061324e-02
703 699 2.8220220894092341e-07
790 699 -1.0000000000000000e-02
964 699 -1.2542320397374375e-07
680 700 -1.1904761904761779e-02
689 700 -1.0000000000000000e+00
698 700 1.5677900496717967e-07
700 700 1.0000000000000000e+00
703 700 -1.5677900496717967e-07
789 700 -1.0000000000000000e+00
679 701 -5.0000000000000000e-01
693 701 -4.6771630206132427e-04
694 701 -8.6629244479057667e-08
695 701 -3.0785513187905804e-08
696 701 -1.5677900496717967e-07
699 701 3.0785513187905804e-08
701 701 1.0467716302061324e-02
702 701 -1.2542320397374375e-07
703 701 8.6629244479057667e-08
704 701 2.8220220894092341e-07
950 701 -1.0000000000000000e-02
673 702 -1.0000000000000000e+00
678 702 1.0000000000000000e+00
702 702 1.0000000000000001e-01
977 702 -1.0000000000000001e-01
679 703 1.0714285714285765e-01
694 703 -4.6771630206132427e-04
695 703 -1.2994386671858649e-07
697 703 -1.5677900496717967e-07
699 703 1.2994386671858649e-07
701 703 2.8220220894092341e-07
703 703 1.0467716302061324e-02
952 703 -1.0000000000000000e-02
960 703 -1.2542320397374375e-07
672 704 -1.0000000000000000e-02
679 704 1.0000000000000000e+00
687 704 -4.6771630206132427e-04
693 704 -4.3314622239528834e-08
694 704 -1.0261837729301933e-08
695 704 6.4527164366184114e-08
699 704 -6.4527164366184114e-08
701 704 4.3314622239528834e-08
703 704 1.0261837729301933e-08
704 704 1.0467716302061324e-02
676 705 -1.0000000000000000e+00
678 705 -1.1904761904761779e-02
703 705 -1.2542320397374375e-07
705 705 1.0000000000000001e-01
952 705 -1.5677900496717969e-08
964 705 1.4110110447046171e-07
1013 705 -1.0000000000000001e-01
706 706 5.9523809523810006e-04
706 707 -1.1904761904761779e-02
707 707 1.0009999999999999e+00
742 707 -1.0000000000000000e+00
1014 707 -1.0000000000000000e-03
706 708 1.0714285714285765e-01
708 708 1.0009999999999999e+00
741 708 -1.0000000000000000e+00
1000 708 -1.0000000000000000e-03
706 709 -5.0000000000000000e-01
709 709 1.0009999999999999e+00
740 709 -1.0000000000000000e+00
988 709 -1.0000000000000000e-03
710 710 5.9523809523810006e-04
737 710 -1.2542320397374375e-07
784 710 1.4110110447046171e-07
789 710 -1.5677900496717969e-08
711 711 5.9523809523810006e-04
711 712 1.0000000000000000e+00
712 712 1.0000000000000000e+00
733 712 -2.0000000000000000e-02
734 712 2.0000000000000000e-02
985 712 -1.0000000000000000e+00
713 713 5.9523809523810006e-04
713 714 -1.1904761904761779e-02
714 714 1.0000000000000000e+00
732 714 6.6112337758843817e-26
737 714 -6.6112337758843817e-26
713 715 1.0714285714285765e-01
715 715 1.0000000000000000e+00
719 715 6.6112337758843817e-26
732 715 3.7545699015109777e-28
736 715 -6.6112337758843817e-26
737 715 -3.7545699015109777e-28
713 716 -5.0000000000000000e-01
716 716 1.0000000000000000e+00
718 716 6.6112337758843817e-26
719 716 2.5030466010073183e-28
732 716 8.3122920684260963e-29
735 716 -6.6112337758843817e-26
736 716 -2.5030466010073183e-28
737 716 -8.3122920684260963e-29
712 717 6.6112337758843817e-26
713 717 1.0000000000000000e+00
717 717 1.0000000000000000e+00
718 717 1.2515233005036592e-28
719 717 2.7707640228086984e-29
732 717 1.6108656329549760e-28
733 717 -6.6112337758843817e-26
735 717 -1.2515233005036592e-28
736 717 -2.7707640228086984e-29
737 717 -1.6108656329549760e-28
711 718 -5.0000000000000000e-01
718 718 1.0000000000000000e+00
735 718 -2.0000000000000000e-02
738 718 -1.0000000000000000e+00
740 718 2.0000000000000000e-02
711 719 1.0714285714285765e-01
719 719 1.0000000000000000e+00
736 719 -2.0000000000000000e-02
739 719 -1.0000000000000000e+00
741 719 2.0000000000000000e-02
720 720 5.9523809523810006e-04
737 720 2.8220220894092341e-07
742 720 -1.5677900496717967e-07
784 720 -1.2542320397374375e-07
721 721 5.9523809523810006e-04
721 722 1.0000000000000000e+00
722 722 1.0000000000000000e+00
733 722 -9.8999999999999999e-01
734 722 -1.0000000000000000e+00
985 722 9.8999999999999999e-01
723 723 5.9523809523810006e-04
737 723 -1.5677900496717967e-07
742 723 1.5677900496717967e-07
724 724 5.9523809523810006e-04
724 725 -1.1904761904761779e-02
725 725 1.0000000000000000e+00
731 725 3.1081435244873656e-04
737 725 -3.1081435244873656e-04
724 726 1.0714285714285765e-01
726 726 1.0000000000000000e+00
730 726 3.1081435244873656e-04
731 726 1.2407214619836863e-06
736 726 -3.1081435244873656e-04
737 726 -1.2407214619836863e-06
724 727 -5.0000000000000000e-01
727 727 1.0000000000000000e+00
729 727 3.1081435244873656e-04
730 727 8.2714764132245762e-07
731 727 2.6756534693708643e-07
735 727 -3.1081435244873656e-04
736 727 -8.2714764132245762e-07
737 727 -2.6756534693708643e-07
722 728 3.1081435244873656e-04
724 728 1.0000000000000000e+00
728 728 1.0000000000000000e+00
729 728 4.1357382066122881e-07
730 728 8.9188448979028793e-08
731 728 5.8991323035583789e-07
733 728 -3.1081435244873656e-04
735 728 -4.1357382066122881e-07
736 728 -8.9188448979028793e-08
737 728 -5.8991323035583789e-07
721 729 -5.0000000000000000e-01
729 729 1.0000000000000000e+00
735 729 -9.8999999999999999e-01
738 729 9.8999999999999999e-01
740 729 -1.0000000000000000e+00
721 730 1.0714285714285765e-01
730 730 1.0000000000000000e+00
736 730 -9.8999999999999999e-01
739 730 9.8999999999999999e-01
741 730 -1.0000000000000000e+00
721 731 -1.1904761904761779e-02
731 731 1.0000000000000000e+00
737 731 -9.8999999999999999e-01
742 731 -1.0000000000000000e+00
784 731 9.8999999999999999e-01
711 732 -1.1904761904761779e-02
732 732 1.0000000000000000e+00
737 732 -2.0000000000000000e-02
742 732 2.0000000000000000e-02
784 732 -1.0000000000000000e+00
712 733 -6.6112337758843817e-26
718 733 -1.2515233005036592e-28
719 733 -2.7707640228086984e-29
720 733 1.0000000000000000e+00
722 733 -3.1081435244873656e-04
729 733 -4.1357382066122881e-07
730 733 -8.9188448979028793e-08
731 733 -5.8991323035583789e-07
732 733 -1.6108656329549760e-28
733 733 1.0310814352448737e-02
735 733 4.1357382066122881e-07
736 733 8.9188448979028793e-08
737 733 5.8991323035583789e-07
785 733 -1.0000000000000000e-02
723 734 1.0000000000000000e+00
728 734 -1.0000000000000000e+00
734 734 1.0000000000000000e+00
743 734 -1.0000000000000000e+00
718 735 -6.6112337758843817e-26
719 735 -2.5030466010073183e-28
720 735 -5.0000000000000000e-01
729 735 -3.1081435244873656e-04
730 735 -8.2714764132245762e-07
731 735 -2.6756534693708643e-07
732 735 -8.3122920684260963e-29
733 735 2.8220220894092341e-07
734 735 -1.5677900496717967e-07
735 735 1.0310814352448737e-02
736 735 8.2714764132245762e-07
737 735 2.6756534693708643e-07
787 735 -1.0000000000000000e-02
985 735 -1.2542320397374375e-07
719 736 -6.6112337758843817e-26
720 736 1.0714285714285765e-01
730 736 -3.1081435244873656e-04
731 736 -1.2407214619836863e-06
732 736 -3.7545699015109777e-28
735 736 2.8220220894092341e-07
736 736 1.0310814352448737e-02
737 736 1.2407214619836863e-06
738 736 -1.2542320397374375e-07
740 736 -1.5677900496717967e-07
788 736 -1.0000000000000000e-02
720 737 -1.1904761904761779e-02
731 737 -3.1081435244873656e-04
732 737 -6.6112337758843817e-26
736 737 2.8220220894092341e-07
737 737 1.0310814352448737e-02
739 737 -1.2542320397374375e-07
741 737 -1.5677900496717967e-07
789 737 -1.0000000000000000e-02
710 738 -5.0000000000000000e-01
716 738 -1.0000000000000000e+00
733 738 -1.2542320397374375e-07
738 738 1.0000000000000001e-01
785 738 -1.5677900496717969e-08
985 738 1.4110110447046171e-07
990 738 -1.0000000000000001e-01
710 739 1.0714285714285765e-01
715 739 -1.0000000000000000e+00
735 739 -1.2542320397374375e-07
738 739 1.4110110447046171e-07
739 739 1.0000000000000001e-01
787 739 -1.5677900496717969e-08
1002 739 -1.0000000000000001e-01
709 740 -1.0000000000000000e+00
723 740 -5.0000000000000000e-01
727 740 -1.0000000000000000e+00
733 740 -1.5677900496717967e-07
734 740 1.5677900496717967e-07
740 740 1.0000000000000000e+00
708 741 -1.0000000000000000e+00
723 741 1.0714285714285765e-01
726 741 -1.0000000000000000e+00
735 741 -1.5677900496717967e-07
740 741 1.5677900496717967e-07
741 741 1.0000000000000000e+00
707 742 -1.0000000000000000e+00
723 742 -1.1904761904761779e-02
725 742 -1.0000000000000000e+00
736 742 -1.5677900496717967e-07
741 742 1.5677900496717967e-07
742 742 1.0000000000000000e+00
706 743 1.0000000000000000e+00
734 743 -1.0000000000000000e+00
743 743 1.0009999999999999e+00
978 743 -1.0000000000000000e-03
744 744 5.9523809523810006e-04
744 745 -1.1904761904761779e-02
745 745 1.0009999999999999e+00
782 745 -1.0000000000000000e+00
1014 745 -1.0000000000000000e-03
744 746 1.0714285714285765e-01
746 746 1.0009999999999999e+00
781 746 -1.0000000000000000e+00
1000 746 -1.0000000000000000e-03
744 747 -5.0000000000000000e-01
747 747 1.0009999999999999e+00
780 747 -1.0000000000000000e+00
988 747 -1.0000000000000000e-03
748 748 5.9523809523810006e-04
779 748 -1.5677900496717969e-08
784 748 -1.5677900496717969e-08
789 748 3.1355800993435937e-08
749 749 5.9523809523810006e-04
776 749 -1.2542320397374375e-07
779 749 1.4110110447046171e-07
789 749 -1.5677900496717969e-08
750 750 5.9523809523810006e-04
750 751 1.0000000000000000e+00
751 751 1.0000000000000000e+00
772 751 -2.0000000000000000e-02
773 751 2.0000000000000000e-02
786 751 -1.0000000000000000e+00
752 752 5.9523809523810006e-04
752 753 -1.1904761904761779e-02
753 753 1.0000000000000000e+00
771 753 1.7308816708887769e-22
776 753 -1.7308816708887769e-22
752 754 1.0714285714285765e-01
754 754 1.0000000000000000e+00
758 754 1.7308816708887769e-22
771 754 -4.6227017789815776e-26
775 754 -1.7308816708887769e-22
776 754 4.6227017789815776e-26
752 755 -5.0000000000000000e-01
755 755 1.0000000000000000e+00
757 755 1.7308816708887769e-22
758 755 -3.0818011859877182e-26
771 755 -1.1013110771747980e-26
774 755 -1.7308816708887769e-22
775 755 3.0818011859877182e-26
776 755 1.1013110771747980e-26
751 756 1.7308816708887769e-22
752 756 1.0000000000000000e+00
756 756 1.0000000000000000e+00
757 756 -1.5409005929938591e-26
758 756 -3.6710369239159929e-27
771 756 2.6404041999126424e-26
772 756 -1.7308816708887769e-22
774 756 1.5409005929938591e-26
775 756 3.6710369239159929e-27
776 756 -2.6404041999126424e-26
750 757 -5.0000000000000000e-01
757 757 1.0000000000000000e+00
774 757 -2.0000000000000000e-02
777 757 -1.0000000000000000e+00
780 757 2.0000000000000000e-02
750 758 1.0714285714285765e-01
758 758 1.0000000000000000e+00
775 758 -2.0000000000000000e-02
778 758 -1.0000000000000000e+00
781 758 2.0000000000000000e-02
759 759 5.9523809523810006e-04
776 759 2.8220220894092341e-07
779 759 -1.2542320397374375e-07
782 759 -1.5677900496717967e-07
760 760 5.9523809523810006e-04
760 761 1.0000000000000000e+00
761 761 1.0000000000000000e+00
772 761 -9.8999999999999999e-01
773 761 -1.0000000000000000e+00
786 761 9.8999999999999999e-01
762 762 5.9523809523810006e-04
776 762 -1.5677900496717967e-07
782 762 1.5677900496717967e-07
763 763 5.9523809523810006e-04
763 764 -1.1904761904761779e-02
764 764 1.0000000000000000e+00
770 764 3.1081435833909838e-04
776 764 -3.1081435833909838e-04
763 765 1.0714285714285765e-01
765 765 1.0000000000000000e+00
769 765 3.1081435833909838e-04
770 765 1.2407253721135589e-06
775 765 -3.1081435833909838e-04
776 765 -1.2407253721135589e-06
763 766 -5.0000000000000000e-01
766 766 1.0000000000000000e+00
768 766 3.1081435833909838e-04
769 766 8.2715024807570594e-07
770 766 2.6758604492323672e-07
774 766 -3.1081435833909838e-04
775 766 -8.2715024807570594e-07
776 766 -2.6758604492323672e-07
761 767 3.1081435833909838e-04
763 767 1.0000000000000000e+00
767 767 1.0000000000000000e+00
768 767 4.1357512403785297e-07
769 767 8.9195348307745563e-08
770 767 5.8905062542803872e-07
772 767 -3.1081435833909838e-04
774 767 -4.1357512403785297e-07
775 767 -8.9195348307745563e-08
776 767 -5.8905062542803872e-07
760 768 -5.0000000000000000e-01
768 768 1.0000000000000000e+00
774 768 -9.8999999999999999e-01
777 768 9.8999999999999999e-01
780 768 -1.0000000000000000e+00
760 769 1.0714285714285765e-01
769 769 1.0000000000000000e+00
775 769 -9.8999999999999999e-01
778 769 9.8999999999999999e-01
781 769 -1.0000000000000000e+00
760 770 -1.1904761904761779e-02
770 770 1.0000000000000000e+00
776 770 -9.8999999999999999e-01
779 770 9.8999999999999999e-01
782 770 -1.0000000000000000e+00
750 771 -1.1904761904761779e-02
771 771 1.0000000000000000e+00
776 771 -2.0000000000000000e-02
779 771 -1.0000000000000000e+00
782 771 2.0000000000000000e-02
751 772 -1.7308816708887769e-22
757 772 1.5409005929938591e-26
758 772 3.6710369239159929e-27
759 772 1.0000000000000000e+00
761 772 -3.1081435833909838e-04
768 772 -4.1357512403785297e-07
769 772 -8.9195348307745563e-08
770 772 -5.8905062542803872e-07
771 772 -2.6404041999126424e-26
772 772 1.0310814358339099e-02
774 772 4.1357512403785297e-07
775 772 8.9195348307745563e-08
776 772 5.8905062542803872e-07
785 772 -1.0000000000000000e-02
762 773 1.0000000000000000e+00
767 773 -1.0000000000000000e+00
773 773 1.0000000000000000e+00
783 773 -1.0000000000000000e+00
757 774 -1.7308816708887769e-22
758 774 3.0818011859877182e-26
759 774 -5.0000000000000000e-01
768 774 -3.1081435833909838e-04
769 774 -8.2715024807570594e-07
770 774 -2.6758604492323672e-07
771 774 1.1013110771747980e-26
772 774 2.8220220894092341e-07
773 774 -1.5677900496717967e-07
774 774 1.0310814358339099e-02
775 774 8.2715024807570594e-07
776 774 2.6758604492323672e-07
786 774 -1.2542320397374375e-07
787 774 -1.0000000000000000e-02
758 775 -1.7308816708887769e-22
759 775 1.0714285714285765e-01
769 775 -3.1081435833909838e-04
770 775 -1.2407253721135589e-06
771 775 4.6227017789815776e-26
774 775 2.8220220894092341e-07
775 775 1.0310814358339099e-02
776 775 1.2407253721135589e-06
777 775 -1.2542320397374375e-07
780 775 -1.5677900496717967e-07
788 775 -1.0000000000000000e-02
759 776 -1.1904761904761779e-02
770 776 -3.1081435833909838e-04
771 776 -1.7308816708887769e-22
775 776 2.8220220894092341e-07
776 776 1.0310814358339099e-02
778 776 -1.2542320397374375e-07
781 776 -1.5677900496717967e-07
789 776 -1.0000000000000000e-02
749 777 -5.0000000000000000e-01
755 777 -1.0000000000000000e+00
772 777 -1.2542320397374375e-07
777 777 1.0000000000000001e-01
785 777 -1.5677900496717969e-08
786 777 1.4110110447046171e-07
950 777 -1.0000000000000001e-01
749 778 1.0714285714285765e-01
754 778 -1.0000000000000000e+00
774 778 -1.2542320397374375e-07
777 778 1.4110110447046171e-07
778 778 1.0000000000000001e-01
787 778 -1.5677900496717969e-08
952 778 -1.0000000000000001e-01
749 779 -1.1904761904761779e-02
753 779 -1.0000000000000000e+00
775 779 -1.2542320397374375e-07
778 779 1.4110110447046171e-07
779 779 1.0000000000000001e-01
788 779 -1.5677900496717969e-08
790 779 -1.0000000000000001e-01
747 780 -1.0000000000000000e+00
762 780 -5.0000000000000000e-01
766 780 -1.0000000000000000e+00
772 780 -1.5677900496717967e-07
773 780 1.5677900496717967e-07
780 780 1.0000000000000000e+00
746 781 -1.0000000000000000e+00
762 781 1.0714285714285765e-01
765 781 -1.0000000000000000e+00
774 781 -1.5677900496717967e-07
780 781 1.5677900496717967e-07
781 781 1.0000000000000000e+00
745 782 -1.0000000000000000e+00
762 782 -1.1904761904761779e-02
764 782 -1.0000000000000000e+00
775 782 -1.5677900496717967e-07
781 782 1.5677900496717967e-07
782 782 1.0000000000000000e+00
744 783 1.0000000000000000e+00
773 783 -1.0000000000000000e+00
783 783 1.0009999999999999e+00
978 783 -1.0000000000000000e-03
710 784 -1.1904761904761779e-02
714 784 -1.0000000000000000e+00
736 784 -1.2542320397374375e-07
739 784 1.4110110447046171e-07
784 784 1.0000000000000001e-01
788 784 -1.5677900496717969e-08
1015 784 -1.0000000000000001e-01
696 785 -1.0000000000000000e+00
733 785 -1.0000000000000000e-02
748 785 1.0000000000000000e+00
772 785 -1.0000000000000000e-02
785 785 1.0200199999999999e+00
978 785 -2.0000000000000002e-05
672 786 -1.0000000000000001e-01
749 786 1.0000000000000000e+00
756 786 -1.0000000000000000e+00
786 786 1.0000000000000001e-01
697 787 -1.0000000000000000e+00
735 787 -1.0000000000000000e-02
748 787 -5.0000000000000000e-01
774 787 -1.0000000000000000e-02
785 787 3.1355800993435937e-08
786 787 -1.5677900496717969e-08
787 787 1.0200199999999999e+00
985 787 -1.5677900496717969e-08
988 787 -2.0000000000000002e-05
698 788 -1.0000000000000000e+00
736 788 -1.0000000000000000e-02
738 788 -1.5677900496717969e-08
748 788 1.0714285714285765e-01
775 788 -1.0000000000000000e-02
777 788 -1.5677900496717969e-08
787 788 3.1355800993435937e-08
788 788 1.0200199999999999e+00
1000 788 -2.0000000000000002e-05
700 789 -1.0000000000000000e+00
737 789 -1.0000000000000000e-02
739 789 -1.5677900496717969e-08
748 789 -1.1904761904761779e-02
776 789 -1.0000000000000000e-02
778 789 -1.5677900496717969e-08
788 789 3.1355800993435937e-08
789 789 1.0200199999999999e+00
1014 789 -2.0000000000000002e-05
671 790 -1.1904761904761779e-02
699 790 -1.0000000000000000e-02
779 790 -1.0000000000000001e-01
790 790 2.1000000000000002e-01
952 790 1.5677900496717969e-08
954 790 -1.0000000000000001e-01
964 790 -1.5677900496717969e-08
791 791 2.0000000000000000e+00
795 791 1.0000000000000000e+00
823 791 -1.0000000000000000e+00
855 791 -1.0000000000000000e+00
792 792 2.0000000000000000e+00
795 792 -5.0000000000000000e-01
826 792 -1.0000000000000000e+00
856 792 -1.0000000000000000e+00
793 793 2.0000000000000000e+00
795 793 1.0714285714285765e-01
824 793 -1.0000000000000000e+00
858 793 -1.0000000000000000e+00
794 794 2.0000000000000000e+00
795 794 -1.1904761904761779e-02
825 794 -1.0000000000000000e+00
857 794 -1.0000000000000000e+00
795 795 5.9523809523810006e-04
796 796 5.9523809523810006e-04
796 797 1.0000000000000000e+00
797 797 1.0000000000000000e+00
822 797 -2.0000000000000000e-02
823 797 2.0000000000000000e-02
827 797 -1.0000000000000000e+00
798 798 5.9523809523810006e-04
821 798 -1.2542320397374375e-07
828 798 1.4110110447046171e-07
799 799 5.9523809523810006e-04
799 800 -1.1904761904761779e-02
800 800 1.0000000000000000e+00
804 800 9.7285448184536461e-263
821 800 -9.7285448184536461e-263
799 801 1.0714285714285765e-01
801 801 1.0000000000000000e+00
804 801 9.2118986753247126e-268
819 801 -9.7285448184536461e-263
820 801 9.7285448184536461e-263
821 801 -9.2118986753247126e-268
799 802 -5.0000000000000000e-01
802 802 1.0000000000000000e+00
804 802 -5.2353469883913438e-268
817 802 -9.7285448184536461e-263
818 802 9.7285448184536461e-263
819 802 -6.1412657835498080e-268
820 802 6.1412657835498080e-268
821 802 5.2353469883913438e-268
797 803 9.7285448184536461e-263
799 803 1.0000000000000000e+00
803 803 1.0000000000000000e+00
804 803 8.8204286588978187e-266
817 803 -3.0706328917749040e-268
818 803 3.0706328917749040e-268
819 803 1.7451156627971144e-268
820 803 -1.7451156627971144e-268
821 803 -8.8204286588978187e-266
822 803 -9.7285448184536461e-263
796 804 -1.1904761904761779e-02
804 804 1.0000000000000000e+00
821 804 -2.0000000000000000e-02
825 804 2.0000000000000000e-02
828 804 -1.0000000000000000e+00
805 805 5.9523809523810006e-04
821 805 2.8220220894092341e-07
825 805 -1.5677900496717967e-07
828 805 -1.2542320397374375e-07
806 806 5.9523809523810006e-04
806 807 1.0000000000000000e+00
807 807 1.0000000000000000e+00
822 807 -9.8999999999999999e-01
823 807 -1.0000000000000000e+00
827 807 9.8999999999999999e-01
808 808 5.9523809523810006e-04
821 808 -1.5677900496717967e-07
825 808 1.5677900496717967e-07
809 809 5.9523809523810006e-04
809 810 -1.1904761904761779e-02
810 810 1.0000000000000000e+00
816 810 3.1553968966543456e-04
821 810 -3.1553968966543456e-04
809 811 1.0714285714285765e-01
811 811 1.0000000000000000e+00
815 811 3.1553968966543456e-04
816 811 1.2426407458569602e-06
819 811 -3.1553968966543456e-04
821 811 -1.2426407458569602e-06
809 812 -5.0000000000000000e-01
812 812 1.0000000000000000e+00
814 812 3.1553968966543456e-04
815 812 8.2842716390464013e-07
816 812 2.7071666703139238e-07
817 812 -3.1553968966543456e-04
819 812 -8.2842716390464013e-07
821 812 -2.7071666703139238e-07
807 813 3.1553968966543456e-04
809 813 1.0000000000000000e+00
813 813 1.0000000000000000e+00
814 813 4.1421358195232006e-07
815 813 9.0238889010464112e-08
816 813 3.6853017671801345e-07
817 813 -4.1421358195232006e-07
819 813 -9.0238889010464112e-08
821 813 -3.6853017671801345e-07
822 813 -3.1553968966543456e-04
806 814 -5.0000000000000000e-01
814 814 1.0000000000000000e+00
817 814 -9.8999999999999999e-01
826 814 -1.0000000000000000e+00
959 814 9.8999999999999999e-01
806 815 1.0714285714285765e-01
815 815 1.0000000000000000e+00
819 815 -9.8999999999999999e-01
824 815 -1.0000000000000000e+00
962 815 9.8999999999999999e-01
806 816 -1.1904761904761779e-02
816 816 1.0000000000000000e+00
821 816 -9.8999999999999999e-01
825 816 -1.0000000000000000e+00
828 816 9.8999999999999999e-01
804 817 5.2353469883913438e-268
805 817 -5.0000000000000000e-01
814 817 -3.1553968966543456e-04
815 817 -8.2842716390464013e-07
816 817 -2.7071666703139238e-07
817 817 1.0315539689665434e-02
818 817 -9.7285448184536461e-263
819 817 8.2842716390464013e-07
820 817 -6.1412657835498080e-268
821 817 2.7071666703139238e-07
822 817 2.8220220894092341e-07
823 817 -1.5677900496717967e-07
827 817 -1.2542320397374375e-07
796 818 -5.0000000000000000e-01
817 818 -2.0000000000000000e-02
818 818 1.0000000000000000e+00
826 818 2.0000000000000000e-02
959 818 -1.0000000000000000e+00
804 819 -9.2118986753247126e-268
805 819 1.0714285714285765e-01
815 819 -3.1553968966543456e-04
816 819 -1.2426407458569602e-06
817 819 2.8220220894092341e-07
819 819 1.0315539689665434e-02
820 819 -9.7285448184536461e-263
821 819 1.2426407458569602e-06
826 819 -1.5677900496717967e-07
959 819 -1.2542320397374375e-07
796 820 1.0714285714285765e-01
819 820 -2.0000000000000000e-02
820 820 1.0000000000000000e+00
824 820 2.0000000000000000e-02
962 820 -1.0000000000000000e+00
804 821 -9.7285448184536461e-263
805 821 -1.1904761904761779e-02
816 821 -3.1553968966543456e-04
819 821 2.8220220894092341e-07
821 821 1.0315539689665434e-02
824 821 -1.5677900496717967e-07
962 821 -1.2542320397374375e-07
797 822 -9.7285448184536461e-263
804 822 -8.8204286588978187e-266
805 822 1.0000000000000000e+00
807 822 -3.1553968966543456e-04
814 822 -4.1421358195232006e-07
815 822 -9.0238889010464112e-08
816 822 -3.6853017671801345e-07
817 822 4.1421358195232006e-07
818 822 -3.0706328917749040e-268
819 822 9.0238889010464112e-08
820 822 1.7451156627971144e-268
821 822 3.6853017671801345e-07
822 822 1.0315539689665434e-02
791 823 -1.0000000000000000e+00
808 823 1.0000000000000000e+00
813 823 -1.0000000000000000e+00
823 823 1.0000000000000000e+00
793 824 -1.0000000000000000e+00
808 824 1.0714285714285765e-01
811 824 -1.0000000000000000e+00
817 824 -1.5677900496717967e-07
824 824 1.0000000000000000e+00
826 824 1.5677900496717967e-07
794 825 -1.0000000000000000e+00
808 825 -1.1904761904761779e-02
810 825 -1.0000000000000000e+00
819 825 -1.5677900496717967e-07
824 825 1.5677900496717967e-07
825 825 1.0000000000000000e+00
792 826 -1.0000000000000000e+00
808 826 -5.0000000000000000e-01
812 826 -1.0000000000000000e+00
822 826 -1.5677900496717967e-07
823 826 1.5677900496717967e-07
826 826 1.0000000000000000e+00
798 827 1.0000000000000000e+00
803 827 -1.0000000000000000e+00
827 827 1.0000000000000001e-01
956 827 -1.0000000000000001e-01
798 828 -1.1904761904761779e-02
800 828 -1.0000000000000000e+00
819 828 -1.2542320397374375e-07
828 828 1.0000000000000001e-01
962 828 1.4110110447046171e-07
963 828 -1.0000000000000001e-01
829 829 5.9523809523810006e-04
852 829 -1.2542320397374375e-07
954 829 1.4110110447046171e-07
975 829 -1.5677900496717969e-08
830 830 5.9523809523810006e-04
852 830 2.8220220894092341e-07
857 830 -1.5677900496717967e-07
954 830 -1.2542320397374375e-07
831 831 5.9523809523810006e-04
831 832 1.0000000000000000e+00
832 832 -1.0000000000000000e+00
855 832 1.0000000000000000e+00
949 832 9.8999999999999999e-01
955 832 -9.8999999999999999e-01
833 833 5.9523809523810006e-04
852 833 -1.5677900496717967e-07
857 833 1.5677900496717967e-07
834 834 5.9523809523810006e-04
834 835 -1.1904761904761779e-02
835 835 -1.0000000000000000e+00
841 835 3.1553968966543564e-04
852 835 -3.1553968966543564e-04
834 836 1.0714285714285765e-01
836 836 -1.0000000000000000e+00
840 836 3.1553968966543564e-04
841 836 1.2426407458569162e-06
852 836 -1.2426407458569162e-06
854 836 -3.1553968966543564e-04
834 837 -5.0000000000000000e-01
837 837 -1.0000000000000000e+00
839 837 3.1553968966543564e-04
840 837 8.2842716390461080e-07
841 837 2.7071666703136781e-07
852 837 -2.7071666703136781e-07
853 837 -3.1553968966543564e-04
854 837 -8.2842716390461080e-07
832 838 3.1553968966543564e-04
834 838 1.0000000000000000e+00
838 838 -1.0000000000000000e+00
839 838 4.1421358195230540e-07
840 838 9.0238889010455933e-08
841 838 3.6853017673773932e-07
852 838 -3.6853017673773932e-07
853 838 -4.1421358195230540e-07
854 838 -9.0238889010455933e-08
949 838 -3.1553968966543564e-04
831 839 -5.0000000000000000e-01
839 839 -1.0000000000000000e+00
853 839 9.8999999999999999e-01
856 839 1.0000000000000000e+00
951 839 -9.8999999999999999e-01
831 840 1.0714285714285765e-01
840 840 -1.0000000000000000e+00
854 840 9.8999999999999999e-01
858 840 1.0000000000000000e+00
953 840 -9.8999999999999999e-01
831 841 -1.1904761904761779e-02
841 841 -1.0000000000000000e+00
852 841 9.8999999999999999e-01
857 841 1.0000000000000000e+00
954 841 -9.8999999999999999e-01
842 842 5.9523809523810006e-04
842 843 1.0000000000000000e+00
843 843 -1.0000000000000000e+00
855 843 -2.0000000000000000e-02
949 843 2.0000000000000000e-02
955 843 1.0000000000000000e+00
844 844 5.9523809523810006e-04
844 845 -1.1904761904761779e-02
845 845 -1.0000000000000000e+00
849 845 3.9505932222401189e-233
852 845 -3.9505932222401189e-233
844 846 1.0714285714285765e-01
846 846 -1.0000000000000000e+00
849 846 5.2960263364564661e-235
851 846 3.9505932222401189e-233
852 846 -5.2960263364564661e-235
854 846 -3.9505932222401189e-233
844 847 -5.0000000000000000e-01
847 847 -1.0000000000000000e+00
849 847 1.1692159761814552e-235
850 847 3.9505932222401189e-233
851 847 3.5306842243043103e-235
852 847 -1.1692159761814552e-235
853 847 -3.9505932222401189e-233
854 847 -3.5306842243043103e-235
843 848 3.9505932222401189e-233
844 848 1.0000000000000000e+00
848 848 -1.0000000000000000e+00
849 848 1.8298928722697020e-235
850 848 1.7653421121521551e-235
851 848 3.8973865872715168e-236
852 848 -1.8298928722697020e-235
853 848 -1.7653421121521551e-235
854 848 -3.8973865872715168e-236
949 848 -3.9505932222401189e-233
842 849 -1.1904761904761779e-02
849 849 -1.0000000000000000e+00
852 849 2.0000000000000000e-02
857 849 -2.0000000000000000e-02
954 849 1.0000000000000000e+00
842 850 -5.0000000000000000e-01
850 850 -1.0000000000000000e+00
853 850 2.0000000000000000e-02
856 850 -2.0000000000000000e-02
951 850 1.0000000000000000e+00
842 851 1.0714285714285765e-01
851 851 -1.0000000000000000e+00
854 851 2.0000000000000000e-02
858 851 -2.0000000000000000e-02
953 851 1.0000000000000000e+00
830 852 -1.1904761904761779e-02
841 852 -3.1553968966543564e-04
849 852 -3.9505932222401189e-233
852 852 1.0315539689665436e-02
854 852 2.8220220894092341e-07
858 852 -1.5677900496717967e-07
953 852 -1.2542320397374375e-07
975 852 -1.0000000000000000e-02
830 853 -5.0000000000000000e-01
839 853 -3.1553968966543564e-04
840 853 -8.2842716390461080e-07
841 853 -2.7071666703136781e-07
849 853 -1.1692159761814552e-235
850 853 -3.9505932222401189e-233
851 853 -3.5306842243043103e-235
852 853 2.7071666703136781e-07
853 853 1.0315539689665436e-02
854 853 8.2842716390461080e-07
855 853 -1.5677900496717967e-07
949 853 2.8220220894092341e-07
955 853 -1.2542320397374375e-07
966 853 -1.0000000000000000e-02
830 854 1.0714285714285765e-01
840 854 -3.1553968966543564e-04
841 854 -1.2426407458569162e-06
849 854 -5.2960263364564661e-235
851 854 -3.9505932222401189e-233
852 854 1.2426407458569162e-06
853 854 2.8220220894092341e-07
854 854 1.0315539689665436e-02
856 854 -1.5677900496717967e-07
951 854 -1.2542320397374375e-07
971 854 -1.0000000000000000e-02
791 855 -1.0000000000000000e+00
833 855 1.0000000000000000e+00
838 855 1.0000000000000000e+00
855 855 1.0000000000000000e+00
792 856 -1.0000000000000000e+00
833 856 -5.0000000000000000e-01
837 856 1.0000000000000000e+00
855 856 1.5677900496717967e-07
856 856 1.0000000000000000e+00
949 856 -1.5677900496717967e-07
794 857 -1.0000000000000000e+00
833 857 -1.1904761904761779e-02
835 857 1.0000000000000000e+00
854 857 -1.5677900496717967e-07
857 857 1.0000000000000000e+00
858 857 1.5677900496717967e-07
793 858 -1.0000000000000000e+00
833 858 1.0714285714285765e-01
836 858 1.0000000000000000e+00
853 858 -1.5677900496717967e-07
856 858 1.5677900496717967e-07
858 858 1.0000000000000000e+00
859 859 1.0000000000000000e+00
860 859 1.0000000000000000e-03
867 859 1.0000000000000000e+00
871 859 -1.0000000000000000e-03
860 860 1.0000000000000000e+00
868 860 1.0000000000000000e+00
861 861 1.0000000000000000e+00
862 861 1.0000000000000000e-03
867 861 -5.0000000000000000e-01
872 861 -1.0000000000000000e-03
862 862 1.0000000000000000e+00
868 862 -5.0000000000000000e-01
863 863 1.0000000000000000e+00
864 863 1.0000000000000000e-03
867 863 1.0714285714285765e-01
870 863 -1.0000000000000000e-03
864 864 1.0000000000000000e+00
868 864 1.0714285714285765e-01
865 865 1.0000000000000000e+00
866 865 1.0000000000000000e-03
867 865 -1.1904761904761779e-02
1012 865 -1.0000000000000000e-03
866 866 1.0000000000000000e+00
868 866 -1.1904761904761779e-02
867 867 5.9523809523810006e-04
868 868 5.9523809523810006e-04
869 869 5.9523809523810006e-04
901 869 -1.5677900496717969e-08
1012 869 1.5677900496717969e-08
864 870 -1.0000000000000000e-03
869 870 1.0714285714285765e-01
870 870 1.1099999999999999e-02
872 870 1.5677900496717969e-08
898 870 -1.0000000000000000e-02
902 870 -1.5677900496717969e-08
1001 870 -1.0000000000000000e-04
860 871 -1.0000000000000000e-03
869 871 1.0000000000000000e+00
871 871 1.1099999999999999e-02
899 871 -1.0000000000000000e-02
979 871 -1.0000000000000000e-04
862 872 -1.0000000000000000e-03
869 872 -5.0000000000000000e-01
871 872 1.5677900496717969e-08
872 872 1.1099999999999999e-02
897 872 -1.0000000000000000e-02
900 872 -1.5677900496717969e-08
989 872 -1.0000000000000000e-04
873 873 5.9523809523810006e-04
896 873 -1.2542320397374375e-07
901 873 1.4110110447046171e-07
1012 873 -1.5677900496717969e-08
874 874 5.9523809523810006e-04
874 875 1.0000000000000000e+00
875 875 1.0000000000000000e+00
899 875 -2.0000000000000000e-02
900 875 -1.0000000000000000e+00
945 875 2.0000000000000000e-02
876 876 5.9523809523810006e-04
876 877 -1.1904761904761779e-02
877 877 1.0000000000000000e+00
895 877 1.8752434025326117e-262
896 877 -1.8752434025326117e-262
876 878 1.0714285714285765e-01
878 878 1.0000000000000000e+00
882 878 1.8752434025326117e-262
895 878 -2.5475258692745005e-264
896 878 2.5475258692745005e-264
898 878 -1.8752434025326117e-262
876 879 -5.0000000000000000e-01
879 879 1.0000000000000000e+00
881 879 1.8752434025326117e-262
882 879 -1.6983505795163338e-264
895 879 -5.4758690404909609e-265
896 879 5.4758690404909609e-265
897 879 -1.8752434025326117e-262
898 879 1.6983505795163338e-264
875 880 1.8752434025326117e-262
876 880 1.0000000000000000e+00
880 880 1.0000000000000000e+00
881 880 -8.4917528975816691e-265
882 880 -1.8252896801636533e-265
895 880 1.8363595322297741e-265
896 880 -1.8363595322297741e-265
897 880 8.4917528975816691e-265
898 880 1.8252896801636533e-265
899 880 -1.8752434025326117e-262
874 881 -5.0000000000000000e-01
881 881 1.0000000000000000e+00
897 881 -2.0000000000000000e-02
902 881 -1.0000000000000000e+00
946 881 2.0000000000000000e-02
874 882 1.0714285714285765e-01
882 882 1.0000000000000000e+00
898 882 -2.0000000000000000e-02
903 882 -1.0000000000000000e+00
947 882 2.0000000000000000e-02
883 883 5.9523809523810006e-04
896 883 2.8220220894092341e-07
901 883 -1.2542320397374375e-07
948 883 -1.5677900496717967e-07
884 884 5.9523809523810006e-04
884 885 1.0000000000000000e+00
885 885 1.0000000000000000e+00
899 885 -9.8999999999999999e-01
900 885 9.8999999999999999e-01
945 885 -1.0000000000000000e+00
886 886 5.9523809523810006e-04
896 886 -1.5677900496717967e-07
948 886 1.5677900496717967e-07
887 887 5.9523809523810006e-04
887 888 -1.1904761904761779e-02
888 888 1.0000000000000000e+00
894 888 4.3774034779901614e-04
896 888 -4.3774034779901614e-04
887 889 1.0714285714285765e-01
889 889 1.0000000000000000e+00
893 889 4.3774034779901614e-04
894 889 -1.2445180341390850e-06
896 889 1.2445180341390850e-06
898 889 -4.3774034779901614e-04
887 890 -5.0000000000000000e-01
890 890 1.0000000000000000e+00
892 890 4.3774034779901614e-04
893 890 -8.2967868942605668e-07
894 890 -2.7537069576070482e-07
896 890 2.7537069576070482e-07
897 890 -4.3774034779901614e-04
898 890 8.2967868942605668e-07
885 891 4.3774034779901614e-04
887 891 1.0000000000000000e+00
891 891 1.0000000000000000e+00
892 891 -4.1483934471302834e-07
893 891 -9.1790231920234932e-08
894 891 5.2266458883382682e-07
896 891 -5.2266458883382682e-07
897 891 4.1483934471302834e-07
898 891 9.1790231920234932e-08
899 891 -4.3774034779901614e-04
884 892 -5.0000000000000000e-01
892 892 1.0000000000000000e+00
897 892 -9.8999999999999999e-01
902 892 9.8999999999999999e-01
946 892 -1.0000000000000000e+00
884 893 1.0714285714285765e-01
893 893 1.0000000000000000e+00
898 893 -9.8999999999999999e-01
903 893 9.8999999999999999e-01
947 893 -1.0000000000000000e+00
884 894 -1.1904761904761779e-02
894 894 1.0000000000000000e+00
896 894 -9.8999999999999999e-01
901 894 9.8999999999999999e-01
948 894 -1.0000000000000000e+00
874 895 -1.1904761904761779e-02
895 895 1.0000000000000000e+00
896 895 -2.0000000000000000e-02
901 895 -1.0000000000000000e+00
948 895 2.0000000000000000e-02
883 896 -1.1904761904761779e-02
894 896 -4.3774034779901614e-04
895 896 -1.8752434025326117e-262
896 896 1.0437740347799016e-02
898 896 2.8220220894092341e-07
903 896 -1.2542320397374375e-07
947 896 -1.5677900496717967e-07
1012 896 -1.0000000000000000e-02
872 897 -1.0000000000000000e-02
881 897 -1.8752434025326117e-262
882 897 1.6983505795163338e-264
883 897 -5.0000000000000000e-01
892 897 -4.3774034779901614e-04
893 897 8.2967868942605668e-07
894 897 2.7537069576070482e-07
895 897 5.4758690404909609e-265
896 897 -2.7537069576070482e-07
897 897 1.0437740347799016e-02
898 897 -8.2967868942605668e-07
899 897 2.8220220894092341e-07
900 897 -1.2542320397374375e-07
945 897 -1.5677900496717967e-07
870 898 -1.0000000000000000e-02
882 898 -1.8752434025326117e-262
883 898 1.0714285714285765e-01
893 898 -4.3774034779901614e-04
894 898 1.2445180341390850e-06
895 898 2.5475258692745005e-264
896 898 -1.2445180341390850e-06
897 898 2.8220220894092341e-07
898 898 1.0437740347799016e-02
902 898 -1.2542320397374375e-07
946 898 -1.5677900496717967e-07
871 899 -1.0000000000000000e-02
875 899 -1.8752434025326117e-262
881 899 8.4917528975816691e-265
882 899 1.8252896801636533e-265
883 899 1.0000000000000000e+00
885 899 -4.3774034779901614e-04
892 899 4.1483934471302834e-07
893 899 9.1790231920234932e-08
894 899 -5.2266458883382682e-07
895 899 -1.8363595322297741e-265
896 899 5.2266458883382682e-07
897 899 -4.1483934471302834e-07
898 899 -9.1790231920234932e-08
899 899 1.0437740347799016e-02
873 900 1.0000000000000000e+00
880 900 -1.0000000000000000e+00
900 900 1.0000000000000001e-01
956 900 -1.0000000000000001e-01
870 901 -1.5677900496717969e-08
873 901 -1.1904761904761779e-02
877 901 -1.0000000000000000e+00
898 901 -1.2542320397374375e-07
901 901 1.0000000000000001e-01
903 901 1.4110110447046171e-07
963 901 -1.0000000000000001e-01
871 902 -1.5677900496717969e-08
873 902 -5.0000000000000000e-01
879 902 -1.0000000000000000e+00
899 902 -1.2542320397374375e-07
900 902 1.4110110447046171e-07
902 902 1.0000000000000001e-01
958 902 -1.0000000000000001e-01
872 903 -1.5677900496717969e-08
873 903 1.0714285714285765e-01
878 903 -1.0000000000000000e+00
897 903 -1.2542320397374375e-07
902 903 1.4110110447046171e-07
903 903 1.0000000000000001e-01
961 903 -1.0000000000000001e-01
904 904 5.9523809523810006e-04
943 904 -1.5677900496717969e-08
954 904 -1.5677900496717969e-08
975 904 3.1355800993435937e-08
904 905 1.0000000000000000e+00
905 905 2.2000000000000003e-01
942 905 -1.0000000000000000e-02
949 905 -1.0000000000000000e-02
957 905 -1.0000000000000001e-01
965 905 -1.0000000000000001e-01
906 906 5.9523809523810006e-04
938 906 -1.2542320397374375e-07
943 906 1.4110110447046171e-07
975 906 -1.5677900496717969e-08
907 907 2.0000000000000000e+00
911 907 1.0000000000000000e+00
934 907 -1.0000000000000000e+00
945 907 -1.0000000000000000e+00
908 908 2.0000000000000000e+00
911 908 -5.0000000000000000e-01
935 908 -1.0000000000000000e+00
946 908 -1.0000000000000000e+00
909 909 2.0000000000000000e+00
911 909 1.0714285714285765e-01
936 909 -1.0000000000000000e+00
947 909 -1.0000000000000000e+00
910 910 2.0000000000000000e+00
911 910 -1.1904761904761779e-02
937 910 -1.0000000000000000e+00
948 910 -1.0000000000000000e+00
911 911 5.9523809523810006e-04
912 912 5.9523809523810006e-04
912 913 1.0000000000000000e+00
913 913 -1.0000000000000000e+00
934 913 -2.0000000000000000e-02
942 913 2.0000000000000000e-02
984 913 1.0000000000000000e+00
914 914 5.9523809523810006e-04
914 915 -1.1904761904761779e-02
915 915 -1.0000000000000000e+00
933 915 1.0354270988502299e-229
938 915 -1.0354270988502299e-229
914 916 1.0714285714285765e-01
916 916 -1.0000000000000000e+00
920 916 1.0354270988502299e-229
933 916 7.7008728738886223e-232
938 916 -7.7008728738886223e-232
940 916 -1.0354270988502299e-229
914 917 -5.0000000000000000e-01
917 917 -1.0000000000000000e+00
919 917 1.0354270988502299e-229
920 917 5.1339152492590813e-232
933 917 1.6598624895859425e-232
938 917 -1.6598624895859425e-232
939 917 -1.0354270988502299e-229
940 917 -5.1339152492590813e-232
913 918 1.0354270988502299e-229
914 918 1.0000000000000000e+00
918 918 -1.0000000000000000e+00
919 918 2.5669576246295406e-232
920 918 5.5328749652864734e-233
933 918 2.4251411619640020e-232
938 918 -2.4251411619640020e-232
939 918 -2.5669576246295406e-232
940 918 -5.5328749652864734e-233
942 918 -1.0354270988502299e-229
912 919 -5.0000000000000000e-01
919 919 -1.0000000000000000e+00
935 919 -2.0000000000000000e-02
939 919 2.0000000000000000e-02
944 919 1.0000000000000000e+00
912 920 1.0714285714285765e-01
920 920 -1.0000000000000000e+00
936 920 -2.0000000000000000e-02
940 920 2.0000000000000000e-02
941 920 1.0000000000000000e+00
921 921 5.9523809523810006e-04
937 921 -1.5677900496717967e-07
938 921 2.8220220894092341e-07
943 921 -1.2542320397374375e-07
922 922 5.9523809523810006e-04
922 923 1.0000000000000000e+00
923 923 -1.0000000000000000e+00
934 923 1.0000000000000000e+00
942 923 9.8999999999999999e-01
984 923 -9.8999999999999999e-01
924 924 5.9523809523810006e-04
937 924 1.5677900496717967e-07
938 924 -1.5677900496717967e-07
925 925 5.9523809523810006e-04
925 926 -1.1904761904761779e-02
926 926 -1.0000000000000000e+00
932 926 4.3774034779901614e-04
938 926 -4.3774034779901614e-04
925 927 1.0714285714285765e-01
927 927 -1.0000000000000000e+00
931 927 4.3774034779901614e-04
932 927 -1.2445180341395172e-06
938 927 1.2445180341395172e-06
940 927 -4.3774034779901614e-04
925 928 -5.0000000000000000e-01
928 928 -1.0000000000000000e+00
930 928 4.3774034779901614e-04
931 928 -8.2967868942634478e-07
932 928 -2.7537069576047935e-07
938 928 2.7537069576047935e-07
939 928 -4.3774034779901614e-04
940 928 8.2967868942634478e-07
923 929 4.3774034779901614e-04
925 929 1.0000000000000000e+00
929 929 -1.0000000000000000e+00
930 929 -4.1483934471317239e-07
931 929 -9.1790231920159771e-08
932 929 5.2266458883001443e-07
938 929 -5.2266458883001443e-07
939 929 4.1483934471317239e-07
940 929 9.1790231920159771e-08
942 929 -4.3774034779901614e-04
922 930 -5.0000000000000000e-01
930 930 -1.0000000000000000e+00
935 930 1.0000000000000000e+00
939 930 9.8999999999999999e-01
944 930 -9.8999999999999999e-01
922 931 1.0714285714285765e-01
931 931 -1.0000000000000000e+00
936 931 1.0000000000000000e+00
940 931 9.8999999999999999e-01
941 931 -9.8999999999999999e-01
922 932 -1.1904761904761779e-02
932 932 -1.0000000000000000e+00
937 932 1.0000000000000000e+00
938 932 9.8999999999999999e-01
943 932 -9.8999999999999999e-01
912 933 -1.1904761904761779e-02
933 933 -1.0000000000000000e+00
937 933 -2.0000000000000000e-02
938 933 2.0000000000000000e-02
943 933 1.0000000000000000e+00
907 934 -1.0000000000000000e+00
924 934 1.0000000000000000e+00
929 934 1.0000000000000000e+00
934 934 1.0000000000000000e+00
908 935 -1.0000000000000000e+00
924 935 -5.0000000000000000e-01
928 935 1.0000000000000000e+00
934 935 1.5677900496717967e-07
935 935 1.0000000000000000e+00
942 935 -1.5677900496717967e-07
909 936 -1.0000000000000000e+00
924 936 1.0714285714285765e-01
927 936 1.0000000000000000e+00
935 936 1.5677900496717967e-07
936 936 1.0000000000000000e+00
939 936 -1.5677900496717967e-07
910 937 -1.0000000000000000e+00
924 937 -1.1904761904761779e-02
926 937 1.0000000000000000e+00
936 937 1.5677900496717967e-07
937 937 1.0000000000000000e+00
940 937 -1.5677900496717967e-07
921 938 -1.1904761904761779e-02
932 938 -4.3774034779901614e-04
933 938 -1.0354270988502299e-229
936 938 -1.5677900496717967e-07
938 938 1.0437740347799016e-02
940 938 2.8220220894092341e-07
941 938 -1.2542320397374375e-07
975 938 -1.0000000000000000e-02
919 939 -1.0354270988502299e-229
920 939 -5.1339152492590813e-232
921 939 -5.0000000000000000e-01
930 939 -4.3774034779901614e-04
931 939 8.2967868942634478e-07
932 939 2.7537069576047935e-07
933 939 -1.6598624895859425e-232
934 939 -1.5677900496717967e-07
938 939 -2.7537069576047935e-07
939 939 1.0437740347799016e-02
940 939 -8.2967868942634478e-07
942 939 2.8220220894092341e-07
966 939 -1.0000000000000000e-02
984 939 -1.2542320397374375e-07
920 940 -1.0354270988502299e-229
921 940 1.0714285714285765e-01
931 940 -4.3774034779901614e-04
932 940 1.2445180341395172e-06
933 940 -7.7008728738886223e-232
935 940 -1.5677900496717967e-07
938 940 -1.2445180341395172e-06
939 940 2.8220220894092341e-07
940 940 1.0437740347799016e-02
944 940 -1.2542320397374375e-07
971 940 -1.0000000000000000e-02
906 941 1.0714285714285765e-01
916 941 1.0000000000000000e+00
939 941 -1.2542320397374375e-07
941 941 1.0000000000000001e-01
944 941 1.4110110447046171e-07
966 941 -1.5677900496717969e-08
1002 941 -1.0000000000000001e-01
905 942 -1.0000000000000000e-02
913 942 -1.0354270988502299e-229
919 942 -2.5669576246295406e-232
920 942 -5.5328749652864734e-233
921 942 1.0000000000000000e+00
923 942 -4.3774034779901614e-04
930 942 4.1483934471317239e-07
931 942 9.1790231920159771e-08
932 942 -5.2266458883001443e-07
933 942 -2.4251411619640020e-232
938 942 5.2266458883001443e-07
939 942 -4.1483934471317239e-07
940 942 -9.1790231920159771e-08
942 942 1.0437740347799016e-02
906 943 -1.1904761904761779e-02
915 943 1.0000000000000000e+00
940 943 -1.2542320397374375e-07
941 943 1.4110110447046171e-07
943 943 1.0000000000000001e-01
971 943 -1.5677900496717969e-08
1015 943 -1.0000000000000001e-01
905 944 -1.5677900496717969e-08
906 944 -5.0000000000000000e-01
917 944 1.0000000000000000e+00
942 944 -1.2542320397374375e-07
944 944 1.0000000000000001e-01
984 944 1.4110110447046171e-07
990 944 -1.0000000000000001e-01
886 945 1.0000000000000000e+00
891 945 -1.0000000000000000e+00
907 945 -1.0000000000000000e+00
945 945 1.0000000000000000e+00
886 946 -5.0000000000000000e-01
890 946 -1.0000000000000000e+00
899 946 -1.5677900496717967e-07
908 946 -1.0000000000000000e+00
945 946 1.5677900496717967e-07
946 946 1.0000000000000000e+00
886 947 1.0714285714285765e-01
889 947 -1.0000000000000000e+00
897 947 -1.5677900496717967e-07
909 947 -1.0000000000000000e+00
946 947 1.5677900496717967e-07
947 947 1.0000000000000000e+00
886 948 -1.1904761904761779e-02
888 948 -1.0000000000000000e+00
898 948 -1.5677900496717967e-07
910 948 -1.0000000000000000e+00
947 948 1.5677900496717967e-07
948 948 1.0000000000000000e+00
830 949 1.0000000000000000e+00
832 949 -3.1553968966543564e-04
839 949 -4.1421358195230540e-07
840 949 -9.0238889010455933e-08
841 949 -3.6853017673773932e-07
843 949 -3.9505932222401189e-233
849 949 -1.8298928722697020e-235
850 949 -1.7653421121521551e-235
851 949 -3.8973865872715168e-236
852 949 3.6853017673773932e-07
853 949 4.1421358195230540e-07
854 949 9.0238889010455933e-08
905 949 -1.0000000000000000e-02
949 949 1.0315539689665436e-02
829 950 -5.0000000000000000e-01
847 950 1.0000000000000000e+00
905 950 -1.5677900496717969e-08
949 950 -1.2542320397374375e-07
950 950 -1.0000000000000001e-01
951 950 1.0000000000000001e-01
955 950 1.4110110447046171e-07
671 951 -5.0000000000000000e-01
672 951 1.5677900496717969e-08
701 951 -1.0000000000000000e-02
702 951 -1.5677900496717969e-08
777 951 -1.0000000000000001e-01
950 951 2.1000000000000002e-01
951 951 -1.0000000000000001e-01
829 952 1.0714285714285765e-01
846 952 1.0000000000000000e+00
853 952 -1.2542320397374375e-07
951 952 1.4110110447046171e-07
952 952 -1.0000000000000001e-01
953 952 1.0000000000000001e-01
966 952 -1.5677900496717969e-08
671 953 1.0714285714285765e-01
703 953 -1.0000000000000000e-02
778 953 -1.0000000000000001e-01
950 953 1.5677900496717969e-08
952 953 2.1000000000000002e-01
953 953 -1.0000000000000001e-01
960 953 -1.5677900496717969e-08
790 954 -1.0000000000000001e-01
829 954 -1.1904761904761779e-02
845 954 1.0000000000000000e+00
854 954 -1.2542320397374375e-07
953 954 1.4110110447046171e-07
954 954 1.0000000000000001e-01
971 954 -1.5677900496717969e-08
672 955 -1.0000000000000001e-01
829 955 1.0000000000000000e+00
848 955 1.0000000000000000e+00
955 955 1.0000000000000001e-01
595 956 1.0000000000000000e+00
619 956 -1.0000000000000000e-02
621 956 -1.0000000000000001e-01
652 956 -1.0000000000000000e-02
827 956 -1.0000000000000001e-01
900 956 -1.0000000000000001e-01
956 956 3.2000000000000006e-01
629 957 1.0000000000000000e+00
636 957 1.0000000000000000e+00
905 957 -1.0000000000000001e-01
957 957 1.0000000000000001e-01
798 958 -5.0000000000000000e-01
802 958 -1.0000000000000000e+00
822 958 -1.2542320397374375e-07
827 958 1.4110110447046171e-07
958 958 -1.0000000000000001e-01
959 958 1.0000000000000001e-01
595 959 -5.0000000000000000e-01
621 959 -1.5677900496717969e-08
622 959 -1.0000000000000000e-02
623 959 -1.0000000000000001e-01
656 959 -1.0000000000000000e-02
902 959 -1.0000000000000001e-01
956 959 3.1355800993435937e-08
957 959 -1.5677900496717969e-08
958 959 3.2000000000000006e-01
959 959 -1.0000000000000001e-01
662 960 -1.0000000000000001e-01
672 960 -1.5677900496717969e-08
674 960 -1.0000000000000000e+00
678 960 -5.0000000000000000e-01
702 960 1.4110110447046171e-07
704 960 -1.2542320397374375e-07
960 960 1.0000000000000001e-01
798 961 1.0714285714285765e-01
801 961 -1.0000000000000000e+00
817 961 -1.2542320397374375e-07
959 961 1.4110110447046171e-07
961 961 -1.0000000000000001e-01
962 961 1.0000000000000001e-01
595 962 1.0714285714285765e-01
623 962 -1.5677900496717969e-08
624 962 -1.0000000000000001e-01
625 962 -1.0000000000000000e-02
657 962 -1.0000000000000000e-02
658 962 -1.5677900496717969e-08
903 962 -1.0000000000000001e-01
958 962 3.1355800993435937e-08
961 962 3.2000000000000006e-01
962 962 -1.0000000000000001e-01
595 963 -1.1904761904761779e-02
620 963 -1.0000000000000000e-02
624 963 -1.5677900496717969e-08
626 963 -1.0000000000000001e-01
653 963 -1.0000000000000000e-02
659 963 -1.5677900496717969e-08
828 963 -1.0000000000000001e-01
901 963 -1.0000000000000001e-01
961 963 3.1355800993435937e-08
963 963 3.2000000000000006e-01
665 964 -1.0000000000000001e-01
675 964 -1.0000000000000000e+00
678 964 1.0714285714285765e-01
701 964 -1.2542320397374375e-07
950 964 -1.5677900496717969e-08
960 964 1.4110110447046171e-07
964 964 1.0000000000000001e-01
459 965 1.0000000000000000e+00
476 965 -1.0000000000000000e+00
905 965 -1.0000000000000001e-01
965 965 1.0000000000000001e-01
418 966 -1.5677900496717969e-08
459 966 -5.0000000000000000e-01
475 966 -1.0000000000000000e+00
489 966 -1.2542320397374375e-07
965 966 1.4110110447046171e-07
966 966 -1.0000000000000001e-01
967 966 1.0000000000000001e-01
658 967 -1.0000000000000001e-01
853 967 -1.0000000000000000e-02
904 967 -5.0000000000000000e-01
905 967 3.1355800993435937e-08
939 967 -1.0000000000000000e-02
955 967 -1.5677900496717969e-08
966 967 2.2000000000000003e-01
967 967 -1.0000000000000001e-01
984 967 -1.5677900496717969e-08
538 968 -5.0000000000000000e-01
542 968 1.0000000000000000e+00
552 968 -1.5677900496717967e-07
556 968 1.5677900496717967e-07
662 968 -1.0000000000000000e+00
968 968 1.0000000000000000e+00
561 969 -5.0000000000000000e-01
565 969 1.0000000000000000e+00
580 969 -1.5677900496717967e-07
583 969 1.5677900496717967e-07
662 969 -1.0000000000000000e+00
969 969 1.0000000000000000e+00
500 970 -5.0000000000000000e-01
504 970 1.0000000000000000e+00
520 970 -1.5677900496717967e-07
523 970 1.5677900496717967e-07
662 970 -1.0000000000000000e+00
970 970 1.0000000000000000e+00
459 971 1.0714285714285765e-01
474 971 -1.0000000000000000e+00
481 971 -1.2542320397374375e-07
493 971 -1.5677900496717969e-08
967 971 1.4110110447046171e-07
971 971 -1.0000000000000001e-01
972 971 1.0000000000000001e-01
659 972 -1.0000000000000001e-01
854 972 -1.0000000000000000e-02
904 972 1.0714285714285765e-01
940 972 -1.0000000000000000e-02
944 972 -1.5677900496717969e-08
951 972 -1.5677900496717969e-08
966 972 3.1355800993435937e-08
971 972 2.2000000000000003e-01
972 972 -1.0000000000000001e-01
538 973 1.0714285714285765e-01
541 973 1.0000000000000000e+00
546 973 -1.5677900496717967e-07
665 973 -1.0000000000000000e+00
968 973 1.5677900496717967e-07
973 973 1.0000000000000000e+00
561 974 1.0714285714285765e-01
564 974 1.0000000000000000e+00
585 974 -1.5677900496717967e-07
665 974 -1.0000000000000000e+00
969 974 1.5677900496717967e-07
974 974 1.0000000000000000e+00
495 975 -1.0000000000000001e-01
660 975 -1.0000000000000001e-01
852 975 -1.0000000000000000e-02
904 975 -1.1904761904761779e-02
938 975 -1.0000000000000000e-02
941 975 -1.5677900496717969e-08
953 975 -1.5677900496717969e-08
971 975 3.1355800993435937e-08
975 975 2.2000000000000003e-01
500 976 1.0714285714285765e-01
503 976 1.0000000000000000e+00
524 976 -1.5677900496717967e-07
665 976 -1.0000000000000000e+00
970 976 1.5677900496717967e-07
976 976 1.0000000000000000e+00
661 977 1.0000000000000000e+00
977 977 1.0000000000000000e+00
453 978 1.0000000000000000e+00
978 978 -1.0000000000000000e+00
119 979 -3.7037037037037035e-02
144 979 -1.0000000000000000e+00
298 979 1.0000000000000000e+00
302 979 -3.7037037037037035e-02
327 979 -1.0000000000000000e+00
871 979 -1.0000000000000000e-04
979 979 2.0741740740740742e+00
151 980 -1.0000000000000001e-01
179 980 -1.0000000000000000e-02
219 980 1.0000000000000000e+00
245 980 -1.0000000000000000e-02
248 980 -1.0000000000000001e-01
284 980 -1.0000000000000001e-01
584 980 -1.0000000000000001e-01
980 980 4.2000000000000004e-01
77 981 -1.0000000000000001e-01
496 981 1.0000000000000000e+00
515 981 1.0000000000000000e+00
981 981 1.0000000000000001e-01
2 982 -1.0000000000000001e-01
372 982 1.0000000000000000e+00
391 982 -1.0000000000000000e+00
982 982 1.0000000000000001e-01
91 983 1.0000000000000000e+00
97 983 1.0000000000000000e+00
218 983 -1.0000000000000000e+00
983 983 1.0000000000000000e+00
2 984 -1.0000000000000001e-01
906 984 1.0000000000000000e+00
918 984 1.0000000000000000e+00
984 984 1.0000000000000001e-01
2 985 -1.0000000000000001e-01
710 985 1.0000000000000000e+00
717 985 -1.0000000000000000e+00
985 985 1.0000000000000001e-01
32 986 -1.0000000000000001e-01
182 986 -1.0000000000000001e-01
523 986 -1.0000000000000000e+00
556 986 -1.0000000000000000e+00
583 986 -1.0000000000000000e+00
628 986 -1.0000000000000000e+00
655 986 -1.0000000000000000e+00
663 986 1.0000000000000000e+00
702 986 -1.0000000000000001e-01
977 986 5.2999999999999998e+00
986 986 1.0000000000000000e+00
74 987 -1.0000000000000000e-02
107 987 -1.0000000000000001e-01
113 987 -2.0000000000000002e-05
215 987 -1.0000000000000001e-01
371 987 -1.0000000000000000e+00
400 987 -1.0000000000000000e+00
404 987 -2.0000000000000002e-05
451 987 -1.0000000000000000e+00
452 987 1.0000000000000000e+00
458 987 -2.0000000000000001e-04
743 987 -1.0000000000000000e-03
783 987 -1.0000000000000000e-03
785 987 -2.0000000000000002e-05
978 987 3.2122599999999997e+00
987 987 -1.0000000000000000e+00
453 988 -5.0000000000000000e-01
988 988 -1.0000000000000000e+00
145 989 -1.0000000000000000e+00
185 989 -3.7037037037037035e-02
298 989 -5.0000000000000000e-01
328 989 -1.0000000000000000e+00
411 989 -3.7037037037037035e-02
872 989 -1.0000000000000000e-04
989 989 2.0741740740740742e+00
372 990 -5.0000000000000000e-01
390 990 -1.0000000000000000e+00
395 990 -1.2542320397374375e-07
404 990 -1.5677900496717969e-08
982 990 1.4110110447046171e-07
990 990 -1.0000000000000001e-01
998 990 1.0000000000000001e-01
496 991 -5.0000000000000000e-01
516 991 1.0000000000000000e+00
520 991 -1.2542320397374375e-07
589 991 -1.5677900496717969e-08
981 991 1.4110110447046171e-07
991 991 -1.0000000000000001e-01
995 991 1.0000000000000001e-01
557 992 -5.0000000000000000e-01
575 992 1.0000000000000000e+00
580 992 -1.2542320397374375e-07
584 992 1.4110110447046171e-07
589 992 -1.5677900496717969e-08
992 992 -1.0000000000000001e-01
994 992 1.0000000000000001e-01
102 993 -1.0000000000000000e+00
212 993 -1.0000000000000000e-02
215 993 -1.5677900496717969e-08
217 993 -5.0000000000000000e-01
218 993 1.5677900496717969e-08
281 993 -1.0000000000000000e+00
289 993 -2.5000000000000001e-05
993 993 2.0100249999999997e+00
153 994 -1.0000000000000001e-01
181 994 -1.0000000000000000e-02
182 994 -1.5677900496717969e-08
219 994 -5.0000000000000000e-01
248 994 -1.5677900496717969e-08
249 994 -1.0000000000000000e-02
250 994 -1.0000000000000001e-01
290 994 -1.0000000000000001e-01
980 994 3.1355800993435937e-08
992 994 4.2000000000000004e-01
994 994 -1.0000000000000001e-01
2 995 -4.7033701490153903e-06
75 995 -1.0000000000000001e-01
76 995 -5.0000000000000000e-01
77 995 4.7190480495121078e-06
105 995 -1.0000000000000000e-02
107 995 -1.5677900496717969e-08
991 995 2.1000000000000002e-01
995 995 -1.0000000000000001e-01
154 996 -5.0000000000000000e-01
160 996 -1.0000000000000000e+00
179 996 -1.2542320397374375e-07
182 996 1.4110110447046171e-07
662 996 -1.0000000000000001e-01
980 996 -1.5677900496717969e-08
996 996 1.0000000000000001e-01
2 997 -1.5677900496717969e-08
4 997 -1.0000000000000000e+00
8 997 -5.0000000000000000e-01
32 997 1.4110110447046171e-07
33 997 -1.2542320397374375e-07
662 997 -1.0000000000000001e-01
997 997 1.0000000000000001e-01
1 998 -5.0000000000000000e-01
2 998 4.7190480495121078e-06
28 998 -1.0000000000000000e-02
32 998 -1.5677900496717969e-08
77 998 -4.7033701490153903e-06
738 998 -1.0000000000000001e-01
944 998 -1.0000000000000001e-01
990 998 3.1000000000000005e-01
998 998 -1.0000000000000001e-01
38 999 -1.0000000000000000e-02
111 999 -1.0000000000000001e-01
114 999 -2.0000000000000002e-05
296 999 -1.0000000000000001e-01
370 999 -1.0000000000000000e+00
398 999 -1.0000000000000000e+00
405 999 -2.0000000000000002e-05
447 999 -1.0000000000000000e+00
452 999 -5.0000000000000000e-01
457 999 -2.0000000000000001e-04
709 999 -1.0000000000000000e-03
747 999 -1.0000000000000000e-03
787 999 -2.0000000000000002e-05
988 999 3.2122599999999997e+00
999 999 -1.0000000000000000e+00
453 1000 1.0714285714285765e-01
1000 1000 -1.0000000000000000e+00
118 1001 -3.7037037037037035e-02
138 1001 -1.0000000000000000e+00
298 1001 1.0714285714285765e-01
301 1001 -3.7037037037037035e-02
321 1001 -1.0000000000000000e+00
870 1001 -1.0000000000000000e-04
1001 1001 2.0741740740740742e+00
372 1002 1.0714285714285765e-01
389 1002 -1.0000000000000000e+00
401 1002 -1.2542320397374375e-07
405 1002 -1.5677900496717969e-08
998 1002 1.4110110447046171e-07
1002 1002 -1.0000000000000001e-01
1010 1002 1.0000000000000001e-01
496 1003 1.0714285714285765e-01
514 1003 1.0000000000000000e+00
524 1003 -1.2542320397374375e-07
590 1003 -1.5677900496717969e-08
995 1003 1.4110110447046171e-07
1003 1003 -1.0000000000000001e-01
1007 1003 1.0000000000000001e-01
557 1004 1.0714285714285765e-01
574 1004 1.0000000000000000e+00
585 1004 -1.2542320397374375e-07
590 1004 -1.5677900496717969e-08
994 1004 1.4110110447046171e-07
1004 1004 -1.0000000000000001e-01
1006 1004 1.0000000000000001e-01
96 1005 -1.0000000000000000e+00
213 1005 -1.0000000000000000e-02
217 1005 1.0714285714285765e-01
255 1005 -2.5000000000000001e-05
274 1005 -1.0000000000000000e+00
296 1005 -1.5677900496717969e-08
993 1005 1.5677900496717969e-08
1005 1005 2.0100249999999997e+00
152 1006 -1.0000000000000001e-01
183 1006 -1.0000000000000000e-02
219 1006 1.0714285714285765e-01
250 1006 -1.5677900496717969e-08
251 1006 -1.0000000000000001e-01
252 1006 -1.0000000000000000e-02
288 1006 -1.0000000000000001e-01
992 1006 3.1355800993435937e-08
996 1006 -1.5677900496717969e-08
1004 1006 4.2000000000000004e-01
1006 1006 -1.0000000000000001e-01
68 1007 -1.0000000000000001e-01
76 1007 1.0714285714285765e-01
108 1007 -1.0000000000000000e-02
111 1007 -1.5677900496717969e-08
990 1007 -4.7033701490153903e-06
991 1007 4.7190480495121078e-06
1003 1007 2.1000000000000002e-01
1007 1007 -1.0000000000000001e-01
154 1008 1.0714285714285765e-01
159 1008 -1.0000000000000000e+00
181 1008 -1.2542320397374375e-07
665 1008 -1.0000000000000001e-01
992 1008 -1.5677900496717969e-08
996 1008 1.4110110447046171e-07
1008 1008 1.0000000000000001e-01
5 1009 -1.0000000000000000e+00
8 1009 1.0714285714285765e-01
28 1009 -1.2542320397374375e-07
665 1009 -1.0000000000000001e-01
990 1009 -1.5677900496717969e-08
997 1009 1.4110110447046171e-07
1009 1009 1.0000000000000001e-01
1 1010 1.0714285714285765e-01
29 1010 -1.0000000000000000e-02
739 1010 -1.0000000000000001e-01
941 1010 -1.0000000000000001e-01
990 1010 4.7190480495121078e-06
991 1010 -4.7033701490153903e-06
997 1010 -1.5677900496717969e-08
1002 1010 3.1000000000000005e-01
1010 1010 -1.0000000000000001e-01
37 1011 -1.0000000000000000e-02
40 1011 -2.0000000000000002e-05
106 1011 -1.0000000000000001e-01
216 1011 -1.0000000000000001e-01
369 1011 -1.0000000000000000e+00
397 1011 -1.0000000000000000e+00
409 1011 -2.0000000000000002e-05
430 1011 -1.0000000000000000e+00
452 1011 1.0714285714285765e-01
456 1011 -2.0000000000000001e-04
708 1011 -1.0000000000000000e-03
746 1011 -1.0000000000000000e-03
788 1011 -2.0000000000000002e-05
1000 1011 3.2122599999999997e+00
1011 1011 -1.0000000000000000e+00
299 1012 -1.0000000000000000e-04
866 1012 -1.0000000000000000e-03
869 1012 -1.1904761904761779e-02
870 1012 1.5677900496717969e-08
896 1012 -1.0000000000000000e-02
903 1012 -1.5677900496717969e-08
1012 1012 1.1099999999999999e-02
661 1013 -1.1904761904761779e-02
1013 1013 1.0000000000000000e+00
453 1014 -1.1904761904761779e-02
1014 1014 -1.0000000000000000e+00
1 1015 -1.1904761904761779e-02
30 1015 -1.0000000000000000e-02
403 1015 -1.0000000000000001e-01
784 1015 -1.0000000000000001e-01
943 1015 -1.0000000000000001e-01
1002 1015 4.7190480495121078e-06
1003 1015 -4.7033701490153903e-06
1009 1015 -1.5677900496717969e-08
1015 1015 3.1000000000000005e-01
70 1016 -1.0000000000000001e-01
76 1016 -1.1904761904761779e-02
103 1016 -1.0000000000000000e-02
106 1016 -1.5677900496717969e-08
588 1016 -1.0000000000000001e-01
1002 1016 -4.7033701490153903e-06
1003 1016 4.7190480495121078e-06
1016 1016 2.1000000000000002e-01
150 1017 -1.0000000000000001e-01
180 1017 -1.0000000000000000e-02
219 1017 -1.1904761904761779e-02
247 1017 -1.0000000000000000e-02
251 1017 -1.5677900496717969e-08
253 1017 -1.0000000000000001e-01
286 1017 -1.0000000000000001e-01
587 1017 -1.0000000000000001e-01
1004 1017 3.1355800993435937e-08
1008 1017 -1.5677900496717969e-08
1017 1017 4.2000000000000004e-01
104 1018 -1.0000000000000000e+00
214 1018 -1.0000000000000000e-02
216 1018 -1.5677900496717969e-08
217 1018 -1.1904761904761779e-02
287 1018 -1.0000000000000000e+00
291 1018 -2.5000000000000001e-05
1005 1018 1.5677900496717969e-08
1018 1018 2.0100249999999997e+00
36 1019 -1.0000000000000000e-02
110 1019 -1.0000000000000001e-01
115 1019 -2.0000000000000002e-05
297 1019 -1.0000000000000001e-01
368 1019 -1.0000000000000000e+00
399 1019 -1.0000000000000000e+00
408 1019 -2.0000000000000002e-05
446 1019 -1.0000000000000000e+00
452 1019 -1.1904761904761779e-02
455 1019 -2.0000000000000001e-04
707 1019 -1.0000000000000000e-03
745 1019 -1.0000000000000000e-03
789 1019 -2.0000000000000002e-05
1014 1019 3.2122599999999997e+00
1019 1019 -1.0000000000000000e+00
34 1020 -1.0000000000000001e-01
416 1020 -1.0000000000000001e-01
521 1020 -1.0000000000000000e+00
545 1020 -1.0000000000000000e+00
582 1020 -1.0000000000000000e+00
627 1020 -1.0000000000000000e+00
654 1020 -1.0000000000000000e+00
663 1020 -1.1904761904761779e-02
705 1020 -1.0000000000000001e-01
1013 1020 5.2999999999999998e+00
1020 1020 1.0000000000000000e+00
